 %block lattice_cart
   137.793   0.000   0.000
   0.000 143.498   0.000
   0.000   0.000   162.326
 %endblock lattice_cart

 %block positions_abs
N      88.03753783      38.24226274      82.70218209
H      86.73173694      37.65833731      81.43984491
H      87.94683095      37.17267765      84.27821383
H      89.79876275      38.06651819      81.98975527
C      87.48195829      40.96535836      83.02343556
H      88.78964889      41.68912353      84.44262002
C      87.79187341      42.21257772      80.32868584
H      86.31410743      41.35275225      79.18162196
H      89.69104834      41.65510846      79.76365767
C      87.53865007      45.08496172      80.28900158
H      85.51475319      45.46857616      80.32112693
H      87.91470562      45.78793991      78.38793691
S      89.06554893      47.05405654      82.58690878
C      92.21005352      47.43578125      81.22441611
H      92.15336174      48.53749169      79.48397817
H      92.94326732      45.57629056      80.72363864
H      93.32121259      48.55827868      82.54533480
C      84.76831130      41.36220088      84.07412339
O      82.82945211      41.35842143      82.73808689
N      84.52264687      41.70046189      86.57990048
H      86.26875399      41.75715368      87.34523964
C      82.18316570      42.14265785      87.88948081
H      80.78098877      40.78961381      87.22051770
C      82.58567740      41.89510370      90.87902784
H      84.25619547      42.97035797      91.42515875
H      82.93716650      39.89388354      91.22673748
C      80.56933944      42.69445793      92.72718018
O      78.56811926      43.56751149      92.17160064
N      81.09090389      42.22013663      95.10445588
H      79.68116806      42.55083873      96.34600607
H      82.76709114      41.76282286      95.90003066
C      80.96807168      44.75614934      87.18272317
O      82.54599316      46.44934412      87.30744511
N      78.50008911      45.10196926      86.61391555
H      77.26798756      43.74892522      87.15437728
C      77.57034377      47.68522513      85.92038600
H      78.30544731      48.28237864      84.09113093
C      74.69229060      47.58884908      85.46874141
H      74.42583919      46.56083797      83.70373703
C      73.10869994      46.32840163      87.55121980
H      71.23976063      45.89943376      86.79532928
H      72.85358689      47.39609700      89.29354747
H      73.72853018      44.48591848      88.23908018
C      73.25798832      50.03037548      84.79410911
H      73.48097603      51.43633186      86.28321345
H      71.27377569      49.52581855      85.01142764
C      73.93262062      51.15665236      82.28644230
H      72.77988756      52.74213274      81.65527371
H      73.74553771      49.73935763      80.80489687
H      75.90927435      51.74057779      82.29967038
C      78.29599867      49.77904188      87.79310477
O      79.29944335      51.73868807      86.93327930
N      78.31111648      49.27448495      90.26486679
H      78.13348222      47.46790660      90.85446140
C      79.01220496      51.20011607      92.21884380
H      77.77443421      52.84417796      92.11868830
C      78.39804390      50.11919262      94.92304215
H      79.25597964      51.46278803      96.22506358
H      79.41282693      48.35985742      95.27453125
C      75.61636676      49.79604942      95.66192514
C      74.56945839      51.38908870      97.53653364
H      75.53132908      52.85551632      98.57966257
C      71.98998197      51.16799072      97.91447891
H      70.90716880      52.22434773      99.28453048
C      70.52733380      49.42944251      96.55576569
H      68.59036434      49.04960752      97.07733015
C      71.64227232      47.88931557      94.83611474
H      70.50276736      46.44367494      93.95361255
C      74.19151313      48.04616285      94.28998384
H      75.01732352      46.76114896      92.93693980
C      81.73152111      52.05616209      92.09601159
O      82.49686028      54.03281581      93.12213298
N      83.31511176      50.52548377      90.89414565
H      82.74252470      48.82661982      90.23652090
C      85.98340531      51.12074756      90.67871685
H      86.42560127      52.61363135      92.02798144
C      87.47628910      48.62441910      91.40248203
H      89.49262708      49.03259999      91.51964506
H      87.48573774      47.30727986      89.81889138
C      86.59567664      47.39987645      93.83833925
H      84.70406060      46.64398593      93.53598304
H      86.40103484      49.03637944      95.07233053
C      88.32855568      45.33440559      94.85501200
O      89.85734426      44.42733696      93.40748165
O      88.04131727      44.55961780      97.06032261
C      86.58811773      52.23001691      87.98018768
O      88.43438034      53.59628903      87.60224242
N      84.98185037      51.67821682      86.23219084
H      83.55132756      50.48013034      86.63470254
C      84.94216612      52.75914028      83.65649387
H      86.80354653      52.74969164      82.77966086
C      83.10346241      51.43822158      81.82534908
H      81.24775118      52.21678882      82.25809640
H      83.11858023      49.40865552      82.18061762
C      83.51920220      51.79537986      78.84903013
H      85.18027163      50.73524339      78.24242799
H      83.79510224      53.77581303      78.36148074
S      80.87925454      50.74091257      76.85725860
C      79.33345843      53.81738701      77.29756483
H      79.14826525      54.27281105      79.29689527
H      77.40971703      53.83061510      76.56624075
H      80.39170515      55.51058179      76.79678736
C      84.20895232      55.60884756      83.82467952
O      85.56199636      57.14519505      82.73997661
N      82.25686502      56.11340448      85.28354823
H      81.35357586      54.60540288      86.02621067
C      81.39703955      58.64185829      85.54244073
H      81.06633745      59.43743307      83.67350141
C      78.88370357      58.73823433      87.05422178
H      78.36213910      60.70165997      87.39059307
H      79.10480153      57.95399791      88.94394810
C      76.67839295      57.46455880      85.53488183
H      77.40971703      55.59750920      85.05678107
C      74.29922752      57.33605741      87.36224717
H      72.74209305      56.34773054      86.44384019
H      73.64349250      59.23901180      87.79499450
H      74.66394470      56.22867779      89.06111113
C      75.97163532      58.59650486      83.08579653
H      75.25731876      60.51646679      83.29933560
H      74.44095699      57.34361631      82.50943000
H      77.51932116      58.42265004      81.73842167
C      83.40770835      60.32560443      86.96162520
O      83.59857071      62.61784245      86.34368469
N      85.11791066      59.20877618      88.54143639
H      85.00263736      57.33983686      88.90615357
C      87.34967744      60.52213597      89.60535231
H      86.69583214      62.46477462      89.79999412
C      87.75596860      59.57160363      92.31144039
H      89.53042161      60.30859690      93.05599255
H      87.96383850      57.53069922      92.47395685
C      85.48451757      60.47300309      94.01597352
H      83.75541800      59.89285711      93.05599255
H      85.45050249      62.51201778      94.30132219
C      85.90214708      59.38641046      96.72584105
H      86.57111020      57.48534578      96.31010127
H      84.03131803      59.49034540      97.58188707
N      87.83344737      60.78480793      98.26596800
H      88.75374410      62.22666910      97.41937061
C      88.67626531      60.33505306     100.62434644
N      87.55565762      58.50768772     102.08132543
H      88.40603445      57.97856435     103.70460033
H      86.26875399      57.36629303     101.25740475
N      90.57166080      61.62006696     101.62401166
H      91.08188691      61.13440730     103.39846467
H      91.24440338      63.03547197     100.53741903
C      89.53798052      60.69977024      87.88570136
O      91.32188215      61.82793685      88.52442886
N      89.61545929      59.54325774      85.63314760
H      88.22840018      58.34328153      85.10969341
C      91.48628834      60.34261197      83.70751648
H      92.75996387      61.65975121      84.64482074
C      93.00751802      58.20155206      82.56801152
H      93.66703250      58.85728709      80.72930781
C      95.03141490      57.36062385      84.45584810
H      95.95738079      59.03114191      85.23063589
H      96.51485007      56.25702368      83.54688975
H      94.27930383      56.33450246      86.07534355
C      91.31999242      55.89230650      81.78755455
H      89.71183534      56.52347509      80.66505712
H      90.59433753      54.93799471      83.46563152
C      92.97728240      53.99691101      80.25120706
H      94.19615588      52.89898002      81.49653670
H      94.03363941      55.14397488      78.90383220
H      91.67715069      52.71567657      79.30067472
C      90.26552514      61.89218755      81.50598533
O      91.65258425      62.93153702      80.00554264
N      87.72195353      61.85439302      81.16772432
H      86.69205268      60.50512843      82.04077788
C      86.34812249      63.62695630      79.38004323
H      87.49707609      63.82348784      77.68117927
C      83.46817959      62.65563698      78.90005274
H      82.44205820      63.09972266      80.62915232
H      83.61368853      60.62040174      78.61848352
C      82.16993761      64.13907213      76.85347915
O      80.88114427      65.97210666      77.27866757
O      82.39481505      63.20554733      74.70297060
C      86.21584165      66.29524986      80.38726735
O      87.13802809      68.08671040      79.16461443
N      85.33333946      66.62028278      82.78910950
H      84.64925854      65.14251680      83.78499526
C      85.38436207      69.07503726      84.06089530
H      86.12513479      70.53957515      82.81556566
C      82.64425893      69.72510311      84.87536735
H      82.76898087      71.22932526      86.27754427
H      81.72396220      68.06025423      85.66716267
C      81.24208199      70.68319435      82.57368070
H      79.25786937      70.66807654      83.12548078
H      81.45373134      69.29991469      81.06000992
C      81.97340608      73.41384888      81.66283261
O      83.41526726      73.58014479      79.72397342
O      81.26475871      75.17885325      82.97808213
C      87.32133154      69.29991469      86.29266208
O      87.85045492      67.39885002      87.47374103
N      88.14714195      71.48821776      86.91438204
H      87.77486586      72.95086593      85.74464145
C      89.77230658      71.96442879      89.15748717
H      91.13101980      73.43463587      88.67371723
H      90.81543550      70.18997579      89.23874540
C      88.17359812      72.55213368      91.49507862
O      86.42749100      74.04312774      91.24563475
N      88.88980439      71.58081435      93.78731664
H      90.39969571      70.41863267      93.91959748
C      87.68415900      72.34804324      96.23451221
H      85.65837240      72.11182745      95.93782518
C      88.28509196      70.44697857      98.34155705
H      90.30331967      70.33359499      98.74028930
H      88.06588371      68.50811937      97.67637339
C      86.55599240      70.57736968     100.78308345
H      86.60323555      72.45575764     101.62779111
C      83.84234541      69.96320863      99.98183949
H      83.67793921      68.31158783      98.76107629
H      82.79165758      71.62427806      99.37334762
H      82.75575278      69.40195991     101.64101919
C      87.68037954      68.66118720     102.67847894
H      89.46239146      69.24133318     103.52885578
H      87.86179327      66.92641844     101.58243768
H      86.37457867      68.38717688     104.24506205
C      88.26808443      75.05224159      96.98473356
O      90.32788611      75.81758075      96.70505407
N      86.38213758      76.34481439      98.09778236
H      84.74185513      75.44719439      98.48517625
C      86.80543626      78.79389969      99.43381886
H      88.81610507      79.22286756      99.56987916
C      85.64136485      80.97464386      97.85022821
H      85.73963063      82.62815438      99.07666059
H      83.68738785      80.42473350      97.50629802
C      87.09645412      81.65305560      95.40492236
H      89.14113799      81.47731105      95.59200527
H      86.65047870      83.60514288      94.92115243
C      86.13647316      80.30946019      93.06166173
H      84.08800983      80.45496912      92.90859390
H      86.45394717      78.27989413      93.20528093
N      87.28353703      81.27133089      90.68816548
H      87.97328712      83.05145307      90.69761412
C      87.39314115      80.28300402      88.50364187
N      86.52953623      78.13249548      87.90837808
H      86.93582738      77.42951729      86.18116823
H      86.05521491      77.00432887      89.37291597
N      88.40036527      81.58880491      86.76131421
H      88.12446524      80.87826781      85.01142764
H      89.25452157      83.23664625      87.21106907
C      85.64514431      78.67484693     102.12478913
O      83.54565838      77.67896117     102.15691448
N      86.78086982      79.67073270     104.14679629
H      88.57610983      80.26032731     103.88412433
C      85.52042237      79.71986558     106.65068365
H      83.64581386      78.88271683     106.50328500
C      87.09834385      77.97753792     108.53474078
H      86.60701500      76.03867873     108.03963249
H      86.30465879      78.29501194     110.40934929
C      89.88946961      78.33658592     108.32876062
H      90.73795673      78.15328247     106.45982129
C      90.80220741      80.94629796     109.13945320
H      89.57388531      81.77966726     110.56997602
H      90.70961082      82.15005362     107.47082487
H      92.73161798      80.95952604     109.85376975
C      91.02330539      76.22198218     110.02384512
H      93.07365844      76.11993696     109.85376975
H      90.38835735      74.39272711     109.32086693
H      90.55843273      76.75677472     111.95892486
C      84.97051201      82.48642491     107.48594268
O      83.41715698      82.96074621     109.13756348
N      85.87002173      84.34969505     106.02518424
H      87.07566712      83.70340865     104.69670664
C      85.17649219      87.03499614     106.12345001
H      84.18627559      87.33924208     107.90357220
C      87.48384801      88.73197037     106.18581098
H      88.75374410      88.18583947     104.65702239
H      88.43815980      88.59024090     108.00372769
C      86.76953147      91.58734683     105.74550475
H      85.54120937      92.37725243     107.19492483
H      85.77553543      91.79521672     103.95215448
C      89.06932838      93.39959436     105.63401089
H      90.19938473      93.31077723     103.91624968
H      90.38457791      93.16715803     107.20437346
C      88.07533234      96.18505095     105.83999106
H      87.29865483      96.61779827     107.69948175
H      86.53898485      96.39481057     104.48316757
N      90.09544977      97.96139368     105.05386492
H      89.65136410      99.77742067     105.43936908
H      90.30142994      97.92170943     103.15657970
H      91.70549659      97.69116282     106.04408150
C      83.31700149      87.59813458     103.99561818
O      83.49463576      86.55878511     101.89802197
N      81.53309986      89.36880814     104.39435043
H      81.12869842      89.82990136     106.20281851
C      79.68872697      90.28910485     102.59911044
H      78.48875076      88.69039639     102.10022269
C      78.02387808      92.29977365     103.88601405
H      79.11802962      93.39959436     105.24472727
C      76.95807244      94.20461777     102.00006719
H      78.47174322      95.14570148     100.96827663
H      75.72030172      95.65025840     102.78619334
H      75.78266268      93.12558405     100.69804576
C      76.01131956      91.04310565     105.60566500
H      76.77854844      89.73919450     107.00217274
H      74.80378445      89.92249795     104.36978399
C      74.43906727      92.87614017     107.24783717
H      72.97641911      93.79454716     106.12911919
H      75.58424141      94.16115407     108.38167295
H      73.45451986      91.63458999     108.56308668
C      80.97752031      91.12625361     100.13301760
O      82.87669526      92.45095175     100.25207035
N      80.03643661      90.41004734      97.89369192
H      78.39426445      89.43683828      97.88424328
C      80.92082853      91.28688035      95.28964906
H      81.87325058      93.07834089      95.65247651
C      82.81433429      89.47652254      93.80432417
H      84.44705783      89.21196085      95.03453600
H      83.23574326      90.53287955      92.08845268
C      81.89025813      86.81578789      92.98796241
C      81.62191698      86.14304532      90.36502228
H      82.21151160      87.67183391      89.15181799
C      80.67138465      83.81679223      89.60157285
H      80.66571547      83.38782436      87.60602187
C      79.75486740      82.10470019      91.37224641
O      78.74008437      79.94474301      90.56155382
H      78.87236520      80.04867796      88.75497547
C      79.93628111      82.76610440      94.03298106
H      79.38826049      81.42061927      95.46539360
C      81.22885392      84.95818692      94.86068118
H      81.39137037      85.34558082      96.86001162
C      78.72118710      92.02576333      93.77408855
O      76.70106966      91.74041466      94.70572363
N      79.08023509      93.19739365      91.49129917
H      80.89059290      93.52620603      90.98485252
C      77.26798756      93.54888274      89.51275572
H      75.36692290      93.52431630      90.30833050
C      77.62892528      96.23985301      88.32411787
H      76.49886895      96.66882088      86.65737926
H      79.59990983      96.38158249      87.74397189
C      76.92405738      98.26186017      90.44628052
H      77.98419383      97.84423065      92.16215201
H      74.93039611      97.92926834      90.84312304
C      77.49853418     100.90936673      89.52220435
H      76.47808197     101.29676063      87.77609724
H      79.49786461     101.15881060      89.08945702
C      76.64059842     102.72917317      91.54043205
H      77.40971703     102.20760871      93.38102548
H      74.60725292     102.42681696      91.66137454
N      76.97696971     105.41636399      90.83178468
H      76.06801135     106.11367300      89.30299610
H      78.81189396     105.88312639      90.59367917
H      76.29855797     106.50673607      92.24341024
C      77.34735606      91.74797357      87.25642250
O      79.28810499      90.94106043      86.28888263
N      75.20440643      91.16404814      86.13014562
H      73.65861030      91.85946742      87.00697863
C      74.84724816      89.86580616      83.65460415
H      75.78644214      88.03466136      83.70751648
C      71.96730525      89.28377045      83.68295004
H      70.81268248      90.94483988      83.30122533
H      71.20007637      88.41260662      85.38748318
C      71.46463805      87.20129206      81.67795042
O      71.56668328      85.00165063      82.22408133
O      70.67662218      87.97041067      79.58980285
C      75.51432155      91.49663997      81.44173463
O      75.64849211      93.76998072      81.49464697
N      75.82045720      90.36280418      79.19673978
H      75.83368529      88.45418060      79.15138634
C      76.19651274      91.82356262      76.87993532
H      77.83301574      93.04810527      77.13504837
C      77.26231839      90.00564591      74.91650968
H      77.59302048      90.98074468      73.13449776
C      79.81911808      88.82078751      75.49854538
H      81.00397648      90.24186169      76.40750374
H      80.86035728      88.05544835      73.89416774
H      79.81533864      87.66238528      77.20307851
O      75.74108870      87.98741820      74.26266437
H      76.62359089      87.12192355      72.93607650
C      73.95907678      93.32967449      76.02388930
O      74.35213986      95.29121040      74.74076513
N      71.64416205      92.85913264      76.89883258
H      71.33424695      91.24530637      77.86637245
C      69.57680147      94.68649798      76.87804559
H      69.46152817      95.61813305      75.04123161
C      66.89339011      93.25597516      77.14638673
H      65.42885222      94.63169592      77.59803131
H      66.90661818      91.99363799      78.77155135
C      66.46631195      91.54388312      74.89950214
H      67.84959162      90.02265344      75.04879052
H      66.50221676      92.66638055      73.17418202
C      63.87927663      90.32689938      75.12815902
O      62.26167091      91.21507075      73.53134029
O      63.30479983      88.96251698      76.92528875
C      69.70719259      96.94661065      78.79989725
O      68.28044922      98.87413149      78.66950613
N      71.49676340      96.93149284      80.54033518
H      72.68540126      95.43860906      80.52143792
C      71.84069360      98.89302876      82.47919438
H      71.42684352     100.74685027      81.67984015
H      73.83813430      98.82499861      82.97997185
C      70.18340362      98.22406564      84.76009404
O      70.53300298      99.36546033      86.71218132
N      68.54501090      96.32300097      84.66560772
H      68.41273007      95.48396249      82.95540541
C      67.23165112      95.23262889      86.75375530
H      66.20364000      96.78598392      87.63058831
C      65.25877684      93.44305807      85.62180924
H      63.94919651      92.68905727      87.02209644
H      66.25655233      91.92182839      84.65615909
C      63.43330123      94.64114455      83.73208293
C      62.23521475      93.05755390      81.87826141
H      62.46765108      91.03176729      81.78755455
C      60.60249121      94.18949996      80.06979333
H      59.50078077      93.05566417      78.78099999
C      60.34359871      96.87480105      79.92428441
O      58.54079981      98.12202042      78.29534032
H      59.07181290      99.85489945      78.35770129
C      61.58514890      98.38280265      81.77243674
H      61.22421116     100.38780227      81.86692306
C      62.97409774      97.23195933      83.69806785
H      63.67896565      98.54909857      85.08890642
C      68.96641987      94.04399104      88.73796793
O      71.04700854      93.18605529      88.12191715
N      68.23131634      93.99296843      91.21539913
H      66.49087841      94.71673360      91.52531424
C      69.58247065      93.11235596      93.39803302
H      71.60636752      93.43927862      93.20150148
C      68.83980820      94.56177605      95.84900805
H      69.64483162      93.67360468      97.52519528
H      66.82347024      94.92271377      96.07388548
C      69.90750357      97.30565865      95.72617583
C      68.25588278      99.35223225      95.70916830
H      66.23009617      99.13302400      95.59578472
C      69.09303154     101.79564837      95.77908817
H      67.75888475     103.22806092      96.35167524
C      71.74431755     102.24729296      95.90381011
O      72.58524576     104.58299468      95.98506834
H      71.16984075     105.71116129      96.06632657
C      73.52443974     100.20449882      95.81499297
H      75.48030647     100.77330644      95.95483272
C      72.55878959      97.74596488      95.62035116
H      73.84569321      96.16237423      95.67326350
C      69.54656585      90.10202195      93.61346182
O      67.62093474      88.88314848      93.33567205
N      71.73108946      88.98708342      94.31644001
H      73.33924656      90.00942536      94.44116194
C      72.07690938      86.17328094      94.58478114
H      70.26844130      85.19251299      94.70383390
C      73.18428900      85.04511433      92.05821706
H      73.87592883      83.13082158      92.36624245
C      71.32668804      84.72764031      89.98707702
H      69.94529810      83.30845585      90.55210519
H      72.37926559      83.78655661      88.48852406
H      70.83724892      86.59280018      89.25764267
O      75.22897287      86.67594814      91.19461214
H      76.63492924      86.46618852      92.32088902
C      73.74553771      85.35125000      96.86379108
O      75.45951949      86.74208856      97.71983710
N      73.47719657      82.96452566      97.77463916
H      72.12037308      81.79100562      97.12268358
C      75.04188996      81.91005838      99.74751343
H      76.95618273      82.62059547      99.49240038
C      74.17639531      82.62626465     102.47816795
H      73.75498634      84.62181564     102.76918580
C      71.47975587      81.50943640     102.86178239
H      71.27944487      79.49687788     102.46871932
H      70.18151389      82.28233446     101.46338492
H      70.55378998      82.01966251     104.63056622
C      75.96029696      81.97808853     104.67591965
H      76.25320453      79.95041219     104.89323818
H      75.17983999      82.74342768     106.42013704
C      78.85535766      82.94751813     104.37545317
H      79.85313315      82.49776326     102.63123578
H      80.04588524      82.38815914     105.95904382
H      78.91771863      85.00543008     104.46238058
C      75.54833661      79.19074222      99.22216951
O      74.54678167      78.22887152      97.39102472
N      77.31712045      77.87927215     100.53552930
H      78.22040963      78.79389969     101.94526513
C      77.60435884      75.05980050     100.35978475
H      75.73730924      74.27367435     100.73961974
H      78.88937273      74.25855654     101.75440277
C      78.75331244      74.34926340      97.78408779
O      80.87736483      75.00877789      97.23417743
N      77.20373686      73.21731734      96.10034164
H      75.46329893      73.14739747      96.88268834
C      77.33223825      73.24377351      93.40937138
H      78.81567341      74.53823603      92.79710005
C      78.09001851      70.58492859      92.62324523
H      77.00720533      69.10338316      93.55865975
C      77.66294036      70.40540459      89.76030986
H      78.50008911      72.02301031      88.79465972
H      75.66360993      70.36005116      89.26709130
H      78.35458019      68.55914198      89.16504608
C      80.85468810      70.05580522      93.09378708
H      81.24208199      70.59059777      95.04587436
H      81.99041361      71.29168623      91.89759032
C      81.86380195      67.39885002      92.58923016
H      80.45595585      65.95698885      93.00308022
H      83.50597412      66.94531571      93.74763239
H      82.73496578      67.22310548      90.72973946
C      74.79811528      74.00722294      92.34923491
O      72.87626361      72.90929195      92.99930077
N      74.86047625      76.03489927      90.83178468
H      76.56122992      76.62449388      90.20061610
C      72.65705535      77.08936656      89.52787353
H      72.36036832      76.31268904      87.64381639
H      73.29200341      79.01310794      89.16504608
C      70.17206525      77.35392824      91.01508814
O      68.18596290      77.90761805      89.88503180
N      70.17395498      77.33314125      93.52086523
H      71.80289906      76.86826858      94.40525714
C      68.01777727      77.56557759      94.98351339
H      66.81213188      76.03678900      94.30510165
C      68.83602876      76.92496037      97.69716038
H      70.34780980      78.17784891      98.31888034
H      69.77711245      75.09192584      97.63101996
C      66.67607158      76.86637885      99.43948804
N      65.34192481      74.86704841     100.43537381
H      65.81624611      73.05480088     100.06498745
C      63.36527107      75.69852799     101.76952058
H      62.00088869      74.64217098     102.85800294
N      63.39928615      78.26099687     101.75629250
H      62.20308940      79.45719363     102.64068441
C      65.46097755      79.00365931     100.36545393
H      65.73120843      80.96141577      99.86278673
C      66.84047777      80.30001156      94.88146817
O      68.02722590      81.94029400      95.98695807
N      64.67296169      80.75354588      93.67204333
H      63.46920603      79.39483266      93.07111037
C      63.65250948      83.33869147      93.36023849
H      65.21342342      84.54811631      92.77064388
C      61.61916396      83.30089695      91.23240666
H      60.13194936      81.97241935      91.75019167
H      62.45442300      82.67728726      89.45606393
C      60.40595968      86.00320557      90.89036620
H      59.62172326      86.63059471      92.68749592
C      62.11616199      88.08568397      89.76408932
H      63.16496009      87.19562288      88.23152128
H      63.31046901      89.12692317      91.08122856
H      60.93886249      89.64848763      89.11402347
C      58.15151619      85.66494456      89.11591319
H      58.85260464      84.89015678      87.34146018
H      57.39373593      87.55089142      88.77765218
H      56.62461731      84.44040191      89.76030986
C      62.63961618      84.41016629      95.89814093
O      61.31491802      83.20263118      97.28520004
N      63.23110052      86.79689063      96.49151499
H      64.39706165      87.73797433      95.31043605
C      62.48654835      88.04599972      98.82532699
H      61.85349002      86.56823374     100.11412033
C      64.99988434      89.29132936      99.81932303
H      64.44052536      90.56878435     101.33488353
H      65.56113305      90.57634325      98.31132143
C      66.95764080      87.39404414     100.81709852
H      67.39794704      85.74809252      99.65869629
C      69.50310214      88.76220599     100.95126909
H      70.05301250      89.00598069      98.97839482
H      71.05456745      87.58112705     101.61456303
H      69.23287129      90.38737062     102.18526037
C      66.14316876      86.65705088     103.47972290
H      65.84459200      88.30489222     104.67780938
H      67.66817789      85.60636305     104.38112235
H      64.39517192      85.56667880     103.48161262
C      60.44942337      89.96596165      98.18093032
O      58.45765185      89.95084384      99.37523735
N      60.81980974      91.47396325      96.22317386
H      62.30324490      91.11302552      95.07610998
C      59.16063003      93.56966973      95.51452649
H      57.29924962      92.74196961      95.21594973
C      58.74677997      95.54821318      97.66692476