 %block lattice_cart
   137.793   0.000   0.000
   0.000 143.498   0.000
   0.000   0.000   162.326
 %endblock lattice_cart

 %block positions_abs
N      84.54721333      38.28856104      77.83141251
H      83.35290630      39.25043173      76.69568700
H      83.66282141      36.96386290      78.88399006
H      86.05899438      37.61959792      76.87899045
C      85.54120937      40.20663324      79.56618126
H      86.97551164      39.26365981      80.70379650
C      86.82055408      42.47241510      78.10920228
H      85.22562507      43.61192006      77.47425424
H      87.96194878      41.76754718      76.54639862
C      88.49674132      44.25253729      79.80239706
H      90.05765526      43.09602478      80.48458825
H      87.37802334      44.89693395      81.41055414
S      89.71183534      46.89626440      77.86164813
C      91.70549660      48.30222077      80.23325465
H      93.49695715      48.76331400      79.32996547
H      92.27997340      46.98319181      81.70724117
H      90.90047319      50.03509981      81.00426299
C      83.63258579      41.14393750      81.41433360
O      81.49908479      41.25543135      80.56584648
N      84.44327838      41.73353210      83.75192506
H      86.30843825      41.62581771      84.13742921
C      82.87858499      42.91461105      85.86463906
H      81.05688883      41.95085063      85.86463906
C      84.05777421      42.62170348      88.56883742
H      85.75852789      43.73475228      88.23435586
H      84.40359413      40.66394702      89.11118887
C      82.36268971      43.70073720      90.69100007
O      80.00620100      43.90293791      90.55305005
N      83.49841522      43.94451190      92.89631067
H      82.55166234      44.02388040      94.55360065
H      85.31066276      43.37003510      93.08339358
C      81.91104512      45.55644845      85.02371085
O      83.50030495      47.24775349      84.79883342
N      79.48085708      46.05344646      84.75914917
H      78.35458020      44.51331951      84.74403136
C      78.12970277      48.36647147      84.28860733
H      78.48308159      49.06378048      82.38187347
C      75.27999549      48.10946868      84.57395599
H      74.83213035      46.46351707      83.41933321
C      74.34269124      47.29121720      87.17232968
H      75.54644690      45.87014301      88.05294213
H      72.46052383      46.47107598      87.00225430
H      74.34458096      48.97496334      88.35907780
C      73.62648497      50.19194708      83.49870173
H      73.95151789      51.88892132      84.61930942
H      71.60258808      49.82722990      83.60074694
C      73.76821444      50.80988759      80.80395200
H      72.18273406      51.97773845      80.20490876
H      73.54711646      49.17905378      79.56807099
H      75.59369006      51.69805895      80.46002181
C      78.88181384      50.53398755      86.16510555
O      79.10291182      52.62402486      85.23158075
N      79.36369405      49.96706966      88.59529360
H      78.77787889      48.33812557      89.39464782
C      80.32178529      51.87569323      90.26014247
H      79.00842550      53.44416607      90.02014723
C      79.90415578      51.01586776      93.12685728
H      80.74508399      52.31222001      94.49123968
H      81.16082377      49.38503395      93.19677717
C      77.11869919      50.50186220      93.73534917
C      75.56156471      52.60134813      94.42887871
H      76.35147031      54.47217718      94.64052806
C      72.97263966      52.10246039      94.85406713
H      71.83691415      53.67849213      95.47956654
C      71.99754088      49.61180110      94.48368078
H      69.99821044      49.35290860      94.80304452
C      73.54333701      47.57278641      93.80526903
H      72.64949646      45.76431833      93.49913337
C      76.11903397      48.09435088      93.37819088
H      77.48530610      46.65059998      92.92087712
C      82.96740213      52.74307760      89.48913414
O      83.35668575      55.10712523      89.75558555
N      84.58122840      51.03287529      88.38553398
H      83.96895708      49.24330448      88.13609010
C      87.24196305      51.67538224      87.91688184
H      87.98084604      53.22495781      89.05638681
C      89.00129825      49.37180586      88.72946416
H      90.86456839      50.24863887      88.75025114
H      88.73295711      47.93372414      87.28004407
C      88.76697218      48.19639609      91.38263990
H      90.06899361      46.63926161      91.72090092
H      86.91881985      47.27987884      91.40153716
C      88.96539345      50.15604228      93.37819088
O      87.48006857      50.44328069      95.14130554
O      90.76819235      51.72073568      93.20055661
C      87.68604873      52.48229537      85.10307936
O      89.53609079      53.78242708      84.59663271
N      85.80955050      52.02876106      83.48736336
H      84.65870718      50.64548140      84.12609086
C      85.58467307      53.26275234      80.91922530
H      87.41959732      53.32889276      79.98192106
C      83.96328790      51.49585824      79.34886274
H      82.03576706      51.35034932      80.06128956
H      84.75697295      49.59668330      79.35453193
C      83.74218992      52.33867618      76.55017807
H      85.27853741      51.51286577      75.45602653
H      83.91415501      54.38902923      76.44624312
S      80.76020180      51.73018430      75.05918401
C      81.32522996      53.63502843      72.22837399
H      81.00208676      55.63813832      72.58931171
H      79.97029620      52.93393996      70.84320460
H      83.14503640      53.21739892      71.35532043
C      84.60768457      55.85356712      81.24992742
O      85.63947514      57.53731326      79.99703886
N      82.75575278      56.26552745      82.96957835
H      82.06978213      54.68571626      83.79349903
C      81.56522521      58.73351003      83.04516741
H      81.52743068      59.52908480      81.14410273
C      78.72685628      58.47839697      83.94278740
H      78.00876028      60.31521095      84.54183064
H      78.93472618      57.15558855      85.50559106
C      77.23208277      57.33133310      81.65810829
H      77.90482534      55.41326088      81.32551646
C      74.44662618      57.31054611      82.62942762
H      73.08791297      56.39780830      81.37842880
H      73.67183840      59.20216215      82.88265094
H      74.51276661      56.33355760      84.43978542
C      77.44373212      58.82799633      79.17500793
H      77.27743620      60.82921651      79.63421141
H      75.74297844      58.34233667      78.12054063
H      79.03299195      58.52941958      77.89755293
C      83.06566790      60.72528155      84.49836695
O      83.09968297      62.83988530      83.57995995
N      84.34123316      60.16592257      86.69233920
H      84.08800983      58.36879285      87.28571325
C      85.56577581      62.14446601      88.30238601
H      84.25619548      63.73183611      88.42332849
C      86.06844301      61.14291108      90.94989257
H      84.44894756      60.03175199      91.56783309
H      86.18371631      62.72650173      92.26136263
C      88.54398448      59.47995192      91.10862959
H      90.14458267      60.65536169      90.56060895
H      88.38713720      57.86423591      89.84251296
C      89.21294759      58.46516888      93.79204095
H      89.22995513      60.04875954      95.10918019
H      91.11968144      57.68471191      93.82227658
N      87.50463501      56.42426446      94.49123968
H      88.32855568      54.70461352      94.38541501
C      85.69616693      56.47339736      96.17876528
N      84.83256200      58.41792573      97.26724764
H      83.58534263      58.06265718      98.66564512
H      85.55632718      60.13190749      96.84394894
N      84.69461198      54.30588126      96.88552293
H      83.18283093      54.24918949      98.04959433
H      85.45995114      52.59567895      96.53214411
C      87.73140217      63.60711419      86.98335704
O      88.69327286      65.49306105      88.08884693
N      88.50996941      62.59422088      84.77993616
H      87.42148705      61.13913161      84.20167991
C      90.61134507      63.47672307      83.23036058
H      91.81132128      64.68992735      84.38309363
C      92.33099601      61.32621452      82.44423444
H      93.80876199      62.01407491      81.18378699
C      93.79553390      60.28686505      84.72702383
H      94.48906346      61.98005982      85.67566643
H      95.50573622      59.46105465      83.92766959
H      92.74106662      58.96783609      85.90432332
C      90.90425264      59.31743545      81.11197739
H      89.82710865      60.25284998      79.62854223
H      89.76474768      58.37068256      82.54250021
C      92.81476595      57.46550366      79.90633200
H      94.15836136      58.58044218      78.81407019
H      91.77352675      56.09734181      78.77060649
H      93.75962910      56.25796856      81.28394248
C      89.79498330      65.20582264      81.02504998
O      91.43526574      66.10911182      79.64743950
N      87.37046444      65.38912609      80.42033756
H      86.01931013      64.42914513      81.36898016
C      86.42560128      66.38879132      77.96936254
H      87.84856520      65.99383852      76.53128080
C      83.78187417      65.33054458      77.28150215
H      82.18505544      66.19792896      78.24904202
H      83.99541324      63.31609633      77.65944742
C      83.18094120      65.44014870      74.36943390
O      81.65404234      67.08043115      73.65700709
O      84.36013042      63.98883890      72.87277066
C      86.29143071      69.32164656      78.13376872
O      86.65047871      70.56508647      76.20624788
N      86.14781151      70.38556247      80.46380127
H      85.87758065      69.28196231      82.00014875
C      86.41804238      73.15401152      80.84363625
H      87.42337678      73.98171165      79.24681752
C      83.79321253      74.21603771      81.24047878
H      83.94250091      75.95269619      82.33652005
H      82.74252470      72.95747997      82.48958787
C      82.13025337      74.67335148      78.99170446
H      80.17249691      74.54673981      79.62098333
H      82.42127123      73.24093893      77.54039466
C      82.57622878      77.14700321      77.64621933
O      81.05688883      78.92334595      77.83519196
O      84.55099278      77.44557998      76.36498489
C      88.17926730      73.81352600      83.12075646
O      88.95216536      72.30174494      84.69489848
N      88.72161875      76.24560376      83.53838597
H      88.04887619      77.51549985      82.27982825
C      90.43560052      77.14511348      85.65487944
H      91.19527050      79.02161172      85.27126501
H      92.04186789      75.85632014      85.63598219
C      88.98618044      76.92212579      88.28537848
O      86.76386229      77.42101354      88.64253675
N      90.45071833      76.45536338      90.33762126
H      92.15336174      75.70136258      89.91810200
C      89.54553943      76.51016544      92.96245110
H      87.50652473      76.23048596      92.95111275
C      90.59811698      74.20658907      94.40809172
H      92.62390359      74.25950141      94.04337455
H      89.91025660      72.48693813      93.50480255
C      90.42237243      74.07619795      97.39574903
H      91.23873420      75.76750301      98.24423615
C      87.68037955      74.19525072      98.41620124
H      86.45016773      75.61254545      97.56960385
H      87.68037955      74.96814878     100.32482481
H      86.89425341      72.29229632      98.49556974
C      91.76974730      71.85576954      98.45210603
H      91.78297538      71.96159422     100.50812826
H      93.68781950      72.04285245      97.73023059
H      90.84945058      70.09454462      97.90786486
C      90.16159020      79.11231858      94.20778074
O      92.26296586      80.17623450      93.89597589
N      88.38713720      79.95891597      95.65153164
H      86.61646364      79.32585766      95.32271927
C      88.61201463      82.31918414      97.11229008
H      90.52819711      83.01460341      97.41464629
C      87.34400827      84.62276051      95.99168237
H      88.10934743      86.27438131      96.95355308
H      85.31633194      84.76071054      96.32805366
C      88.05076591      84.97235988      93.11362920
H      89.99340456      84.33174265      92.86796478
H      87.66526174      86.96980059      92.79804491
C      86.52008760      83.37365141      91.18421863
H      84.53965442      83.52293979      91.72657009
H      87.11913084      81.42912304      91.49791321
N      86.85456916      84.27127142      88.59907304
H      88.22840019      85.58841066      88.44033604
C      85.71695392      83.76482477      86.49013847
N      84.70972979      81.57274225      86.32573229
H      83.37747274      81.17967916      85.01804169
H      85.19538945      80.52205441      87.84318251
N      85.67726966      85.17078113      84.52671283
H      85.06688806      84.39221389      82.89398930
H      86.54654377      86.86208620      84.68544984
C      87.61990831      81.78817104      99.73900966
O      85.89080874      80.35386877     100.26624329
N      89.05043113      82.64799652     101.62495651
H      90.60000671      83.68734599     101.21110645
C      88.27564334      82.66311433     104.34049323
H      86.79220819      81.24959904     104.56348094
C      90.60189643      82.23414645     106.13195377
H      90.07277307      82.39099374     108.11616641
H      92.03619871      83.66466927     105.74833933
C      91.91336650      79.65089058     105.71054480
H      92.85445020      79.61687550     103.87940002
C      94.11489765      79.21625352     107.62294783
H      94.49851209      77.19424638     107.70042661
H      93.51207496      79.73025909     109.52401251
H      95.86289449      80.16678587     107.09193475
C      89.95183058      77.57975054     105.86361263
H      88.57422010      77.87076839     104.36128023
H      88.90114275      77.93501909     107.59838139
H      90.81165606      75.70892149     105.78802358
C      86.86401779      85.07440510     104.97544127
O      85.42404634      84.96858042     106.73477646
N      87.51030419      87.13420677     103.71310409
H      89.01641606      86.99247731     102.55092242
C      86.38591703      89.64565305     104.24411718
H      85.57522444      89.92344282     106.11872569
C      88.27375362      91.79427186     104.00979112
H      87.31566238      93.61596804     104.12506443
H      88.98429071      91.66388076     102.08038056
C      90.42615189      91.49380539     106.05069554
H      91.17637323      89.57762290     106.03179828
H      89.74207096      91.75836707     107.97443693
C      92.57099125      93.43266458     105.60660986
H      91.83399799      95.32806007     105.93164278
H      93.39491193      93.48179746     103.72255272
C      94.43048194      93.01692480     107.81192047
H      95.65502460      91.38420126     107.53791015
H      93.40814001      92.65976652     109.56558648
N      95.93092464      95.21845595     108.17474791
H      97.48238994      95.13341827     109.28779671
H      94.80464775      96.61874314     108.81914459
H      96.53374733      96.16709855     106.63273125
C      84.34690234      90.22957847     102.16919769
O      84.71728870      89.56439481      99.94876928
N      82.31166710      91.69600610     102.82115328
H      82.13970201      92.37063840     104.59938573
C      80.60146479      92.87330560     100.92575779
H      79.87014070      91.38987044      99.69932540
C      78.44150761      94.29060032     102.39218540
H      79.19172896      95.40553886     103.95309933
C      76.87870395      96.18788555     100.64040911
H      76.46296416      95.42821557      98.77146978
H      78.11836441      97.82627826     100.50812826
H      75.18361945      96.98723978     101.49645512
C      76.46296416      92.44055827     103.64129449
H      77.62514584      91.39553962     104.98488991
H      75.31590029      91.39176017     102.29014018
C      74.73197486      93.82572766     105.41574750
H      73.58302126      92.57283910     106.57981891
H      73.41483562      95.12396964     104.50867888
H      76.01698875      94.78381889     106.70643057
C      82.06789241      94.60996408      99.11728970
O      83.46817960      96.13686293     100.09238847
N      81.63325535      94.18477565      96.63796877
H      80.51453738      92.71078913      96.17498584
C      82.49497055      95.58506286      94.34195130
H      83.36991383      97.27636791      95.12618772
C      84.61146402      93.92588315      93.31016074
H      85.67726966      93.34573717      94.97311989
H      85.88136010      95.15042580      92.24435510
C      83.82533788      91.70356501      91.78515160
C      83.79510226      91.60907869      89.03182037
H      84.65870718      93.29282484      88.26648121
C      82.62347194      89.70801402      87.72412977
H      83.05999872      89.67966813      85.73046850
C      81.62191700      87.61041782      89.04315872
O      80.63170041      85.69423533      87.77893183
H      80.40682298      86.18367445      86.04605279
C      81.69939577      87.52349039      91.72845981
H      81.05688883      85.74525793      92.49946816
C      82.77653977      89.57951263      93.15520318
H      82.83890074      89.45668042      95.19232814
C      80.24619624      96.43166023      92.53726267
O      78.02576782      95.78726357      93.17221072
N      80.65815658      97.71856385      90.34706988
H      82.37591779      98.41209342      89.88597667
C      78.63803915      98.09083994      88.41954904
H      77.06767658      97.34817750      89.52692866
C      78.52276584     100.83850201      87.66365851
H      77.21885469     101.08983561      86.08762678
H      80.32367502     101.45455277      86.87942209
C      77.74608833     102.49579198      89.90298420
H      79.15960361     102.58460912      91.39964743
H      75.93573052     101.84761586      90.63808773
C      77.45696020     105.16975471      88.84095801
H      76.07934972     105.09983483      87.31027969
H      79.28432555     105.79147466      88.11719283
C      76.65193679     106.91019265      90.98957683
H      77.87269999     106.68531522      92.63174899
H      74.83968926     106.26579598      91.72657009
N      76.47052307     109.67486224      90.24502467
H      74.65827553     110.17563972      89.90865338
H      77.27932593     109.83170953      88.52537372
H      77.13948618     111.02412682      91.41854471
C      79.04244058      96.36174037      86.01581717
O      81.13247788      95.87041153      85.08418210
N      76.96563136      95.60018066      84.89520946
H      75.39904825      95.72868206      85.97802264
C      76.85224778      94.22068046      82.58974337
H      77.97096576      92.49913978      82.74848037
C      73.93451035      93.35707552      82.17589331
H      72.76288004      95.00680660      81.79227887
H      73.37326164      92.54638293      83.98625112
C      73.69829456      91.48435676      80.10286354
O      73.08413351      92.32150551      77.93345773
O      73.81923705      89.20534681      80.83796707
C      77.81033902      95.96867730      80.53372113
O      78.40749254      98.21934133      80.90599722
N      77.88970753      94.95767371      78.11865092
H      77.29633346      93.15865426      77.88432484
C      78.57567818      96.27859240      75.78294918
H      80.08367978      97.64108508      76.11554101
C      79.18228033      94.40209418      73.52283651
H      77.51176226      93.42510567      72.81607888
C      80.34068256      95.73246151      71.24571631
H      78.73819464      96.42221161      70.15156477
H      81.00586622      94.22445991      70.00983530
H      81.81655881      97.11763090      71.62744102
O      81.03988129      92.72968640      74.28061676
H      81.16271350      91.45034168      73.00127206
C      76.49508951      98.24390777      75.09130935
O      76.80311490      99.96733818      73.58897693
N      74.31245562      97.83194744      76.29506501
H      73.87214939      96.06883278      76.87899045
C      72.12793200      99.59317237      76.35553626
H      72.46430328     101.09361506      74.98359496
C      69.75821520      98.15509064      75.60153546
H      68.12927112      99.41175863      75.67712452
H      69.56735284      96.35985064      76.58986232
C      69.73553849      97.30471379      72.76694600
H      71.53833739      96.44110887      72.26805824
H      69.63916244      99.02436474      71.63499993
C      67.44519020      95.55482722      72.24349180
O      67.63227310      93.14920564      72.61387817
O      65.60270704      96.38441708      71.08697930
C      71.82935524     101.09550478      78.81595993
O      69.82057617     102.18965632      78.96335858
N      73.73041991     101.15786575      80.45813209
H      75.44440168     100.45299784      80.01026695
C      73.77577334     102.77169201      82.64643515
H      72.84224855     104.52346832      82.09274534
H      75.73541953     103.14207837      83.16610989
C      72.43406766     101.57927471      85.10307936
O      72.10336556     102.98523110      86.89642963
N      71.22842227      99.32672095      84.78371561
H      71.33802640      98.40075506      83.11886673
C      69.42751310      98.34595300      86.65832412
H      68.48831912     100.01269161      87.41988382
C      67.29401209      96.60929452      85.44700955
H      65.87671736      96.16898828      86.87375291
H      68.00643891      94.70445039      85.11441772
C      66.18096329      97.55982685      83.02815988
C      66.03167491      95.76836631      80.95324039
H      66.84425723      93.90698588      81.14788219
C      64.66540279      96.39764517      78.84808526
H      64.57091647      95.25436074      77.16244939
C      63.52967727      98.75224415      78.61942838
O      62.08970582      99.33616959      76.48403765
H      61.88561538     101.12385067      76.25916021
C      63.69786292     100.54370470      80.63576636
H      62.88339088     102.39563648      80.37498412
C      64.96208982      99.90119775      82.88454067
H      64.94319256     101.23723426      84.42655734
C      70.88071263      96.88708429      88.77292786
O      72.62493002      95.42254639      88.28726821
N      70.21741870      97.44077410      91.17665974
H      69.44830009      99.16609422      91.45444950
C      71.68195659      96.32772530      93.33661691
H      73.66616922      96.76803152      93.00213535
C      70.82780030      97.47667890      95.77058440
H      71.71408194      96.26158487      97.17654077
H      68.77744725      97.57683438      95.96522622
C      71.94462855     100.17520807      96.07105088
C      70.38560434     102.26902483      96.32238449
H      68.35414855     102.15375151      96.47545231
C      71.41550518     104.68031559      96.54915164
H      70.10214539     106.22989118      96.76647017
C      74.06490147     105.01479715      96.90630991
O      75.17606054     107.26546120      97.34661614
H      74.05167339     108.64685112      97.68865660
C      75.59746951     102.78680983      96.98756814
H      77.59302050     102.87373725      97.40519767
C      74.57134812     100.45110811      96.46978314
H      75.69195583      98.74657498      96.46978314
C      71.64038261      93.40431869      93.64275258
O      69.54467613      92.34229250      93.92621151
N      73.82868568      92.13442260      93.73345944
H      75.38393044      93.24180223      93.73345944
C      74.18584395      89.30361258      93.34417581
H      72.33580189      88.46646383      93.69944436
C      74.94551393      88.91621869      90.49257880
H      76.62926008      90.01792914      90.06172120
C      75.30645166      86.09107786      89.77826226
H      73.51877057      85.08196401      89.93888899
H      76.57634774      85.13865580      91.08973232
H      76.07557027      86.03438607      87.86585924
O      72.89516088      89.39053999      88.90898816
H      72.65327591      91.17822109      88.69733881
C      76.23241755      88.55906042      95.26791721
O      77.85380273      89.98769352      96.02191801
N      76.12092370      86.09296758      96.04648444
H      74.83968926      84.96102151      95.19799733
C      78.11269523      84.95913180      97.52047097
H      79.81533864      86.10619567      97.34661614
C      77.25098003      85.26904690     100.34561180
H      76.72185667      87.25514927     100.47033374
C      74.98330846      83.56640350     100.95599341
H      74.60725292      84.13899058     102.89863205
H      75.78077296      81.66911828     101.02969273
H      73.37326164      83.95568712      99.73145075
C      79.64337355      85.10086127     102.18053605
H      81.02476348      86.50681764     101.58527227
H      80.33123392      83.15822261     102.24289702
C      78.80622479      85.42778392     104.90363167
H      77.61758694      87.07751499     105.23055432
H      80.44650723      85.62431546     106.13573322
H      77.77821367      83.72514052     105.44598312
C      78.71173847      82.23225672      96.77969825
O      77.25098003      81.07574422      95.29626310
N      80.68083329      81.08897230      97.86062170
H      82.00175198      82.20013137      98.67887319
C      81.15326487      78.43201710      97.41653601
H      79.60935847      77.18290801      97.95510801
H      82.68394318      77.84809168      98.66564512
C      81.80711017      77.73470810      94.72745547
O      82.96173295      79.15200284      93.26480731
N      81.26853817      75.39333720      93.78259232
H      80.44272778      74.34831854      95.14697471
C      81.73152112      74.38989253      91.27303577
H      83.46817960      75.21003375      90.52470415
C      82.08112049      71.51561881      91.23902071
H      80.21974007      70.79941253      91.76058516
C      82.88047472      70.42524672      88.58584495
H      84.65114828      71.18680643      87.86207978
H      81.45562108      71.08854066      87.25736736
H      82.91826925      68.36544504      88.59718331
C      83.99541324      70.77484609      93.25346896
H      83.57022482      71.57231060      95.10540074
H      85.69049775      71.85954899      92.80371408
C      84.59256676      68.03285321      93.55015599
H      85.35979564      67.12578457      91.86829957
H      83.18850011      66.73272151      94.30982597
H      86.08356082      68.12544980      94.96934045
C      79.61124820      75.35176322      89.67243758
O      78.02576782      73.88722533      88.63308811
N      79.42605502      77.83675331      89.26425670
H      80.91704908      78.83830827      89.91054311
C      77.58735132      79.21814326      87.60318727
H      77.41160677      78.21091913      85.81361646
H      78.37725692      81.07952368      87.20256529
C      74.92850639      79.50538166      88.60852167
O      73.25042943      79.69057484      87.06650500
N      74.50709743      79.66033922      91.11618850
H      75.84124420      79.57152208      92.47679143
C      71.93895937      79.37688026      92.27081126
H      70.79567495      78.14099925      91.08406315
C      72.09202720      77.96336498      94.88241303
H      73.57168290      78.68524043      96.12018376
H      72.88193280      76.09253594      94.54415203
C      69.58058093      77.60998617      96.34128175
N      68.05179234      75.49349270      96.34506120
H      68.24454443      73.80029792      95.48901518
C      66.28111879      76.09253594      98.08927859
H      64.54823976      75.01917139      98.17809572
N      66.39828182      78.43768628      99.00768557
H      65.03956860      79.34853437      99.99223299
C      68.58091571      79.43168232      98.05337378
H      69.37649049      81.29684219      98.28014094
C      70.66528383      82.01871764      92.75269147
O      71.75376619      83.68167681      94.08872798
N      68.55256981      82.63854789      91.45444950
H      68.00076973      81.28550385      90.22612739
C      67.39227786      85.24448047      91.53570774
H      68.85492602      86.67500329      91.30138168
C      65.58947896      85.51660105      89.22457246
H      64.55768839      83.73647887      89.22079300
H      66.75166064      85.66777916      87.52948795
C      63.88305610      87.84852333      89.34362522
H      62.97976692      87.86931032      91.19555699
C      65.29468165      90.35241070      89.37008137
H      65.96553449      91.18766973      87.61263590
H      66.97464834      90.31272644      90.55871923
H      64.23076574      91.93222189      90.15053835
C      61.88183593      88.03938568      87.31972832
H      61.17696802      86.11564429      87.09863035
H      62.93819294      88.60252413      85.64165137
H      60.39462132      89.30172287      87.97735308
C      66.17151466      85.80383946      94.20400129
O      65.13783437      84.12387277      95.39830831
N      66.49465786      88.13009254      95.11484937
H      67.42440321      89.50014413      94.16242730
C      65.04334805      89.09952215      97.30504217
H      64.09848489      87.51215205      98.21400053
C      66.74599146      89.98202434      99.38563084
H      65.62349403      90.60185456     100.99756738
H      67.67384708      91.73569036      98.83005130
C      68.57902598      88.04316513     100.54781252
H      69.91128303      87.38554038      99.12106916
C      70.15505773      89.45290096     102.62273201
H      70.96197086      91.24814097     102.01801959
H      71.70841276      88.18867407     103.10650194
H      69.14405415      89.94800926     104.34616241
C      67.39794704      85.81517781     101.90652574
H      68.67351230      84.48103104     102.81737382
H      65.99388039      84.78527698     100.80481529
H      66.25844207      86.58618614     103.44287323
C      62.91740595      90.92499777      96.62285096
O      60.68941863      90.14076135      96.80804414
N      63.26133614      93.20400770      95.86129126
H      65.05090696      93.86541191      95.77058440
C      61.12783513      94.99168879      95.25846857
H      59.43275063      93.99391329      94.65186642
C      60.27367884      96.59984589      97.41842574