 %block lattice_cart
   137.793   0.000   0.000
   0.000 143.498   0.000
   0.000   0.000   162.326
 %endblock lattice_cart

 %block positions_abs
N      83.86407726      42.09635956      76.81001544
H      82.73969010      43.18484192      75.71775363
H      83.04582577      40.38426752      77.01032643
H      85.52892614      41.90927665      75.89538791
C      84.35918555      43.08846587      79.51421380
H      85.92765839      41.91494583      80.14727211
C      85.15476033      45.89281972      79.20996786
H      85.20767267      46.85280069      81.03355375
H      83.65809710      46.88114658      78.19896428
C      87.56794084      46.62414381      77.76810668
H      87.24101819      46.01565193      75.82735776
H      89.21200272      45.48085939      78.25754580
S      88.34650808      49.91226759      78.11959578
C      90.63496664      50.19383681      75.68940774
H      89.76380281      50.29399231      73.82613759
H      91.74801544      48.47229614      75.88782900
H      91.70833118      51.91537748      76.03711738
C      82.08773453      42.83524255      81.15638596
O      80.05438901      42.58579867      80.09813923
N      82.51670240      42.97319257      83.61303017
H      84.31005267      43.18673164      84.22530149
C      80.50414387      43.43428579      85.61425033
H      78.96779638      42.16438971      85.09268587
C      81.61908241      42.42706166      88.12569660
H      83.37085869      43.36247619      88.67182751
H      82.18600029      40.48442301      87.73074380
C      79.80683486      42.24186849      90.36313256
O      77.53916329      42.64060074      90.10612978
N      80.80650008      41.53322112      92.47017740
H      79.73502526      41.36125602      94.04242969
H      82.56394555      40.79433813      92.51175138
C      79.43077933      46.10257934      85.61047088
O      80.81594872      47.87325290      85.63692705
N      76.96846594      46.40682528      85.67283185
H      75.98013908      44.79488873      85.92605518
C      75.55873012      48.85591058      85.38559345
H      76.48847546      49.77242784      83.79066444
C      72.68634613      48.31922831      85.24764343
H      72.24226043      46.64304107      84.13459463
C      71.57329732      47.71073644      87.87247328
H      72.67500776      46.16305059      88.66804806
H      69.68546073      46.90382330      87.73074380
H      71.68290144      49.30755517      89.16882553
C      71.09330685      50.55099508      84.35002343
H      71.87376380      52.34623508      84.98686120
H      69.13366065      50.22407243      84.89237488
C      71.01771779      50.73996772      81.45496272
H      70.55473484      48.97307361      80.50820984
H      72.94523863      51.23318628      80.91828045
H      69.78750596      52.29899192      80.90505236
C      76.18233980      50.57745125      87.68916983
O      76.22013433      52.86968927      87.56822734
N      76.91933307      49.43038738      89.79243521
H      77.05917281      47.52743298      89.70739753
C      77.71112838      50.74941635      92.14325475
H      76.73602961      52.56355361      92.07333487
C      76.80594948      49.17149488      94.36746262
H      78.10986064      49.83289909      95.82066215
H      77.23113790      47.22885623      93.83267007
C      74.06395661      49.51731479      95.37468674
C      73.32129416      51.76797883      96.73906914
H      74.78772179      53.03598519      97.38346581
C      70.81362735      52.18371862      97.62913023
H      70.40733618      53.78431681      98.82910644
C      69.03917433      50.38280944      96.88457806
H      67.10976377      50.65870948      97.49118021
C      69.60987169      48.06978444      95.52775457
H      68.35698313      46.51642941      95.10823533
C      72.17989946      47.74286178      94.76619487
H      72.57485226      45.95707042      93.85912624
C      80.53626922      51.45428426      92.19427736
O      81.36207962      53.17393521      93.67771251
N      81.94222560      50.74374717      90.19305719
H      81.12019465      49.55510932      88.94583782
C      84.56516572      51.38814384      89.68850026
H      85.28704117      52.43883167      91.30799571
C      86.07505704      48.88992565      89.36724679
H      88.05737996      49.34345997      89.03276523
H      85.45333709      47.88648098      87.68161092
C      86.03537280      47.34601926      91.88814169
H      87.06149419      45.59802242      91.51208616
H      84.10974169      46.94539728      92.49852329
C      87.60195591      48.76142427      93.94416392
O      86.50213519      49.59857302      95.85845668
O      89.91687065      48.69150439      93.74385293
C      84.86374249      53.26086262      87.63058831
O      86.04860088      55.24696497      87.76286915
N      83.53715461      52.75819542      85.58023526
H      82.63008598      51.08011845      85.54055101
C      83.51636763      54.25296893      83.20862874
H      85.44577818      54.22651276      82.49053274
C      81.93655642      52.74874679      81.23764419
H      79.90888010      52.69772418      81.60803055
H      82.69244695      50.83445403      81.24709282
C      82.17088248      53.94305382      78.52588693
H      84.03415263      53.56510855      77.73031216
H      82.05182972      55.98962741      78.70919039
S      79.99391777      52.75252624      76.20152357
C      77.18578447      54.63847310      76.94229628
H      75.92722674      54.60445803      75.31146248
H      77.77348935      56.56977339      77.34102854
H      76.21824460      53.92793601      78.61470407
C      82.52426130      56.88346796      83.59035345
O      83.44833748      58.77319427      82.45651766
N      80.83295625      57.29164884      85.43661606
H      80.02415339      55.81766232      86.33801551
C      79.92021845      59.74262387      86.09991000
H      79.96368216      60.99929187      84.47096591
C      77.18578447      59.59900467      87.15437728
H      76.42422476      61.49062071      87.45484376
H      77.18200502      58.52186067      88.90993302
C      75.29794788      58.43871271      85.13992903
H      76.24092131      56.73795903      84.46907619
C      72.73169955      58.37824147      86.49108334
H      72.82996533      57.10078648      88.10113016
H      71.26149248      57.70927836      85.21173863
H      71.93612477      60.20182736      87.02776562
C      74.88976700      60.27930614      82.98753076
H      75.02204785      62.24084206      83.60547126
H      73.07940919      59.90325061      82.07857240
H      76.31084119      60.21316572      81.49464697
C      81.64553858      61.35645014      87.88759109
O      81.26759330      63.61467309      88.21829319
N      83.62030257      60.25473970      88.94016864
H      83.76014231      58.35745448      88.80221862
C      85.83128235      61.51518715      89.96062085
H      85.27003364      63.30475797      90.81666687
C      86.98968458      59.95049376      92.05254788
H      88.41642796      61.00685077      93.09378708
H      88.12163064      58.51808122      91.10012582
C      85.14720142      58.78264290      93.98006872
H      83.83006219      57.57699752      92.95205761
H      83.99635810      60.20560682      94.92304215
C      86.43032559      56.92693166      95.85467722
H      87.87407649      57.90392017      96.95449794
H      87.62274290      55.79120615      94.61690649
N      84.77114590      55.33578211      97.54031310
H      83.84518001      53.78998598      96.90914451
C      83.75258341      56.18804868      99.62090177
N      84.23068416      58.41036682     100.48639642
H      83.57116969      58.98484362     102.18148092
H      85.57427957      59.38546560      99.54342299
N      82.03104273      54.82933546     100.81142934
H      81.70978926      55.48507049     102.57454399
H      81.67766391      53.06622081     100.17459158
C      87.82494361      62.52052155      87.97073905
O      89.34428357      64.13623755      88.83434397
N      87.77392100      61.80431528      85.58023526
H      86.47567902      60.52308084      85.01898655
C      89.40097536      63.03641683      83.65271442
H      90.25891110      64.64079447      84.61836457
C      91.42487225      61.16747751      82.43195122
H      92.51146488      62.35800509      81.15071678
C      93.10672866      60.11678968      84.45206865
H      94.53725147      61.46605427      85.06245025
H      94.22544663      58.64091343      83.54877947
H      92.10895317      59.48562109      86.14148398
C      90.05293093      59.30042791      80.71230028
H      91.17164891      59.01696897      79.00776714
H      88.29359574      60.03553145      79.93373304
C      89.42743153      56.63402409      81.92361484
H      88.76035814      57.02519743      83.83223842
H      91.00157354      55.36412800      82.32045737
H      88.27658820      55.59278489      80.56679135
C      88.04982105      64.43292458      81.71952440
O      89.30459931      65.92580837      80.40049544
N      85.57050012      64.22883414      81.57590520
H      84.66532121      62.71516336      82.30156011
C      83.97935056      66.00517687      80.34002419
H      84.48579722      65.93336727      78.34447321
C      81.36774880      64.98661439      80.44584887
H      80.61752746      65.26062470      82.34502381
H      81.19389399      63.00618121      79.90349742
C      79.48369166      66.33776870      78.75454382
O      77.56372973      67.33932365      79.59547203
O      80.07517601      66.42091666      76.44151881
C      84.29682458      68.68102933      81.45685245
O      84.67099039      70.32698095      79.89404878
N      83.87541563      69.24038832      83.86058432
H      83.52203680      67.88545455      85.15693657
C      83.64297928      71.77262158      84.91316187
H      84.29304513      73.18802659      83.56389728
C      80.85563297      72.33198057      85.11725231
H      80.26414863      70.96192899      86.53832650
H      79.99580751      71.61388457      83.38815274
C      80.02415339      74.98893576      85.71629555
H      80.71390349      75.61065572      87.55688898
H      78.00025651      74.91334671      86.09046136
C      80.94822956      76.91834633      83.65460415
O      83.20645251      77.77061290      83.90215829
O      79.60652389      77.45313888      81.75542920
C      84.96767743      72.09954423      87.48318966
O      85.34562270      70.30808369      88.95717618
N      86.09206459      74.30674456      87.92727534
H      86.02025498      75.64278107      86.56856212
C      87.75313402      74.74138162      90.00786401
H      89.42743153      75.79017972      89.42393858
H      88.42020740      72.93102381      90.72784974
C      86.51725301      75.99993934      92.24529997
O      84.67288012      77.53439711      92.09979104
N      87.55660247      75.32908650      94.35234481
H      89.06082462      74.18202263      94.10857011
C      86.86496264      75.83553315      96.78253284
H      84.84106576      75.46325707      96.85812190
C      88.19155052      74.00060890      98.71194341
H      90.20221931      74.36343635      98.45494063
H      87.69455249      72.09387505      98.11290017
C      86.98212567      74.42012814     101.29141983
H      87.44510863      76.39111269     101.67125482
C      84.20611772      73.96281438     101.58810686
H      83.81683410      74.35398772     103.57231949
H      83.83762110      71.94647640     101.38968559
H      83.07795111      75.27617416     100.47127861
C      88.48823755      72.61732924     102.92981254
H      88.00068816      70.66902141     102.47249877
H      87.83628197      72.81008132     104.87245119
H      90.50079607      72.81008132     102.53297001
C      87.40164492      78.65878426      97.48551103
O      89.52569730      79.38254944      97.58188707
N      85.37963776      80.10631462      98.17715086
H      83.67888408      79.31640902      97.81999259
C      85.34562270      82.59886363      99.34878118
H      87.26936407      83.11475891      99.87412509
C      84.39509035      84.71913655      97.52519528
H      84.20422799      86.42555941      98.66281053
H      82.49402568      84.19379263      96.92615204
C      85.88230497      85.21235512      94.95894695
H      87.85706896      85.49959352      95.47106278
H      85.13964252      86.90366017      94.04809887
C      85.69522206      83.22247331      92.75363634
H      83.86785672      82.27949988      92.87835828
H      87.23345928      81.86942927      92.98418295
N      86.14497692      84.11631386      90.11557841
H      86.44544340      85.97769427      89.82078111
C      85.44199873      82.93334518      87.98018768
N      84.44611296      80.68268114      88.08790208
H      84.06438825      79.69057483      86.50620115
H      84.32139103      79.77939197      89.76408932
N      85.64986862      84.13710084      85.78621543
H      85.08484046      83.29806236      84.16860970
H      86.55504753      85.81706754      85.76353871
C      83.93399713      82.71413693     101.94526513
O      81.76081188      81.92234161     102.16636311
N      85.14531170      83.32829798     104.06553805
H      86.93110307      83.93490013     103.78018938
C      83.85273890      83.70435352     106.56375624
H      82.19544892      82.48170059     106.59399186
C      85.48924189      82.71602666     108.87678125
H      84.04360126      82.36075811     110.29974516
H      86.71945372      84.31095567     109.31141830
C      87.12007570      80.42000919     108.45915173
H      88.63563620      80.91133803     107.15524058
C      88.30871355      79.82474540     111.08020213
H      86.72512290      79.49404329     112.35387766
H      89.55404319      81.39510796     111.56208234
H      89.67687540      78.29406709     110.91201649
C      85.78592892      78.13155062     107.54830365
H      86.87063182      76.38166406     107.46326596
H      85.06216374      78.46792191     105.65101843
H      84.27225814      77.88210675     108.92402440
C      82.74913874      86.31217583     107.15146112
O      81.16176864      86.49169983     108.87867097
N      83.31605663      88.26237339     105.68503350
H      84.87886029      88.10552610     104.59844087
C      82.05560918      90.83618062     105.46771498
H      80.90854530      91.16688273     107.14768167
C      84.13619785      92.78448845     105.49795060
H      83.29904910      94.46634487     104.65702239
H      85.75191384      91.90954517     104.56442580
C      85.12641444      93.22101523     108.26828937
H      86.44733313      91.67521911     108.60088121
H      83.48613201      93.43644403     109.49472175
C      86.68921810      95.63419573     108.45726201
H      85.60262547      97.32361106     107.99616878
H      88.20666834      95.53592997     107.06642344
C      88.06871830      95.79104302     111.05752541
H      89.25168698      94.11863523     111.27862339
H      86.49079683      95.77403548     112.38222356
N      89.59372744      98.00391253     111.31074874
H      89.75246445      98.52736672     113.14189354
H      88.94744104      99.44577371     110.23927392
H      91.42298252      97.62974672     110.91768566
C      80.44556237      90.95334366     103.12823380
O      81.30538783      89.92911199     101.12701364
N      78.31017162      92.34229250     103.24539683
H      77.72624620      93.40431868     104.72316281
C      76.61508713      92.82606243     101.10433692
H      76.08785348      90.88909296     100.63946425
C      74.16978127      94.14887085     101.88857334
H      74.68000738      95.94222112     102.76162690
C      72.22525290      94.44366816      99.73617507
H      70.49426359      95.30160390     100.45238134
H      71.79817475      92.70889940      98.71194341
H      72.97547425      95.74002041      98.32265979
C      72.75248654      92.88086450     103.98616955
H      74.05261824      92.26670344     105.46204580
H      71.93234533      91.12341902     103.29263999
C      70.65300061      94.46634487     105.25795536
H      71.61676103      96.18032664     105.87211641
H      69.80073404      93.54604816     106.89067889
H      69.08830722      95.19577923     104.13356820
C      77.99269761      94.00336193      98.92170303
O      78.90165597      96.16331910      99.28830993
N      77.71112838      92.89220285      96.65781091
H      76.63398438      91.31995056      96.72395133
C      78.64087373      93.64809338      94.12935710
H      79.38542590      95.55104778      94.38258043
C      80.79705146      91.84529448      93.42259946
H      82.04805027      91.92277325      95.05721272
H      81.98568930      92.59173637      91.91270814
C      80.19800822      89.12786804      92.67615757
C      79.93911571      88.57984741      90.16282157
H      80.50981305      89.87053048      88.68883505
C      79.19645327      86.26682240      89.21984814
H      79.38920536      85.97769427      87.20728962
C      78.82795663      84.26749196      90.98863197
O      78.41599630      81.73903815      90.40092708
H      78.11552982      81.50660182      88.62647408
C      78.99236283      84.83252013      93.60590291
H      78.38576068      83.37176169      94.89658598
C      79.68589239      87.24192118      94.47895647
H      79.60463415      87.70301440      96.46316910
C      76.53382889      93.76525641      92.13191639
O      74.33607720      93.61785776      92.86890965
N      77.12342350      94.38319691      89.67338245
H      78.96968612      94.24713662      89.21228923
C      75.10708553      94.59484626      87.67594174
H      73.33074279      93.96934685      88.51120077
C      74.77260397      97.42376655      87.03154507
H      73.70868805      97.40675901      85.26654069
H      76.54894670      98.42721122      86.74619640
C      73.09830645      98.85050992      89.03465496
H      74.23592170      99.21522710      90.71273193
H      71.43723703      97.69399741      89.41260022
C      72.67878721     101.44699387      87.57389652
H      71.41078086     101.11062259      85.98463669
H      74.45135049     102.22367139      86.86524915
C      71.54495142     103.34427909      89.45039475
H      72.43312280     103.39530170      91.30799571
H      69.57018743     102.86239888      89.77731740
N      71.63565829     105.90674797      88.37325075
H      71.09141711     107.27302010      89.59023450
H      70.76071500     105.92753496      86.67816625
H      73.39121403     106.45854805      87.86491437
C      75.15999786      92.97157136      85.20606945
O      77.20090228      92.57094938      84.09680010
N      72.97358452      92.24591645      84.34813370
H      71.55628978      92.51614732      85.59724280
C      72.22903236      91.14231629      81.79322373
H      73.36286814      89.44156261      81.52866205
C      69.45680385      90.20312231      82.02188061
H      68.19635641      91.83395612      81.97274773
H      69.40578125      89.19778791      83.81901034
C      68.91445240      88.33229326      79.88271043
O      67.39133299      88.96346185      78.21408209
O      70.11820806      86.28194021      79.82034946
C      72.85453176      93.02826315      79.68239944
O      72.67500776      95.26191965      80.22664062
N      73.15310852      92.15709932      77.36559498
H      73.13799072      90.27682164      77.03111342
C      73.42522911      93.77470504      75.21319671
H      74.73858889      95.26758883      75.75365843
C      74.55906489      92.41410210      72.82269292
H      74.60441832      93.65565228      71.17863103
C      77.23680708      91.41821633      73.27622724
H      78.54827715      92.79960626      74.06424311
H      78.00970514      90.92310803      71.43374408
H      77.01759884      89.78927225      74.51777742
O      73.03216604      90.32217507      72.26144421
H      73.83529972      89.39809890      70.92162825
C      71.06496094      95.22601485      74.26455410
O      71.40322195      96.94566579      72.87182581
N      68.77839210      94.64775860      75.38138235
H      68.59508865      92.91298984      76.15050096
C      66.52394861      96.21056226      75.02422408
H      66.25749720      96.84362057      73.08158543
C      64.23926950      94.36240992      75.50421456
H      63.90856740      94.08273043      77.51677308
H      65.11043333      92.63520007      74.79367747
C      61.74861022      95.13719771      74.19652395
H      60.99082997      96.84362057      75.06579805
H      60.46548605      93.56305569      74.53478496
C      62.04529725      95.44144365      71.37516257
O      61.61066021      97.38408230      70.18463499
O      62.66134804      93.43266458      70.25644459
C      66.39355749      98.47256466      77.02922369
O      64.64367094     100.05237585      77.00843670
N      68.23037147      98.47256466      78.85280959
H      69.56073880      97.10440280      78.91895001
C      68.19068722     100.10528819      81.01843594
H      67.54818027     102.00824259      80.56301190
H      70.17301012     100.43032112      81.47385998
C      66.90567334      99.20388874      83.53366166
O      66.63544246     100.60039648      85.39315236
N      65.91923619      96.85306921      83.60925072
H      65.72837383      96.03103826      81.89715868
C      64.56052297      95.51325325      85.62936814
H      63.48904816      97.02881375      86.52320869
C      62.71615010      93.46478993      84.76576322
H      61.65223418      92.73724530      86.37203059
H      63.84242697      91.86419174      84.12325627
C      60.78296008      94.32650512      82.76643278
C      59.69825717      92.56150075      81.06000992
H      60.29541068      90.61319292      81.16961405
C      57.71782400      93.38731115      79.35358706
H      57.02996361      92.06072328      77.96463822
C      57.09610403      95.99324373      79.19673977
O      55.47849831      96.70189110      77.35236689
H      55.54652846      98.50657973      77.17473262
C      58.19025557      97.76013784      80.83702221
H      57.64412468      99.71033539      80.58379889
C      59.89478870      96.94377607      82.72863825
H      60.62422306      98.41398314      83.94373227
C      66.53906643      94.63264079      87.61547050
O      68.56485303      93.86730163      87.01642726
N      65.70947657      94.28304142      90.00219483
H      63.95770029      94.83484150      90.52186957
C      67.44991450      93.86541190      92.12435748
H      69.34531001      94.36618938      91.48751971
C      66.93401923      95.39420049      94.54509689
H      68.30029134      94.79704698      95.96617108
H      65.05374154      95.09751346      95.33122304
C      67.39322271      98.20800297      94.47139756
C      65.31830322      99.94277173      94.13502628
H      63.40967966      99.22278600      94.08967285
C      65.55451901     102.56004267      94.56777360
H      63.95203111     103.78269559      94.23896123
C      68.02250159     103.67498120      94.91737297
O      68.50249206     106.12595622      94.87201954
H      66.91890141     107.00656868      94.78698186
C      70.17489985     101.90241791      95.10634560
H      71.93612477     102.87751669      95.44838607
C      69.82530048      99.27002916      94.88335790
H      71.44668566      98.06627350      95.18571411
C      67.67668166      91.07617587      92.86324047
O      65.80207316      89.61919688      93.18827340
N      70.01616284      90.18044559      93.25063436
H      71.49203909      91.34640673      92.93316034
C      70.77583282      87.53671848      93.72306594
H      69.05618187      86.47469229      94.12746737
C      72.21391454      86.38965461      91.58767521
H      73.36853732      84.80606396      92.21506435
C      70.36387249      85.36731267      89.61480094
H      69.10909421      84.01804809      90.53887711
H      71.41833976      84.27127141      88.22585210
H      69.37743534      86.91121907      88.67560696
O      74.10175114      87.96001718      90.45761887
H      75.72313630      87.38554038      91.03398540
C      72.60130843      87.22113419      96.16648207
O      73.84663808      89.00881528      96.91859314
N      72.81484751      84.98747769      97.19071373
H      71.89644053      83.59663912      96.26285811
C      74.37387171      84.16733647      99.41114215
H      76.15966308      85.11219962      99.00863044
C      73.46491337      85.09708181     102.06998707
H      72.61075707      86.94523415     101.76196168
C      71.24637467      83.49081445     103.09799818
H      70.22970191      84.35630910     104.66647102
H      72.02683163      81.61431622     103.44570782
H      69.85553610      83.25837811     101.59755549
C      75.68912124      85.19156813     104.21860589
H      77.37097765      86.21579979     103.61578319
H      76.19745761      83.23570139     104.61166896
C      74.62331559      86.25926349     106.76784668
H      76.00092607      86.66933410     108.24372293
H      73.15688798      84.97047015     107.42736116
H      73.77671820      88.08473911     106.34076853
C      75.02015812      81.38754906      99.27508185
O      73.71435723      79.91923171      98.09778236
N      77.09885706      80.64488662     100.53552930
H      78.21568532      81.82785529     101.53519452
C      78.04749967      78.08997664     100.46560943
H      76.79461113      76.73693260     101.38212669
H      79.77848898      77.87832730     101.56165069
C      78.77504430      77.16023130      97.68582202
O      79.78793760      78.61721028      96.22317385
N      78.34229697      74.78484532      97.18504455
H      77.41444135      73.65289926      98.41147693
C      78.44245247      73.95147602      94.47517702
H      79.90321092      75.03806865      93.50952687
C      79.00370118      70.96003926      94.35990371
H      77.55239137      69.84132129      95.30287714
C      79.27771150      69.99627884      91.60468275
H      77.66010577      70.35343712      90.38391955
H      79.67644375      67.98561005      91.38925395
H      80.98602408      70.88445021      90.86768948
C      81.66632556      70.72760293      95.64113815
H      81.70223036      71.60443594      97.50440830
H      82.89275793      71.71970924      94.31455028
C      82.71512366      67.98372032      95.94538409
H      82.53937912      66.96704757      94.16337217
H      81.43010977      67.09176950      97.28520004
H      84.64264450      67.96860251      96.67670817
C      75.84407880      74.58831379      93.40181247
O      74.13387647      73.08598137      93.77030910
N      75.58707601      76.61221067      91.92782595
H      77.26893243      77.46258751      91.62546974
C      73.62742982      77.14133403      90.16093184
H      73.51215652      75.70136258      88.69450422
H      74.13765593      78.98192746      89.38992351
C      71.04795341      77.61376561      91.35712860
O      69.19224216      77.93312936      89.94550304
N      70.74181774      77.63455260      93.88936186
H      72.23659125      77.93312936      95.03642573
C      68.17367968      77.74793618      94.98162367
H      66.79795893      76.53284216      94.04431942
C      68.16801050      77.29818132      97.84455903
H      69.17523463      78.88177197      98.70060505
H      69.27350040      75.64467079      98.38313103
C      65.58475463      77.03928881      98.99540236
N      64.44713939      74.72059463      99.31476610
H      64.82697438      73.10487863      98.37557213
C      62.37033018      75.24026936     100.74906837
H      60.99082997      73.83242326     101.28197119
N      62.10765822      77.58919917     101.28008147
H      60.54107511      78.53595205     101.82432265
C      64.16745991      78.71547605     100.15569431
H      64.77028259      80.61465100     100.58844164
C      67.13433021      80.55984893      94.61501676
O      68.05462692      82.37587592      95.78475735
N      65.12177170      80.69968868      93.10890489
H      64.37532979      79.05562679      92.48907466
C      63.87455232      83.03728013      92.18671845
H      65.28617789      84.48670021      91.80310401
C      62.62544324      82.48736977      89.67716191
H      61.44436429      80.79984418      89.70928725
H      63.98982562      82.10942451      88.18238839
C      60.75272446      84.51693583      88.77198300
H      59.16157490      84.77393861      90.05321744
C      62.06419451      87.03594101      88.16349113
H      60.56564155      88.44945629      88.13325551
H      63.08275699      87.03972046      86.37203059
H      63.49093788      87.69356577      89.49763791
C      59.38645234      83.74970695      86.46651690
H      58.22427065      85.25392910      85.67094212
H      58.31497751      82.00548956      86.68572515
H      60.87555667      83.34908497      85.10024478
C      61.99805410      83.98214329      94.29187356
O      60.41635317      82.64988624      95.13091205
N      62.74638572      85.99848126      95.55799019
H      64.31863800      86.84318893      94.87957845
C      61.22893548      87.40821709      97.55543091
H      60.22171137      86.01170935      98.68926669
C      63.07519810      89.08629406      99.08421949
H      61.92624450      90.20879149     100.37301284
H      64.14667291      90.29382917      97.80487478
C      64.87799700      87.51782122     100.70371494
H      65.84364715      86.13076211      99.52641545
C      66.64300137      89.43589343     102.09266378
H      68.15478242      88.41733094     103.05453448
H      65.44113544      90.38264631     103.47027427
H      67.38377408      90.76626075     100.70560467
C      63.47015090      85.90966413     102.70871456
H      64.94602715      84.96669070     103.79152774
H      62.10765822      84.62842969     101.84133018
H      62.42324251      87.13609650     103.99372845
C      58.98583036      88.88787280      96.53308897
O      56.73327658      88.35308025      97.11701440
N      59.53196125      91.12719848      95.40114291
H      61.36877524      91.37286290      94.94949832
C      57.63845550      92.97157136      94.58856059
H      56.04919566      91.75458761      94.10668038
C      56.98838964      94.80460588      96.73717941