 %block lattice_cart
   137.793   0.000   0.000
   0.000 143.498   0.000
   0.000   0.000   162.326
 %endblock lattice_cart

 %block positions_abs
N      86.63725063      40.48064357      77.91550534
H      84.88736406      40.44851821      77.15394563
H      87.03976234      38.72886727      78.56179173
H      87.69360764      40.80000732      76.36026058
C      86.76008284      42.42895139      79.90349742
H      88.31910705      42.03399859      81.19229076
C      86.96795274      45.11614221      78.99831851
H      86.89236367      46.47107597      80.54600436
H      85.56577581      45.59613270      77.56779570
C      89.43215585      45.80400258      77.60747994
H      89.57955450      44.29600098      76.21286192
H      90.94771635      45.65471420      78.99453905
S      89.35089762      48.77087289      75.95207970
C      90.08600115      50.99319105      78.49187185
H      89.06932839      50.41682452      80.18884608
H      89.33389007      52.75441596      77.73598133
H      92.10233913      51.25019382      78.81879452
C      84.42627084      42.23241985      81.52299286
O      82.37969725      42.13226436      80.33435501
N      84.49997017      42.31556782      84.05333640
H      86.21584166      42.16061026      84.87347762
C      82.23985750      42.74264597      85.51598456
H      80.74130453      41.40849918      85.05678108
C      82.99007884      42.63493157      88.34112540
H      84.54721333      43.92183518      88.73985766
H      83.77242554      40.76977169      88.72285011
C      80.86413674      43.09980424      90.29888186
O      78.70984875      43.36058646      89.71117698
N      81.51420260      43.12059122      92.62891440
H      80.34824146      42.97508229      94.13313655
H      83.41526727      43.14326793      92.78198223
C      81.26286900      45.46385186      84.90560296
O      82.69339182      47.31956309      85.13803931
N      78.87047548      45.83612794      84.26687548
H      77.73474997      44.32623661      83.99286516
C      77.70829380      48.37025093      83.93806309
H      78.50386858      49.06189076      82.16738954
C      74.73953376      48.00931319      83.43161645
H      74.38426521      46.62981299      81.94440184
C      73.64727196      46.98508153      85.89204011
H      74.42205974      45.17094427      86.48730388
H      71.65361070      46.57312119      85.58401471
H      73.76821444      48.38725846      87.39626225
C      73.29200341      50.34879437      82.68328482
H      73.73797882      51.72451512      84.14971245
H      71.31345995      49.79510457      82.82501429
C      73.88348774      51.18405341      79.94129194
H      75.88092846      51.67727197      79.84680563
H      72.71374716      52.85079201      79.63515627
H      73.45451987      49.73463331      78.54289447
C      78.22985826      50.31288957      86.02054150
O      78.49630967      52.53142827      85.52165375
N      78.33379321      49.53054288      88.46395761
H      78.20718155      47.66160355      88.83434397
C      79.00842551      51.28609863      90.58234082
H      77.83490546      52.95850641      90.33478666
C      78.26387333      50.03132034      93.06544118
H      78.88559328      51.08578764      94.72084144
H      79.32023034      48.26253653      93.05032338
C      75.46329894      49.42660792      93.68716115
C      73.92695145      51.28798835      94.74918733
H      74.69418033      53.17960438      94.83422501
C      71.35692366      50.92138145      95.26697234
H      70.10592484      52.51631046      95.52208540
C      70.35725844      48.52898793      94.81910720
H      68.34281019      48.24552898      94.97028531
C      71.94651827      46.56556229      93.83644953
H      71.16984076      44.77599147      93.23929600
C      74.47686180      46.98697126      93.33567204
H      75.68061747      45.72652380      92.27553559
C      81.77876428      52.15915218      90.64281206
O      82.40426369      53.80510380      92.17349036
N      83.26597889      50.92705062      89.01953714
H      82.70095072      49.33401135      88.13514524
C      85.90403682      51.73207403      88.65293024
H      86.28576154      53.05299273      90.18738802
C      87.95250014      49.70439769      88.77198301
H      89.84789564      50.49997247      88.64348162
H      87.80888094      48.40426600      87.18083344
C      87.78998368      48.06600498      91.35334915
H      88.85389960      46.31233897      91.17004569
H      85.84734503      47.40271104      91.51208615
C      88.47028515      49.52487369      93.74763239
O      86.76764175      50.46784712      95.06288190
O      90.75874372      49.97462857      94.23140233
C      86.17993686      53.41393045      86.41549430
O      87.44038431      55.40948143      86.37392031
N      84.70972979      52.61268649      84.41805357
H      84.10501737      50.80421842      84.48986318
C      84.87413598      53.88258258      81.89148950
H      86.73929585      53.69927912      81.03733321
C      83.03921173      52.48418511      80.23419953
H      81.24397173      52.09301175      81.16583460
H      83.81210979      50.57745125      80.15483101
C      82.51008836      53.43660716      77.54700870
H      84.15415026      53.95628190      76.41695236
H      81.34979641      55.13736084      77.60181077
S      80.67894357      51.07255954      75.95963861
C      80.77909906      52.26497686      72.77167031
H      80.27832159      50.58878962      71.68507769
H      82.77465005      52.63158376      72.41073259
H      79.58668176      53.94494355      72.80568539
C      83.99919270      56.62268572      82.15794091
O      85.03287299      58.20060720      80.90694208
N      82.14726091      57.30865638      83.68861922
H      81.19294912      55.92159727      84.58623922
C      80.97941005      59.88813279      83.61491989
H      81.20239774      60.70260484      81.73653193
C      78.13726168      59.57254851      84.29333164
H      77.46073965      61.48873098      84.63159265
H      77.85947191      58.30265242      85.89015037
C      76.55556075      58.35556476      82.22975050
H      77.63081502      56.77953301      81.44929354
C      74.12159326      57.31432556      83.10469378
H      74.59213511      56.14647470      84.73363787
H      73.22208353      56.10112127      81.70440659
H      72.87248417      58.82232715      83.74153155
C      75.96029696      60.13946639      80.06790360
H      77.65916092      60.98795352      79.26665965
H      74.85480707      61.81943310      80.51198928
H      75.04188997      59.04531487      78.58446844
C      82.42694041      61.80620501      85.23441535
O      82.08489994      64.14946563      84.83946255
N      84.10123791      60.98984324      86.85202107
H      84.41682221      59.10956556      86.77454228
C      85.95127998      62.71894281      88.09924044
H      85.10657232      64.11167110      89.35968788
C      87.73707135      61.09566791      89.66015437
H      89.32633116      62.17092219      90.41037571
H      88.22462073      59.57065877      88.36380211
C      86.24229783      59.65002729      91.67838208
H      84.53587497      58.69382576      91.03587512
H      85.67349021      60.94637953      93.17315558
C      88.06399400      57.64880711      92.87457882
H      89.83088810      58.47839697      93.53409332
H      88.66303724      56.38646995      91.36090806
N      86.85456916      55.89325137      94.68682637
H      86.18749577      54.19060796      94.13691600
C      86.06844301      56.59811929      96.94882875
N      86.67315543      58.79398126      97.97117070
H      85.95505943      59.16058817      99.70215999
H      87.82588847      60.01663419      97.06977124
N      84.67004553      55.25263416      98.31321116
H      84.31855644      55.79309587     100.11034088
H      84.10501737      53.46873251      97.93526589
C      87.52920145      64.35922525      86.12636617
O      88.24351800      66.44548310      86.70840187
N      88.18871593      63.25751482      83.96829872
H      87.47439939      61.52085633      83.61680963
C      89.37924351      64.53308008      81.71385523
H      90.42804161      66.20737759      82.29400121
C      91.33322052      62.79642159      80.56679135
H      92.34989327      63.93592657      79.18162197
C      93.32688178      61.99517763      82.56045262
H      94.02041134      63.67325460      83.52610276
H      94.92181079      61.17692615      81.54377985
H      92.41414397      60.73661991      83.91160693
C      90.19560528      60.50607331      79.26288020
H      88.53642558      61.03897612      78.16683893
H      89.75151959      59.09633747      80.69718246
C      92.08911104      59.15302927      77.45063267
H      92.31398848      60.26418834      75.72909200
H      91.26330065      57.35023037      76.89505313
H      93.90135858      59.02263815      78.41628281
C      87.74085080      65.77651998      79.81090083
O      88.81610507      66.82909754      78.02510946
N      85.32956002      65.65935695      80.18884608
H      84.74941404      64.94881986      81.86503333
C      83.44550289      67.24861678      78.71485957
H      84.01620023      67.03318799      76.74765447
C      80.78476824      66.07131730      79.05501030
H      80.16682774      66.79508247      80.88048592
H      80.69784083      64.01907451      79.20051922
C      78.95362344      67.15979966      77.09914356
O      76.89571149      68.08576554      77.67739982
O      79.67549889      67.44514832      74.92028913
C      83.60235017      70.01139665      79.50854462
O      84.17493725      71.59120785      77.87393135
N      83.32267068      70.66146251      81.93684293
H      82.67071510      69.37644861      83.18784174
C      83.44550289      73.20125468      82.94028761
H      84.01431051      74.48626856      81.43606546
C      80.64870795      74.15745619      83.28799724
H      79.59046121      72.64756486      84.20451450
H      79.98352428      74.69413847      81.41338874
C      80.14415102      76.71614561      84.81111666
H      80.45595585      76.32497227      86.80855737
H      78.11836441      77.03739909      84.62025429
C      81.31767106      79.19357682      83.76420827
O      83.72140293      79.40144671      83.23130546
O      79.92494277      81.04361887      83.66027332
C      85.23318398      73.32597662      85.27976878
O      85.73963063      71.42491194      86.60635665
N      86.21584166      75.63144271      85.58590444
H      85.53365046      77.06196554      84.52387825
C      88.10367825      76.32686200      87.52476363
H      89.18460170      77.84431223      86.64793062
H      89.50963463      74.84342684      87.76853833
C      87.13991783      77.13944431      90.20628527
O      85.13869766      78.39044312      90.28376406
N      88.39469610      76.34575925      92.25096914
H      90.09167033      75.51805913      91.98640746
C      87.36290554      76.43646613      94.71517225
H      85.30499358      76.53095243      94.71328253
C      88.42871118      74.31052401      96.35167524
H      90.46394641      74.49760693      96.10412110
H      87.50652473      72.55118882      95.79609570
C      88.23217964      74.45603295      99.16169827
H      89.16003526      76.21914760      99.67948329
C      85.54120937      74.45225350     100.33332859
H      85.56577581      74.95303097     102.33076930
H      84.59256676      72.64189569     100.08955389
H      84.32989480      75.62577354      99.14658046
C      89.90836687      72.43780524     100.50340396
H      89.70238671      70.60099127      99.59255587
H      89.33200035      72.11844150     102.45549124
H      91.87746170      73.01606150     100.65458205
C      88.11123716      79.05751652      95.90947929
O      90.36190119      79.57719126      95.98506833
N      86.24040811      80.41811946      96.92804176
H      84.48296262      79.69435429      96.78064312
C      86.68071434      82.89366093      98.28297553
H      88.67437560      83.14688426      98.73650986
C      85.69238747      85.26904691      96.83166572
H      86.04954575      86.80917386      98.15258442
H      83.64959333      85.19156813      96.57466295
C      86.86212805      85.99848127      94.31266056
H      88.88980439      86.31784501      94.49596400
H      86.23473893      87.91277403      93.87235433
C      86.29521017      84.38465500      92.05632733
H      84.52075716      83.34530552      92.16782119
H      87.94305150      83.15066372      92.00719445
N      86.32922524      85.88320796      89.73385369
H      86.86968696      87.68978631      90.03243045
C      86.08734027      84.89866055      87.38681361
N      85.33900865      82.69712939      86.96162520
H      84.93460721      82.16044712      85.17583383
H      84.76453185      81.67856692      88.46962680
N      86.52197733      86.22146897      85.33835029
H      86.42560128      85.45424009      83.59413291
H      87.10401303      88.02048842      85.60669143
C      85.42404633      82.83318969     100.92481292
O      83.15259531      82.45146497     101.16858762
N      86.82055408      83.22247332     103.04319612
H      88.72539821      83.25081920     102.90146664
C      85.62435733      83.59285966     105.58676773
H      84.23540849      82.08485807     105.77196091
C      87.59534187      83.03728014     107.64467970
H      86.65236843      82.83129996     109.46259640
H      88.85012014      84.66811394     107.73349683
C      89.34144898      80.77527774     107.15713031
H      90.27119433      80.69024006     105.32409577
C      91.36723559      80.46725234     109.12622512
H      90.57166081      80.07796873     110.98571581
H      92.59933715      82.11698341     109.19425527
H      92.57666043      78.88555142     108.60655038
C      88.09422962      78.19769104     107.33098513
H      89.13357909      76.85409563     106.16691371
H      86.19316495      78.38099450     106.56186651
H      88.01864057      77.44746969     109.24905734
C      83.95950845      85.92289221     105.96660273
O      82.65181784      86.14587991     107.81286533
N      84.28832082      87.88253840     104.43214496
H      85.39003126      87.47435752     102.92603309
C      82.95039459      90.17288669     104.45293194
H      81.58223274      90.33918260     105.98361027
C      84.91382023      92.28182126     105.05197519
H      83.96706735      93.80872011     106.05730959
H      85.49585594      93.11519057     103.26240437
C      87.29109594      91.47301839     106.47871856
H      88.36823993      90.20312232     105.26740398
H      86.85267943      90.43744838     108.20214896
C      88.88980439      93.79171258     107.28941115
H      87.53298090      95.09751346     108.12655990
H      89.40192023      94.71956819     105.52251705
C      91.15747597      92.90165149     108.97126757
H      92.32343711      91.63931430     107.83743177
H      90.37512928      91.96056778     110.62855753
N      92.76374334      95.04649086     109.69125328
H      92.02486035      96.56205135     110.58698355
H      93.60656127      95.69844642     108.10766263
H      94.11300793      94.33406404     110.83642743
C      81.36869367      90.81161418     101.99817746
O      81.83356634      89.52471056      99.97806003
N      79.70951396      92.66732543     102.02274390
H      79.89848660      94.12997359     103.23216874
C      77.68183763      93.00936588     100.18215048
H      76.64815734      91.24247178      99.96672169
C      75.77510378      95.16365389     101.04008623
H      76.87681422      96.71133973     101.83566100
C      74.02710694      95.90631633      98.84611398
H      72.42650876      97.07038773      99.41681132
H      73.45451987      94.17154756      97.89558164
H      75.12314821      96.91920963      97.42503978
C      74.04600421      94.15454003     103.19815367
H      75.44818113      93.57817350     104.59277170
H      72.92539650      92.52559596     102.61989743
C      72.28855874      96.15576019     104.51718264
H      70.93362497      96.88330483     103.14524134
H      73.60947743      97.62218781     105.10299779
H      71.43818189      95.32428061     106.19903906
C      78.96685153      93.52148171      97.53086447
O      80.71673809      95.07483674      97.41370144
N      78.06167262      92.34040278      95.49751896
H      76.34580113      91.51648209      95.63168952
C      78.93472618      93.10007275      93.03520557
H      79.89659687      94.91798947      92.93316035
C      81.07200664      91.28404577      92.21128490
H      82.60268495      91.04027107      93.56810838
H      82.07545131      92.19678358      90.65981959
C      80.27643186      88.66488509      91.25508337
C      80.45973531      88.09985693      88.61135627
H      81.04177102      89.53415920      87.28476839
C      79.80400028      85.71880178      87.61169104
H      79.85502289      85.37676131      85.59913252
C      79.16149334      83.75159668      89.21039950
O      78.81000424      81.35353399      88.33167678
H      79.31267143      81.25715794      86.59123884
C      79.02732277      84.31662485      91.90892869
H      78.56056037      82.76138009      93.14291997
C      79.65093245      86.64476766      92.95205760
H      79.40337830      86.90743962      94.96083667
C      76.61603199      93.52337145      91.33256216
O      74.56000976      93.33061936      92.25474859
N      77.03177178      93.95989822      88.90615357
H      78.83646041      94.26981334      88.37136102
C      74.94173448      93.70478517      86.98808136
H      73.23720135      93.04716042      87.93861369
C      74.61292210      96.33339448      85.78621542
H      72.92728623      96.30882802      84.59946730
H      76.24942508      96.93999662      84.69584334
C      73.86836993      98.37051944      87.76853833
H      75.01732353      98.29115093      89.47496119
H      71.83880387      98.37051944      88.12191716
C      74.42394947     101.23912398      86.98997109
H      76.45729498     101.54525964      86.90304367
H      73.58302126     102.41075430      88.46206789
C      73.21074517     102.24634811      84.59757758
H      71.19629692     101.82682887      84.72985841
H      73.93640008     101.26746987      82.93650815
N      73.46018905     104.92786975      84.11191791
H      72.83657937     106.08627197      85.49141812
H      72.60414302     105.25101295      82.43573068
H      75.27243658     105.45321366      83.82467951
C      75.50487292      91.72624171      84.87725707
O      77.63270475      91.18389027      83.97207816
N      73.38460000      90.73413540      83.89837884
H      71.76699427      90.70201005      84.90749270
C      73.33357739      89.42266535      81.40582983
H      74.92850639      88.12631310      81.54944904
C      70.95630168      87.71435275      81.21685720
H      69.23098155      88.81606319      80.98631059
H      70.49709818      86.65421629      82.92139034
C      71.05645718      85.77738329      79.18729114
O      69.32168842      85.80383946      77.64716419
O      73.07657461      84.47914131      79.00587741
C      73.26932669      91.28404577      79.13059935
O      73.05200817      93.60273994      79.39138159
N      73.63215414      90.37130795      76.83647160
H      73.95907680      88.51181726      76.55490238
C      73.76065553      92.14765069      74.51210825
H      75.24598042      93.53470981      74.85414871
C      74.49764880      90.82106282      72.02144896
H      74.50898715      92.15520960      70.45108640
C      77.23586222      89.85352295      72.14617090
H      78.43205898      91.52782046      72.07058184
H      77.57034378      88.49291999      70.63438985
H      77.22263414      88.75559195      73.88849856
O      72.96886020      88.71212826      71.32602969
H      73.70585347      87.84474388      69.91251439
C      71.33613667      93.60651941      73.98487460
O      71.43629217      95.79671219      73.14394640
N      69.21775348      92.56150075      75.01099600
H      69.38404939      90.81161418      75.75743789
C      66.71953529      93.86163246      74.98265009
H      66.64961541      94.78570863      73.14394640
C      64.39328219      92.12686369      74.88060487
H      63.91707116      91.53537937      76.79489764
H      64.95264119      90.40721275      73.89605747
C      62.13127979      93.11708028      73.47086905
H      61.56058246      94.97468126      74.14928080
H      60.57603504      91.83206639      73.88282939
C      62.19930994      93.21912550      70.56635970
O      61.57003108      95.26002992      69.70275477
O      63.21031353      91.44845195      69.28512527
C      66.36993591      95.87608070      77.13504836
O      64.38383357      97.02503430      77.63015666
N      68.24454443      96.07072251      78.79800753
H      69.78656110      94.95389427      78.66572669
C      68.54690064      98.04926596      80.84269140
H      67.39605730      99.63852579      80.21719198
H      70.53678244      98.54248453      81.04489211
C      67.41495458      97.46911998      83.31445342
O      68.08013824      98.79570785      85.14559820
N      65.93529887      95.43388475      83.23697463
H      65.44963920      94.72145793      81.53244150
C      64.67863087      94.32272567      85.35346810
H      63.56558208      95.76458686      86.31533880
C      63.01378199      92.04560546      84.52954743
H      61.68341467      91.89064791      86.09613054
H      64.00588830      90.24091684      84.56734195
C      61.45853724      92.29693907      82.02943952
C      60.60816039      90.13698189      80.79922769
H      61.13728375      88.24347613      81.34157913
C      58.76945669      90.27682164      78.90761165
H      58.41229841      88.50047890      77.96841768
C      57.51656815      92.59929528      78.36148074
O      55.88006515      92.72401722      76.52088732
H      55.43220002      94.44744761      76.17128794
C      58.28190729      94.78570863      79.61625901
H      57.39184621      96.53559519      79.05690003
C      60.28312747      94.56839010      81.33213051
H      60.69130834      96.24646706      82.41872313
C      66.66095378      93.40620842      87.20539988
O      68.65461504      92.45756581      86.55344432
N      66.05435162      93.59140160      89.65637491
H      64.21186847      93.39487006      90.11368868
C      67.92896013      93.40242896      91.83900880
H      69.74687685      93.95989822      91.04910320
C      67.13338535      95.13719772      94.04809886
H      67.90061424      94.34540238      95.78664707
H      65.08681175      94.89531275      94.05565777
C      68.02722590      97.76202757      93.53409332
C      66.22442700      99.59506208      92.97473432
H      64.26100136      99.10940243      92.70828292
C      66.95764081     102.16320014      92.89158636
H      65.37782961     103.36506608      92.41726507
C      69.43885146     102.83405298      93.45094535
O      70.20985979     105.27368965      93.63424880
H      68.94752261     106.44909942      93.07488982
C      71.25109898     100.94432668      93.94983311
H      73.12759722     101.53770073      94.48840509
C      70.62559958      98.41776259      93.82889062
H      71.98620253      96.94377607      94.19360779
C      68.04234371      90.64153881      92.69316510
O      66.05057217      89.25636943      92.63080414
N      70.40261188      89.76092636      93.21850901
H      71.90683402      90.88342378      92.86513020
C      71.12259760      87.09641225      93.49062961
H      69.41995419      86.17044635      94.18415917
C      72.27344093      86.09863676      91.01886759
H      73.50932193      84.50181803      91.41948956
C      70.14749882      85.34652568      89.34268034
H      68.91161781      83.96891521      90.24596952
H      70.81835166      84.21835907      87.75719997
H      69.15539251      87.03405129      88.69261449
O      73.63215414      87.91655348      89.58267560
H      74.22741793      87.20601637      88.02365138
C      73.09547187      86.73169508      95.57688745
O      74.52788442      88.57795769      96.26852729
N      73.39782808      84.36008856      96.69560544
H      72.13360118      83.02405204      96.18915878
C      75.21952425      83.82907546      98.65147217
H      76.83712997      85.05172838      98.28108581
C      74.16316724      84.20891044     101.43125958
H      73.21263490      86.03249633     101.55031234
C      72.32635326      82.06407108     102.24573162
H      70.79567495      81.78439159     100.89646702
H      71.61014699      82.55351020     104.11467093
H      73.18806846      80.20458038     102.44982205
C      76.37036757      84.53583309     103.18681531
H      77.97852466      85.40321747     102.23439325
H      76.79366626      82.73681365     104.09766340
C      75.90738463      86.45390531     105.32787523
H      77.03933069      86.19690253     107.03051863
H      73.94206926      86.26493268     105.91558012
H      76.36847785      88.32851381     104.60977923
C      76.19084357      81.09842094      98.29809335
O      75.26865713      79.60931661      96.76363559
N      78.32623430      80.45780372      99.48484147
H      79.25975910      81.68423609     100.61111836
C      79.45440092      77.89911428      99.22972842
H      78.13159250      76.50071682      99.96105250
H      81.18727994      77.81407660     100.34277722
C      80.08179005      77.03739909      96.59922940
O      81.15326487      78.48115000      95.13658122
N      79.22763375      74.71681517      95.96239163
H      78.10702605      73.84187189      97.23606716
C      79.34479678      73.82108490      93.39803302
H      80.84146003      74.92279534      92.50797192
C      80.14793047      71.02806942      93.27142136
H      78.71929738      69.94336652      94.28431466
C      80.02698799      70.30052478      90.44439078
H      78.07868016      70.36288576      89.77164823
H      80.60524424      68.35410669      90.10046060
H      81.22507447      71.30963863      89.11024402
C      82.81811375      70.65390361      94.39580850
H      82.85212883      71.44191947      96.29876290
H      84.38847632      71.48160373      93.35078985
C      83.81399952      68.01584568      94.60367841
H      84.15792971      67.27885241      92.71206237
H      82.41749177      66.82153865      95.53531348
H      85.50530457      67.97805114      95.77908817
C      76.86169641      74.53918090      92.12057802
O      75.09858176      72.90834710      92.24907942
N      76.67461351      76.72181480      90.84690249
H      78.24119662      77.80651769      90.74863673
C      74.52977414      76.95992032      88.91182274
H      74.50898715      75.43302145      87.52665336
H      75.20629616      78.35642806      87.55688899
C      71.92951074      77.71581084      89.91148796
O      70.01899743      78.08619720      88.59245900
N      71.61392644      78.02194650      92.30766094
H      73.15216366      77.87076839      93.43015837
C      69.17617949      77.65911905      93.72306595
H      67.95352657      76.29851611      92.77442333
C      69.61081655      76.74260179      96.47261772
H      70.57457697      78.13721981      97.64424805
H      70.76165988      75.06830428      96.13813617
C      67.26944565      76.06607977      97.96928096
N      66.24143453      73.67746571      98.10534126
H      67.01055314      72.10899287      97.33622266
C      64.17974313      73.83998217      99.61334286
H      63.14417311      72.12977986     100.02530319
N      64.01155748      76.30796474     100.40135874
H      62.50166615      76.73693260     101.48795136
C      65.87104817      77.68179577      99.36767843
H      66.27544961      79.66033921      99.67003464
C      67.68518544      80.09686598      93.90636940
O      68.44107596      81.98092313      95.00996957
N      65.34948370      80.01560775      92.74040826
H      64.76177883      78.39044312      91.92971568
C      63.77912115      82.24359509      92.14136501
H      64.85437542      83.70057407      91.16059706
C      61.65695849      81.53872717      90.38202982
H      60.28879665      80.57118729      91.58011630
H      62.34859832      80.52016468      88.73040903
C      60.25289185      84.14277003      89.29543720
H      58.97543685      84.95913179      90.69194494
C      61.82703387      86.27627104      87.98963631
H      60.61571930      87.94111992      87.98018767
H      62.59048329      85.83029562      86.12825589
H      63.50889029      86.76948960      89.07244948
C      58.43686485      83.05617739      87.28854785
H      57.09326945      84.42433924      86.53643677
H      57.07626192      81.71258198      88.05199727
H      59.55180338      82.32296358      85.72007501
C      62.74544085      83.30940072      94.65470102
O      61.64184069      81.93745942      96.19671769
N      62.88150115      85.86053125      95.05910245
H      64.04557256      86.76193069      93.84778787
C      61.61160507      87.12286843      97.17370619
H      60.91429606      85.66210999      98.44927146
C      63.40873479      88.65165701      98.88201878
H      62.46387164      89.17700092     100.63379506
H      63.87360745      90.43177919      97.95983233
C      65.91073243      87.20601637      99.59822504
H      66.85559559      86.41611079      97.94660426
C      67.91951150      88.85574745     100.75662727
H      69.58625011      87.65010206     100.87001086
H      67.12015727      89.77604417     102.41769670
H      68.26533142      90.38831550      99.42248051
C      65.28523302      84.98369823     101.29708901
H      66.99354561      84.28260977     102.21171655
H      64.24588354      83.55506514     100.23695255
H      63.96053486      85.62620519     102.73895018
C      59.23054991      88.49103027      96.23829166
O      57.14996124      87.59152055      96.52175062
N      59.57636983      90.82106282      95.28964906
H      61.32436666      91.36530400      94.75296679
C      57.54869349      92.51425760      94.55832498
H      55.72510759      91.59207116      94.80398940
C      57.53735513      94.92176892      96.13624645