 %block lattice_cart
   137.793   0.000   0.000
   0.000 143.498   0.000
   0.000   0.000   162.326
 %endblock lattice_cart

 %block positions_abs
N      85.75569330      39.93167807      76.96497299
H      84.40453898      40.47969870      75.73287145
H      85.05082538      38.41800729      77.88526971
H      87.29770996      39.28917112      76.04656601
C      86.22812487      41.81573520      78.85847877
H      87.57172028      41.08819057      80.23986869
C      87.17865721      44.18167255      77.66795118
H      85.66876588      45.08496172      76.59836609
H      88.84917527      43.59774712      76.61159417
C      88.22556558      46.04494269      79.60114121
H      89.89797337      45.23613983      80.49120229
H      86.75724824      46.55138934      80.95607498
S      89.42554179      48.73591296      77.97030739
C      91.61573459      50.06061111      80.39482625
H      93.41286431      49.16866029      79.92617413
H      91.10361876      49.68644530      82.35447244
H      91.88974491      52.08639771      80.13026457
C      83.71289915      42.39399145      80.16238992
O      81.73057624      42.33918939      78.93595755
N      83.71478887      42.47713941      82.70218209
H      85.39286584      42.45635242      83.61114044
C      81.39231523      43.02138059      84.13648435
H      79.82384240      42.24092362      83.05178145
C      81.35452071      41.53983516      86.50998060
H      83.04015658      41.82707356      87.65893421
H      81.23924741      39.52160746      86.10935862
C      79.27393204      42.17856266      88.22396237
O      79.47613275      44.08340678      89.56566806
N      77.12153377      40.78772409      88.31466923
H      75.60786299      41.01638097      89.45417420
H      77.25003516      39.21925125      87.23374578
C      81.01059052      45.78793991      84.06467475
O      82.74346955      47.31483877      83.84357678
N      78.62764564      46.59863250      84.05711586
H      77.25570434      45.27204463      84.04766721
C      77.78671743      49.11196850      83.49208769
H      78.79961073      49.79415970      81.83668743
C      74.89543618      49.06661507      82.87225745
H      74.51560118      47.64743061      81.43228600
C      73.25704346      48.40143140      85.25331260
H      74.31906965      46.99547503      86.31911824
H      71.56384868      47.32428741      84.78655020
H      72.67311803      50.02470631      86.38147921
C      74.03561070      51.53081818      81.70251687
H      74.72158135      53.14275472      82.78533004
H      72.01549327      51.68955519      82.08424159
C      74.78772177      51.54971544      78.95674453
H      76.64910219      50.76736875      78.55801228
H      74.66677929      53.49235409      78.28211223
H      73.48570034      50.21556866      78.07424234
C      78.41410657      50.88831123      85.65393459
O      79.00559090      53.07661430      85.05111189
N      78.37064286      49.99258096      88.04254864
H      77.98513869      48.13497999      88.25608772
C      79.10952585      51.56672298      90.26486678
H      78.22135448      53.42432394      90.27620515
C      78.54449768      50.46501254      92.79143086
H      79.70856909      51.40987569      94.20305642
H      79.02448816      48.46190265      92.74040826
C      75.72313630      50.39509266      93.28464944
C      74.57040324      52.43599708      94.58856059
H      75.62298080      53.93455005      95.48807031
C      72.00037546      52.45489435      95.11390450
H      70.99504106      53.93455005      96.09467247
C      70.45646906      50.38942349      94.38069069
H      68.45335918      50.43288719      94.76808460
C      71.56384868      48.33718071      93.11079462
H      70.46024851      46.66666265      92.71962128
C      74.18111962      48.25214303      92.62513495
H      74.95212796      46.49280783      91.93916430
C      82.05560918      52.05994155      90.20061609
O      82.91165519      53.88163771      91.41004093
N      83.52392652      50.60485228      88.74552683
H      82.87008121      48.94378286      88.07467399
C      86.26591940      50.79382492      88.33545623
H      87.14464213      51.87852782      89.85290645
C      87.27503325      48.00836833      88.58301037
H      89.28192259      48.25214303      88.18616784
H      86.35473654      46.83673802      87.16193619
C      86.91976470      46.54572016      91.16815596
H      87.87218676      44.72402400      91.03209567
H      84.94878016      45.95990501      91.27964981
C      87.78336963      48.04616286      93.47551179
O      86.24891186      48.33907044      95.29720796
O      90.01702613      48.88520134      93.51708577
C      87.05015582      52.00324976      85.80133323
O      89.12507531      53.07472458      85.71062638
N      85.32861515      52.03348538      83.99097543
H      83.74124504      50.99602563      84.18939669
C      85.62908163      53.35818352      81.51165450
H      87.58872782      53.12574719      80.91450099
C      83.77903957      52.54749093      79.38004323
H      81.84773928      53.02559169      79.91294604
H      83.88864369      50.49524816      79.24209321
C      84.41398761      53.65487055      76.80245654
H      86.36040571      53.21078487      76.29789962
H      84.29115540      55.70900306      76.92906819
S      82.20300783      52.29993679      74.48376235
C      79.36463890      54.44099670      74.62738154
H      78.45757027      54.46178369      76.47742360
H      77.80372497      53.97423430      73.36504437
H      80.02793284      56.33828192      74.18329586
C      85.10184799      56.17009628      82.02188061
O      86.62118794      57.78203282      81.31134352
N      82.81905860      56.95055324      82.91572115
H      81.53026526      55.67876744      83.52043357
C      81.97624067      59.65853105      83.09713489
H      82.51481266      60.85472781      81.50976478
C      79.00937035      59.75301737      83.28799724
H      78.46890863      61.73911972      83.37492466
H      78.11930926      58.84027956      84.90560296
C      77.51081739      58.61162267      80.98442087
H      78.11930926      56.67654293      80.62915231
C      74.71780190      58.51335690      81.39827092
H      74.47780666      57.11306971      82.89115471
H      73.89766068      57.76691501      79.66161245
H      73.93356548      60.38985513      81.72330385
C      78.07962501      59.81348861      78.47864377
H      78.10041200      61.87518002      78.48809241
H      76.70579398      59.20310701      77.07268740
H      79.88053418      59.03492137      77.85503410
C      83.35385115      61.18165046      85.16260575
O      82.94189081      63.44743231      85.34590919
N      85.22279047      60.14230099      86.53832650
H      85.31727679      58.23745686      86.44950936
C      86.82149893      61.36684364      88.27120552
H      85.85017961      62.37217804      89.78487630
C      88.92476432      59.71333311      89.34457008
H      90.26458028      60.74512368      90.52186957
H      90.05482066      58.77035968      87.90459863
C      87.66809632      57.52503004      90.82989495
H      86.91598525      56.10017640      89.54488106
H      86.20355843      58.54170280      91.85979579
C      89.74679526      56.21922916      92.36813217
H      90.63307691      57.78392255      93.37346657
H      90.91086667      55.07216529      91.11524363
N      88.57327522      54.36162820      94.15770299
H      89.28381232      52.59095464      94.08778312
C      87.27881270      55.02492213      96.14569507
N      87.22401064      57.40786701      96.73717941
H      86.53803999      57.72534103      98.49084543
H      88.04604158      58.82138229      95.74885255
N      86.24135295      53.50180272      97.72172682
H      85.33239460      54.26147270      99.21839006
H      85.68388369      51.78215178      97.10945549
C      88.28414710      63.45688094      86.99375054
O      88.62996701      65.42786548      88.10679934
N      89.09861915      63.09405349      84.58245976
H      88.27847792      61.64274368      83.65082469
C      90.87685160      64.93275719      83.22941572
H      91.30015029      66.26879369      84.73930705
C      93.43932048      63.66475083      82.61714441
H      94.59583298      65.14629626      81.77432647
C      95.10416936      63.08460486      84.90182351
H      93.95143631      62.06226292      86.26809564
H      95.96399483      64.78535854      85.68983938
H      96.55736890      61.72211218      84.38214877
C      93.02169097      61.42731488      80.85402975
H      92.05415109      59.92120301      81.87259223
H      94.92653509      60.76780040      80.43640024
C      91.79714831      61.94321016      78.28211223
H      92.53414159      63.60050014      77.30512373
H      89.74112609      61.98667387      78.40305473
H      92.46611143      60.34639143      77.16528399
C      89.52947674      66.59193689      81.29811543
O      90.76913720      67.81458982      79.77310629
N      87.01425102      66.43886906      81.30945379
H      85.93143784      65.54502852      82.60202659
C      85.49302133      67.41018839      79.20051922
H      86.43788449      67.08137601      77.39772032
C      83.18188605      65.80392102      79.36870486
H      82.13119822      66.17808683      81.09780445
H      83.34251279      63.75356797      79.20807813
C      81.39798441      66.50123003      77.15394563
O      79.26070395      67.32893015      77.68306899
O      82.18600029      66.14974094      75.04879052
C      85.00358222      70.16351962      79.43295556
O      84.59918079      71.35971638      77.43929431
N      85.25680554      71.35215748      81.69117850
H      85.58750765      70.24288813      83.21051847
C      85.54593368      74.09981953      81.86881278
H      86.50402491      74.82547444      80.19451527
C      83.11574563      75.45853275      82.30911901
H      81.98757902      74.43052164      83.69239867
H      82.22568454      75.56435743      80.45529749
C      83.05905384      78.21564344      83.29366642
H      83.97179165      78.27233523      85.13992902
H      81.09184875      78.65594968      83.72263430
C      84.00202727      80.20741498      81.50409561
O      82.40709826      81.16739595      80.11703648
O      86.37363380      80.40772597      81.22063665
C      87.41865246      74.57036139      84.12325627
O      87.45644697      73.27022968      86.02243121
N      89.25735615      76.22576164      83.84924595
H      88.84539581      77.60715157      82.60013686
C      91.08850096      76.95330627      85.80700241
H      91.90486271      78.76744353      85.27409959
H      92.59272309      75.55490880      85.96384971
C      89.87529665      77.50888580      88.40537610
O      87.93832718      78.73720791      88.56033365
N      91.16786945      76.65850896      90.52753874
H      92.91208684      75.96497941      90.17793937
C      90.30615425      76.92307065      93.09000762
H      88.27091901      76.60370690      93.09756653
C      91.64408048      75.11271284      95.04776408
H      93.66608764      75.48120947      95.19327301
H      91.25101741      73.18519200      94.44116195
C      90.87874134      75.17507381      97.81432340
H      91.14141328      77.12716109      98.41336666
C      88.18021215      74.11493734      98.09400290
H      87.01614074      74.76689292      96.52553006
H      87.62085316      74.82925389      99.94404496
H      88.24257312      72.05702539      98.10723099
C      92.72500393      73.89005991      99.63224012
H      94.68842958      74.06013528      99.03319688
H      92.39241210      71.87939112      99.93270660
H      92.30548469      74.64028126     101.50306918
C      90.74457076      79.67640188      93.87046459
O      92.84972587      80.51166091      93.94605365
N      88.76602731      80.95763632      95.00052092
H      86.98401540      80.38315953      94.62257566
C      89.03814790      83.31790449      96.60111911
H      91.08472149      83.51065657      96.72395133
C      87.91942992      85.50620756      95.17248602
H      87.75691346      87.02743724      96.55009650
H      85.94655565      85.01298899      94.82477639
C      89.11184722      86.55500566      92.73662880
H      91.15842082      86.34146659      92.71584182
H      88.47311973      88.50331349      92.52875891
C      88.38997177      84.95440748      90.41226545
H      86.33394954      84.98842255      90.47273669
H      89.04192735      83.00609965      90.28187432
N      89.25168697      86.19595766      88.02743083
H      90.11340217      87.89860107      88.08034317
C      88.99090474      85.40416234      85.70495719
N      87.77770045      83.33113257      85.17961328
H      87.30337914      82.69618453      83.44484453
H      86.96322841      82.19162761      86.47785526
N      89.80915623      86.74964747      83.87759185
H      89.80537678      85.80478432      82.21841215
H      90.85984406      88.34079703      83.99475488
C      87.87974567      83.06090171      99.35256062
O      85.58939738      82.47886601      99.73806479
N      89.42932124      83.59569426     101.23850748
H      91.17731808      84.24576011     100.83788551
C      88.61862866      83.50876685     103.87467570
H      86.91976470      82.35225434     104.01451545
C      90.76157829      82.17462007     105.30330878
H      90.49134743      82.11414883     107.34610294
H      92.48311897      83.30656613     105.29574988
C      91.29826058      79.43451692     104.49828537
H      91.93320861      79.48553953     102.53674946
C      93.46955610      78.30257085     105.88156505
H      95.26101665      79.14727852     105.31086769
H      93.39774651      76.27300479     105.53385539
H      93.09728002      78.81846614     107.84121122
C      89.06649379      77.75643995     104.95937860
H      88.34272861      78.31579894     106.80564121
H      89.43876988      75.74766088     104.70048610
H      87.66620659      78.14005439     103.50050988
C      87.98746007      86.16194259     105.00284231
O      87.48857232      86.47941661     107.29319059
N      87.98557034      88.17261139     103.40035439
H      88.93421295      87.98741821     101.75251305
C      87.01236129      90.84279467     103.70649005
H      85.67821451      90.78421315     105.27496289
C      89.10239859      92.82889702     104.21860588
H      90.27969808      93.28810052     102.59344125
H      90.24757274      92.18261062     105.80219654
C      88.01013679      95.44805769     104.82142857
H      86.44544340      95.25719533     106.14423699
H      87.42054217      96.37402359     103.07910091
C      90.01702613      97.15070110     106.03274314
H      91.74234625      97.27353331     104.91402516
H      90.60284128      96.34567769     107.83365233
C      88.86051362      99.70939053     106.64879393
H      87.37518874      99.38435760     108.03963248
H      88.06682857     100.25363171     104.82709775
N      90.68787897     101.80509701     107.32342621
H      91.61006541     101.37801886     108.93914222
H      89.87907611     103.52852741     107.46704542
H      92.18076276     101.82588400     106.13478836
C      85.39286584      91.44372764     101.48039245
O      85.86340769      90.22296444      99.55476135
N      83.47290391      93.07267172     101.57487878
H      83.15542988      93.85879786     103.28508109
C      81.46412483      93.64903824      99.67003464
H      80.63264526      91.78198865      99.39602433
C      79.07362105      95.24396725     100.65647179
H      79.68400266      97.11668603     101.25740475
C      76.96090703      95.80332624      98.64013381
H      77.93411608      96.98251546      97.26063360
H      75.58329655      97.12235521      99.42248050
H      76.32973844      94.06099858      97.74062409
C      77.92277772      93.86824649     102.95437899
H      79.45156631      93.92115883     104.33387919
H      77.60908316      91.89726195     102.44037342
C      75.55495065      95.12302477     104.12411957
H      74.99559168      94.09690338     105.82109379
H      73.99214699      94.94916995     102.79375225
H      75.79872535      97.16770864     104.12789903
C      82.63764489      94.72618224      97.16992673
O      84.35162664      96.29843453      97.28708976
N      81.70978926      93.96084308      94.98918258
H      80.41910618      92.55677643      95.04587437
C      82.16143384      95.05121517      92.38891917
H      82.97212643      96.93527230      92.57600207
C      84.15698483      93.30699778      91.24752448
H      85.72923712      93.23518818      92.57600207
H      85.15665006      94.18572052      89.67527218
C      83.50502925      90.71051383      90.30077159
C      83.59195666      90.31367130      87.68916982
H      84.34406774      91.73096603      86.42872238
C      83.02314904      87.93072642      86.67060735
H      83.30849772      87.64915720      84.66938717
C      82.22946399      85.91249872      88.23719045
O      81.40176388      83.75821072      87.23185606
H      80.88208913      83.92828609      85.50464621
C      81.85151873      86.40571728      90.78076207
H      80.88397886      85.06023215      91.96939993
C      82.70378530      88.80189025      91.82011155
H      82.85307367      89.26865265      93.79865499
C      79.58951633      95.28932068      90.89603537
O      77.60719343      94.83578637      92.02609172
N      79.70289991      95.74096527      88.31844868
H      81.36774879      95.81088514      87.38870334
C      77.61097288      95.66537622      86.47974498
H      75.75715137      95.23829807      87.27154031
C      77.49947903      98.30532388      85.19662081
H      76.13698636      98.38658211      83.65271442
H      79.27204231      98.91570548      84.34246452
C      76.91177415     100.43315571      86.98052245
H      78.54827713     100.93015373      88.12569661
H      75.21857937      99.99284948      88.06900481
C      76.35997406     102.78397524      85.27409959
H      74.87653891     102.49862657      83.87381239
H      78.11175036     103.30176025      84.32356727
C      75.72313630     104.99306530      86.95973546
H      77.42955917     105.34455439      88.05766646
H      74.32095937     104.41102959      88.35246376
N      74.94456905     107.20215536      85.44606469
H      73.96380110     107.11333822      83.80956170
H      76.34485625     108.32654252      84.79599884
H      73.84663807     108.37000622      86.48163471
C      77.89254210      93.69061222      84.35380288
O      80.11108079      93.20873201      83.80956170
N      75.77793836      92.46795930      83.49208769
H      74.11119975      92.75330797      84.37647960
C      75.52849449      90.87303029      81.19984966
H      76.90043579      89.34613143      81.36425585
C      72.84508312      89.85635753      81.00709758
H      71.37676578      91.30010844      81.03922292
H      72.50493238      88.50709294      82.52832727
C      72.39343853      88.29733332      78.53911501
O      73.44601609      86.13548642      78.31045814
O      71.18212397      89.08723892      76.75710310
C      76.07840484      92.45662094      78.72052874
O      75.89699112      94.78854321      78.78855889
N      76.91366387      91.16593787      76.64560925
H      77.32184476      89.30077800      76.67395515
C      77.19712282      92.77409496      74.30612808
H      78.74669840      94.05532940      74.75021376
C      78.23269284      91.37002831      71.97798525
H      78.08529419      92.48118738      70.24888569
C      81.03893641      90.91082481      72.16695788
H      81.60018513      89.18550469      71.18807965
H      81.59451595      90.95428852      74.14928079
H      81.64364883      92.64937302      71.24288172
O      77.07429061      88.96062726      71.69452631
H      77.85285785      88.17450111      70.25833431
C      74.90488480      94.45406165      73.56724508
O      75.21668964      96.22473521      72.14995035
N      72.56351390      93.96462254      74.41195275
H      72.30084194      92.17316199      75.00721653
C      70.32607795      95.74285500      73.79779170
H      70.65678005      96.76897639      72.04412568
C      67.91856662      94.10824174      73.44252316
H      67.23826515      93.54510330      75.30012411
H      68.68201605      92.42638532      72.53167507
C      65.75294028      95.27042342      71.77767427
H      65.00271892      97.05621478      72.47687300
H      64.22982086      93.89092321      71.92507292
C      66.53339725      95.47262413      69.01300467
O      66.93212949      97.53809499      67.92641205
O      66.67890617      93.59612591      67.67129900
C      69.87254363      97.69683200      75.96341806
O      68.27950436      99.44104939      75.60059061
N      71.04795340      97.44927786      78.22353072
H      72.43501251      96.13969752      78.25187661
C      71.24259521      99.50718981      79.99420427
H      70.53772729     101.27030446      79.19485004
H      73.24948455      99.71883916      80.40616461
C      70.06529571      98.84578560      82.52265808
O      70.48481496     100.26119061      84.31600836
N      68.62343454      96.81055036      82.77399168
H      68.25682763      95.74663445      81.23008529
C      67.50849601      95.87324611      85.03788381
H      66.48048490      97.41526278      85.93739353
C      65.76049917      93.62825125      84.57490086
H      64.49249282      93.54699302      86.19628603
H      67.05307197      92.02576334      84.53710634
C      63.93691329      93.79643689      82.33368545
C      63.46259199      91.79332700      80.69907219
H      64.34698389      89.97352056      80.95418524
C      62.12844520      92.01820443      78.37281910
H      61.75427939      90.37225282      77.22575523
C      61.36877522      94.50130481      77.73031216
O      60.28785177      94.77531512      75.37949262
H      59.78896402      96.51008388      75.19051999
C      61.65034445      96.45717154      79.41027884
H      60.78107035      98.18438139      78.76021299
C      62.88055628      96.26064001      81.71385523
H      62.89756381      97.79887723      83.05367118
C      69.63821757      95.13058367      86.93327930
O      71.54495142      94.18572052      86.17360933
N      69.10720448      95.46695496      89.34457008
H      67.35920764      96.08489546      89.78865576
C      70.91945201      95.04365626      91.36846696
H      72.80539887      95.61813306      90.77320316
C      70.57741155      97.02786889      93.51897550
H      71.61865074      96.32300098      95.15169904
H      68.60642701      97.13747302      94.11045984
C      71.64510691      99.68671381      93.03520556
C      70.00482447     101.67470589      92.90481444
H      68.00549403     101.32510653      92.71206237
C      70.87409858     104.16536517      92.78576169
H      69.62876894     105.77541199      92.94449871
C      73.50270788     104.57732551      92.60434796
O      74.64788202     106.91113751      92.42860341
H      73.33830169     108.09221645      92.85379183
C      75.14110059     102.54209027      92.79521032
H      77.15554884     102.81988004      92.97662404
C      74.20757579     100.07977689      93.13536106
H      75.64187807      98.63602598      92.97851377
C      70.97803353      92.24875104      92.51742056
O      68.99760036      91.15648924      92.98418295
N      73.31184552      91.36435913      92.64025276
H      74.66677929      92.62669631      92.16593146
C      74.28127512      88.68661694      92.70072400
H      72.84130367      87.27499139      93.11268434
C      75.14676977      88.03466137      89.95684141
H      76.12375828      86.24887000      90.27053596
C      72.99437150      87.72285652      88.10679934
H      73.37420649      85.82368158      87.40571087
H      73.16822632      88.97007589      86.47596554
H      71.11976300      87.75687160      88.96473509
O      76.80783920      89.88848288      89.09134674
H      78.40654766      89.05700330      88.87780767
C      76.39587887      88.21040591      94.56399415
O      77.90010101      89.87525480      95.19516275
N      76.48847545      85.84824802      95.51641621
H      75.07496017      84.71252251      94.92115243
C      78.71835250      84.84291362      97.01307945
H      80.32273014      86.10147135      96.72017188
C      78.14387570      85.06212188      99.82499221
H      77.29727831      86.91216394     100.13868677
C      76.08785347      83.17428529     100.61678753
H      75.09763689      83.77143880     102.32132067
H      76.76815495      81.23920554     100.80953962
H      74.58930051      83.30656613      99.21083115
C      80.59485073      84.89960541     101.57676849
H      82.02915300      86.18272958     100.83788551
H      81.48302210      83.05145308     101.41236230
C      80.03360202      85.82935076     104.32254083
H      81.54538307      85.10558558     105.51873758
H      78.33662779      84.83724444     104.94237107
H      79.78793760      87.87214490     104.36600454
C      79.20212245      82.02911114      96.15892315
O      77.61664206      80.89716508      94.76430515
N      81.19200426      80.89905481      97.15102948
H      82.51481266      81.93840428      98.05242892
C      81.54160361      78.11170850      97.07733014
H      79.91643898      77.30290563      98.05242892
H      83.22157031      77.68274062      98.19226868
C      82.13875713      77.21219877      94.35423453
O      83.64108955      78.39894690      93.13158161
N      80.94822955      75.32247246      93.27331107
H      79.69534101      74.54768467      94.48651537
C      81.31672618      74.39839629      90.65226068
H      83.10062782      75.16751490      89.97006948
C      81.67388447      71.45231297      90.65415040
H      80.00903557      70.59626695      91.51208615
C      82.23324344      70.08226139      88.13325550
H      82.03860163      68.06970287      88.52820830
H      84.21178689      70.21832169      87.57389652
H      81.09184875      70.84760055      86.60257719
C      83.63542037      70.79279849      92.67237811
H      82.78882298      70.77390122      94.55076607
H      85.17365759      72.15529116      92.51553082
C      84.64831367      68.08860013      92.72529044
H      86.36229544      68.03379807      93.86479542
H      85.22090074      67.54246923      90.82611550
H      83.28204155      66.79035816      93.55865976
C      79.06039296      75.40751014      89.04977278
O      77.29538859      74.09604008      88.08412262
N      78.96968610      77.81502147      88.77387272
H      80.13186778      79.01499767      89.69794889
C      77.03649608      79.03011549      87.20728962
H      76.84752345      78.12871603      85.36480646
H      77.56750918      80.88771645      86.48919362
C      74.39465870      78.99987986      88.28632333
O      72.51060156      79.13027098      86.85580053
N      74.30017238      78.98665178      90.79399015
H      75.86297604      79.26255182      91.85412661
C      71.94368367      78.74665654      92.16026228
H      70.77394308      77.38605359      91.15114843
C      72.19690700      77.46164265      94.69249554
H      73.70301887      78.37815991      95.75452172
H      72.96602561      75.60782113      94.22951259
C      69.65900457      77.33692071      96.00963479
N      67.81652141      75.33003136      95.90758956
H      68.32485778      73.63494686      95.19894220
C      65.78317589      75.89883898      97.47417268
H      64.09187085      74.81791553      97.84455904
N      66.17056978      78.27989414      98.31888033
H      64.73248806      79.19263195      99.18059553
C      68.56674275      79.10381481      97.54409254
H      69.25838258      80.95196715      98.06187755
C      70.65489032      81.34503022      92.29065339
O      71.73014460      83.04389417      93.42259945
N      68.27761462      81.60014327      91.21350939
H      67.47448094      80.02222180      90.50108257
C      66.77717193      83.89616074      91.30610598
H      67.99982485      85.51754592      90.95461689
C      64.74382642      83.79789497      89.27465021
H      63.46637143      82.18784815      89.38992350
H      65.71703548      83.85080731      87.46051295
C      62.84843093      86.02966175      89.35212899
H      61.84687598      86.18272958      91.14736898
C      64.19202633      88.55244638      88.90237411
H      65.51483475      88.86803067      90.45194969
H      62.76528297      90.03588153      88.85324123
H      65.17846348      88.43906280      87.09768548
C      60.68091485      85.97863914      87.44728485
H      59.23149476      84.68606634      88.12947605
H      61.63144718      85.26243287      85.76542843
H      59.84943527      87.82490175      87.06556015
C      65.85120604      84.53488823      94.09156257
O      64.65878874      82.91350306      95.40492237
N      66.23104104      86.82145707      94.89847570
H      67.03795417      88.00442575      93.63613853
C      64.95547577      88.02710246      97.04898425
H      64.04273797      86.63248444      98.26407828
C      67.06063088      89.22896840      98.74406876
H      66.30096090      89.75809176     100.58277245
H      67.66723303      90.85413303      97.63479942
C      69.32074355      87.55089143      99.70027028
H      70.07285462      86.48886524      98.10534126
C      71.34275071      89.33857252     100.81898824
H      72.89988518      88.23119290     101.58810686
H      70.44513070      90.37414254     102.35722546
H      71.96636039      90.72941109      99.43381887
C      68.19824612      85.51376646     101.41236230
H      67.20991926      86.48508579     102.93737144
H      69.68168128      84.43662247     102.35344602
H      66.75638494      84.32701834     100.55064712
C      62.77473160      89.75620204      96.24207111
O      60.80941624      89.45762528      97.22094935
N      63.16401522      91.55333176      94.50541263
H      64.84020247      92.05410923      93.74196320
C      60.98705051      93.28621079      93.79487554
H      59.25228175      92.18450035      93.63991798
C      60.57697991      95.34412275      95.83011078