 %block lattice_cart
   139.898   0.000   0.000
   0.000 144.87   0.000
   0.000   0.000   168.12
 %endblock lattice_cart

 %block positions_abs
N      92.48020683      44.52563208      85.81461089
H      94.36993314      44.35366699      85.60296153
H      91.61471218      43.07432228      84.92832924
H      91.95108346      44.38012317      87.64197623
C      91.29534843      46.75739886      84.69211345
H      92.11737938      48.38256349      85.65209443
C      92.14761500      46.81975983      81.91421578
H      91.45786490      45.13412395      80.95045536
H      94.20174750      46.68558927      81.84051644
C      91.43329845      49.38600816      80.70290120
H      89.37727623      49.49183284      80.59896627
H      91.99076772      49.33309583      78.72246803
S      92.27044721      52.51350522      82.00870209
C      91.15739841      54.25394315      79.28938593
H      91.80746426      56.18335372      79.59174214
H      89.10515564      54.09142669      79.27993729
H      91.81313344      53.38844849      77.53949937
C      88.37572128      46.95393040      84.96801350
O      87.07936903      45.03963764      85.13430941
N      87.60282322      49.24616841      85.58973345
H      88.94263917      50.54630013      85.98468625
C      84.89484541      49.81497604      86.34940343
H      83.64006714      48.51484433      85.36296630
C      84.59059947      49.32553693      89.32950182
H      85.30869547      47.40557499      89.51658474
H      82.56859232      49.26317596      89.72067517
C      85.89073118      51.21526324      90.95655619
O      86.10049080      53.43191221      90.39908693
N      86.93952928      50.54818985      93.21099968
H      87.69919926      51.89745444      94.32593819
H      87.17007589      48.70570670      93.65508536
C      84.14840352      52.53996138      85.52926221
O      85.73010444      53.99127119      84.48802302
N      81.67664150      53.26183684      86.05271641
H      80.50879064      51.77840167      86.32105753
C      80.51257009      55.79218037      85.35918685
H      80.82626466      56.10776466      83.34662833
C      77.56270732      55.53895704      85.76736772
H      76.69910239      53.85332117      84.95856486
C      77.04492231      55.25927755      88.57928048
H      75.05315077      54.90967818      88.96856411
H      77.52113334      56.99404630      89.57894570
H      78.11072795      53.69269443      89.38808335
C      76.12084614      57.82741560      84.63542166
H      76.92775928      59.57163300      85.37619438
H      74.14041296      57.83686424      85.20611902
C      76.38918728      57.95780672      81.83673699
H      78.27702386      57.82930534      81.02604440
H      75.71833444      59.80028988      81.19989922
H      75.20621860      56.46492294      81.05061084
C      81.84104769      57.96536563      86.69900280
O      81.81459152      59.97981387      85.68233004
N      82.87661771      57.62143544      89.00446891
H      82.87283826      55.89044613      89.80949231
C      84.10871927      59.73414946      90.43499173
H      82.80669784      61.31018119      90.69577395
C      84.51123097      58.81763220      93.12596199
H      85.13862011      60.52405505      94.09161213
H      85.92285653      57.31718950      93.02958595
C      82.19631624      57.80095944      94.54514646
C      81.15507704      59.41100626      96.41786522
H      81.65018533      61.38388053      96.55770498
C      79.09905481      58.60220340      97.86728530
H      78.13151494      59.88721728      99.12206359
C      78.20899372      56.13044138      97.72744557
H      76.78036062      55.41045565      98.99545191
C      79.35227814      54.58653497      95.89252132
H      78.62662323      52.68736003      95.71110759
C      81.21932773      55.37077139      94.19176763
H      81.97899771      53.98749173      92.89730510
C      86.58615046      60.39177421      89.23312578
O      87.26834166      62.59897455      89.03092506
N      88.11871850      58.50960681      88.49046334
H      87.61227185      56.75405105      89.04415316
C      90.56024490      58.83841918      87.05994053
H      91.45786490      60.41823038      88.02937012
C      92.25343967      56.63121884      87.45678305
H      93.85025841      56.87499355      86.17932806
H      91.29912789      54.98337750      86.67443636
C      92.96586649      55.90745367      90.15909167
H      94.37938178      54.40701097      90.11373825
H      91.26133336      55.11187890      90.99813016
C      94.04301049      58.09197728      91.80693303
O      93.14728022      58.27528075      93.96877993
O      95.92517790      59.38643982      91.00190961
C      90.05001879      59.73414946      84.37274970
O      91.57880738      61.21380516      83.32584134
N      88.02423219      58.94613358      83.03293375
H      87.01511833      57.45136007      83.65654344
C      87.33448208      59.75682616      80.43078062
H      88.84248368      59.47525694      79.05505987
C      84.92319131      58.36787733      79.49536610
H      83.46810204      58.75338149      80.89943275
H      85.38428453      56.36287772      79.61819830
C      83.87439320      58.93101577      76.98580956
H      85.25956259      58.26961156      75.61008879
H      83.83470895      60.98136883      76.80250610
S      80.86216946      57.74993682      76.41511220
C      80.78280095      57.33797648      73.06084799
H      82.62906356      56.59153459      72.53172463
H      80.72799889      59.17101101      72.12921292
H      79.23700483      56.11343384      72.45802531
C      86.94708819      62.69346086      80.29472032
O      88.36249320      64.03516655      78.97191190
N      85.25389341      63.48714591      81.94634113
H      84.19942613      62.15110940      82.80805632
C      84.58115084      66.27638194      82.19956444
H      84.23155148      66.99069850      80.30038950
C      82.13017582      66.44645732      83.82661881
H      81.89207030      68.44011857      84.29149147
H      82.37395051      65.50537361      85.64264579
C      79.79258437      65.46002018      82.53782545
H      80.53335708      63.61942675      81.98413565
C      77.78380530      65.11420026      84.52392782
H      78.22978071      63.89721652      86.12263627
H      76.39296673      63.96713640      83.52804205
H      77.13184972      66.83007176      85.45745261
C      78.78158079      66.91321971      80.35330185
H      76.89563393      66.23102852      79.89031890
H      79.89462959      66.40488334      78.69601187
H      78.96866369      68.95034469      80.60085599
C      86.73165939      67.89776713      83.32962079
O      86.64851143      70.29960927      83.24647283
N      88.87460903      66.81684368      84.19511543
H      88.77823298      64.91199955      84.24046886
C      91.01377921      68.17744663      85.25714163
H      90.14072566      69.76103728      86.24168904
C      92.72776098      66.46346485      87.03726381
H      93.60270426      64.85908722      86.08484175
H      91.42384982      65.27104755      88.09362082
C      94.67606881      67.82784725      88.67754625
H      93.85025841      69.36608448      89.76980805
H      95.66628540      69.05994881      87.35473784
C      96.47697798      66.36330937      90.29893143
H      97.55223226      67.78816301      91.32505281
H      97.65994666      65.27860646      89.00824836
N      95.07480106      64.52082620      91.86929399
H      95.14472093      62.65944579      91.45355420
C      93.25121517      64.95735298      93.58327575
N      93.04523500      67.08896427      94.70388346
H      91.30479706      67.42911500      95.40875138
H      94.38127150      68.41933158      94.40152725
N      91.88872250      63.22825341      94.47900603
H      91.12149361      63.62698565      96.17975971
H      92.22509378      61.37443190      94.17664981
C      92.46319929      69.33962831      83.06694882
O      93.70852894      71.19722927      83.55827766
N      92.28556502      68.70656999      80.58573817
H      91.57880738      67.00203686      80.09818878
C      93.24176654      70.21268185      78.52215705
H      94.45686056      71.70178619      79.26481949
C      94.96141748      68.76515151      76.67211499
H      95.41306207      69.96323799      75.05828872
C      97.38593634      68.09240893      78.17066794
H      96.82279790      66.35386073      79.12309002
H      98.03411247      69.49647558      79.53316062
H      98.79000299      67.76737601      76.69857115
C      93.65939605      66.33496347      75.55717645
H      91.94352456      66.79227724      74.51404754
H      93.13405214      65.23892220      77.22013562
C      95.12393394      64.39799400      73.97925499
H      95.59069634      65.45057156      72.27094239
H      93.95419336      62.75960129      73.53894876
H      96.92673285      63.73281034      74.72380716
C      91.24621555      71.53549028      76.99714790
O      91.83581016      72.81294526      75.24348190
N      88.83114532      71.10463268      77.56784526
H      88.21698427      70.30338873      79.18734070
C      86.90740393      72.30649861      76.09574846
H      87.66140473      73.12663984      74.36286942
C      84.75878512      70.53771479      75.39843945
H      83.22621708      71.72446292      74.69735098
H      84.01990213      69.94245100      77.22580479
C      85.19153244      68.17366716      73.72792139
O      86.75811556      68.19445416      71.94401974
O      83.91029800      66.28961003      74.19279406
C      85.67719210      74.56661129      77.42422605
O      85.16885573      76.42421226      76.19023477
N      85.37861535      74.52314757      79.80906067
H      85.69986882      72.84696034      80.65943750
C      84.56981249      76.68310476      81.42666639
H      84.52067960      78.45188859      80.37030938
C      81.96954908      75.88186079      82.46601585
H      82.13395527      74.16409959      83.58851329
H      80.67886601      75.38675251      80.93911700
C      80.78280095      77.76591794      84.20834351
H      81.78624563      77.92087550      86.00358352
H      78.94598698      76.98357123      84.71101071
C      80.28769266      80.39641697      83.05183102
O      80.65429956      82.32015834      84.37652916
O      79.26724045      80.37185052      80.85218958
C      86.72221076      77.19144114      83.47512971
O      87.18708343      79.36084695      84.01937089
N      87.88061299      75.31116345      84.56361207
H      87.71431707      73.53293100      83.89275922
C      89.76844957      75.50769499      86.52514798
H      91.33125323      76.81916505      86.25302738
H      90.59237024      73.62174812      86.64042129
C      88.60248844      76.30893894      88.99691000
O      86.61071690      75.26769975      89.64697584
N      89.82892081      78.05882551      90.35562322
H      91.37093749      78.99801949      89.74146217
C      88.98610288      78.36496118      93.06738047
H      86.94897791      78.08906113      93.19777158
C      90.41284625      76.28248278      94.61128687
H      92.42540477      76.70578147      94.50168275
H      90.03112153      74.40220509      93.85917579
C      89.90828932      76.26736496      97.46855306
H      90.29946267      78.13819401      98.23389221
C      87.17574507      75.49068745      98.27924565
H      87.32881290      75.40942922     100.33148843
H      86.62016554      73.66332211      97.51012704
H      85.66018457      76.84373150      97.93909490
C      91.58825601      74.13575368      98.65530118
H      93.60081454      74.33039550      98.26601756
H      91.23676692      72.22146093      97.98255861
H      91.31613542      74.07528244     100.69620560
C      89.51333652      81.09939515      94.02547172
O      91.55046149      82.22567204      93.46044355
N      87.72943488      81.99323569      95.66764388
H      86.28757370      80.86506909      96.20432615
C      88.00344520      84.32326824      97.22666809
H      89.93663521      84.90152450      97.63862843
C      86.48599497      86.40763637      95.88496241
H      86.04757846      87.70209888      97.42697907
H      84.76445430      85.59316433      95.10261572
C      88.09793151      87.74934205      93.85539635
H      89.24121593      86.41330555      92.78392153
H      89.36026869      88.97577442      94.93065061
C      86.70709295      89.36694777      91.87307344
H      87.98076848      90.38551025      90.61640544
H      85.78490650      90.84660347      92.96911471
N      84.93830912      88.00823455      90.34995403
H      84.29013299      86.48700487      91.30426582
C      83.59282398      88.56381409      88.32983660
N      83.87817265      90.71243291      87.09206588
H      83.44164588      90.95998705      85.25147244
H      85.09893585      91.98988789      87.81961050
N      81.98277716      86.79125081      87.45678305
H      80.90185371      87.45265502      86.02814996
H      81.98088744      85.08293821      88.30715990
C      86.94708819      83.85272638      99.91007945
O      84.74366731      83.14407902     100.30503225
N      88.54390692      83.92075653     101.73933453
H      90.35993391      84.22878193     101.23666732
C      87.90517943      83.27824958     104.41329726
H      86.20064629      82.11984736     104.42652534
C      90.21253526      81.85528568     105.47343371
H      90.08214414      81.90819801     107.52945594
H      91.86226633      83.07604887     105.31469670
C      90.83047576      79.13974896     104.68730758
H      91.57691765      79.20022021     102.76734563
C      92.96775622      77.85284535     106.11972012
H      92.31202119      77.90764741     108.07180740
H      94.75921677      78.86195919     106.00066736
H      93.26255353      75.89886834     105.54146386
C      88.51934048      77.49379735     105.11249599
H      88.15084385      77.46923091     107.13828261
H      88.79335079      75.55115869     104.48699658
H      86.77512309      78.00591318     104.14117666
C      87.40062250      85.63851775     105.98932901
O      86.26111754      85.51001636     108.03590260
N      88.13761576      87.92508659     105.12572407
H      89.09570701      88.03091127     103.47788274
C      87.12283273      90.38362052     105.88161461
H      86.45953880      90.28157531     107.82803270
C      89.11082482      92.32814891     105.62461182
H      89.44719610      92.53979825     103.60449439
H      90.84181412      91.80469471     106.61104896
C      88.16785139      94.77723420     106.68663801
H      87.47054238      94.28590537     108.56313625
H      86.75433610      95.56902953     105.41296248
C      90.11615921      96.78223383     107.04568602
H      91.44841626      96.10193234     108.46109101
H      89.30735635      98.53967929     107.75622311
C      91.27456144      97.60993394     104.61360824
H      89.78167766      97.95008469     103.23788749
H      92.35170544      95.99421795     103.92574787
N      92.91295416      99.91540004     104.89895691
H      92.17974035     101.39316602     105.86460707
H      93.23042818     100.76010770     103.21521078
H      94.54378797      99.52044724     105.80602555
C      84.83059472      90.88061855     104.16574311
O      84.94208857      90.64818220     101.91129961
N      82.87661771      91.95209336     105.32036589
H      82.86338962      92.05791804     107.22521001
C      80.57115161      92.73255033     104.26211915
H      79.73022340      90.97699458     103.59504577
C      78.78158079      93.71331828     106.61293868
H      78.84016230      92.37161260     108.17196290
C      79.92108576      96.16429331     107.74110530
H      79.73022340      97.78756822     106.48821674
H      81.95254154      95.91107000     107.97543136
H      79.05748083      96.60082010     109.56091173
C      76.05281599      94.42952456     105.91751941
H      75.08149667      92.95553804     104.85360349
H      75.98856530      96.16618304     104.81202950
C      74.34261368      94.37850196     108.36282525
H      74.59583701      92.60593866     109.38327746
H      72.41131339      94.40495811     107.64850871
H      74.86417814      96.12649878     109.31713704
C      80.78469068      94.55046705     102.04358046
O      82.33804571      96.27578716     101.91318935
N      79.19732058      94.13850670     100.19920758
H      78.02757999      92.63806401     100.32203978
C      79.05748083      95.57280898      97.78791681
H      79.75101039      97.46631475      98.19609769
C      80.67886601      94.14039643      95.86039597
H      82.60449712      94.22165467      96.58605087
H      80.95098660      95.48777130      94.32404848
C      79.88896041      91.54769194      94.96655541
C      78.91197190      91.10171653      92.39463790
H      78.81748559      92.45476057      90.86962877
C      78.38851772      88.52790929      91.75591041
H      77.51357443      88.26334761      89.93043479
C      78.77591161      86.58716037      93.49256890
O      78.37906908      84.15319288      92.77825234
H      77.61750938      84.06059629      91.13419046
C      79.95510083      87.07093029      95.71110759
H      80.37273034      85.46844239      96.90352488
C      80.57682079      89.52379506      96.56904334
H      81.70309767      89.91118895      98.22822303
C      76.38162837      95.79201724      97.08304889
O      74.68087469      95.64650830      98.56648405
N      75.90541734      96.51956187      94.62262523
H      77.36428605      96.96742699      93.47178191
C      73.48656766      97.08270031      93.65508536
H      71.95588935      96.43074472      94.87017937
C      73.25602105     100.01177608      93.46800246
H      71.88785920     100.29334531      91.95433167
H      74.91898020     101.02655911      92.79714961
C      72.27147364     101.28356190      95.82260143
H      73.57160534     101.03411802      97.40052291
H      70.49702063     100.31602202      96.21377478
C      71.72723246     104.16728425      95.33316232
H      70.65197819     104.36948496      93.58705521
H      73.55270808     105.11403714      95.21977874
C      70.01703015     105.24820770      97.45154553
H      70.78803848     104.56601651      99.23544716
H      68.19344426     104.29200619      97.40808182
N      69.82805752     108.00342867      97.33627222
H      71.53070093     108.86136441      97.23233727
H      69.04193137     108.87270278      98.84238408
H      68.95500396     108.62703835      95.75835075
C      73.41097861      95.73910489      91.12096238
O      75.14574736      95.85815765      89.53926144
N      71.09795360      94.84337462      90.40853555
H      69.65042324      94.89439723      91.65197546
C      70.26269457      94.35015605      87.84795640
H      71.74801945      93.18041546      87.03159464
C      67.64164417      93.07837025      88.07661329
H      66.33206384      94.40873758      88.94777712
H      67.72668186      91.38139602      89.23879497
C      66.52481592      92.30169274      85.40265055
O      64.87697458      93.58481690      84.31605791
O      67.16354342      90.21354516      84.46156684
C      70.31371718      96.85026396      86.33617534
O      70.39308569      98.85148414      87.30560494
N      70.19277470      96.67073996      83.76425783
H      70.09828838      95.01911918      82.81183577
C      70.43843912      98.89683756      82.11830621
H      72.08061128     100.05712953      82.56050218
C      70.80126657      98.06346826      79.25159139
H      70.84284055      99.79067812      78.12909397
C      73.24657242      96.76711601      78.47113444
H      73.95710951      95.53312473      79.95834905
H      74.80181717      98.07291690      78.12909397
H      73.04059225      95.70131036      76.71935815
O      68.66587584      96.44964198      78.51648786
H      69.16098413      94.72243214      78.76404202
C      68.07817095     100.53523028      82.21657199
O      67.81360927     102.76510733      81.32273144
N      65.98435420      99.44485819      83.26537009
H      65.98435420      97.60804422      83.78315510
C      63.64109357     100.80357142      83.68866879
H      63.51637163     102.37582371      82.36208092
C      61.20523635      99.07636156      83.52426260
H      59.46290869     100.14972612      83.26725981
H      60.98602810      97.72898670      85.06627926
C      61.28460486      97.83103193      80.93344781
H      62.50725778      96.17752141      81.04872112
H      62.06317210      99.10281774      79.51237363
C      58.63331884      96.80491054      79.95834905
O      57.83963379      94.63550473      80.37975800
O      57.18011930      98.36393474      78.83207215
C      63.44456203     102.07535723      86.29460137
O      61.74758780     103.36604030      86.91632133
N      65.54215824     102.12260038      87.84039749
H      67.17299205     101.42151191      87.13741931
C      65.56672468     103.50588004      90.34428486
H      64.27226216     105.10269878      90.21578346
H      67.42999483     104.34113908      90.61451572
C      64.88264376     101.91095103      92.55148519
O      64.80705470     102.89171900      94.64152250
N      64.20423201      99.42596094      92.06771525
H      64.03793609      98.70597521      90.31026979
C      63.54660725      97.81591411      94.22389298
H      62.55450094      98.96675744      95.61473155
C      61.60774806      95.84681930      93.48689971
H      60.77248903      95.10037741      95.21599929
H      62.63764890      94.21031631      92.77825234
C      59.56684364      96.63672490      91.68032136
C      58.74670242      95.08903905      89.73768272
H      59.72369092      93.31836549      89.47690048
C      56.70201855      95.88083436      88.25802701
H      56.25793286      94.48810608      86.83317336
C      55.52849851      98.30157377      88.56038322
O      53.51405026      98.99888279      87.05805079
H      52.37076584     100.10815213      87.92921462
C      56.57162743      99.86626716      90.45766843
H      56.01982735     101.82402362      90.61262600
C      58.42922840      98.97431635      92.06771525
H      59.13787577     100.18374119      93.55115041
C      65.90309597      96.93719137      95.63362881
O      67.85140379      96.23421319      94.55837454
N      65.95600830      96.92396330      98.22822303
H      64.49147041      97.65528738      99.20710127
C      68.04604560      95.88272410      99.77968834
H      69.68254859      96.75199819      98.88584779
C      67.89297777      96.67829887     102.55380657
H      69.21011701      95.63139050     103.74433415
H      66.05805352      96.26633854     103.39284505
C      68.63564021      99.52233698     102.98277444
C      66.80260569     101.26655437     103.56481014
H      64.84295950     100.71097483     103.68197317
C      67.34117769     103.73453693     104.10905132
H      65.75380759     104.93451314     104.56069590
C      69.83561642     104.48853773     103.77079031
O      70.53670489     106.98675592     103.89173279
H      69.00791630     107.95996496     103.91629923
C      71.81415987     102.75187924     103.16796762
H      73.70955536     103.50021086     103.06214295
C      71.23401389     100.20830763     102.71821275
H      72.55871204      98.68329850     102.41018737
C      68.41265251      92.99900175      99.61339243
O      66.51725702      91.64784742      99.91196917
N      70.70678025      92.10327147      99.36205882
H      72.21856130      93.26356343      99.48489104
C      71.19243992      89.49733889      98.51168198
H      69.63341571      88.31814967      99.15607865
C      71.34172829      89.40096284      95.71299731
H      73.03303334      90.46676849      95.21788901
C      71.76313726      86.58338090      94.64530194
H      73.31271284      85.49111910      95.45032535
H      72.10328800      86.79503026      92.62518452
H      70.10206783      85.37206635      94.77002389
O      69.19499920      90.56503426      94.60939715
H      69.28570607      92.29791327      95.13663078
C      73.73790126      88.66585930      99.78157806
O      75.29692547      90.28157531     100.31259116
N      73.91175608      86.21677401     100.37495212
H      72.35273187      85.12451219     100.22944320
C      76.34194412      85.11884301     101.24233650
H      77.86884298      86.31503978     100.54502749
C      76.34761330      85.10561494     104.12794859
H      75.20243915      86.75345628     104.59282125
C      74.84150143      82.96266530     105.44697755
H      73.13696829      82.67920634     104.32636984
H      74.26702463      83.40675097     107.37449839
H      75.80526185      81.14285886     105.40162412
C      79.16708496      85.37206635     104.86683157
H      80.12895565      86.73644875     103.66307592
H      80.14974264      83.56359826     104.77612471
C      79.56392748      86.41897472     107.44819771
H      81.57837573      86.63251379     107.81291490
H      78.72488900      85.19443207     108.87683080
H      78.67197666      88.23500171     107.83559161
C      76.86728803      82.45621865      99.98566851
O      75.15519599      81.30537532      99.01434918
N      79.32204251      81.70032812     100.07826510
H      80.59004887      83.00801872     100.64518298
C      80.22533169      79.01691675      99.54914172
H      79.15952605      77.85284535     100.87195014
H      82.19064706      78.98290168     100.16141305
C      80.02124125      78.31204883      96.65786046
O      81.04925236      79.64997507      95.00057050
N      78.56993144      76.27114441      96.08716312
H      77.61372993      75.45478266      97.52335512
C      77.88396079      75.47934910      93.70043878
H      79.25779182      76.43366088      92.50046259
C      78.28269304      72.57106029      93.25068393
H      76.74634555      71.63564578      94.25601832
C      77.73656214      71.92855336      90.45955817
H      77.87640188      69.88197976      90.26302663
H      79.07826782      72.88664460      89.22367715
H      75.80526185      72.28571163      89.84350739
C      80.96232495      71.78871360      93.80815319
H      82.27190529      73.25325150      93.17887433
H      81.32326268      70.06528321      92.73856810
C      81.53491203      71.29927448      96.58983033
H      83.31881367      70.27315311      96.51613099
H      80.17241936      69.95189962      97.34194139
H      81.80514289      73.03593297      97.66697433
C      75.17220353      76.54893419      93.10139555
O      73.36940463      75.03337369      93.02391676
N      74.93787747      78.95644551      92.67998658
H      76.48745304      80.06949431      92.60061807
C      72.85917852      80.42098341      91.67654190
H      72.21478185      79.65186479      89.87941219
H      73.59995124      82.33338643      91.49134872
C      70.54615352      80.38129916      93.48689971
O      68.46178539      80.26224640      92.68376603
N      70.99212893      80.20177516      95.90952885
H      72.80626619      80.26224640      96.50101319
C      69.09484371      79.92209566      97.77279899
H      67.66243116      78.58794887      97.13596122
C      70.11907537      78.74857562     100.15952333
H      70.96945221      80.16964981     101.38595570
H      71.57038518      77.38797268      99.62662051
C      68.01958944      77.42387747     101.60327423
N      67.01614476      75.05794013     101.11005567
H      67.62463664      73.70111664      99.91385891
C      65.04516022      74.72156885     102.74844838
H      64.00203129      72.96601310     102.79380180
N      64.66532523      76.89097465     104.14684585
H      63.63353466      77.21978703     105.72098787
C      66.59473580      78.48401394     103.46465464
H      66.74024472      80.45121903     103.99188828
C      67.69455651      82.41842412      98.38129087
O      68.83217175      84.01902231      99.59449516
N      65.07917529      82.55637413      97.92019765
H      64.14754022      81.16931503      97.00368038
C      63.38975997      84.63885253      98.75923613
H      64.13998132      86.34338566      97.87673395
C      60.76304039      84.49334361      97.62351061
H      59.79739025      82.80203855      98.29436345
H      60.97846919      84.33271688      95.58260620
C      59.19078810      86.80258917      98.06759629
H      58.77315859      86.99534125     100.07637536
C      60.20935058      89.45198545      97.26446261
H      62.16710704      89.79780537      97.80303462
H      59.12842713      90.95620759      98.16775179
H      60.25470402      89.43686765      95.20466093
C      56.51304592      86.54936584      96.79770021
H      55.41889438      84.92609094      97.43831743
H      56.80595349      86.46621787      94.76057525
H      55.22236284      88.09894141      97.21532974
C      63.48235656      85.15852727     101.64673794
O      63.53904835      83.31604411     103.16796762
N      63.33873736      87.60005367     102.46309970
H      63.31795037      88.87561892     101.04391524
C      63.26125858      88.41452571     105.08415010
H      63.20834624      86.89329602     106.47120921
C      65.78215348      89.66174507     105.81547418
H      65.70467470      90.81447813     107.52000731
H      66.37930700      91.11683434     104.48699658
C      67.94777984      87.79469547     106.43530441
H      68.48068266      86.70621311     104.77045553
C      70.34584253      89.26679228     107.05702436
H      72.06549347      88.15941265     107.31969632
H      69.95844863      90.38362052     108.74266024
H      70.68221381      90.49322466     105.43563919
C      67.30527289      85.81804175     108.58014378
H      66.73457554      86.84038369     110.27522828
H      69.00224712      84.78814091     109.13005413
H      65.67254936      84.63129362     108.17385262
C      61.02382263      90.15685337     105.54713305
O      59.49692376      89.74300331     107.30835796
N      60.99925618      92.31681054     104.09015405
H      62.36930776      92.42074550     102.76545591
C      59.01882301      94.07047657     103.78023895
H      57.33696659      92.88372843     103.88039443
C      58.91299833      95.87327547     106.09704340