 %block lattice_cart
   139.898   0.000   0.000
   0.000 144.87   0.000
   0.000   0.000   168.12
 %endblock lattice_cart

 %block positions_abs
N      93.08869871      42.92692363      85.75886396
H      94.74976814      42.27685777      85.07856249
H      92.09659239      41.31498708      86.00641811
H      93.09058843      43.62990181      87.53331697
C      91.92084784      44.82798830      84.07511782
H      92.84870346      46.54197006      84.73841175
C      92.37249243      44.36122590      81.24241807
H      91.58258683      42.59244207      80.53755016
H      94.40583795      44.38012316      80.92116460
C      91.21786966      46.73283242      79.94039664
H      89.16562688      46.90290779      80.00653706
H      91.60715328      46.47960909      77.93350730
S      92.72020208      49.59009861      80.96462830
C      91.02700730      51.88989553      79.33379450
H      88.97854398      51.87288799      79.52654658
H      91.78478755      51.81052702      77.41950174
H      91.36337858      53.80418828      80.01409597
C      89.14106044      44.89979790      84.60235146
O      87.90895888      42.91747499      84.36235621
N      87.97887876      46.94070231      85.30910910
H      88.91618301      48.57909503      85.59445777
C      85.20853998      47.08054206      85.82689411
H      84.09171173      45.95615491      84.50975487
C      84.66618853      45.98450080      88.59345343
H      85.69419964      44.20626834      88.72951372
H      82.69709371      45.44214935      88.85423566
C      85.36349754      47.99516960      90.54932016
O      83.80258360      49.47482530      91.19371684
N      87.72187598      48.43547583      91.29387233
H      87.71620680      49.22349170      93.03431027
H      89.12405290      47.21849208      90.85545583
C      84.14651379      49.82631439      85.57556051
O      85.63750785      51.68391536      85.36958034
N      81.53491203      50.23071583      85.76642287
H      80.32926664      48.84743616      86.28798733
C      80.46910639      52.84987650      85.71728998
H      80.56359270      53.56419304      83.78787942
C      77.51357443      52.69680866      86.17082430
H      76.91453119      51.05841595      85.07478303
C      76.66886677      52.03729418      88.82211031
H      74.75646374      51.27573448      88.80510278
H      76.66130787      53.55285468      90.21672833
H      77.76868749      50.44614462      89.52697823
C      76.02447010      55.07408437      85.41304405
H      76.09250025      56.62554967      86.76419836
H      74.01569103      54.65834458      85.58311941
C      76.42887153      56.12288247      82.65026418
H      78.41875334      56.65578529      82.62569773
H      75.04370214      57.54962584      82.11736136
H      76.38729755      54.59787333      81.26509479
C      81.67286205      55.03628984      87.28765255
O      81.76923809      57.28884360      86.53743120
N      82.62717384      54.54496100      89.56288303
H      82.75756495      52.70436757      90.05421187
C      83.96887952      56.50271746      90.94805242
H      82.80102866      58.19780196      91.03309010
C      84.21643367      55.62210500      93.77319325
H      85.04413379      53.73804786      93.85067203
H      82.40418613      55.27628508      94.68971052
C      85.62616950      57.49860323      95.54008736
C      88.29824250      57.49482377      95.61189696
H      89.24499539      56.09264685      94.47239199
C      89.69663997      59.13699594      97.27296639
H      91.71864713      58.97636920      97.49406436
C      88.36627265      60.81129345      98.82443169
H      89.25255429      61.94134979     100.27574150
C      85.66585375      60.85286743      98.68081249
H      84.72665977      62.24937518      99.83165581
C      84.27501518      59.28061514      97.04053005
H      82.24733885      59.37321173      97.26162803
C      86.53323813      57.12821687      89.85201115
O      87.00566970      59.29006377      89.34745423
N      88.13194659      55.21770357      89.04698774
H      87.72187598      53.37333068      89.30776998
C      90.34859555      55.83564407      87.57867040
H      91.55046149      57.19057784      88.55943836
C      91.66195534      53.24104984      87.04009840
H      93.13027269      53.44325056      85.61146531
H      90.32402911      51.95414622      86.15003731
C      93.05657336      52.05052226      89.34745423
H      91.87549441      51.82753456      91.02175174
H      94.59670030      53.28073409      89.94082829
C      93.93718582      49.33876501      88.70872673
O      92.87138018      47.42636198      89.57422139
O      95.76266144      48.92113549      87.42182312
C      90.01411399      57.09042234      85.07856249
O      91.65817589      58.41889994      84.14692742
N      87.78423695      56.61232158      83.88425546
H      86.63339362      55.55029540      84.97840699
C      87.03779505      57.79529026      81.52965647
H      88.61193707      57.57608200      80.22385559
C      84.56225358      56.45358457      80.68116936
H      83.10716432      57.27750525      81.88492502
H      84.64351181      54.41834933      80.98919475
C      84.02368158      56.87688327      77.87681551
H      85.66396402      56.08130849      76.91683454
H      83.71565619      58.86676508      77.44595791
S      81.26090171      55.33675632      76.89793728
C      81.45176407      55.49927279      73.39060524
H      81.49900723      57.39466828      72.58180238
H      79.77935628      54.63566786      72.55345649
H      83.02401636      54.33709110      72.74620857
C      86.76567446      60.70546878      81.98697024
O      87.55180061      62.22480873      80.50731454
N      85.43719686      61.49537438      84.00708767
H      84.83248444      60.25949337      85.32989609
C      84.83626390      64.10886587      84.54188021
H      84.58682002      65.14443589      82.77687584
C      82.37961969      64.27327206      86.04799209
H      82.37772996      66.10441685      86.99096552
H      82.44953956      63.12998764      87.76008413
C      80.09305085      63.87453981      84.34534868
H      80.39540706      62.34575122      82.99797382
C      77.78947448      62.95046364      85.70217217
H      76.16997903      62.66889442      84.46062198
H      77.52113334      64.29027959      87.24607857
H      78.10316904      61.13632638      86.62624834
C      79.25023292      66.39543471      83.16238001
H      78.61906433      67.79572190      84.53432131
H      77.74034159      66.05528397      81.80177706
H      80.85083110      67.35352595      82.29310590
C      87.06803067      65.31073180      85.82689411
O      87.36471770      67.62564654      85.58878859
N      88.74610764      64.14288094      87.13080526
H      88.39272882      62.33630259      87.63536219
C      91.09314772      65.14065643      88.19472118
H      90.62827505      66.62409159      89.54587549
C      92.44619176      63.22636368      89.96917419
H      93.81813306      62.42134027      88.66148358
H      91.09503745      61.81095867      90.61735031
C      93.81435361      64.35075084      92.31810399
H      92.63327466      64.96113244      93.89224601
H      94.95385858      66.00048191      91.85323132
C      95.49809976      62.27016217      93.54831582
H      94.14883517      60.75082221      93.88279738
H      96.39571975      62.74259374      95.33977637
N      97.35759045      61.04561951      91.80220871
H      98.55567693      61.95835732      90.62868867
C      97.89805217      58.58141640      91.74173747
N      96.94374038      56.99215657      93.29698222
H      97.61648295      55.20825493      93.23462125
H      96.27855672      57.55718474      94.99584618
N      99.19251470      57.73859847      89.82366526
H      99.80856548      55.98682217      89.37580012
H      99.79911684      59.04061990      88.56888699
C      92.75043770      66.44267786      86.23129554
O      93.98442898      68.22091032      87.06277512
N      92.56713424      66.09496822      83.79354859
H      91.25566418      64.82129269      83.24552796
C      93.89561184      67.66722052      81.96996270
H      94.65528182      69.33017967      82.91860531
C      96.19351904      66.31606620      80.64715428
H      97.06846232      67.81083972      79.53410549
C      98.21363647      65.31640098      82.69561761
H      97.14405137      63.77627404      83.54977390
H      98.82590779      66.76015189      84.02976438
H     100.01832510      64.65499677      81.95862434
C      95.25432506      64.23736726      78.83868620
H      94.26410847      65.08585437      77.24375719
H      93.78789744      63.17156162      79.81567471
C      97.22341988      62.36653821      77.69918124
H      98.79000299      63.49092536      76.96785715
H      96.43729373      61.24970996      76.15905429
H      97.89049327      61.03617088      79.12025542
C      92.26666776      68.95790359      79.86858704
O      93.19830283      70.33173462      78.31145256
N      89.74955231      68.88420426      80.13314873
H      89.03334604      67.78816300      81.52209757
C      87.78045749      70.37519832      78.82734784
H      88.74610764      70.98557992      77.11147635
C      85.73388390      68.51381790      77.93917648
H      84.02179186      69.62308725      77.65004835
H      85.40129206      67.19478894      79.48686233
C      86.07781408      66.81117450      75.68284326
O      84.12383708      65.48080717      75.08757947
O      87.90895888      67.05872864      74.18429029
C      86.79024090      72.52759659      80.29377546
O      85.80569350      74.41354345      79.19395475
N      86.86960941      72.35941095      82.81278064
H      87.57636705      70.71345933      83.47040540
C      85.98710722      74.23401945      84.59857200
H      85.46743249      75.88752998      83.48741293
C      83.37739518      73.33639945      85.62847284
H      83.76478908      71.80005196      86.94561208
H      82.42497312      72.54460413      83.98441095
C      81.86750386      75.46045183      86.99852442
H      83.10149514      76.63397187      88.15503693
H      80.32359746      74.88975448      88.24007461
C      80.56926188      77.20277949      85.08612139
O      81.44798462      79.45155380      84.71006586
O      78.59449789      76.44499924      84.11102262
C      87.87872326      74.71967912      86.74341137
O      88.15084385      76.92310000      87.52386834
N      88.82736587      72.76948156      87.86590880
H      88.61193707      71.10841213      86.95317099
C      90.34292637      72.79404800      90.21105915
H      91.61282246      74.40220509      89.98996118
H      91.54290258      71.14242720      90.47751056
C      88.90484465      73.13419874      92.76596913
O      86.54079703      73.08317613      92.79431502
N      90.32213938      73.38931179      94.82199136
H      92.20808624      73.62174813      94.65002626
C      89.19397278      73.74269061      97.33154790
H      87.18141425      74.17921739      97.29186365
C      89.41129130      71.12541967      98.84332895
H      91.40684229      70.62086274      98.73750428
H      88.13005686      69.75914754      97.98350348
C      88.66862886      70.93266758     101.67224924
H      90.12182839      71.82650813     102.82498229
C      86.18741821      72.30649861     101.98972326
H      86.34804495      74.23212973     101.28107590
H      85.90395926      72.31594725     104.03062768
H      84.52256933      71.46934986     101.10533135
C      88.41351581      68.27949184     102.60199459
H      87.57258760      68.35319117     104.48227227
H      90.28056541      67.41588692     102.55097198
H      87.50644718      67.05116974     101.21871493
C      90.42796406      75.97445739      98.68270221
O      92.63705412      75.94044231      99.38001122
N      88.96153644      78.01158235      98.96049198
H      87.10015602      77.67899052      98.70915838
C      89.48877008      80.45688820     100.25873396
H      91.48810052      80.75168551     100.65557649
C      88.68374667      82.78692075      98.62978988
H      88.00911438      84.34027577      99.80142019
H      86.96220600      82.30693026      97.60744794
C      90.88905728      83.63540786      96.88179304
H      91.95864237      82.00646378      96.21471965
H      92.01344443      84.97900327      97.96082676
C      89.91584823      85.01490807      94.52719405
H      91.57502793      86.01646301      93.82988504
H      88.47965623      86.35283430      95.15647291
N      88.83303505      83.37840508      92.60156294
H      88.32658840      81.56993700      92.94927258
C      88.59492953      83.70343801      90.09011667
N      88.92185219      85.91819725      89.23973983
H      89.00122069      86.21299455      87.35568269
H      89.74577286      87.25045430      90.33011191
N      88.03557055      81.92331582      88.58022535
H      87.44597594      82.28614327      86.80010316
H      87.97887876      80.05248677      88.95628088
C      87.96187122      80.40775532     102.71159871
O      85.78301678      79.52147368     102.95159396
N      89.02200768      81.43576643     104.72226751
H      90.86638056      81.91008774     104.57108941
C      88.05824726      81.25246298     107.33008982
H      86.72787994      79.68021069     107.38678161
C      90.22198389      80.29626147     109.00249761
H      89.54735160      80.30759982     110.94891571
H      91.96809100      81.38663355     108.98926953
C      90.90984427      77.47490008     108.36754957
H      91.81691290      77.37096513     106.52317669
C      92.91295416      76.41476362     110.20814300
H      92.49343492      76.87396711     112.16967891
H      94.74031950      77.27080964     109.80185184
H      93.04523500      74.38897701     109.86043336
C      88.74043846      75.65131419     108.59431673
H      87.96754040      75.63808610     110.50294030
H      89.26011320      73.74835979     108.00472212
H      87.30802591      76.15776084     107.20347816
C      87.08125876      83.78469624     108.22393037
O      85.22554752      83.82438049     109.80185184
N      88.26611716      85.99189657     107.56252616
H      89.74766258      85.81615203     106.37199858
C      87.17007589      88.57515244     107.90834607
H      85.92474625      88.44665105     109.54295934
C      89.47932145      90.25700886     108.80407635
H      90.74354835      90.73510962     107.24883159
H      90.39205926      89.19309295     110.31018822
C      88.35304457      92.81758801     109.88877925
H      86.96409573      92.28090574     111.31552262
H      87.61983076      93.94386490     108.32597559
C      90.44308187      94.26322864     111.33441988
H      92.22509378      93.98921833     110.33664439
H      90.72654081      93.28057096     113.12210097
C      89.92529686      97.16773799     111.69157815
H      91.17062650      97.98221003     113.11832152
H      88.06769589      97.33781336     112.56841116
N      90.01789345      98.49999504     109.18769079
H      89.63616873     100.33302956     109.55807715
H      88.94641863      97.69497163     107.82897757
H      91.71864713      98.49810531     108.32408586
C      85.77356815      89.58804575     105.54240873
O      86.62583472      89.28757926     103.42024608
N      83.68731030      90.87872882     106.03184785
H      83.19220201      91.20754120     107.84598511
C      81.80703262      91.97477008     104.17802633
H      81.17019485      90.24756023     103.25583989
C      79.63762681      93.23521753     105.58587244
H      80.40107624      94.44653210     107.06552814
C      77.94632176      94.88683833     103.78118381
H      79.08582673      96.02445357     102.49994937
H      76.68398458      96.12649879     104.83565109
H      76.85594968      93.44686688     102.78907749
C      78.22033208      91.14518023     106.98615963
H      79.37495485      89.93197594     108.18802557
H      77.45121347      89.69198069     105.74460945
C      76.10005915      92.20720642     108.66423660
H      75.12873983      90.60282878     109.51839289
H      74.57505002      93.07270107     107.58331315
H      76.62351334      93.68686212     109.99649365
C      83.09771569      93.28435041     102.00862053
O      84.83437417      94.77156502     102.38089661
N      82.20009569      92.84215446      99.65591127
H      80.77713178      91.57792755      99.79575101
C      83.03535472      93.51300730      97.11611910
H      84.52634878      94.91518422      96.87612386
C      84.77390293      91.39651383      96.12779224
H      86.08537299      90.91463362      97.64146302
H      85.82459076      92.28468519      94.59522420
C      83.70431784      88.90774427      95.25284896
C      83.47377123      88.42019488      92.65069582
H      83.75156099      89.89985059      91.27308534
C      82.81614647      86.02213219      91.93071010
H      82.76323413      85.80292394      89.90114404
C      82.31347927      83.99256613      93.58988980
O      81.84104769      81.67765140      92.71305679
H      81.19854074      82.13685489      91.08033326
C      82.66496836      84.48956415      96.26007308
H      82.29080255      82.89463515      97.48083628
C      83.66274386      86.89329602      97.00462525
H      83.91974664      87.38651459      98.96994061
C      80.79035986      93.81725323      95.22639279
O      78.64363077      93.89473201      96.22038883
N      81.03413456      94.34448688      92.76218968
H      82.85394100      94.30669235      92.19149233
C      78.85716984      94.83392599      90.97072913
H      76.99200997      94.52779033      91.79087035
C      78.72299927      97.57969832      90.09578585
H      77.11295246      97.77434013      88.82777949
H      80.47477557      98.04646072      89.11690762
C      78.22033208      99.50343971      92.18771288
H      79.43542609      99.12360472      93.80720833
H      76.26257562      99.12171500      92.70549789
C      78.29214168     102.33802918      91.58300046
H      76.62729279     103.00132312      90.56821743
H      79.89273986     102.60448059      90.31499410
C      78.57749035     103.89894311      94.07932892
H      80.04202824     103.17328821      95.33599691
H      76.69910239     103.68918349      94.89758041
N      79.13118016     106.61636955      93.57288226
H      79.31637334     107.53666627      95.23395169
H      77.62506829     107.63304231      92.99084656
H      80.61083586     107.07935250      92.45983347
C      79.15196715      92.70609416      88.95250143
O      81.14562841      92.14106599      87.83567318
N      76.96555380      91.81792280      88.18338282
H      75.32338164      92.52845989      88.84856648
C      76.84083187      90.15118419      85.95161604
H      78.38095881      88.81325796      85.68138518
C      74.49379179      88.56570381      86.18594211
H      72.84972989      89.79969509      86.07066880
H      74.41442328      87.78335712      88.08889650
C      74.34828286      86.44354116      84.26220072
O      75.64652484      84.50657169      84.48140897
O      73.01224636      86.82715560      82.27987782
C      77.13184972      91.41919054      83.40048552
O      76.85972913      93.77567926      83.32678620
N      77.47011073      90.06047732      81.33312494
H      77.59105321      88.15752293      81.43517016
C      77.38129359      91.24911518      78.68750810
H      79.01401713      92.50200372      78.60813959
C      77.39263195      89.20632103      76.58613244
H      77.34916825      89.99622663      74.68506777
C      79.84927616      87.57926668      76.82990713
H      80.43698104      86.98967207      78.71396427
H      81.41963872      88.82837577      76.36692418
H      79.53369186      85.98622739      75.55812132
O      75.34605835      87.45454474      76.81667905
H      73.84750539      88.45609968      76.60691943
C      75.01724598      92.83837500      78.16405391
O      75.01535625      94.61849719      76.74675917
N      73.04626143      92.29224410      79.65693770
H      73.00279773      90.56125480      80.45818165
C      70.45544666      93.51489702      79.54355412
H      69.84128560      93.78134843      77.59335656
C      68.58272788      91.61761181      80.74542005
H      68.85484847      91.70075976      82.78632447
H      68.99090876      89.67686288      80.18984052
C      65.76703567      92.10894065      80.22763504
H      65.34184725      94.08937382      80.61124948
H      64.54627247      91.12628296      81.56367155
C      65.13586708      91.21321038      77.58390793
O      66.00514119      89.12128335      77.01132086
O      63.82817648      92.51334208      76.10236250
C      70.51402817      96.03957138      80.96651803
O      68.67532447      97.55891133      80.76242759
N      72.54170450      96.61026873      82.30255453
H      74.04025747      95.43107951      82.40082030
C      72.92909840      98.79290262      83.98819041
H      72.29226063     100.46153095      82.96017929
H      74.93031856      98.97242662      84.43983499
C      71.71400438      98.64172451      86.59223326
O      71.64975369     100.52011247      87.85268072
N      70.72189807      96.44397281      87.34623406
H      70.69733162      94.80558010      86.36735583
C      69.53703967      96.09059399      89.87468787
H      69.19310948      97.96331277      90.65892429
C      66.84795912      94.80558010      89.28698299
H      65.80860965      94.47865744      91.03309010
H      67.21456603      92.89884625      88.60101234
C      65.08862393      96.16807277      87.54276560
C      63.56550452      94.72432186      85.92138042
H      63.53337917      92.68908663      86.06310990
C      62.04238511      95.97343096      84.09023563
H      60.88209315      94.94164039      82.76553748
C      62.33151324      98.65306287      83.85213011
O      61.08051442      99.83981099      81.93405790
H      61.59640970     101.54245440      81.58634826
C      63.94722923     100.02311445      85.45839748
H      64.16454776     102.05079078      85.35068308
C      65.19633833      98.78912316      87.43316147
H      66.17521656      99.64705891      89.00730349
C      71.23023444      94.85471298      91.86834913
O      72.71933878      93.07081134      91.40914564
N      70.93732687      95.75611243      94.22294812
H      69.56160611      97.04301605      94.52341460
C      72.32816543      94.80935955      96.39424365
H      74.33127532      94.96998629      95.93881961
C      71.80849070      96.43263445      98.66947413
H      72.50390998      95.55202199     100.39668398
H      69.76569655      96.44397281      98.93781527
C      72.79303810      99.14250198      98.67703304
C      71.01858510     101.07191255      98.76585017
H      69.00224712     100.78845360      98.90002074
C      72.09761882     103.54934375      99.08332419
H      70.74646451     105.06301452      99.31953998
C      74.67520551     104.08791575      99.45937973
O      75.32527136     106.64282572      99.57087358
H      74.04781638     107.93161907      99.60488866
C      76.31926740     102.02622434      99.30442217
H      78.32048757     102.32102164      99.56898386
C      75.36117616      99.59792603      98.79608579
H      76.64996951      98.02189428      98.65435632
C      71.94266126      91.90862966      96.94793346
O      69.87530068      90.96187678      97.47138765
N      74.11395680      90.54991644      97.11611910
H      75.80904130      91.33226313      96.71927658
C      74.24056846      87.76634958      97.00651498
H      72.57949903      86.94998781      97.90980415
C      74.38229793      86.98400289      94.17759468
H      75.65597347      88.34082638      93.29509250
C      75.32905082      84.28547371      93.66169940
H      75.16275490      83.79225514      91.66803814
H      74.29348080      82.84550226      94.71238723
H      77.32649153      84.11350862      94.12846180
O      72.15242088      87.25045430      92.89069107
H      71.69321739      88.99089223      92.66770336
C      76.42698180      86.70810285      98.57876727
O      78.10694850      88.13106676      99.39134958
N      76.23233999      84.31759906      99.38190095
H      74.98323090      83.09305641      98.61845152
C      77.82348955      83.27447013     101.49461497
H      79.69809805      84.11917780     101.37556221
C      76.37217974      83.76201952     103.98905370
H      76.17375848      85.81048285     103.90779547
C      73.78892387      82.44299056     104.10999619
H      73.93065335      80.40019641     103.90401602
H      72.54359423      83.29525712     102.70592954
H      72.77792029      82.79636938     105.87311084
C      77.64585528      83.13652011     106.61010410
H      77.91797587      81.11262323     106.86710688
H      76.55359347      83.87729283     108.19180502
C      80.24422896      84.30437097     106.73860549
H      81.37050584      83.12896121     105.47626831
H      80.99634003      84.18720794     108.65289824
H      80.35383308      86.30937059     106.27562254
C      78.11072795      80.43232176     100.90313063
O      76.57438046      79.42509763      99.58032221
N      80.08549195      79.24557364     101.81586844
H      81.37428529      80.14319363     102.90057135
C      80.65618929      76.55838282     101.40579783
H      79.12551098      75.38864223     102.13712192
H      82.31158954      75.96878821     102.48294183
C      80.99822976      75.94611149      98.54286247
O      82.35883270      77.23490484      97.22005405
N      79.96643919      73.82961802      97.65280137
H      79.03291439      72.52759659      98.68837139
C      80.16863990      73.16443436      94.98639755
H      81.86372441      73.88253036      94.06043165
C      80.38406870      70.21835104      94.77096875
H      78.59638761      69.41899681      95.40969624
C      80.99822976      69.45679133      91.96850462
H      79.57337612      70.29016064      90.73451334
H      80.97555304      67.40265883      91.82299570
H      82.93141977      70.02559895      91.54898538
C      82.71977043      69.37553310      96.41125119
H      81.86372441      69.40009954      98.28396996
H      84.16541106      70.84007099      96.46038407
C      83.79124525      66.78849778      96.18448403
H      84.59248920      66.18945454      97.98539321
H      85.17830436      66.65621694      94.66892353
H      82.38906832      65.32395989      95.82354630
C      77.79325393      74.09795916      93.59555898
O      75.96777831      72.68255415      93.31398976
N      77.75734913      76.59050817      93.14958357
H      79.33149115      77.54859941      93.64658159
C      75.76935705      77.73190286      91.62079498
H      75.40652960      76.52814720      89.98807145
H      76.40430509      79.48178942      90.73829280
C      73.22767516      78.31393856      92.97950820
O      71.61762834      79.26825035      91.63969225
N      72.92531895      78.00024399      95.47016748
H      74.41631301      77.39364185      96.49628887
C      70.40631377      78.13441456      96.54164230
H      68.99468822      77.26136101      95.32276883
C      70.31938636      76.64342050      99.03608104
H      71.64219478      77.32183225     100.45904495
H      71.01291592      74.73101747      98.71104811
C      67.73613049      76.57350063     100.34566137
N      66.26214397      74.44755853     100.56109017
H      66.52292620      72.70334114      99.82976609
C      64.02470801      75.09195520     101.71004377
H      62.33907214      73.95433996     101.88200886
N      64.29682860      77.54670968     102.32609455
H      63.06094759      78.52558791     103.39945909
C      66.47379331      78.51424955     101.51729168
H      67.07850573      80.45877793     101.65524171
C      69.64286434      80.86506909      96.74384302
O      70.80315630      82.29559190      98.27074188
N      67.74368940      81.80615279      95.29820239
H      66.93866599      80.71956016      93.95082753
C      66.77237007      84.38373948      95.31898938
H      68.34651209      85.67064310      94.99773590
C      64.70500948      84.57838129      93.43871170
H      63.38598052      83.09872559      93.99240151
H      65.41176713      84.09839081      91.56410319
C      63.47857711      87.23911594      93.24029043
H      62.84929825      88.19153800      94.95616193
C      65.30972191      88.94742853      91.88157721
H      64.07384090      90.37984107      91.06710517
H      66.36985837      87.77768794      90.55687907
H      66.60985361      89.79213619      93.23840071
C      61.17878018      86.63440352      91.82677515
H      60.06006221      88.34082638      91.54142648
H      60.04116494      85.32293346      92.93415477
H      61.50570284      85.70276845      90.02208652
C      65.66688018      84.98278272      98.10066651
O      64.07195117      83.51635510      99.11733927
N      66.20356245      87.13707072      99.24395093
H      67.52637087      88.28035514      98.48050150
C      65.09051365      88.01768318     101.68925678
H      64.25147517      86.39818773     102.64734802
C      67.21078658      89.10427581     103.38623101
H      66.50780839      89.75434166     105.20981690
H      67.96289765      90.76156579     102.42436031
C      69.12318960      87.13707072     104.11377564
H      69.83939588      86.19976647     102.42247059
C      71.17543238      88.65452095     105.60476970
H      70.47623364      89.86583551     107.11655075
H      72.10706745      89.86394579     104.21960031
H      72.69477234      87.67753244     106.59498629
C      67.97612573      85.03569506     105.77295534
H      66.47001386      85.62339994     107.05230006
H      69.37830266      83.99445586     106.86332742
H      67.26747837      83.68076129     104.39345513
C      62.90221058      89.82426154     101.30753206
O      60.81406301      89.66174507     102.26751303
N      63.09307294      91.54391248      99.45937973
H      64.82028279      91.47966179      98.64679741
C      61.08051442      93.19175382      98.46349396
H      59.39865800      92.01445433      98.29719805
C      60.78571711      95.35360073     100.39857371