 %block lattice_cart
   139.898   0.000   0.000
   0.000 144.87   0.000
   0.000   0.000   168.12
 %endblock lattice_cart

 %block positions_abs
N      92.16745712      41.45010251      84.39164697
H      91.48148647      39.80793035      83.70567632
H      91.74793788      41.27624769      86.24546849
H      94.07419097      41.55781692      84.34251409
C      90.99204736      43.77068642      83.39576121
H      91.72715089      45.23522431      84.64109085
C      91.96714614      44.22988992      80.76148272
H      91.39077961      42.54614378      79.72780243
H      94.00616082      43.95587960      80.86919712
C      91.44747140      46.77724098      79.57473460
H      89.40278753      46.99833897      79.68055927
H      92.07297081      46.70543138      77.61319869
S      92.90256067      49.63828662      80.79360807
C      90.42135002      51.91162739      79.85252437
H      90.24182601      51.73210339      77.80784050
H      91.12810766      53.78812561      80.32306622
H      88.62233056      51.40140127      80.71801902
C      88.14422981      43.60816997      83.47890916
O      87.05763717      41.96221834      82.39798571
N      86.95559195      45.43931475      84.72234908
H      88.04974348      46.70165194      85.64642524
C      84.16068673      45.85505455      84.53715590
H      83.41235511      45.02924414      82.80427687
C      82.97015916      44.20910292      86.60073703
H      83.82242572      42.37795814      86.20578423
H      80.98405680      43.87651109      86.17365889
C      83.09866055      44.97066263      89.37107581
O      84.18714291      46.73566700      90.10995880
N      81.75317541      43.63273641      90.93954865
H      82.03096518      44.12217551      92.76313454
H      80.64201635      42.17764714      90.40097665
C      83.28007428      48.59137825      84.73557716
O      84.82964985      50.38472851      84.56361207
N      80.85555541      49.19420094      85.04738200
H      79.61778469      47.76367812      85.31005396
C      79.81242650      51.81525133      85.31383341
H      80.17525395      52.62594393      83.45434272
C      77.08555143      51.64517598      85.84295678
H      76.42036776      50.30724974      84.42377232
C      76.47894927      50.58126006      88.41865375
H      74.44182431      50.29969083      88.31471880
H      76.89468906      51.69241913      90.10239989
H      77.55420355      48.83137349      88.59061884
C      75.65880806      54.15284279      85.54060057
H      76.02541496      55.21297924      87.26781042
H      73.65947761      53.69930847      85.34028958
C      76.20682869      55.94430334      83.42410710
H      77.78097070      57.16317680      83.96267910
H      74.62134830      57.15183844      82.90065291
H      76.83988701      54.86526960      81.78949384
C      81.15413218      53.55757900      87.21867754
O      81.44515003      55.90272935      86.73112815
N      82.00072957      52.48799390      89.48445939
H      81.75695487      50.63606212      89.87185328
C      83.01362287      54.18685786      91.45544393
H      81.77396240      55.82903002      91.56126860
C      83.14779344      52.85082135      94.01035391
H      83.97549355      54.08103318      95.43898700
H      84.47816076      51.30880468      93.70421824
C      80.75917938      51.92485546      95.01568830
C      78.64268591      53.48387967      94.90608418
H      78.80331263      55.47943066      94.51113138
C      76.21438760      52.58248022      95.55237058
H      74.62512777      53.86371467      95.62040072
C      75.86667794      49.92741476      95.96055146
H      74.07710714      49.08270710      96.45565975
C      78.06820910      48.31169875      95.83393980
H      78.24206392      46.28024296      95.74323293
C      80.50595605      49.27734890      95.59016510
H      82.13678985      48.05469598      95.64496717
C      85.68380615      55.18274363      90.67309724
O      86.40379187      57.26711176      91.38552406
N      87.10299061      53.68041120      89.26714086
H      86.41701996      51.96453972      88.78337092
C      89.39522862      54.65173053      88.02370095
H      90.84842815      55.61171151      89.12352166
C      90.91456858      52.29524183      87.29993577
H      92.43579826      52.92263096      86.06027531
H      89.48971493      51.09148616      86.42310276
C      92.32241468      50.80235803      89.42209842
H      90.95425284      50.43764085      90.92065138
H      93.92490259      51.94375272      90.03248002
C      93.46380938      48.40618507      88.50369143
O      91.95580778      46.59393753      88.30338044
O      95.78628302      48.15674119      88.16732015
C      88.85476690      56.22587255      85.67666087
O      90.33064315      57.92662624      85.50280604
N      86.75150152      55.80446358      84.25369695
H      85.83687398      54.13961470      84.44455931
C      85.98805208      57.36159806      82.12208567
H      87.55274546      57.49576864      80.79171835
C      83.85833052      56.08225335      80.78982862
H      82.26529124      56.53578767      82.01437127
H      84.27596005      54.06780511      80.69345258
C      83.19503660      56.93263020      78.07240218
H      84.76350944      56.66239934      76.76471157
H      82.83031941      58.95652707      78.11208643
S      80.53808140      55.19219225      76.78927802
C      80.85555541      56.42240408      73.68256796
H      79.94281760      58.23465162      73.32918914
H      79.92014090      55.30746557      72.22747870
H      82.78118653      56.25610817      72.96825141
C      85.32664787      60.08280396      83.00458786
O      85.90490413      61.94985356      81.67044108
N      84.17958401      60.50988211      85.28926697
H      83.24227974      59.04723393      86.08106230
C      83.76006476      63.08368934      86.15665135
H      83.12889617      63.93784564      84.39164697
C      81.47916509      63.13471196      87.95756052
H      81.27696438      65.03010744      88.73423804
H      81.54908497      61.55301103      89.27847922
C      79.07732295      62.38071116      86.60073703
H      79.44581959      60.95018833      85.16643476
C      76.94193222      61.61159254      88.42243320
H      76.56965614      63.16494757      89.72067517
H      77.42570216      60.00343546      89.61674023
H      75.26007580      60.98042395      87.41520907
C      78.10033445      64.67483889      85.15131695
H      76.29375609      64.08713402      84.35763190
H      79.24739833      65.25120542      83.54127013
H      78.07387829      66.39637957      86.28137329
C      86.21292951      64.46885873      87.22245699
O      86.57575697      66.62881590      86.59128840
N      88.02706678      63.10447634      88.38274895
H      87.62455507      61.24309591      88.49424280
C      90.65189663      63.76588055      89.13863947
H      90.60843292      65.20207253      90.61640545
C      92.06919135      61.49253978      90.23090128
H      93.40333813      60.72909035      88.86084970
H      90.73693431      59.96375120      90.58994928
C      93.84931355      62.12937756      92.41353517
H      92.81563325      62.62259613      94.12751694
H      94.85464795      63.86792576      91.94866250
C      95.83730562      60.19429781      93.29414763
H      94.81496369      58.57291263      94.04814843
H      96.97114142      60.85192256      94.88151774
N      97.74403947      59.66139499      91.19844115
H      97.83852580      61.06546164      89.90964781
C      98.45268684      57.46931247      90.29137252
N      98.19757380      55.31313474      91.32505281
H      98.73236633      53.72765436      90.40475610
H      97.40955791      55.10715457      93.05037294
N      99.77549526      57.54679124      88.24479892
H     100.39910495      55.91028825      87.48134949
H     100.15910970      59.20597095      87.38497345
C      92.03706600      65.09435815      87.09395560
O      93.11798946      67.18439544      87.35473783
N      91.99360230      64.01343468      84.77904087
H      91.05818777      62.35236525      84.74880525
C      93.34475661      64.82790672      82.50947956
H      95.26282882      65.40238353      82.99702895
C      93.60553884      62.63393448      80.63109161
H      91.73282008      61.77788847      80.52715666
C      94.51449720      63.18951402      77.96468778
H      95.96202756      64.65216218      77.89665763
H      93.06696686      63.96997099      76.72502732
H      95.24393156      61.53411377      76.98014037
C      95.51227270      60.84058420      81.78382466
H      94.98503905      60.58547115      83.75669893
H      97.46058052      61.49065006      81.64020546
C      95.37810214      58.36315301      80.46668542
H      93.46569910      57.72253579      80.03393809
H      96.22847898      56.82680552      81.54382942
H      96.34564201      58.57291263      78.66010706
C      92.03139684      67.10124749      81.25848075
O      93.24271139      68.82656760      80.27771279
N      89.52184028      67.09368858      81.32651089
H      88.67524289      65.65371713      82.24869733
C      87.85888113      69.05144504      80.21346209
H      88.49949835      69.74686432      78.38231730
C      85.17735949      67.86469691      79.90543671
H      83.87155861      69.45962592      79.93567233
H      84.76728888      66.63637481      81.50792462
C      84.80697313      66.53055013      77.42044660
O      86.34898981      66.52299123      75.67056004
O      82.66024404      65.48931093      77.17856164
C      87.70392358      71.57422966      81.66099245
O      88.14234007      73.54332448      80.55172310
N      87.55463520      71.50430979      84.14220310
H      87.56219411      69.79599720      84.99446967
C      87.40156737      73.65292861      85.80894171
H      87.54140711      75.36880010      84.67699565
C      84.69169984      73.99685880      86.90498297
H      84.66902311      75.21384254      88.56605240
H      83.96037574      72.15248591      87.45111387
C      83.03629958      75.32533639      84.80927649
H      81.16736026      75.12124595      85.64831497
H      83.09110165      74.32000200      83.01214676
C      83.40101676      78.20527929      84.40109560
O      81.44892947      79.43549112      84.04015788
O      85.54774585      79.17092944      84.61463468
C      89.30830122      73.60379572      88.11629754
O      90.42890891      75.51619875      88.59250857
N      89.31963957      71.57989884      89.66020393
H      87.83998386      70.39504044      89.42776760
C      90.78039802      71.36258032      92.03181046
H      92.65689624      72.17705236      91.79181521
H      90.99204736      69.43316975      92.71967083
C      89.63144442      72.87436137      94.27869504
O      87.89478593      74.27464856      94.07271487
N      90.46481371      72.60035105      96.55959470
H      92.05407354      71.61958309      96.95076805
C      88.89445115      72.98774494      98.74600805
H      86.93480496      72.62491749      98.22255386
C      89.41979506      70.87314120     100.80769945
H      91.21503506      71.24541728     101.74689343
H      89.92057253      69.11191628      99.86472602
C      87.34865502      70.43472470     102.83915524
H      86.75906041      71.99752836     104.04480063
C      84.72760464      69.49742044     101.61272286
H      85.23405128      67.80989485     100.54502750
H      83.66557844      70.91471518     100.56014531
H      83.50684143      69.05522449     103.21143132
C      88.15178872      68.19728874     104.49077604
H      88.16312706      66.43228437     103.43063958
H      86.76095015      67.99508803     105.99499818
H      90.04718421      68.39948946     105.27312273
C      89.37066218      75.79776797      99.82315204
O      91.56274471      76.63113728      99.92897672
N      87.37511119      77.34167437     100.21999457
H      85.64790135      76.80877155      99.61150270
C      87.72849002      80.02319601     101.14973992
H      89.76183553      80.35578784     101.21210088
C      86.62677958      81.75985449      99.01056973
H      86.06364113      83.60989655      99.72110682
H      84.89390055      80.81121188      98.42286485
C      88.52406479      81.89780451      96.77313378
H      89.06074706      80.07232889      95.98133845
H      90.31552533      82.67448202      97.42886881
C      87.34109613      83.54753558      94.61128687
H      87.14267485      85.48639478      95.27836026
H      85.47971570      82.78408615      94.17098064
N      88.97759910      83.54375613      92.27369542
H      90.51772605      84.67192274      92.34739475
C      88.57697713      82.46472240      90.11184852
N      86.80630357      80.73940228      89.67532174
H      86.56063915      79.84934119      88.00291396
H      86.09387675      79.94571723      91.25891239
N      90.21725957      82.65936421      88.36763113
H      89.93569034      81.40836540      86.95411585
H      91.89533653      83.52107941      88.65675926
C      86.52662409      80.25563234     103.71220880
O      84.27407031      79.99673984     104.12605886
N      88.15934762      80.83199887     105.60571456
H      89.97915406      80.77530708     105.03312749
C      87.61510644      81.13057563     108.29479511
H      85.85010206      80.07799807     108.44030403
C      89.87143965      79.76241378     109.84815013
H      89.61254715      80.45783306     111.76811207
H      91.77250432      80.20838919     109.19052538
C      89.16657174      76.85601472     109.90484192
H      87.61699616      76.62735782     111.24087843
C      88.97381965      75.21573227     107.51055869
H      88.36343805      73.32222650     108.04535123
H      90.73693431      75.16659938     106.44853250
H      87.43369272      76.07555774     106.44853250
C      91.54762690      75.75052481     111.30323940
H      93.32396962      76.22295639     110.37160432
H      91.29251385      73.71906903     111.50732984
H      91.58731115      76.77097702     113.09281021
C      87.10110088      83.78564110     109.13383359
O      86.34898981      84.33933091     111.28812159
N      87.36755229      85.42781326     107.38016757
H      88.14989898      84.97049950     105.70020088
C      86.91023853      88.23405684     107.67874433
H      86.16190690      88.67436307     109.54579392
C      89.63333413      89.29986248     107.48788197
H      90.27206164      88.93325557     105.56414058
H      91.02417270      88.44381646     108.74077052
C      89.48782521      92.11555468     107.98110054
H      89.38389026      92.55775064     109.98987961
H      88.00250034      92.82987123     106.74521953
C      91.95580778      93.23427266     107.10426753
H      91.96336669      93.21348568     105.04257612
H      93.63388474      92.19303346     107.68063405
C      92.30918659      95.93469156     107.84881970
H      92.23359755      96.02917788     109.90484192
H      90.76716992      97.07419653     107.09670862
N      94.73937463      96.87199581     106.81324968
H      96.07730086      95.99894226     107.85826833
H      94.88299384      98.76928103     106.96820723
H      95.02850276      96.28996011     105.01989940
C      85.02429166      89.01829326     105.65862690
O      85.07531428      87.76918416     103.64984783
N      83.12889617      90.75495174     106.10271258
H      82.92669545      91.35588471     107.90362176
C      81.38467879      91.77729367     104.14873557
H      80.18092312      90.17858521     103.65551701
C      79.89368472      94.04307552     105.29201999
H      81.10310957      95.51706205     106.06869751
C      78.33655024      95.19580858     103.17174707
H      77.09122060      93.94103030     102.11539006
H      79.67069702      96.04429569     101.85082838
H      77.10255896      96.65278756     103.94653486
C      78.07954746      93.13600689     107.56536075
H      79.11322775      91.86044164     108.81069039
H      76.74918013      91.91146424     106.57703389
C      76.66792190      95.08809418     109.08659043
H      75.73250738      94.43613860     110.80057220
H      75.18448675      95.89689704     107.90929094
H      77.89246456      96.47326356     109.99743851
C      82.80008380      92.54641228     101.66374547
O      84.71437654      93.82764672     101.69776055
N      81.58310005      92.19870264      99.45843487
H      80.04297310      91.07053603      99.51323693
C      82.55063992      93.02262331      96.96777559
H      83.50873115      94.84242975      97.06226190
C      84.32887238      91.04407987      95.84716788
H      85.81041780      90.58109692      97.20021192
H      85.45325954      91.97382521      94.39396835
C      82.91913654      88.68192197      95.01190885
C      82.20482000      88.24917465      92.46455778
H      82.55441938      89.53796799      90.92065138
C      81.14279382      85.87756813      91.81260220
H      80.86689377      85.40135709      89.84728684
C      80.60611155      84.06721032      93.74579222
O      79.70093263      81.68615516      93.26013256
H      79.29464148      81.56710241      91.49890764
C      81.16169107      84.61334122      96.32715837
H      80.77429718      83.21305402      97.76146064
C      82.28607823      86.90179979      96.96399613
H      82.59599335      87.40068753      98.91797314
C      80.33966014      93.55552614      95.07426982
O      78.29686599      92.44814652      95.28402944
N      80.75917938      95.20525721      93.22989694
H      82.37678510      96.20681215      93.39808258
C      78.90157841      95.73249085      91.19277197
H      76.95516030      95.57753329      91.85228646
C      79.05464624      98.34409261      90.13074578
H      77.95293580      98.11165628      88.40542566
H      81.03507941      98.64266937      89.64130667
C      77.89435428     100.53239568      91.79181521
H      79.03763871     100.58341830      93.50390725
H      76.06131975      99.94469080      92.51558039
C      77.70160219     103.07785703      90.35751294
H      76.35044788     102.83975151      88.82116545
H      79.54219563     103.58619340      89.59028406
C      76.74351096     104.90711210      92.31337968
H      78.24962283     105.38899231      93.63618810
H      75.06921345     104.32507639      93.36595723
N      76.23328485     107.27115971      91.07749867
H      75.25440663     108.43901058      92.22834199
H      75.09944906     106.96502406      89.57327652
H      77.83955223     107.94768174      90.29893143
C      79.06409487      93.70481451      89.20666962
O      80.87634241      93.68780698      87.81772078
N      77.06854388      92.25161498      88.96478465
H      75.48495324      92.75239245      89.90397863
C      76.76618767      90.31464551      86.84829118
H      78.62567836      89.44726113      86.67632608
C      74.78008532      88.43247811      87.53804128
H      72.91114599      89.29986248      87.49646730
H      75.26007580      87.70304374      89.40320115
C      74.54764898      86.22149831      85.56138756
O      76.50162599      85.08766253      84.77904087
O      72.36312537      85.59788863      84.94533678
C      76.20682869      91.71304299      84.43889013
O      75.93470809      94.05252416      84.30849901
N      76.41469858      90.45070580      82.18822609
H      76.54319996      88.55342058      82.33184529
C      76.28430746      91.46737856      79.66355174
H      77.98317141      92.53507393      79.20056879
C      75.80242725      89.24883987      77.71713363
H      75.22228128      89.97071533      75.87654021
C      77.80553714      87.30053204      77.26926850
H      78.50662561      86.72983469      79.12120029
H      79.43259151      88.14901915      76.33385397
H      77.11767676      85.65080097      76.24125738
O      73.65947761      87.92603146      78.59396664
H      73.31932688      86.54842097      77.46202058
C      74.22072633      93.41757611      79.09096466
O      74.67992982      95.43202436      78.05917410
N      71.77353075      93.15301443      79.86953191
H      71.35401151      91.54485734      80.80683616
C      69.58900714      94.98226950      79.49914555
H      69.56255096      95.72115249      77.57540416
C      66.97740537      93.68780698      79.80717094
H      65.68861202      95.02006403      78.90766121
H      66.65615189      93.43836310      81.82728837
C      66.48607653      91.28596484      78.44089881
H      64.55288651      90.64534761      78.75270365
H      67.83156166      89.81386804      78.95112492
C      66.77331494      91.73949915      75.59497099
O      67.18149582      89.89701599      74.27405229
O      66.22529431      93.81441864      74.50459890
C      69.87435582      97.31797122      81.25659102
O      68.52131178      99.15289547      80.98258070
N      71.88502460      97.29907396      82.87041729
H      72.95838915      95.71926276      82.89498373
C      72.31210275      99.17557220      84.78282032
H      71.50141017     100.96325328      84.16110036
H      74.26419003      99.77272570      85.06438954
C      71.12913409      98.61999265      87.34528920
O      71.26141492     100.13933262      89.08950659
N      70.23529353      96.41657177      87.71567556
H      70.37513329      95.26950790      86.19633560
C      69.07878103      95.62477645      90.07783345
H      68.10557198      97.26316916      90.85640069
C      67.09267868      93.75016795      89.57327652
H      65.95884290      93.40434803      91.25513294
H      67.95817332      91.95681767      89.05360179
C      65.13114276      94.10354677      87.47568032
C      64.15793371      91.89067725      86.41743358
H      64.61335775      90.07465027      87.22812617
C      62.46851839      92.04185536      84.38786752
H      61.68617169      90.46582361      83.35418723
C      61.68428197      94.33598310      83.32962078
O      60.08935296      94.17346664      81.19611978
H      59.65471591      95.78351346      80.48747241
C      62.71796226      96.67924374      84.34440381
H      62.28521493      98.55952141      83.67922015
C      64.47351800      96.46759438      86.30405000
H      65.28232087      98.15323025      87.12041177
C      70.90803611      94.84054003      92.19810637
O      72.52753155      93.26828774      91.72189534
N      70.53953947      95.78540318      94.47144713
H      69.13169336      97.04396091      94.75112662
C      72.05509997      94.92179826      96.72589062
H      74.04687150      95.17691131      96.27235630
C      71.54487388      96.82475266      98.90474506
H      72.19871918      96.00272171     100.67541861
H      69.48507220      96.93435678      98.93498068
C      72.61445897      99.46470032      98.80647929
C      71.03275804     101.57363488      99.04080535
H      69.02019952     101.36954444      99.30725676
C      71.98140065     103.95657977      98.57593268
H      70.71906347     105.52883205      98.87450944
C      74.64969421     104.30239968      98.25467920
O      75.72116902     106.50960001      98.07893466
H      74.69315790     108.00437352      98.01279424
C      76.18037251     102.20291374      98.39262923
H      78.19482077     102.37298911      98.10728055
C      75.18070729      99.77272570      98.66852927
H      76.39013213      98.13055354      98.74033887
C      71.71494924      92.13256223      97.53469348
O      69.55499206      91.28029565      98.00712506
N      73.76341257      90.72660584      97.51201676
H      75.50951968      91.49761418      97.49311950
C      73.87301669      87.82965541      97.51957567
H      72.01352600      87.10966969      98.03736068
C      74.70638600      86.95849158      94.78892115
H      76.55264861      87.73516909      94.31459984
C      74.44938321      84.13901992      94.21444435
H      72.54642881      83.47761571      94.64719167
H      75.82132451      83.33399651      95.52402468
H      75.05598536      83.77241301      92.28125433
O      72.89602819      88.09421709      93.02391677
H      73.24562755      89.85544201      93.29036818
C      75.64557998      86.84699772      99.61906160
O      76.98539593      88.31720480     100.77179465
N      75.34322377      84.43570696     100.13306716
H      73.79175846      83.46060817      99.60016434
C      77.12145623      82.99762522     101.70720918
H      78.99606472      83.84422261     101.60894341
C      76.16525470      83.20360539     104.53046029
H      75.59455736      85.14057486     104.93864117
C      73.67081598      81.66347845     105.01045077
H      72.94516107      81.82410518     106.93230243
H      73.80309682      79.66225828     104.54557810
H      72.24785206      82.61590051     103.86716635
C      77.98695087      82.62534915     106.60915923
H      78.53686122      80.64680569     106.46742976
H      77.13279457      82.95794097     108.45353212
C      80.30564505      84.27885966     106.67529966
H      79.89557444      86.22338804     107.22332029
H      81.41302468      84.57743642     104.96509734
H      81.42625276      83.64391163     108.28156702
C      77.36334118      80.31421386     100.85683234
O      75.60211627      79.36368152      99.67575339
N      79.44204013      79.03486915     101.52957490
H      80.84988623      79.88902545     102.49333532
C      79.75762442      76.35145778     101.47477284
H      77.95104607      75.53698574     102.03602156
H      81.04830749      75.70139193     102.94309019
C      80.54753002      75.22329117      98.98978274
O      82.62244951      75.62958233      98.04680931
N      78.77496675      74.06488894      97.66319487
H      77.13657403      73.59623682      98.52491007
C      78.74473112      74.08756566      94.79459033
H      80.06753954      75.51619875      94.12751694
C      79.37400998      71.49108170      93.63429837
H      77.97183306      70.00575682      93.90074978
C      79.43637096      71.85768862      90.69010477
H      79.41558396      70.10402259      89.60918132
H      81.05964585      73.04065728      90.23846018
H      77.70349193      72.77231614      90.05515673
C      81.87033844      70.57645417      94.60561769
H      81.77207268      70.02654381      96.58794060
H      83.26495647      72.08634549      94.49790329
C      83.36889142      68.48641687      93.10706473
H      84.21926826      69.33490398      91.43654667
H      82.22560699      66.80833990      92.76502427
H      84.93358480      67.93839624      94.32782793
C      76.00840743      74.73763151      93.91964704
O      74.27741812      73.33356486      94.57916153
N      75.72494847      76.88436060      92.69699412
H      77.25373706      77.97851214      92.37007147
C      73.37790839      77.89158473      91.64441656
H      72.36879454      76.52909207      90.47467597
H      73.68971323      79.42226304      90.30082115
C      71.20661287      78.60401155      93.41886957
O      69.25830504      79.23329041      92.46077833
N      71.44471838      78.55109921      95.95299256
H      73.17570767      78.35645741      96.73344952
C      69.31877628      78.88369104      97.67264350
H      67.69172191      78.00118885      96.76557487
C      69.64002974      77.42671205     100.16519251
H      70.93449227      78.50007660     101.35383036
H      70.43560453      75.59367753      99.66630476
C      67.19472389      76.91837569     101.52201600
N      65.90782028      74.67527054     101.56925916
H      66.60134984      73.09734907     100.74722821
C      63.94061518      74.86991235     103.20009297
H      62.75764651      73.25797581     103.60449440
N      63.85557750      77.18860654     104.09393351
H      62.74063897      77.98796077     105.42052138
C      65.74152437      78.64180607     102.85427305
H      66.02120385      80.65436460     103.03757650
C      68.84823442      81.65025036      98.08271411
O      70.29387506      82.88046219      99.46221432
N      66.88669850      82.71038683      96.88084817
H      65.67160449      81.72583942      95.78858637
C      65.84167985      85.29931188      97.25690371
H      67.39314516      86.44826547      96.53691799
C      63.56833910      85.50529204      95.63551853
H      62.30600192      84.05398223      96.37818098
H      63.99163779      85.16136185      93.64752645
C      62.00931489      88.10744517      95.86984460
H      61.73152512      89.02396244      97.69532022
C      63.37747674      89.86867010      94.20688544
H      64.76453586      90.90424013      95.31993424
H      61.95640255      91.21415523      93.57004767
H      64.35257552      89.09388231      92.56471328
C      59.32023435      87.79753006      95.01757803
H      58.41127599      86.54653124      96.37818098
H      59.29377819      86.76573949      93.23745584
H      58.20718555      89.49828374      94.68309647
C      65.18216537      86.10811474      99.93653562
O      64.13714673      84.49806793     101.25556459
N      65.82089286      88.46082400     100.68675697
H      66.77520465      89.41513578      99.33938211
C      65.30499758      89.68536665     103.10938610
H      64.54532760      88.26618219     104.39251027
C      67.84667948      90.77762846     104.08070543
H      67.38936570      91.86422109     105.77012075
H      68.63091589      92.19303346     102.80702989
C      69.83278183      88.74050349     104.67218976
H      70.33544903      87.91658282     102.85427305
C      72.05698971      90.28440989     105.72098787
H      73.58199884      88.98805764     106.20097835
H      71.38424714      91.43714294     107.28946071
H      72.64091514      91.64123338     104.28479587
C      68.75374810      86.72416551     106.47309894
H      67.92037880      87.60855743     108.13605810
H      70.28253670      85.42403382     106.93041271
H      67.21362117      85.68292632     105.58492757
C      63.07134109      91.63556420     102.89395730
O      61.06067228      91.18769907     103.89551225
N      63.31889523      93.44403228     101.24800568
H      65.06122290      93.92591249     100.62817545
C      61.21185039      94.89534209     100.10661099
H      59.81156319      93.49316518      99.53969310
C      59.99297693      96.81341430     102.05869827