 %block lattice_cart
   139.898   0.000   0.000
   0.000 144.87   0.000
   0.000   0.000   168.12
 %endblock lattice_cart

 %block positions_abs
N      92.39611401      43.45037781      85.70784135
H      92.19202356      43.69793195      87.59189848
H      94.26316361      43.42581136      85.32044745
H      91.81785776      41.71560905      85.16171044
C      91.14511520      45.65757814      84.41715828
H      92.09564753      47.28274277      85.25241731
C      91.57030362      46.00906723      81.64115032
H      90.77283911      44.47083002      80.52243235
H      93.59797995      46.05064121      81.27265369
C      90.18135478      48.44681418      80.71518443
H      88.17824488      48.25784155      81.14793176
H      90.44969590      48.76995738      78.70073618
S      91.40022825      51.24549885      82.24586274
C      89.07208542      53.23538066      80.65660291
H      89.43302316      55.14967341      81.32934548
H      87.11243923      52.72704428      81.03076872
H      89.63333415      53.23160120      78.67428001
C      88.21603941      45.80875625      85.11257756
O      87.08976252      43.83399225      85.39981596
N      87.10865979      47.96682369      85.67760573
H      87.96848526      49.66568765      85.80610712
C      84.40635115      48.08020727      86.69616821
H      83.16669069      46.83487763      85.62469339
C      84.30430594      47.21471262      89.47217616
H      85.01106357      45.28152260      89.59311865
H      82.31064468      47.22416125      89.99374063
C      85.73860821      48.96270946      91.20883465
O      85.14334442      51.16802007      91.30521069
N      87.84187359      48.18225250      92.19527178
H      88.60154358      49.36144171      93.49162403
H      88.05541267      46.28874673      92.29353755
C      83.22338249      50.76928782      86.41837844
O      84.57453681      52.60610179      85.88547562
N      80.77051773      51.03195977      87.01364223
H      79.85400048      49.56742188      87.82244509
C      79.25495724      53.38466903      86.76419836
H      79.35322299      53.95158693      84.78754463
C      76.59422258      52.82153059      87.54654505
H      76.13879855      51.00361389      86.69238876
C      75.92714919      52.32264285      90.29042766
H      76.85311508      50.68236041      91.12379696
H      73.97884137      51.66312836      90.40381124
H      76.25596158      53.89678486      91.57733128
C      74.74607024      54.57708634      86.16704484
H      75.50385049      54.41834933      84.25842127
H      74.91803535      56.52539417      86.81522097
C      71.93793695      53.87788760      85.87602699
H      71.04409641      54.01583762      87.72606905
H      71.90203215      52.08453733      84.86313369
H      70.91748474      55.16668095      84.63069735
C      80.20171011      55.86021050      88.33078147
O      79.75762443      58.02772658      87.62213410
N      81.80797748      55.45013989      90.20538997
H      82.23505563      53.65112044      90.68349073
C      82.73016392      57.56096419      91.70394294
H      81.30908974      59.04439934      91.84000323
C      83.08732219      56.76160996      94.56498858
H      83.65612981      58.46614309      95.57221270
H      84.65768476      55.42935290      94.61790091
C      80.97271844      55.64289198      96.07676963
C      80.02785529      56.82019147      98.33310285
H      80.81965062      58.45858418      99.26284819
C      78.13057007      55.51439059      99.63890373
H      77.14980211      56.42712840     101.17903067
C      77.14413294      53.26939573      98.73372482
H      75.63991080      52.29051750      99.70882360
C      78.04931185      52.12422158      96.53030394
H      77.01752128      50.58598436      95.67425792
C      79.95604570      53.35632314      95.26796677
H      80.64390608      52.38878327      93.60689734
C      85.14334442      58.54173214      90.28097903
O      85.48727462      60.77160919      89.65358989
N      86.60599258      56.75783050      89.34178505
H      86.20915007      54.91723707      89.65736934
C      88.84342854      57.26427715      87.70906151
H      89.80718896      58.78928629      88.70683701
C      90.65567608      55.01928229      87.78087111
H      92.02761738      55.64100225      86.37680446
H      89.73726909      53.39411767      86.90970728
C      91.71770226      54.09898558      90.27908930
H      92.56807910      52.27162024      89.85579061
H      90.23237739      53.84198280      91.68504568
C      93.74726833      55.44825017      91.57544155
O      93.61687720      56.01138861      93.87334875
O      95.70313506      56.12666191      90.35089890
C      88.12722227      58.29417800      85.11446729
O      89.55207590      59.84375357      84.18850139
N      85.99939045      57.54395665      83.91449108
H      84.75028135      56.41012086      84.80833162
C      85.18491841      58.84597808      81.67894485
H      86.59843369      58.58519585      80.20495833
C      82.61111116      57.64789160      81.04021736
H      81.31664864      58.47181227      82.41215866
H      82.63000842      55.58808991      81.10824750
C      81.71349117      58.40567185      78.48341765
H      83.00984342      57.89544574      76.96407770
H      81.64924047      60.45791462      78.62514713
S      78.66914207      57.38521964      77.65004835
C      78.92803457      56.62743939      74.30145332
H      77.05153635      56.05485231      73.67217446
H      80.20171011      55.09109189      73.79500667
H      79.40802507      58.33197252      73.24887577
C      85.03940947      61.70135454      81.95862434
O      85.84254316      63.15644380      80.24086313
N      84.36477719      62.72747593      84.20361920
H      84.00006000      61.58986068      85.69083381
C      84.26273196      65.43923319      84.50408569
H      83.71471132      66.25181550      82.69372788
C      82.15757685      66.13843192      86.51664421
H      82.59032418      68.09051920      87.01175250
H      82.42213854      64.92522763      88.16070610
C      79.29653121      66.05339424      85.67760573
H      77.96616389      66.03071753      87.24985802
C      78.36678586      68.43822884      84.44361445
H      76.39202187      68.44578775      83.85779929
H      79.38912780      68.96357277      82.73152241
H      78.66158316      69.95567908      85.80421739
C      78.72016469      63.91989323      83.81622531
H      79.63101276      64.33185357      82.01720586
H      76.72083425      63.94068022      83.32678619
H      78.98472637      62.13221214      84.80644190
C      86.78929605      66.60708406      85.13147482
O      86.85732619      68.95601386      85.23540977
N      88.84342854      65.14065643      85.39603651
H      88.90012033      63.30573218      84.87447204
C      91.25849878      66.31417647      86.25208253
H      90.88622269      67.27982661      88.03409444
C      93.06507713      64.04461517      86.63569697
H      93.38255115      63.16589243      84.80077272
H      92.27517153      62.82196224      88.09267596
C      95.59920012      65.07073655      87.63914164
H      95.19857814      66.31228674      89.23218092
H      96.41367216      66.31417647      86.21239827
C      97.74781893      63.11675955      88.11535267
H      99.54305892      64.07863024      88.42715751
H      98.15788953      61.94701896      86.46940105
N      97.16200378      61.30451202      90.10523448
H      96.63099068      59.49415420      89.80665772
C      97.60042028      61.78261277      92.59400403
N      98.51882726      63.83674527      93.55587473
H      98.56040124      64.05406380      95.45127022
H      99.40699864      65.04805984      92.37668551
N      97.07507637      60.06485155      94.27397073
H      97.63443536      60.46925298      96.05220319
H      96.02816798      58.57574722      93.69382475
C      92.16934686      68.27571238      84.44172472
O      93.00271616      70.38653668      85.10501865
N      91.96903586      67.66344105      82.04555175
H      91.46447894      65.87009079      81.62603251
C      92.51894623      69.40954817      79.97063226
H      93.78317313      70.83818127      80.74919950
C      94.04962454      68.04705551      77.74831412
H      94.48048214      69.51726257      76.37448309
C      96.48548175      66.88487381      78.81789921
H      97.70435523      66.58440733      77.18517568
H      96.05462415      65.10097217      79.75709319
H      97.51727231      67.98847398      80.21629668
C      92.39800374      65.87764970      76.59180161
H      90.54796167      66.49181074      75.92850768
H      92.02194821      64.40744262      77.98641963
C      93.61876693      64.73058582      74.26365880
H      95.35920486      63.86320144      74.94207054
H      94.23670743      66.10819631      72.86148187
H      92.54162294      63.17723079      73.44351758
C      90.25694383      70.89298332      78.86703210
O      90.67268361      72.76381237      77.68973260
N      87.86832976      70.16543870      79.32245614
H      87.65290097      68.75759260      80.59424195
C      85.52317942      71.25581078      78.13570801
H      85.86521988      72.05327528      76.26487896
C      83.44448046      69.17144265      77.89949222
H      81.54530553      69.95756880      77.76532166
H      83.42936266      68.22846922      79.73063702
C      84.13423058      67.21368619      75.86425698
O      82.54497075      65.58663184      75.45607610
O      86.03151578      67.52549103      74.56979446
C      84.39690253      73.40442960      79.80244662
O      82.90968792      74.81416542      78.93884170
N      85.17735950      73.47057001      82.24397302
H      86.26017268      71.97957596      82.73719158
C      84.33076211      75.47179019      84.08078699
H      84.35721828      77.41064938      83.38536771
C      81.63034321      74.86707777      84.87636177
H      81.73049871      73.02270488      85.78909958
H      80.36233685      74.84062159      83.25308687
C      80.38690329      76.47145541      86.90214838
H      81.68136582      76.82861367      88.46117259
H      78.72016469      75.51903334      87.64859027
C      79.73872717      79.28714762      86.16515512
O      80.21871764      80.93309923      87.71284097
O      78.89401951      79.75957919      83.99952876
C      86.10332539      75.78170531      86.25019280
O      86.65701519      77.90386796      87.20072514
N      87.35243449      73.65765293      87.02120114
H      86.70236863      72.08540063      86.15381676
C      89.19113818      73.49702619      89.07155419
H      90.55552058      75.03148395      88.91659663
H      90.21536984      71.71312454      89.16037132
C      88.12344282      73.93355296      91.75685528
O      85.84821233      73.41198851      92.00062997
N      89.71081292      74.53259621      93.56532336
H      91.40967688      75.02392504      92.84722736
C      88.87366417      74.76314282      96.14479978
H      86.84220837      74.48346333      96.34511076
C      90.02639722      72.62586236      97.76807468
H      92.06919136      72.88097541      97.80586920
H      89.52184028      70.75125385      97.08210403
C      89.03429091      72.43877946     100.48739084
H      89.24405053      74.32094686     101.29808343
C      86.18269389      71.94178143     100.62156141
H      85.23594101      73.57639470      99.79953046
H      85.40979583      71.89453828     102.52829526
H      85.88222740      70.10307772      99.74661813
C      90.34954042      70.46590518     102.15601918
H      89.31586013      70.46023600     103.93614136
H      92.26572289      71.10841213     102.54908225
H      90.47993152      68.48925145     101.59477046
C      89.61254716      77.29726580      97.28430474
O      91.98037423      77.71111587      97.59044040
N      87.86455032      78.87518728      98.24617544
H      86.07120004      78.33094610      97.88712744
C      88.35209971      81.15041776      99.77685375
H      90.27206164      81.17687392     100.52896482
C      87.78329208      83.55603935      98.22160899
H      87.85510169      85.26813139      99.35922423
H      85.83876371      83.44265577      97.55075615
C      89.55207590      84.20610521      96.05031346
H      90.07930955      82.39196795      95.22639279
H      91.25471932      85.15663753      96.70982794
C      88.35776888      85.78780613      93.97350424
H      89.78073280      86.82148642      92.90202942
H      87.00094538      87.19376250      94.62357009
N      87.18802829      84.16264150      91.91937174
H      86.85543646      82.34850424      92.40881085
C      86.69291999      84.74467720      89.54020631
N      87.07275499      87.01234877      88.72951372
H      86.53040354      87.36194814      86.93238400
H      88.16312706      88.20287636      89.74807621
N      85.52128968      83.23478588      88.00385882
H      84.89012109      83.71477637      86.26909006
H      85.05074783      81.55481918      88.78053633
C      86.38300489      80.99168074     101.97082600
O      84.21926826      80.39452723     101.38312112
N      87.08976252      81.67009250     104.32164553
H      88.75083195      82.56582277     104.59565585
C      85.68002669      81.17687392     106.49294107
H      83.99817028      80.09972992     105.99216359
C      87.23905090      79.54226066     108.43180026
H      86.08253840      79.32305242     110.12121559
H      88.89256142      80.68554509     108.88155512
C      87.66423932      76.77381161     107.51528300
H      88.08186883      75.50013608     109.07997639
C      85.39467803      75.53415115     106.26617391
H      85.74427739      73.52726180     105.95814852
H      85.26050745      76.23334988     104.33298389
H      83.73927778      75.67588062     107.48315765
C      90.01694858      76.59617735     105.82019850
H      91.49093511      77.83583780     106.55341231
H      89.30641148      77.33883979     104.03440713
H      90.63488908      74.63086197     105.80130123
C      84.61233132      83.60895168     107.78362414
O      83.30464072      83.29714684     109.74516005
N      85.06208620      85.81426229     106.79529728
H      85.88978631      85.92575615     105.07942578
C      83.83943326      88.27846540     107.37544325
H      82.35221866      88.16508182     108.79462771
C      85.82364589      90.17953008     108.19558447
H      87.37889064      90.05102869     106.85009934
H      86.44347613      89.69009096     110.09853887
C      84.78618615      92.87427980     108.36377012
H      83.36511196      93.01789901     109.84720527
H      83.88856614      93.44875660     106.59876574
C      86.84031866      94.65629172     109.09698392
H      88.40690177      94.29724372     107.81008031
H      87.14645431      94.38606086     111.11710135
C      85.76317466      97.36237980     108.60754481
H      84.53863200      98.01433538     110.12877449
H      84.55374982      97.14317155     106.95214456
N      87.70959276      99.28612118     108.14267214
H      89.06641624      98.60770944     106.98049045
H      88.65823536      99.77933974     109.72059361
H      87.05574746     100.85459402     107.27528776
C      82.42213854      89.04569430     104.91312987
O      83.24039002      88.60538806     102.71348844
N      80.30753479      90.54046780     105.16446347
H      80.00328886      91.15273913     106.94647538
C      78.53308177      91.11305487     102.94970423
H      77.83199332      89.37072721     102.10688629
C      76.13501908      92.60782839     103.88511875
H      76.72272398      94.40495811     104.69959079
C      74.25852086      93.37883672     101.64012389
H      72.28564658      93.70953883     102.12956301
H      74.22261606      91.93508582     100.16991682
H      75.05031618      95.03990615     100.71415800
C      74.82543876      90.89384663     105.82964713
H      76.25218211      90.73133017     107.30741311
H      74.10356330      89.17230595     104.96604220
C      72.68815830      92.15618380     107.39245079
H      71.09889847      92.77412430     106.23782801
H      73.46105635      93.73032582     108.47337424
H      72.05132052      90.71999181     108.72281811
C      79.95037652      92.86105172     101.05430874
O      80.92358556      94.88683832     101.76862528
N      79.78030114      92.20153723      98.71671729
H      78.92236539      90.51590136      98.46349396
C      80.64579579      93.54135319      96.45849434
H      81.45837812      95.32714455      97.08399375
C      82.80953243      91.96532145      95.41158597
H      84.50650665      92.01256460      96.57754710
H      83.57865104      92.67018935      93.63524323
C      82.03474463      89.21010048      94.80876327
C      81.21271370      88.66963875      92.25007384
H      80.86122459      90.13795611      90.87435309
C      80.62122935      86.16197193      91.56788265
H      79.84455184      85.76890886      89.72162004
C      81.02752052      84.14752369      93.26863633
O      80.48705879      81.66631304      92.61101157
H      80.48894852      81.46411233      90.80821267
C      81.71349117      84.71255185      95.76307506
H      81.83065420      83.21210916      97.14068554
C      82.03852409      87.17864470      96.58699573
H      82.56575774      87.34305088      98.55231110
C      78.62378865      93.87205529      94.52530433
O      76.50918490      92.94419967      94.89947014
N      79.14346337      95.19675344      92.28975810
H      80.88579103      95.96209260      92.14802862
C      77.09122061      95.71453845      90.48695919
H      75.22228128      95.23454796      91.21261410
C      77.14602267      98.51700257      89.90114404
H      75.86667796      98.82502797      88.31566366
H      79.04519760      99.14439171      89.40225629
C      75.95738481     100.12138021      91.94771763
H      76.80020275      99.79067810      93.79586997
H      74.04687152      99.38816640      92.18393342
C      75.94226701     102.88793953      91.41103536
H      75.23739909     103.16761902      89.49674261
H      77.85089058     103.56635128      91.77386281
C      74.35678662     104.64538501      93.05320753
H      75.60589572     105.17072892      94.60278310
H      72.71839392     103.55879237      93.67114803
N      73.18137687     106.73164285      91.71339157
H      74.48339829     107.77855124      90.79120513
H      72.25352125     107.85603001      92.94360340
H      72.01541572     106.13448933      90.32444273
C      77.60522615      93.98543887      88.22873625
O      79.66502784      93.61127307      87.30466008
N      75.58132928      92.93475104      87.12891554
H      73.82388381      93.28812987      87.78654029
C      75.63046216      91.58359673      84.67038160
H      77.25373706      90.32503901      84.81022135
C      73.31554743      89.96032182      84.33778977
H      71.89636296      91.38706519      83.90126299
H      72.69382748      89.05703264      86.07822771
C      73.37601867      87.93831467      82.34979769
O      71.58833757      87.66052490      80.88148035
O      75.50762995      86.71944121      81.96618325
C      76.00840743      93.36938810      82.32523125
O      76.36556570      95.62950076      82.56333676
N      76.21816705      92.35838451      80.00275761
H      76.32021226      90.45920957      79.85535896
C      76.63768629      94.01378476      77.66327643
H      78.37623450      95.10793631      77.81067509
C      76.80209247      92.32625917      75.32757471
H      74.92370453      91.75178238      74.70774448
C      78.04931185      93.64339842      73.13927164
H      77.06476444      95.41029252      72.74053939
H      78.05120156      92.45665028      71.45741522
H      79.94092789      94.24622110      73.68540255
O      78.27985845      90.09449240      75.82835218
H      79.91069226      90.80691921      76.17606183
C      74.56465653      96.00177684      77.26832363
O      75.18259703      98.06913743      76.45763105
N      72.14391712      95.48210212      77.85035934
H      71.63747047      93.64339842      77.93917648
C      69.94994487      97.33970307      77.83146208
H      70.40158946      98.75699782      76.40471871
C      67.60290479      96.03768164      77.08690991
H      66.80544029      94.95675819      78.64782384
H      68.10368225      94.72999104      75.57323913
C      65.56577981      97.82914220      76.03055290
H      66.28009637      99.58091848      75.21797059
H      64.24864057      98.53212038      77.44784763
C      64.05588849      96.30224333      74.09169370
O      63.40771236      97.34159281      72.10937080
O      63.58912609      94.04402039      74.54144857
C      69.50207973      98.81368961      80.39771041
O      67.61424315     100.19885899      80.73030224
N      71.26897383      98.46786969      82.22507575
H      72.74673981      97.34726198      81.76587226
C      71.46739510     100.04012198      84.37558430
H      70.76819636     101.92984829      83.94661642
H      73.47239472     100.10815213      84.84045697
C      69.98018049      99.29934926      86.81900042
O      69.92537843     100.28956586      88.94116307
N      68.46273025      97.27923183      86.53554147
H      68.29643434      96.72176257      84.71762476
C      67.01331018      96.06224810      88.49896711
H      66.04010112      97.41151267      89.71406113
C      64.97618520      94.45976017      87.29332173
H      63.75353228      93.54702237      88.67660139
H      65.99663741      92.89506679      86.42215789
C      63.28676988      95.83926038      85.30343992
C      62.54221771      94.46353963      83.05655533
H      63.14315068      92.53034962      82.79955255
C      61.13059216      95.56147061      81.12714477
H      60.78099280      94.60526910      79.35836094
C      60.18005983      98.03512237      81.50509003
O      58.83646441      99.32391570      79.68150414
H      58.56245411     100.99632349      80.32401108
C      60.59202016      99.28612118      83.80488695
H      59.81912210     101.13616325      84.18472194
C      62.19072862      98.23921280      85.73996670
H      62.85213283      99.35793079      87.31221899
C      68.63847481      94.56369513      90.30365574
O      70.75496827      93.88150393      89.61390564
N      67.96762197      94.31992044      92.76974858
H      66.31411144      95.09092877      93.32910757
C      69.55499207      93.39206481      94.71994614
H      71.47495400      94.08181491      94.43081801
C      68.64414398      94.51834170      97.27296638
H      69.38680643      93.61316279      98.96805089
H      66.61079847      94.20086767      97.35989379
C      69.07689131      97.40773322      97.46382874
C      66.94528003      99.26722391      97.32020954
H      65.04799481      98.55479709      97.07454512
C      67.28354103     101.84859006      97.57721232
H      65.74152437     103.16006013      97.84555346
C      69.83656129     102.62904703      97.78319249
O      70.36001547     105.18584673      98.06665144
H      68.83311661     106.16661468      98.05720280
C      71.89447325     100.96419814      97.95893704
H      73.75774338     101.75788320      98.21405009
C      71.59022730      98.26566897      97.80208975
H      73.19082549      97.00522152      97.72272125
C      69.82900238      90.48755546      94.87868315
O      68.09612336      88.99467168      95.13190647
N      72.17604246      89.59182519      94.84655780
H      73.55554267      90.87494936      95.14135510
C      73.06988301      86.93109054      95.00340508
H      71.56755059      85.53080335      95.17159072
C      74.15647564      86.39251855      92.39558277
H      76.01785605      87.24100566      92.15936698
C      74.62512777      83.60328251      91.98740189
H      75.45093816      83.28202903      90.12602147
H      73.01697067      82.35417341      92.29542728
H      76.05943004      83.03447489      93.35367401
O      72.47650895      87.07282002      90.39814206
H      72.51619319      88.88506756      90.35467835
C      74.98795521      86.41141581      97.21438487
O      76.36745543      88.08760305      98.10633569
N      74.87268192      83.98500723      98.07421034
H      73.47050499      82.78125156      97.59610958
C      76.58099449      82.93998858     100.06787160
H      78.37434477      83.93965379      99.89590651
C      75.55298339      83.56926744     102.70403981
H      75.31487786      85.61395131     102.75128297
C      73.13035425      82.05748639     103.46937896
H      73.60467556      80.06760457     103.70181530
H      72.03809245      82.22567202     101.72894103
H      72.18927054      82.83227418     105.13044839
C      77.70538165      83.14785846     104.63722983
H      79.30597984      84.22689220     103.91535437
H      78.13623926      81.13341021     104.68447298
C      77.20082473      84.22122301     107.42268641
H      75.28086280      83.74123253     107.98960431
H      77.48050423      86.26212743     107.38867134
H      78.72205440      83.37840507     108.52250713
C      77.07799252      80.01658197      99.75606676
O      75.36212103      78.75991397      98.83010087
N      79.13590448      79.12463114     100.72738608
H      80.30942452      80.35295325     101.60043964
C      80.08076763      76.63775133     100.73494499
H      78.68803933      75.26769974     101.39256975
H      81.73049871      76.63208214     101.96893627
C      80.71193621      75.72879296      98.01562883
O      82.42213854      76.65286914      96.79297590
N      79.33054628      73.70489609      97.21060542
H      77.86411867      73.38742207      98.38979464
C      79.33243601      72.55594249      94.61223174
H      81.14657327      73.26081039      93.93759944
C      79.49306275      69.65899204      94.79553519
H      77.68837412      68.97302139      95.51363119
C      80.04864228      68.57239942      92.21605877
H      78.59544274      69.10719196      90.85923528
H      79.76707307      66.53716417      92.07999848
H      81.97805285      69.12042005      91.74362719
C      81.51506991      68.55917134      96.57565737
H      81.17302944      69.15821457      98.51829602
H      83.37456060      69.27159815      96.05409291
C      81.82498501      65.64521335      96.66447451
H      82.75850981      64.94601463      94.96939001
H      80.05053201      64.62854060      96.91769784
H      82.79252489      64.93467627      98.33877202
C      77.17625829      73.68788854      92.96439039
O      75.46416625      72.31594724      92.25763275
N      77.01941100      76.18421700      92.55243005
H      78.40647012      77.14230825      93.44438087
C      75.02197028      77.24246375      90.92726543
H      75.04653674      76.15776084      89.17737886
H      75.53786557      79.22100719      90.67593183
C      72.37635346      77.19711030      92.13857999
O      70.62079771      77.20277949      90.70805717
N      71.95305475      77.34450896      94.63112900
H      73.35145223      77.50135625      95.91992234
C      69.40570369      77.48434871      95.70071409
H      68.23785283      75.95367039      94.97316946
C      69.64380920      76.65475885      98.56364946
H      70.90236692      77.96055974      99.54252769
H      70.44127371      74.80660653      98.99828651
C      67.06244306      76.86073902      99.76551539
N      65.30499758      74.96345381      99.57843249
H      65.48452158      73.26647958      98.72427619
C      63.08834862      75.92343478     100.46849358
H      61.28743945      74.97668189     100.28896958
N      63.59857472      78.26291595     101.41146701
H      62.24931014      79.41375927     102.11066575
C      65.97585043      78.93754824     100.92958680
H      66.91126496      80.72900878     101.21115602
C      68.29076516      80.09784020      95.26985649
O      69.31499682      81.92142609      96.29786761
N      66.23096349      80.55515396      93.95838643
H      65.49397022      79.02825510      93.08533287
C      64.88736807      82.88518651      93.90736382
H      66.11191073      84.46310798      93.40658635
C      62.89937599      82.73778785      91.80409843
H      61.63514908      81.17120474      92.24251494
H      63.95762272      82.66408853      90.03909406
C      61.28554972      85.06971013      91.53764702
H      60.62792496      85.59316431      93.41792471
C      62.69717527      87.44698583      90.38113452
H      64.15226454      87.67375298      91.82110597
H      61.41972028      89.03246620      90.07121941
H      63.67983295      86.91408301      88.65014522
C      59.05000349      84.89585530      89.70083305
H      57.70262863      83.37084617      90.02775570
H      59.65849536      84.74089775      87.73929714
H      58.03144100      86.68542612      89.66681797
C      63.54755212      83.63918731      96.41314091
O      62.03010188      82.19732613      97.37879106
N      64.09746248      85.92386642      97.23895131
H      65.58089762      86.84605286      96.47172243
C      63.00520067      86.97455425      99.56709413
H      62.13781628      85.55348007     100.77840869
C      65.22184963      88.22933252     101.13178752
H      64.40548786      89.26112309     102.71726789
H      66.16482306      89.49544915      99.80708937
C      67.38369653      86.38118019     102.12011438
H      67.99029868      85.35694853     100.44203741
C      69.71939826      87.78146738     103.19347892
H      68.96350772      89.41041147     104.20259277
H      71.08189092      88.25389896     101.72516158
H      70.81921897      86.63062407     104.50116953
C      66.22340458      84.76168473     104.24983593
H      67.59534588      83.32171328     104.79029766
H      64.47162828      83.86595446     103.64323379
H      66.03254221      85.89363080     105.95814852
C      60.93972980      88.85483193      99.09277282
O      58.83835414      88.48633530     100.03763598
N      61.48775043      90.75400687      97.49784382
H      63.26220344      90.91274388      96.81187316
C      59.58668576      92.77034485      96.86667523
H      57.92561634      91.62517070      96.45282516
C      58.82701579      94.42763483      99.11544954