 %block lattice_cart
   139.898   0.000   0.000
   0.000 144.87   0.000
   0.000   0.000   168.12
 %endblock lattice_cart

 %block positions_abs
N      93.97214576      42.64818899      86.25208253
H      95.87132070      42.81070546      86.16893457
H      93.73215051      40.95688394      85.39981596
H      93.64900256      42.66330680      88.13236021
C      92.64744761      44.76657219      85.12202619
H      93.33908744      46.52212794      85.95161604
C      93.39766896      44.95554482      82.26287028
H      92.71925721      43.23211442      81.36336056
H      95.44991173      45.08593594      82.14759698
C      92.22981810      47.39707122      81.17438792
H      90.19080340      47.27990819      81.45217769
H      92.46036471      47.28368764      79.12970405
S      93.29562374      50.54913471      82.29121618
C      90.75016239      52.45964801      81.22730026
H      88.90012033      52.05524658      82.03799285
H      90.67457334      52.23099113      79.18072666
H      91.07141587      54.45708872      81.60713525
C      89.77128416      44.57948929      85.60201668
O      88.63744837      42.87873560      84.45117335
N      88.57508741      46.23111008      86.99096552
H      89.69191566      47.51234452      87.85646017
C      85.83309453      46.41819299      87.62402383
H      84.84665739      45.20120924      86.28798733
C      85.29830198      45.17097362      90.19594134
H      86.64945629      43.64218503      90.48317974
H      83.33298661      44.56059202      90.07688858
C      85.65357053      46.98889034      92.33700125
O      83.88667642      47.96209939      93.41225553
N      87.91557292      47.67675071      93.00218492
H      88.08753802      48.37028027      94.77096875
H      89.46325877      47.13439926      92.02519641
C      84.98838686      49.32270233      87.46906627
O      86.49449874      50.97810258      87.10623882
N      82.49394813      49.92363530      87.85268071
H      81.30720001      48.44775905      88.11346295
C      81.20893424      52.44830965      87.56355259
H      81.55475415      52.73743778      85.55477352
C      78.41213930      51.87005340      88.23440543
H      77.64680014      50.44142031      86.96450935
C      77.61278506      51.12172178      90.91403734
H      78.85244553      49.60616128      91.55654429
H      75.67203614      50.43575113      91.00663393
H      77.50885012      52.67885626      92.25763275
C      76.60745067      54.19063731      87.60134711
H      77.03452881      55.72698481      88.90525827
H      74.60812023      53.71631601      87.74307659
C      76.52241298      55.22053815      84.86502341
H      76.17659307      53.63694750      83.59323760
H      78.26285092      56.22587255      84.40959937
H      74.77630587      56.29957188      84.69305832
C      82.44859470      54.67251752      89.07722336
O      82.61300089      56.79656990      88.23818488
N      83.33865579      53.91473727      91.32977713
H      83.33865579      52.10437946      91.92882037
C      84.77862724      55.46431285      93.03808972
H      83.72604969      57.18396379      93.45949868
C      85.45892872      54.06213592      95.59110997
H      87.37511120      54.55535449      96.16180731
H      85.64223217      52.08170275      95.04875851
C      83.63912228      54.30024144      97.81909729
C      83.77707230      56.66617878      99.12300844
H      84.84287794      58.30835095      98.55042137
C      82.25395289      57.06491104     101.27729644
H      82.49772758      58.93574009     102.05775341
C      80.55508893      55.35659845     102.20515206
H      79.39290725      55.75533070     103.83409614
C      80.34532931      53.05869125     100.76140116
H      79.08677159      51.52990267     101.25839918
C      81.92136106      52.51633980      98.63734878
H      81.71916034      50.67385665      97.79075139
C      87.15212349      56.47909588      91.80409843
O      87.43558244      58.72975992      91.40536618
N      88.67902235      54.76322439      90.86112500
H      88.27651065      52.92263096      91.17481957
C      90.74638294      55.36415735      89.16793023
H      92.01816875      56.68885550      90.09956530
C      92.40556264      53.03223508      88.63691713
H      93.82474710      53.58214544      87.24796829
H      91.46825839      51.46943142      87.67504644
C      93.53183953      51.79635408      91.01986201
H      92.15989822      51.97020890      92.54487115
H      95.23259321      52.86782889      91.46016825
C      94.26694306      49.00144886      90.53609208
O      96.63477013      48.59326797      90.44916467
O      92.53028458      47.50478562      89.96728446
C      90.08497873      56.58114110      86.66593259
O      91.70258445      58.20252628      86.15759621
N      87.94391882      56.18807803      85.39225705
H      86.67213301      54.92196140      86.04421263
C      86.94236387      57.79812485      83.36836017
H      88.28029010      57.58458577      81.81689487
C      84.35910800      56.97042472      82.55577786
H      83.01551259      58.18173929      83.54032527
H      84.30052649      54.93896893      82.88836969
C      83.83943327      57.42584876      79.70607058
H      85.24538964      56.27311571      78.73664098
H      83.97171411      59.41762030      79.19584447
S      80.82720952      56.17107049      78.67428001
C      80.95760064      55.85359647      75.28033155
H      81.89868434      57.35214944      74.22964372
H      79.14913256      55.89517045      74.29767387
H      81.77207268      54.02623112      74.79278217
C      86.74205288      60.55523554      84.16204522
O      88.11966337      62.14827482      83.14726219
N      85.24349992      61.14105069      86.11980169
H      84.32320320      59.71241760      86.98907579
C      84.93358480      63.62415107      86.99852442
H      84.70492792      64.94506976      85.43572076
C      82.49016868      63.97941962      88.57077671
H      82.60733171      65.54033355      89.90870294
H      82.17647411      62.37882143      89.82933444
C      79.84455184      64.41783612      87.04576758
H      78.27607900      64.94506976      88.27219996
C      80.33021150      66.67227961      85.30721937
H      80.86878350      65.94851443      83.45528758
H      81.75128569      68.00831611      85.96862358
H      78.56331740      67.70784963      85.08801112
C      79.27385449      62.04245014      85.54343516
H      80.64768552      61.56245966      84.08645617
H      77.36901037      61.92528711      84.76864737
H      79.27196477      60.38704989      86.76797781
C      87.24283036      64.83168618      88.40637052
O      87.33353722      67.21841052      88.34778901
N      88.97759911      63.40683254      89.44194054
H      88.56941823      61.54356240      89.49296315
C      91.31708029      64.48397654      90.36979616
H      90.78984665      66.40771793      90.88569145
C      92.23170782      63.04778454      92.79809448
H      94.08552934      63.83013124      93.24218016
H      92.59831473      61.03333629      92.57888622
C      90.37788631      63.35769966      95.00907426
H      88.75083195      62.10670084      94.81632218
H      89.42168479      65.17939582      94.99962563
C      91.84053448      62.70574408      97.42414449
H      90.79740555      62.98164412      99.17781051
H      93.42601485      64.02099359      97.42603422
N      92.75894146      60.07146560      97.31831982
H      94.01371974      59.52155524      95.98984222
C      91.93880024      58.03245091      98.43892752
N      90.33442260      58.08914270     100.17936545
H      89.76939444      56.46964725     101.01651421
H      89.93946980      59.82958063     100.85777720
N      92.88933258      55.96131087      97.47894655
H      92.49815923      54.34748460      98.42003026
H      94.35953965      55.90272935      96.26385253
C      93.21625523      64.90160606      88.30243558
O      95.20424731      65.87481511      89.08100282
N      92.70791885      64.41405667      85.91949070
H      91.05440833      63.52399557      85.58311941
C      94.12710331      65.11892458      83.74063626
H      95.85053371      65.95229389      84.50597541
C      94.60331435      62.79078176      82.05500039
H      92.77216955      61.87993368      81.81122569
C      95.90911523      63.59580517      79.55489247
H      95.74659876      61.92528711      78.35680599
H      97.86498196      64.10981073      79.94417609
H      94.82630205      65.14727048      78.73853071
C      96.20580226      60.85192257      83.33245537
H      95.62565628      60.64027322      85.29966047
H      98.11064638      61.63426926      83.42316224
C      96.22280980      58.31968931      82.03232367
H      94.44079788      57.28600901      82.01342641
H      97.54561821      57.02711651      82.93939230
H      96.98436950      58.29323314      80.11803092
C      92.71169831      67.19384407      82.29877508
O      93.94002041      69.09112929      81.61091470
N      90.24182601      67.00109199      82.05122093
H      89.66923894      65.20018281      82.30444426
C      88.76028059      68.93617173      80.76431731
H      89.27995532      69.14971081      78.78199441
C      86.07308977      68.24642163      80.54510906
H      85.27751499      69.97741093      79.76276237
H      85.21893347      67.82312294      82.37247441
C      85.70081368      66.11670008      78.81411976
O      86.40757133      66.41716656      76.65038313
O      84.20604017      64.26476829      79.33757395
C      88.81319292      71.56100158      81.99641887
O      89.12877722      73.49986078      80.67550018
N      88.50894699      71.56478104      84.51542405
H      87.92691128      69.89993215      85.24296868
C      88.21603941      73.85512933      86.10279415
H      88.78484703      75.52186794      85.03320906
C      85.33042733      74.17827253      86.90214838
H      85.07720400      75.77887071      88.17204446
H      84.69736901      72.52287228      87.95094648
C      83.45581882      74.39370133      84.78943436
H      81.66624801      74.01008688      85.72862834
H      83.68636543      72.92160453      83.36647045
C      83.40857567      76.92026541      83.62158350
O      83.97171411      78.79298418      84.93116383
O      82.84921668      77.09223050      81.32934548
C      89.86577048      73.70773067      88.41581916
O      90.86543570      75.65792823      89.22084256
N      90.24182601      71.54210432      89.77831183
H      89.43869233      69.98874929      89.01675212
C      91.69313582      71.40226457      92.12724163
H      93.45625047      72.46429076      92.11212382
H      92.48304142      69.53143552      92.47306155
C      90.28528972      72.19594962      94.44971527
O      88.25383393      73.31844705      94.44404609
N      91.39644879      71.73107695      96.65691561
H      93.07830521      70.84668504      96.49439914
C      90.50071852      72.71373463      99.28741463
H      88.44469629      72.59846133      99.35922423
C      91.77439405      70.90148710     101.22816356
H      93.75482723      70.94306108     100.66502512
H      91.22259397      68.94373064     100.90879981
C      91.46825839      71.80666600     104.01739960
H      91.53250909      73.83434234     104.36510924
C      88.66201482      71.36635977     104.76573122
H      87.33353722      72.68160929     103.90023656
H      88.55807987      71.73296668     106.78962810
H      87.90234484      69.47285401     104.48794145
C      93.14444563      70.19283973     105.62744641
H      95.10031237      70.64637405     105.17391210
H      92.85909696      68.15382504     105.55941627
H      92.69469077      70.91660491     107.50205492
C      91.07708505      75.51997821      99.70693388
O      93.21625523      76.31366326      99.61433729
N      89.09098269      76.96750856     100.34755110
H      87.32786804      76.26075092     100.54030318
C      89.38766972      79.58288978     101.08454436
H      91.31519056      79.97406313     101.69303623
C      88.49760863      81.17781879      98.68270221
H      87.71904139      82.95227180      99.37812150
H      86.75339124      80.51452485      97.80964866
C      90.65567608      81.69560380      96.88935194
H      91.60431869      80.02697547      96.14857923
H      91.97659477      82.65180531      98.14790967
C      90.09253764      83.41903420      94.72939477
H      91.84242420      84.14657883      93.92248163
H      88.88500252      84.99884539      95.27363595
N      88.75083195      82.12835113      92.71494652
H      87.66990850      80.65247487      93.25918770
C      88.17257570      82.95983070      90.52853317
N      89.02106282      85.05364746      89.68949469
H      88.19336269      85.81898661      88.14936775
H      90.62166100      85.73205920      90.47562084
N      86.45859394      81.59166885      89.32477751
H      85.62144518      82.19827100      87.72039987
H      85.58931983      80.11768233      90.16948517
C      88.01194897      80.13468987     103.52985021
O      85.66868834      79.79075968     103.64701324
N      89.33853684      81.07577357     105.45548132
H      91.10921039      81.71639079     105.14745593
C      88.64122783      81.30254073     108.08598035
H      87.10677006      79.96461450     108.39211601
C      90.95614256      80.48428923     109.83208746
H      90.63677881      80.70349749     111.85409462
H      92.41501127      81.93370932     109.73382169
C      92.02761738      77.81032650     109.48626755
H      92.53217431      77.51174974     107.51339327
C      94.23670744      77.38513808     111.27772809
H      95.88265906      78.43015673     110.61065470
H      94.96992125      75.45950697     111.30229453
H      93.79640121      77.70828128     113.26572017
C      90.25694383      75.71273029     110.17790738
H      91.18479944      73.90804166     109.82830801
H      88.58642576      75.94705636     108.99304898
H      89.44814096      75.92815909     112.05818506
C      87.43369271      83.82910481     108.92123938
O      86.40379187      83.92737058     110.99426914
N      87.82675579      85.89646539     107.46992957
H      88.82831073      85.68103659     105.85799302
C      86.55119053      88.34933015     107.93669197
H      85.72349040      88.12634244     109.81130047
C      88.45036547      90.45826471     108.31085778
H      89.59742934      90.72660585     106.61955273
H      89.74671772      89.75717625     109.74893950
C      87.34676530      92.93569591     109.21036750
H      86.53796244      92.48405132     111.04718148
H      86.06364114      93.53851860     107.71559399
C      89.33286766      95.08998391     109.47681891
H      91.10543094      94.46637422     110.32152658
H      88.58264631      96.38066698     110.89600337
C      90.05096366      96.58475742     107.09387403
H      88.31808463      97.40867809     106.34554241
H      90.81252336      95.46037026     105.54618818
N      91.89722626      98.64833855     107.64000494
H      91.26794740      99.80296133     109.02328460
H      92.49815923      99.68012912     106.14901088
H      93.51672172      97.97181653     108.38455710
C      84.53107310      88.74428295     105.94114098
O      84.70114846      87.90146501     103.78118381
N      82.40324127      89.95181806     106.59309656
H      82.39001318      90.76251065     108.32030641
C      80.44170536      90.54141267     104.64667846
H      79.64424085      88.76318021     103.97960507
C      78.44237492      92.18547456     106.06586292
H      79.37212026      93.74638850     107.03529252
C      76.57154587      93.15868361     104.04952494
H      75.79486835      91.60910804     102.93836587
H      77.59766725      94.40590298     102.77206996
H      75.11267715      94.46448450     104.68447298
C      77.11389732      90.81164353     108.25227626
H      78.35733723      90.11433452     109.73760115
H      76.19738006      89.14490493     107.45670149
C      74.95960932      92.45759515     109.47303946
H      74.44371404      91.87744917     111.37977331
H      73.31365770      92.38011637     108.23904818
H      75.47361488      94.43424888     109.73949087
C      81.65113020      91.65068202     102.22026987
O      83.03629958      93.45726037     102.41680141
N      81.00106434      90.76629010      99.93559076
H      79.89935390      89.20726589      99.84110444
C      82.03474464      91.73949915      97.52618971
H      82.99283588      93.51395216      97.94759868
C      84.12100249      89.99150231      96.42447927
H      85.42869310      89.57387280      97.96271649
H      84.98460741      90.89857094      94.78986601
C      82.93047491      87.48005604      95.65914011
C      82.36544674      86.89802034      93.04753835
H      82.87000367      88.17358560      91.53575730
C      81.72671925      84.39224325      92.38235469
H      81.49239319      83.97272401      90.39814206
C      81.42247331      82.43637651      94.30609607
O      80.69870813      80.01941656      93.67492748
H      80.69492868      79.67359664      91.89291557
C      82.10088506      83.17148005      96.87990331
H      82.24072481      81.71072161      98.29719805
C      82.80953243      85.71694139      97.56209451
H      83.25739756      86.14779899      99.50662289
C      79.83699294      92.27618143      95.62512504
O      77.74128645      91.28407511      95.91803262
N      80.19415121      93.89567688      93.80720833
H      82.01962683      94.28118104      93.41036580
C      78.38757285      94.16779747      91.73984774
H      76.42603694      93.84087481      92.27841974
C      78.51418452      96.90412117      90.79498458
H      77.88112620      96.82853211      88.83722812
H      80.44548481      97.61087881      90.69104964
C      77.06665416      98.77872967      92.38424441
H      77.72049946      98.83353173      94.33633169
H      75.04275728      98.40267413      92.35211907
C      77.35011311     101.48292802      91.55465456
H      76.40336022     101.77394588      89.74807621
H      79.26629559     102.21992129      91.40347646
C      76.03297387     103.17045362      93.60500761
H      76.74162123     102.47503434      95.40969624
H      74.03553315     102.69613232      93.46327814
N      76.46761092     105.88976979      93.17037056
H      76.08399648     106.37353972      91.36190248
H      78.30253517     106.28283286      93.51619047
H      75.48306351     107.09541517      94.27208100
C      78.82220991      92.12311359      89.72162004
O      80.93870338      91.62611557      89.05454665
N      76.65469382      91.15746345      88.68038084
H      74.97094768      91.89445671      89.19249667
C      76.73784178      89.44537141      86.47695996
H      78.71071605      88.90113023      86.26153116
C      75.04275728      87.24384025      87.16482034
H      73.23050975      88.01106914      87.78087111
H      76.01218688      86.23661613      88.67849111
C      74.43048595      85.18781803      85.12580564
O      76.22383622      84.38657407      83.93149861
O      72.13446848      84.50751655      84.76297819
C      75.95738481      90.83809970      84.04110274
O      75.99328961      93.15868361      83.93527807
N      75.30731896      89.45670977      81.96240380
H      75.71361012      87.59910880      82.12680999
C      75.26196553      90.53385377      79.36025066
H      77.01752128      91.55430597      79.01443075
C      75.26574498      88.66302472      77.23052911
H      75.42637172      89.61355705      75.41072267
C      77.66947685      87.12667722      77.36092022
H      77.58065972      86.05709213      79.11836570
H      79.41747369      88.21515958      77.31934625
H      77.54475492      86.03063596      75.62237202
O      73.14358233      86.95849158      77.36847913
H      72.54075964      86.68637099      75.67906381
C      73.16814878      92.49538968      78.77632523
O      73.47239471      94.13945157      77.19840376
N      70.88346966      92.19114374      79.77788018
H      70.48095796      90.81920244      81.04210708
C      68.93705156      94.18480500      79.61536372
H      69.18460571      94.95581334      77.72185795
C      66.28954500      93.19836787      80.02732405
H      64.75319750      94.57219890      80.09157475
H      66.40670803      92.31208623      81.88303529
C      65.28799005      91.09510248      78.32468064
H      63.33968222      90.53952294      78.68750810
H      66.24419157      89.35088509      78.85947319
C      65.37680719      91.59587995      75.50709871
O      65.02909755      93.75583713      74.62459652
O      65.64892778      89.64568240      74.10681151
C      69.38302697      96.43735877      81.41249344
O      68.08856445      98.32897481      81.34068384
N      71.52030743      96.30885738      82.84301626
H      72.48784730      94.66479549      82.87514161
C      72.26674933      98.24582685      84.63636653
H      71.59400676     100.13744289      84.17338358
H      74.31332292      98.46503510      84.66849188
C      71.42960057      97.59009182      87.41804366
O      71.99084928      99.01116601      89.07155419
N      69.93104760      95.60587919      87.60890602
H      69.87246609      94.30385776      86.21428800
C      68.72918167      94.96337224      90.09767557
H      67.85234866      96.66790538      90.84600719
C      66.46339982      93.16624252      89.70461250
H      65.41460171      93.26639801      91.47339633
H      67.14559102      91.25950867      89.32477751
C      64.48674609      93.91268441      87.62213410
C      63.04110547      91.98516357      86.43916543
H      63.21685001      90.01039958      86.91537646
C      61.49152989      92.64278833      84.38881238
H      60.66571949      91.20470661      83.19639508
C      61.12681271      95.18258050      83.72173899
O      59.37503642      95.64745317      81.92082982
H      58.96118636      97.41056782      81.84524077
C      62.27009713      97.05718900      85.16171044
H      61.82034227      99.00738655      84.76108847
C      64.02376315      96.41657178      87.08734156
H      65.22562908      97.89055830      87.82622455
C      70.63591552      93.99394264      92.12157246
O      72.39903017      92.69192122      91.47150660
N      69.92159897      94.39078517      94.39113376
H      68.37013367      95.38289148      94.89947014
C      71.42393139      93.36088433      96.59833409
H      73.35334196      93.81819810      96.04086483
C      70.95905872      94.90857018      99.15324407
H      71.63558074      93.59143094     100.58187716
H      68.92193375      94.81408386      99.45560028
C      72.29698495      97.29718424      99.40835712
C      71.04409640      99.48359758     100.34944082
H      69.05043514      99.28328659     100.73305526
C      72.22706507     101.73804108     100.65179703
H      71.14614162     103.31596255     101.36422385
C      74.80087231     101.95158015     100.24361615
O      75.86667795     104.18901610     100.26818259
H      74.73284216     105.60631084     100.22660861
C      76.09155538      99.72548255      99.53118933
H      78.11545226      99.84831476      99.31198108
C      74.89724835      97.31986096      99.10222146
H      75.87045740      95.76461620      98.20838091
C      71.07622175      90.47527225      97.03486087
O      69.03153788      89.53607827      96.92336702
N      73.17570768      89.07687478      97.47894655
H      74.85945383      89.97071532      97.55264588
C      73.59711665      86.35377916      97.35800407
H      71.80376638      85.42781327      97.77563358
C      74.51174419      85.58655028      94.73128449
H      76.26163075      86.55786960      94.23806593
C      74.94638124      82.85022658      94.33822142
H      76.24840267      82.17370456      95.78197232
H      75.58321900      82.41369980      92.42959784
H      73.18893577      81.81654628      94.63679818
O      72.72406309      86.38401478      92.86234517
H      73.30231934      88.02051777      92.33322180
C      75.48117378      85.56765302      99.55008659
O      76.82665892      87.19281764     100.54597236
N      75.44337926      83.17148005     100.27007232
H      74.34166882      82.08110797      99.15891324
C      77.19137610      82.05654153     102.21271097
H      79.03574898      82.94849235     102.00862052
C      76.02730469      82.36267719     104.92824768
H      75.03330865      84.16358636     105.04541071
C      74.05065096      80.33500085     105.48571694
H      72.98484532      80.88680094     107.16190418
H      74.93504288      78.50574578     105.82397795
H      72.55020827      80.25941180     104.07598111
C      78.17970296      82.22850662     106.91435003
H      79.10188940      80.41436936     107.22237542
H      77.16114048      82.74251218     108.62833180
C      79.98439159      84.46027340     106.84820961
H      78.79008456      86.09488666     107.22237542
H      81.03129997      84.69082001     105.08887442
H      81.29775138      84.52641382     108.43368999
C      77.70727138      79.34667399     101.43603345
O      76.21438759      78.02008612     100.29463876
N      79.78597032      78.40748002     102.36388907
H      80.92925474      79.64336102     103.26528852
C      80.64768552      75.71273029     102.44892676
H      79.21716270      74.45795202     103.23505290
H      82.22182754      75.66926659     103.77740435
C      81.73238843      74.91148634      99.89212705
O      83.54463596      75.92815909      98.79041661
N      80.42469782      73.06333400      98.81687278
H      78.87701197      72.57956407      99.82409691
C      80.90279858      71.89737287      96.30353679
H      82.72827419      72.44917295      95.52119009
C      80.91224721      68.94562037      96.59644436
H      78.91480649      68.45051207      96.64746697
C      82.32954194      67.65871675      94.28152963
H      84.32887238      68.15949422      94.29286799
H      81.57365142      68.19917847      92.44471565
H      82.08954670      65.64993768      94.66892353
C      82.04608300      67.88548390      99.05119885
H      81.87033845      65.84268976      98.86978512
H      80.85177597      68.57901346     100.57998743
C      84.73138409      68.53366003      99.65969072
H      84.87311356      70.54621855     100.06787160
H      86.10899457      67.81745376      98.30664668
H      85.25672800      67.74564416     101.48705606
C      78.85811471      72.84601548      94.39869266
O      78.36678586      71.44194883      92.56187869
N      77.44459942      74.79054385      94.95427220
H      77.75451454      75.80910633      96.53786285
C      75.54920393      75.79398852      93.11745822
H      75.56054229      74.69038836      91.37891001
H      76.26729993      77.65347922      92.59589376
C      72.83366722      76.28909682      93.95082753
O      71.13291354      76.32122217      92.37290605
N      72.36501509      76.65192427      96.45282516
H      73.93915711      76.87302225      97.50729245
C      69.94427569      77.11679694      97.61689657
H      68.47406862      76.22862558      96.47739161
C      69.97829076      75.76753236     100.26251341
H      71.37290878      76.67460099     101.47949716
H      70.36946411      73.80599644      99.77685375
C      67.49896984      75.56344191     101.47571770
N      65.75475245      73.59812655     101.55508621
H      65.86813603      71.99563864     100.52140592
C      63.62125144      74.21984651     102.83443092
H      61.99419709      73.06711345     103.26906798
N      63.88770285      76.48184890     103.74527901
H      62.36458345      77.44182987     104.38022705
C      66.30844226      77.37191000     102.89868162
H      67.10401704      79.23518014     103.14056659
C      69.26208449      79.89847408      97.88145826
O      70.43560453      81.30443045      99.26473792
N      67.08889923      80.67893104      96.59455464
H      66.14970525      79.33155618      95.62323531
C      66.15726416      83.27541500      96.31487514
H      67.72384727      84.53019327      95.84811274
C      64.17116180      83.25651773      94.06043165
H      63.00331094      81.55954351      94.10578508
H      65.54310310      82.81810123      92.58833485
C      62.83701502      85.76229483      93.36123292
H      61.99230736      85.49395369      91.50174222
C      60.83768458      86.52952371      95.28686403
H      59.39204395      85.06309609      95.21883388
H      60.13659612      88.38523495      94.72750504
H      61.34035178      86.87723335      97.25217940
C      64.63225502      87.90524446      92.98328765
H      63.77620900      89.57954198      92.13857999
H      66.42182584      87.46304851      92.06488067
H      64.94594959      88.67247335      94.86734479
C      65.27287224      84.20516034      98.94726390
O      63.80455490      82.81999096     100.14724011
N      66.00041687      86.46149356      99.89023733
H      67.43282942      87.37234164      99.02096322
C      65.07445098      87.59532935     102.28830002
H      64.39981868      86.04953322     103.47126869
C      67.05488415      88.73105486     103.89645711
H      66.19127923      89.71749200     105.48571694
H      68.06210828      90.14079069     102.78151859
C      68.81043990      86.69204017     105.17580183
H      69.26775367      85.06876527     103.99283315
C      71.26708411      87.92414173     106.18113622
H      72.16848356      89.01262408     104.68258326
H      72.37068427      86.43314767     107.07497677
H      70.92126419      89.38867962     107.58898233
C      67.49708011      85.36167285     107.45103231
H      66.62024710      86.80353402     108.63022153
H      68.86713169      84.39791243     108.65100852
H      66.30844226      83.77619247     106.88600414
C      62.79544104      89.50017347     101.71004377
O      60.78855170      89.59843924     102.88545353
N      63.22629864      91.13478673      99.85244280
H      64.86847081      90.91746821      98.90568992
C      61.57656757      93.33631789      99.02474268
H      59.68117208      92.61255271      98.66380495
C      61.29121890      95.35454559     101.22816356