 %block lattice_cart
   139.898   0.000   0.000
   0.000 144.87   0.000
   0.000   0.000   168.12
 %endblock lattice_cart

 %block positions_abs
N      93.53372925      43.74139566      85.70500676
H      92.17312630      42.42047697      85.48957796
H      93.42979431      43.89824296      87.60418170
H      95.22314457      42.96282842      85.27225943
C      92.86665586      46.02607477      84.25747640
H      93.88899781      47.67013668      84.95856486
C      93.73026079      45.66891650      81.57028558
H      93.00460588      44.02485462      80.56684091
H      95.77116521      45.39868565      81.52871160
C      93.55451625      48.10666345      80.04149700
H      91.64589266      48.86444370      80.20401346
H      93.90789506      47.63234215      78.06862273
S      95.77683439      50.53874122      81.09974373
C      94.74126436      53.36199233      79.39899005
H      95.69746588      55.12321726      79.88087026
H      92.70224967      53.56797249      79.60308049
H      95.05117948      52.94814227      77.40343906
C      89.95836706      46.57031595      84.53526617
O      88.24438530      45.24183835      83.43166600
N      89.43680260      48.50917516      86.02248078
H      90.81252336      49.57876024      86.79915829
C      86.75528096      49.20270472      86.68577471
H      85.62144518      48.08209701      85.37997383
C      86.33576172      48.21059839      89.38997307
H      86.83464947      46.23016523      89.65264502
H      84.29674703      48.19359086      89.67721147
C      87.68502632      49.62978286      91.47245146
O      88.97004020      51.39856668      91.15497744
N      87.52439957      48.61688956      93.80437373
H      88.35020997      49.47293558      95.29725752
H      86.38678434      47.08621125      93.91019841
C      86.34898981      51.97304348      86.33995480
O      88.00250033      53.48104508      85.79760335
N      83.93391958      52.87066349      86.44200002
H      82.62811870      51.49872218      86.66309800
C      83.16102152      55.47281661      85.79760335
H      83.57109214      55.64100225      83.78693455
C      80.29997588      55.82808516      86.14153353
H      79.30975929      54.15378766      85.47068069
C      79.31353875      56.00382972      88.78148119
H      79.65179975      57.85765122      89.61862995
H      80.11100325      54.48260003      89.91909643
H      77.29909050      55.57675157      88.71534077
C      79.35700245      57.93513000      84.39542642
H      79.93336897      57.42868335      82.48491312
H      80.19604093      59.73225972      84.95100596
C      76.47139037      58.17701497      84.19889489
H      75.72116902      56.26083250      84.26692503
H      75.86856769      59.22392335      82.53026655
H      75.81943479      59.48281585      85.65398415
C      84.49516829      57.60442790      87.42087825
O      84.78618615      59.63588369      86.49302263
N      85.33609651      56.83719902      89.59406351
H      84.73516354      55.10809943      90.14208414
C      87.02740155      58.47181227      91.20600005
H      86.02773634      60.18201459      91.77102822
C      87.73982838      57.06018673      93.66642371
H      89.01161418      58.25071430      94.76624443
H      88.63933810      55.35187414      92.95777635
C      85.48916433      56.04918315      95.34072123
C      85.15279305      57.29451279      97.68398185
H      86.19970143      58.95558221      98.23389221
C      83.09110164      56.60665240      99.25245469
H      82.67725158      57.93135056     100.74911793
C      81.47538565      54.56385827      98.53813815
H      79.95604570      53.89300542      99.72488627
C      81.97427339      53.32419780      96.25723849
H      80.56831702      51.87855717      95.93409529
C      83.99250109      53.98938147      94.68498620
H      84.26462168      53.06152584      92.88785647
C      89.45569987      58.91211851      89.71878545
O      90.10009654      61.09097294      89.61107105
N      90.70291923      57.16979085      88.32605715
H      89.90545473      55.43880154      88.37896949
C      92.91578875      57.51372104      86.62152402
H      94.21025127      58.84597808      87.51347484
C      94.44835679      55.11376861      85.80138280
H      95.97903510      55.96981463      84.72045935
H      93.28050592      54.00638900      84.51636891
C      95.35731515      53.53017797      88.01614204
H      96.57051943      52.09209625      87.17899328
H      93.79073203      52.67413194      89.04226343
C      96.76894070      55.12510698      90.00224439
O      98.96669240      55.84131325      89.62051968
O      95.70691451      55.86398997      91.89008098
C      92.35076058      59.04628907      84.22724078
O      93.85687246      60.47114271      83.32584133
N      90.02828694      58.95180276      83.29560571
H      88.62799974      58.05796222      84.23479969
C      89.16279230      60.33508243      81.07706702
H      90.45347537      60.01760840      79.50103527
C      86.60221313      59.28061513      80.37030937
H      85.23027183      59.76438507      81.82917809
H      86.73449397      57.23026208      80.24558744
C      85.40790610      60.20469130      77.90799599
H      86.84220837      60.13288171      76.43211974
H      85.10932935      62.23803682      78.02704875
S      82.45426389      58.76283013      77.05006024
C      82.94559272      58.46425337      73.77894400
H      82.47127141      60.22169884      72.81518358
H      81.88734598      56.80696339      73.16667267
H      84.90712863      58.06363140      73.29328433
C      88.99838610      63.12620819      81.56083695
O      90.44780618      64.61153307      80.41377308
N      87.48093588      63.75737677      83.42410710
H      86.56819806      62.43267863      84.44833876
C      87.18991802      66.35952991      84.17810790
H      86.74583234      67.41777665      82.46790558
C      84.90712863      66.76582106      86.03570886
H      85.22271292      68.61019394      86.89742406
H      84.88823137      65.23325303      87.41331934
C      82.24828371      67.04550055      84.87541691
H      80.84610678      66.97936014      86.38152878
C      81.64735074      69.53427011      83.74914002
H      82.96637972      69.90465647      82.21279253
H      81.74183706      71.13486830      85.04360255
H      79.75195525      69.37175365      82.95923442
C      81.39223769      64.96302216      82.93466798
H      79.38912781      65.25970919      82.56050217
H      81.82120556      63.11486982      83.73402221
H      82.48449951      65.21057630      81.20556841
C      89.78640197      67.37809239      85.28926697
O      90.13222190      69.63820506      85.33462040
N      91.65345157      65.74158940      85.96956844
H      91.40400769      63.88587817      86.33995480
C      94.21781017      66.69968065      86.76136377
H      94.07230125      67.99981235      88.35251332
C      95.75037821      64.45657551      87.81583105
H      96.17178718      63.33596781      86.13964381
H      94.34253211      63.30384246      88.78337092
C      98.11631556      65.04050094      89.36729635
H      97.57396411      66.04394561      91.08316784
H      99.51471303      66.15732920      88.34495442
C      99.47502878      62.53850330      90.03248001
H     101.34585783      62.90133075      90.81293698
H      99.62620689      61.64844221      88.18054823
N      97.96513745      60.88688251      91.62173984
H      97.44546272      59.16345210      90.98490208
C      97.67600933      61.18923872      94.04247925
N      99.12164997      62.71046839      95.46544316
H      98.78149922      62.97125063      97.32493386
H     100.35375151      63.78194321      94.47900603
N      96.38910571      59.61509669      95.30670615
H      96.02438853      59.97603443      97.14540986
H      95.52361106      58.20725059      94.35428409
C      95.59164121      68.13209319      84.84518128
O      97.00515649      69.87820031      85.66910196
N      95.03417194      67.89587739      82.38286790
H      93.79073203      66.47669294      82.09185005
C      96.01116045      69.49080641      80.30983813
H      97.24137228      70.87597579      81.20934786
C      97.75726756      68.10752675      78.47869334
H      98.38276697      69.53049067      77.12753902
C     100.27627273      67.06817727      79.61252912
H      99.85108431      65.51482225      80.89565329
H     101.26082014      68.41366240      80.82384369
H     101.61608870      66.80361559      78.07051245
C      96.24548651      65.97969492      77.06517805
H      94.52961502      66.66944503      76.15432997
H      95.51983160      64.63609951      78.44845771
C      97.87065114      64.40177345      75.25482025
H      99.22747463      63.31329109      76.35653069
H      98.79472730      65.49970443      73.77894400
H      96.70469000      63.08463421      74.18712488
C      93.98537384      71.05172035      79.00403725
O      94.59386571      73.19278026      78.31239742
N      91.64211321      70.17110788      78.86419750
H      91.42479468      68.32295554      79.28938592
C      89.60309852      71.62619714      77.94012134
H      89.91112391      72.29138080      76.01449022
C      87.36944202      69.73647082      77.52249182
H      85.59498901      70.70779015      77.90421654
H      87.40156736      68.15476990      78.83963106
C      87.01606320      68.96735222      74.80128593
O      85.65357052      67.07951564      74.45546602
O      88.01572842      70.21457158      73.00037675
C      88.65823536      73.89008927      79.50292500
O      87.40345709      75.48879773      78.40688374
N      89.22704298      74.03937765      81.93689249
H      90.15867805      72.51436850      82.60774533
C      88.33509216      75.91398614      83.74725030
H      87.98738253      77.67332135      82.73813645
C      85.74427739      74.93321818      84.51825863
H      85.89167604      73.19278026      85.61052044
H      84.74083271      74.52881676      82.76459261
C      84.08509768      76.94955616      86.17743833
H      85.30397116      77.78292547      87.61552006
H      82.56386800      76.08595124      87.26403096
C      82.88512148      79.11140306      84.53715590
O      83.90368396      81.20333010      84.62597303
O      80.93492392      78.57850024      83.36552558
C      90.16056778      76.55271364      85.77492663
O      90.75772130      78.73534753      86.14720271
N      91.33786727      74.60251608      86.82750419
H      90.95992201      72.85640897      86.15287189
C      92.91578875      74.45889689      89.02903534
H      94.64866777      75.48690799      88.59439829
H      93.23137304      72.44822809      89.33328128
C      91.39455906      75.41887786      91.28347883
O      89.21192517      74.89542367      91.56882751
N      92.51894622      77.07805755      92.78203180
H      94.28773005      77.52592269      92.22267281
C      91.46258921      77.73757203      95.29158834
H      89.41412589      77.52214323      95.31993424
C      92.57185856      75.76469776      97.16997630
H      94.60709379      76.02736972      96.98856257
H      92.48115169      73.73324199      96.85250228
C      91.88399818      76.00280328      99.89307191
H      92.14478041      77.95300084     100.50345351
C      89.17602037      75.22612577     100.73966930
H      89.14389502      74.54015512     102.68041823
H      88.57886686      73.53671045      99.72299655
H      87.62644479      76.57916980     100.68108779
C      93.81718820      74.44944825     101.41241187
H      95.70313506      75.16376479     101.00045153
H      93.65467173      72.51058905     100.73966930
H      93.22192441      74.33984413     103.38150669
C      92.24871536      80.22256214      96.28558438
O      94.50882803      80.91042251      96.19487752
N      90.51772605      81.50568631      97.63106952
H      88.69791961      80.95010676      97.49689895
C      91.00149599      83.86784420      98.84805326
H      92.99137780      83.85839556      99.37339718
C      90.65189662      86.16953084      97.00745983
H      90.39678358      87.92697631      98.04869903
H      88.90201006      85.91252807      95.95110283
C      92.91011957      86.67408778      95.31804451
H      93.16901207      85.00545944      94.13885529
H      94.63921914      87.01234879      96.38385015
C      92.32241468      88.78869152      93.42831820
H      94.12899305      89.24222583      92.54392628
H      91.60998786      90.40251778      94.49034439
N      90.41190138      88.27846541      91.34772953
H      90.20781094      86.48133569      90.74112738
C      89.50294302      89.96032184      89.78492587
N      89.73726910      92.46420919      90.28003416
H      88.86421553      93.69631076      89.11029357
H      90.27017191      93.22198944      91.94677277
N      88.28217983      89.38395531      87.74024200
H      87.35432421      90.64629249      86.64986991
H      88.07242021      87.53769270      87.29993576
C      89.57097317      84.12295725     101.33304337
O      87.61321671      82.97211393     101.63162012
N      90.74827267      85.28324921     103.25489503
H      92.47926198      85.99756576     102.88639839
C      89.98482323      85.14151974     106.03090298
H      88.79807512      83.48234003     106.33136946
C      92.58130719      84.62751417     107.39339565
H      92.18257494      84.66908815     109.41351308
H      93.80773956      86.27157607     107.20253329
C      93.96647658      82.11984735     106.88316955
H      94.56551982      82.15575215     104.91218500
C      96.41178242      82.06315556     108.39495060
H      97.60797918      80.52869781     107.72220803
H      96.20958171      82.24267957     110.43963447
H      97.67789905      83.52958319     107.69386213
C      92.52083595      79.74635111     107.44252853
H      92.28084071      79.55359903     109.48154323
H      93.72837106      78.10417895     107.14962096
H      90.69347061      79.51769423     106.51845237
C      88.46926274      87.41863993     107.05891409
O      87.72849002      87.23155704     109.25855552
N      87.97982362      89.39529366     105.61327346
H      88.85854636      89.62773000     103.93519650
C      86.49638846      91.68375223     106.18963999
H      85.45703899      91.17919531     107.89606285
C      88.29540791      93.95142380     106.37294344
H      89.19869709      94.30669235     104.55691646
H      89.68813620      93.40529290     107.78834845
C      86.95370223      96.44397281     106.97954559
H      85.84443288      96.24933100     108.70675544
H      85.58365065      96.89561739     105.51122824
C      88.72815524      98.66818069     106.83214694
H      88.90956896      99.24832665     104.86494184
H      90.56118976      98.28078679     107.69008268
C      87.93258047     100.98120568     108.26078003
H      87.86455032     100.54656863     110.27333855
H      85.94458839     101.44607837     107.98865944
N      89.54451701     103.19029574     107.65417788
H      89.01350392     104.24854249     106.15751464
H      91.39077961     102.74432033     107.46898470
H      89.29885258     104.45452266     109.06202399
C      84.56886762      92.05980776     104.15062530
O      85.06397592      91.49477960     101.98499894
N      82.45237416      93.33159357     104.77423498
H      82.15001795      93.91173955     106.56758525
C      80.55508894      94.12716836     102.95064909
H      79.73872717      92.34893589     102.30625242
C      78.44993383      95.75989189     104.11472050
H      79.37589972      97.23009895     105.22021039
C      76.72272397      96.86349205     102.02279347
H      77.75262481      98.49432585     101.30658720
H      75.09377989      97.75166341     102.92041347
H      76.25029240      95.46320485     100.58660147
C      76.75484932      94.18197041     105.79468719
H      77.94726662      92.94986886     106.93797161
H      75.43204090      93.03868600     104.70431511
C      74.99740384      95.68052338     107.61260390
H      73.34578305      96.46853925     106.66963047
H      75.96494372      97.24332705     108.54234925
H      74.54764898      94.47298826     109.21887127
C      81.95915558      95.69186174     100.80014054
O      83.44448046      97.45308667     101.16107827
N      81.18058834      95.21187126      98.55325596
H      80.54753003      93.42041070      98.35672442
C      82.05175217      96.52901049      96.20621588
H      82.54308101      98.44708271      96.76746459
C      84.57453680      95.35171100      95.16308695
H      85.87277878      95.23265825      96.75612623
H      85.38711911      96.64995297      93.78547647
C      84.23816552      92.68530717      94.06893542
C      83.46337773      92.35082561      91.55370970
H      83.21582358      94.04213067      90.43877117
C      83.45203937      89.91685813      90.46522734
H      82.85488585      89.71087796      88.52447842
C      83.88856615      87.75312149      92.08850224
O      83.33676606      85.44387595      91.00946852
H      82.69047967      85.67820201      89.33139155
C      84.49894776      88.06303661      94.67742729
H      84.70303819      86.31881922      95.71677676
C      84.66335394      90.44598150      95.60528291
H      85.27940471      90.79180141      97.51957567
C      80.18281285      96.76333655      94.07082514
O      78.46505163      95.29690894      93.83838881
N      80.60233209      98.55668683      92.25290843
H      82.00450901      99.83981099      92.41920435
C      79.01307226      98.77967453      89.90775808
H      77.13090485      98.16362376      90.48034515
C      78.96015992     101.48198317      89.05738124
H      77.92836936     101.62749209      87.28103850
H      80.87256295     102.15850518      88.70022296
C      77.60711588     103.40005536      90.88852603
H      78.37623449     103.28667179      92.79714961
H      75.58510873     103.04667654      91.05671167
C      77.83388304     106.20062977      90.09484098
H      79.83321349     106.65983325      89.91909643
H      77.15736103     107.29667102      91.70299807
C      76.40524996     107.09636004      87.83094886
H      74.37757362     106.87715178      88.13141534
H      77.03263908     106.04756194      86.17176916
N      76.84366645     109.77788168      87.49457757
H      78.69181880     110.05378172      87.10718368
H      76.72650342     110.82856950      89.08572713
H      75.68904369     110.32968175      86.07917257
C      80.00328885      97.25088594      87.77047762
O      82.29930632      97.11482566      87.33773029
N      78.32521189      96.05090974      86.33050617
H      76.49784655      95.93185697      86.86340899
C      79.25684696      94.31425125      84.31227846
H      80.91413694      93.17096684      84.75069497
C      77.10822814      92.44531194      83.84929552
H      75.53975530      93.57158882      83.13497897
H      76.62256847      91.44375698      85.58406427
C      77.80175769      90.36283353      82.04271716
O      76.92114523      90.42897396      79.92433397
O      79.28141340      88.57515244      82.84396112
C      79.98061214      95.80335559      81.91799523
O      79.48361411      98.11449088      81.84429590
N      81.04452806      94.67140953      79.98480521
H      81.73238842      92.89128734      79.96779767
C      81.05775613      95.79012750      77.48280757
H      81.79474939      97.70442027      77.64343431
C      82.43347689      94.20653685      75.59308126
H      82.45804333      95.25722469      73.82051797
C      85.24916909      93.85504776      76.18267587
H      86.24883431      95.65028775      76.02960803
H      86.04474387      92.46798864      74.88632361
H      85.63467326      93.16340794      78.08374054
O      81.44326030      91.69509059      75.15466475
H      82.45426389      91.04313501      73.79784126
C      78.48961807      96.41562691      76.27149300
O      78.34788860      97.82725247      74.37798724
N      76.35800679      95.54068363      77.29005548
H      76.49406708      94.21976494      78.66010706
C      73.76530229      96.46098034      76.93478694
H      73.58010911      97.28112157      75.05450926
C      71.96250339      94.17252178      77.05572942
H      71.37857796      93.76623062      78.98891944
H      72.89035902      92.40751740      76.53416496
C      69.51341808      94.51456225      75.54394837
H      68.32100078      96.16996249      75.84252513
H      68.38336175      92.86294144      76.04094639
C      69.99151885      94.52212114      72.64510821
O      69.88947362      96.60648928      71.43946282
O      70.35245657      92.58893113      71.33363815
C      72.95083025      98.59448135      78.72435776
O      70.78898335      99.55635205      78.72246803
N      74.64402502      99.45619655      80.44778815
H      76.42981640      98.80613070      80.27582306
C      74.03553315     101.22498039      82.39987544
H      72.73162200     102.63093675      81.64398491
H      75.78730944     101.97898119      83.17844268
C      72.74673981     100.08736515      84.78659977
O      72.75807817     101.36104067      86.71412061
N      71.72439787      97.77811959      84.77337168
H      71.92848831      96.62160708      83.26914954
C      70.16537366      97.09025920      86.91065214
H      69.09200912      98.76833618      87.43788579
C      68.28131654      95.00022190      86.20578423
H      67.05299444      94.68841707      87.82905913
H      69.39436533      93.36182920      85.63886634
C      66.46151009      95.64650830      84.06472432
C      66.24419156      94.16685261      81.83673699
H      67.51219792      92.65696127      81.31139308
C      64.44328239      94.72054242      80.03015864
H      64.61713721      93.80213542      78.21413165
C      62.54977662      96.56491529      80.45534706
O      60.70729348      96.87672013      78.71679885
H      60.04210980      98.56235600      78.79994681
C      62.67071911      98.00110729      82.65687821
H      61.39137439      99.52989587      83.10285362
C      64.61146804      97.57591888      84.40865451
H      64.50753309      98.49621558      86.23035067
C      71.63369101      96.22854402      89.34839909
O      73.62546254      95.09848768      89.16509564
N      70.53764975      96.60082009      91.54615079
H      68.79154263      97.37182842      91.55181997
C      71.81888419      96.09815289      93.87618333
H      73.82010435      96.57247420      93.77980729
C      70.86457240      97.58347778      96.14574464
H      71.35590124      96.55924612      97.86350585
H      68.80855017      97.56458051      96.01913297
C      71.96439311     100.11760076      96.61628649
C      70.46584015     102.26999904      96.56148442
H      68.48351725     102.08858531      96.10983984
C      71.84345063     104.54522951      96.90352489
H      70.79087307     106.26677019      96.60494813
C      74.45505239     104.81546037      97.45343524
O      75.59644710     107.00565317      98.09216274
H      74.42292706     108.37570475      98.26979701
C      75.87801631     102.54400935      97.50445785
H      77.76774262     102.72731280      98.25467920
C      74.58355378     100.29334531      97.09816670
H      75.69093340      98.59448135      97.31548522
C      72.06643834      93.14262095      94.29759230
O      70.24474217      91.71776730      94.10106077
N      74.39458115      92.25067012      94.76813415
H      75.84211151      93.48466140      94.91931226
C      75.19204566      89.53891286      94.73222935
H      73.55176323      88.30303186      94.88340746
C      76.75295959      89.15151897      92.23779062
H      78.57465577      90.06803623      92.51369066
C      77.35578228      86.26212743      91.86173508
H      75.67203614      85.16419644      92.31715913
H      78.94693184      85.49867800      92.92565100
H      77.65624877      86.19031784      89.82461012
O      75.60589572      90.18141980      90.14586359
H      74.96716822      91.76123101      90.76002464
C      77.06476444      88.88128811      96.83738447
O      78.45749272      90.55180616      97.65374623
N      77.22350144      86.52668912      97.78413735
H      75.97250262      85.13018138      97.42130990
C      79.34566409      85.72166572      99.30914648
H      81.07287394      86.78180217      98.94064985
C      78.56898658      86.19409728     102.16830240
H      77.89246456      88.11027977     102.51790176
C      76.35044790      84.57460184     103.04513540
H      76.80965138      82.56771249     102.97332580
H      74.64969421      84.96199573     101.94720442
H      75.95738481      85.13585055     104.98777405
C      80.73839238      85.72544516     104.20164791
H      82.23694536      86.88762684     103.39662450
H      81.25050821      83.73178390     104.27912669
C      80.17336423      86.62495488     106.92474353
H      81.75128569      87.80792356     107.51811759
H      79.85966965      85.22277797     108.39873005
H      78.64835508      87.99311674     107.14395178
C      80.23761491      83.03069544      98.71388270
O      78.99417501      81.78914525      97.11517423
N      82.21048919      82.10095010     100.07826509
H      83.11566809      83.14029956     101.39918379
C      82.76795844      79.34005995     100.18031031
H      81.27885412      78.15142210     100.96643646
H      84.35721827      79.01880647     101.45020640
C      83.67313735      78.16465018      97.73122501
O      85.20381566      79.17754349      96.22700287
N      82.58654472      76.02925945      96.96021668
H      81.68325554      74.91621065      98.22066413
C      82.76984817      74.84251133      94.41853479
H      84.55563954      75.41509840      93.56437849
C      82.93614410      71.75280881      94.67931702
H      81.11822737      70.93266758      95.18954312
C      83.80541820      70.89109361      92.03181045
H      85.36633212      71.89075883      91.13608018
H      82.24450426      71.29171558      90.74679656
H      84.20037100      68.87097618      92.00724401
C      84.85988547      70.89676278      96.73533925
H      84.07186960      71.33895875      98.58727103
H      86.53796244      72.08918009      96.70132417
C      85.77829246      68.22091033      96.77124405
H      84.32320320      66.77149024      96.92242215
H      87.43180298      68.24925623      97.99956615
H      86.60599259      68.04138632      94.89285609
C      80.56642729      75.62107857      92.80848797
O      78.78252566      74.29638042      92.34361529
N      80.78563554      77.91520632      91.79370494
H      82.07820834      79.13407979      92.49668313
C      78.91480649      79.12274142      90.14586359
H      78.72772360      78.03992824      88.40164621
H      79.65746893      80.86317935      89.33328128
C      76.23328485      79.39486202      91.30426582
O      74.43993459      79.58194492      89.80382313
N      75.99895879      79.31549351      93.79114565
H      77.65057959      79.57627575      94.71144236
C      73.75018448      79.51013532      95.33316232
H      72.49540622      78.13063511      94.45632931
C      74.05065097      78.49157283      98.13373672
H      74.75740860      80.20933405      99.02190808
H      75.64557997      77.23112539      98.45876964
C      71.57133004      77.85662479      99.30158758
N      70.34489766      75.46045183      99.14285057
H      71.11401627      73.90142762      98.35861415
C      68.08667472      75.83461765     100.16519250
H      66.65804164      74.38141810     100.05747810
N      67.70306028      78.22323170     101.03257688
H      66.04766003      78.90920235     101.69398109
C      69.88569417      79.52336340     100.36550349
H      70.24663189      81.50379657     100.69242614
C      72.46517059      82.12173709      95.12529243
O      73.09633917      83.67509212      96.67297828
N      70.75307856      82.51291044      93.16564624
H      70.10679215      80.96333485      92.26046734
C      69.16192899      84.77113338      92.74612700
H      70.50552441      86.33204731      92.71589138
C      67.65392739      84.58216075      90.33672595
H      66.66371080      82.77558239      90.35562321
H      68.88035978      84.71633131      88.68699488
C      65.61302297      86.71377202      90.02114166
H      64.80799957      87.11817346      91.87307344
C      66.82055809      89.12884225      89.04226343
H      65.49397022      90.69164592      88.84762162
H      67.67471439      88.95309771      87.17521383
H      68.27564735      89.81292318      90.32916704
C      63.57778774      85.84449793      88.18621741
H      62.92394244      84.13807506      89.13674974
H      64.44895157      85.32860264      86.39097741
H      62.22663343      87.37517623      87.91787627
C      67.60479451      85.11884302      95.18576367
O      66.24419156      83.48045031      96.03803024
N      67.47629312      87.49233926      96.00212544
H      68.47028916      88.94175935      95.25757327
C      66.15537443      88.06870579      98.46065937
H      65.71695793      86.24511989      99.31292594
C      67.88258428      89.72032659      99.94409453
H      66.86024235      90.78424251     101.38028652
H      68.60068028      91.04880418      98.54191760
C      70.14836613      88.27468595     101.18942417
H      70.98929434      86.79880970     100.02346303
C      72.07777669      90.41196641     101.79413659
H      71.14236218      91.79524609     103.00167170
H      72.96783779      91.32281450     100.17464114
H      73.69727214      89.71276768     102.85805250
C      69.12602419      87.14840907     103.59882521
H      67.70495001      85.68954036     103.29646900
H      68.31722133      88.63940314     104.76856580
H      70.78709362      86.23945072     104.41707671
C      63.63825898      89.42930874      97.78602708
O      61.62192101      88.59027026      98.51924089
N      63.56266992      91.40407273      96.18353916
H      65.22562908      92.26011876      95.80937335
C      61.23830657      92.66640992      95.42386918
H      59.90415979      91.23588710      94.78136224
C      60.14982421      94.20086768      97.67264350