 %block lattice_cart
   139.898   0.000   0.000
   0.000 144.87   0.000
   0.000   0.000   168.12
 %endblock lattice_cart

 %block positions_abs
N      93.87010053      46.43614539      88.64258631
H      92.83264079      44.89790817      88.20039035
H      93.83419573      46.86133381      90.50396673
H      95.70691451      46.15079671      88.21172871
C      92.59075582      48.71893477      87.52953751
H      93.52239089      50.39134256      88.29676640
C      92.80807434      48.48649844      84.60424118
H      91.80840912      46.93503313      83.68772392
H      94.78661779      48.17469360      84.11669179
C      91.72526117      51.03384951      83.44016977
H      89.67301839      50.92802483      83.29088139
H      92.17501603      51.15290226      81.43517015
S      92.87988394      53.79284992      85.05777550
C      91.11110011      56.08319822      83.38347798
H      91.57786251      58.03717522      83.83323285
H      89.11554913      55.56541321      83.45906704
H      91.73093035      56.08319822      81.41816262
C      89.80340951      49.02507044      88.25708214
O      88.62988947      47.08054206      88.50085684
N      88.66579427      51.37400024      88.41581915
H      89.78829170      52.68358058      87.59567793
C      86.08631785      51.87099826      89.22273229
H      85.06586564      50.38000420      88.23251570
C      86.00316989      51.65556946      92.11779300
H      86.46426311      49.65812875      92.30298618
H      84.07186960      52.03540445      92.72439515
C      87.39022900      53.69080470      93.47839595
O      86.67591246      55.85454133      93.19871645
N      89.51995056      53.24482929      94.79931464
H      90.62544045      54.73771308      95.24717978
H      89.92624172      51.39856669      95.04875851
C      85.08098345      54.40701098      88.07566842
O      86.64756656      55.83753379      87.03064977
N      82.77929680      54.97392887      88.64069659
H      81.66246855      53.64734100      89.43627136
C      81.30342055      57.27939497      87.78087111
H      81.73049870      57.53261830      85.78154067
C      78.37434477      56.93168533      87.96417457
H      77.84711112      55.25738782      86.88703057
C      77.35011310      56.36665716      90.64758593
H      77.77530152      57.89733548      91.95716626
H      78.13623925      54.63566786      91.44316071
H      75.29031142      56.30429619      90.67404210
C      76.57154586      59.01605345      86.69049903
H      76.52997188      60.68657151      87.89425469
H      74.66670174      58.23181703      86.76797781
C      77.13657403      59.77572343      83.93905752
H      75.59833681      60.88499278      83.13025466
H      77.52585765      58.12410263      82.77498611
H      78.80709209      60.96625101      83.77465133
C      82.09521588      59.63399396      89.08478227
O      81.97238367      61.69001619      88.08700678
N      82.86244476      59.45635968      91.46394770
H      82.97582834      57.73859847      92.28597864
C      84.00572918      61.54261753      92.84722736
H      82.92858518      63.28872465      92.65636500
C      84.40257170      60.91522840      95.69315519
H      84.27029086      62.75582183      96.60778272
H      86.32631309      60.34642078      96.16180731
C      82.51473512      59.01605345      96.84399851
C      79.85777992      59.30140213      96.71927657
H      79.12078666      60.83208044      95.58544079
C      78.34032969      57.60820735      98.10066651
H      76.31454308      57.85576150      98.04019527
C      79.44015041      55.67879678      99.59166057
H      78.30820434      54.21614862     100.45526549
C      82.10844396      55.50116251      99.67291880
H      83.09110164      54.14055957     100.83510048
C      83.64857090      57.07908398      98.31042613
H      85.68191642      57.03939973      98.48050150
C      86.50205764      62.32874368      91.67370732
O      86.73827343      64.55295155      90.97072913
N      88.21037022      60.57318794      91.09167161
H      88.16123734      58.73826369      91.61323608
C      90.62921990      61.24026132      89.89547486
H      91.21692479      63.03550132      90.71939553
C      92.51516677      59.01605345      90.56443797
H      91.74793788      57.39466828      89.55343439
H      92.57563801      58.55873969      92.57321704
C      95.25149047      59.57163299      89.83500362
H      95.30818226      60.76594002      88.15881638
H      96.12454402      57.74804710      89.44760972
C      96.38343653      60.84341880      92.07432930
O      97.38499147      59.57163299      93.74484736
O      95.98092482      63.10920065      92.39747250
C      90.24749519      61.69379564      87.02120114
O      91.64400293      63.15266435      85.95539549
N      88.13856062      60.89822086      85.81744547
H      86.91212825      59.88343783      86.87002303
C      87.22393309      61.93001143      83.34190400
H      88.76783949      61.41978532      82.07767710
C      85.00728412      60.52783450      82.35168742
H      83.18936741      60.97569964      83.20773344
H      85.32286842      58.56251914      82.87703133
C      84.53674227      60.55240095      79.50198014
H      85.94836783      59.49793366      78.43617450
H      84.61422105      62.54984166      79.00687184
S      81.60010758      58.98203838      78.50042519
C      82.51662484      58.23937594      75.25009593
H      83.20070577      59.94201935      74.31279168
H      80.90657802      57.60253817      74.13515741
H      83.97549356      56.78428668      75.29733909
C      87.00472484      64.92522763      83.37969853
O      88.27840037      66.23102852      81.90760173
N      85.36066294      65.97780519      84.99163507
H      84.30997511      64.91955846      86.18027293
C      84.78807587      68.67633437      85.09368030
H      84.56886762      69.17711184      83.10757794
C      82.26340152      69.13931731      86.50152640
H      82.12923095      71.17077310      86.80388261
H      82.22371726      68.18878498      88.32889174
C      79.83699293      68.23035896      85.10879811
H      78.72961331      67.17211222      86.48829831
C      78.16647487      70.38842641      84.38692265
H      76.48083900      69.77237563      83.37591908
H      79.13212502      71.78115470      83.21907179
H      77.31609803      71.34840737      85.99885920
C      79.96171487      66.77715942      82.69939706
H      81.28830274      67.76359656      81.46918523
H      78.06442965      66.57117925      81.92082982
H      80.70815676      64.88932283      83.04710670
C      86.91590770      70.28638118      86.19728046
O      87.12566732      72.56161166      85.65114956
N      88.59209494      69.06183853      87.76386358
H      88.18769351      67.29872388      88.37613490
C      90.89945077      70.16165925      88.67093221
H      90.29095889      71.86997183      89.64603098
C      92.01249957      68.76326178      90.90647843
H      93.89466697      69.46812969      91.36190248
H      92.17501603      66.75259298      90.48317974
C      90.45536508      69.05238990      93.36501237
H      88.96248130      67.64076435      93.26674660
H      89.77506361      70.99502855      93.44438087
C      91.81596803      68.36263980      95.81976685
H      90.66512470      69.01081592      97.40146777
H      93.53372925      69.46623996      96.09755662
N      92.59642500      65.67922843      95.85378192
H      94.06663207      65.12553862      94.76907902
C      91.61187759      63.82729665      97.21060541
N      89.57664235      64.16744738      98.50884739
H      89.17035119      62.79739581      99.77307430
H      88.78673675      65.90221614      98.61656179
N      92.65878597      61.58230179      97.30887118
H      92.07486053      60.37098722      98.66002550
H      94.32741430      61.35742436      96.40936146
C      92.91956820      70.77771003      86.76797781
O      94.39544445      72.44822809      87.33867516
N      92.91578874      69.54938792      84.58534392
H      91.62699540      68.14721100      84.47951924
C      94.26316360      70.20890241      82.20806822
H      95.94124057      71.33328956      82.61246965
C      95.01716440      67.75036847      80.84746527
H      93.49971417      66.36519908      80.99486392
C      95.29495417      68.09240893      77.92594839
H      95.77305493      66.21024153      77.23619829
H      96.42690023      69.78749344      77.62926136
H      93.50160390      68.64798847      77.07935100
C      97.46058053      66.52015664      82.01342641
H      97.13365787      66.75070325      84.03354383
H      99.16889311      67.56139584      81.52776674
C      97.74214975      63.84808364      81.47863386
H      99.59219181      63.39454932      82.26287028
H      97.64199425      63.62509593      79.43206026
H      96.24926596      62.89755130      82.53499087
C      92.67012432      71.99091432      80.49597618
O      93.43546348      73.96945777      79.69284249
N      90.21348012      71.25959024      80.07645693
H      89.61821633      69.67599959      80.96273858
C      88.57319768      72.52948632      78.21318679
H      89.82419650      72.50114042      76.57479408
C      86.20726033      71.04416144      77.77099083
H      84.78240669      72.16098969      76.79022288
H      85.19625675      70.29016064      79.40182464
C      86.46804256      69.05805908      75.73197614
O      87.91557292      69.51726257      74.01232520
O      85.06775537      67.16833277      75.62237202
C      87.86644004      75.25447166      78.82356839
O      87.70959275      76.81349587      77.08502018
N      87.41101599      76.04437726      81.23485916
H      87.32786804      74.70078185      82.58979293
C      86.31119528      78.58605915      81.95862434
H      87.13133650      79.98823608      80.69439744
C      83.41991402      78.58794888      81.71484965
H      83.03818931      78.59172833      79.69095277
H      82.72260501      80.39263751      82.41782784
C      81.92325078      76.39208690      82.97340737
H      82.99850505      75.53037170      84.50408569
H      81.74750623      74.95022572      81.51264893
C      79.25306750      77.26325073      83.60835541
O      77.57310081      76.81349587      81.97563188
O      78.83165853      77.99457481      85.81744547
C      86.81386248      79.21722774      84.73085284
O      86.43024804      81.40553081      85.52075844
N      88.14422980      77.62607818      86.24263389
H      88.28217982      75.78359503      85.76642286
C      89.77884306      78.58416942      88.17015473
H      90.81252336      80.17153953      87.35946215
H      91.22070424      77.14797743      88.49329793
C      88.49949835      79.21344829      90.65514484
O      86.19970143      79.64241616      90.82333048
N      90.06608146      79.20210993      92.62990883
H      91.90289544      79.13596951      92.11212382
C      89.47270740      79.48745860      95.36812226
H      87.44125161      79.21722774      95.58355106
C      90.82953089      77.28025827      96.67770259
H      92.80240516      77.33883978      96.08999771
H      90.31174588      75.62107857      95.57032298
C      90.75016239      76.78326025      99.49528453
H      91.57786251      78.43866050     100.40235316
C      88.00061060      76.58672871     100.31731547
H      86.77606795      78.13252484      99.72394141
H      87.84376332      76.43366088     102.36577880
H      87.02929128      74.98613052      99.45560027
C      92.01627902      74.25480644      99.97905446
H      92.44902634      74.06961326     101.98405408
H      93.78884230      74.06772354      98.94915362
H      90.82764117      72.64475962      99.49528453
C      90.18135477      81.93087472      96.58510601
O      92.39611401      82.78503102      96.54920121
N      88.33320243      83.04014407      97.82665619
H      86.55685970      82.36929123      97.64146301
C      88.82453128      85.22277796      99.50662289
H      90.85598706      85.52891362      99.65213181
C      87.62455507      87.62650983      98.39924327
H      87.19180774      88.72633055     100.08676886
H      85.90301440      87.00101042      97.45438011
C      89.43869233      89.03057648      96.56620874
H      90.00183077      87.42052966      95.40969624
H      91.04495969      89.86772524      97.54508697
C      88.08942774      90.93542061      94.75207148
H      89.51428138      92.23366258      94.02830630
H      86.81953166      92.05791804      95.91992234
N      86.64000766      89.89985059      92.53542252
H      86.58331587      88.00823455      92.29731700
C      85.25483827      91.35116040      91.05387709
N      85.02240193      93.81725323      91.12190723
H      84.31186484      94.84526435      89.67815633
H      85.92947056      94.77156502      92.50329717
N      83.82242573      90.01512389      89.48540425
H      82.39946181      90.84660347      88.52353355
H      83.84699217      88.11783867      89.68571524
C      88.01194896      84.55948403     102.26184385
O      85.81797671      84.06815518     102.72293707
N      89.83175540      84.69554432     104.08542974
H      91.54573717      85.47411156     103.78118381
C      89.51239165      84.17397986     106.79718700
H      88.06297157      82.75479540     107.15434527
C      91.98604340      83.14029957     107.89700771
H      91.36054399      82.79825910     109.83019773
H      93.39199977      84.63885253     107.74582961
C      92.95925245      80.56649233     106.71592877
H      93.70380462      80.94632732     104.83565109
C      95.10409181      79.48367915     108.25605571
H      94.32930403      78.86951810     110.06452380
H      96.64232903      80.79136976     108.66801605
H      96.03005771      77.92654467     107.27717748
C      90.92779666      78.70133246     106.50238970
H      90.11521435      78.17031936     108.31841668
H      91.66478992      76.91554109     105.78618342
H      89.67679784      79.19077157     104.93958604
C      88.33320243      86.40952609     108.40912355
O      87.47715641      85.98055821     110.63333142
N      88.64689700      88.79247097     107.53040081
H      89.32719848      89.12506280     105.77673479
C      87.12944677      90.95242814     108.67557496
H      87.18613856      90.78424250     110.72781773
C      88.38989422      93.33726275     107.80252140
H      87.20314610      94.92463285     108.36188039
H      88.65067646      93.43174907     105.76350671
C      91.10165148      93.70386965     108.80785580
H      91.96525641      95.22887879     107.72504262
H      92.29217906      92.05035913     108.52061740
C      91.09031313      94.42385538     111.64811445
H      90.94102475      92.72121197     112.79706804
H      89.42357452      95.43485896     112.31140838
C      93.68112790      95.61438296     112.42290223
H      95.28172609      94.37094304     112.05251588
H      93.57341350      95.87705491     114.46380665
N      94.12143413      98.09370388     111.04151230
H      92.72870584      99.28990064     111.55929731
H      93.89655670      97.88016481     109.15745517
H      95.70880423      99.11415609     111.32497125
C      84.48949911      91.11872406     107.57386452
O      84.08320796      90.23811160     105.43658406
N      82.74717145      92.29413383     109.03084350
H      83.40857566      92.91963323     110.70703074
C      80.55508893      93.44686688     107.76661660
H      79.67258674      91.95776254     106.64789862
C      78.76551811      94.39550949     109.85098472
H      79.67258674      95.82414258     111.01883558
C      76.46194174      95.74855353     108.81541470
H      75.70416148      94.86983079     107.11466102
H      76.72839315      97.79134767     108.77384072
H      75.05220591      95.95264397     110.30262931
C      78.05687074      92.26956738     111.65378363
H      79.79352923      91.43241863     112.37565908
H      77.11389731      90.84471374     110.50294030
C      76.30698418      93.07270107     113.90066821
H      74.34166881      93.18797437     113.29595579
H      76.91547605      94.84337462     114.76049368
H      76.47894927      91.50800768     115.23103554
C      81.39790687      95.52934527     105.90712591
O      82.60166253      97.26033458     106.80285618
N      80.78185609      95.12683357     103.47126869
H      79.52329836      93.76434090     103.02340355
C      81.27318493      96.89939685     101.29430398
H      82.36922619      98.51889230     101.94248010
C      82.91535710      95.42730005      99.37434204
H      84.67091284      94.71676296     100.18881408
H      83.62400446      96.87294068      98.08743842
C      81.66246855      93.20309218      98.04397472
C      80.46627179      93.53946347      95.70827300
H      80.11289297      95.41974115      94.99584618
C      79.55920316      91.62706044      94.22483784
H      78.63512700      91.75367210      92.41070058
C      79.64046139      89.16474705      95.24151060
O      78.89968868      87.13896044      93.95271725
H      78.55764822      87.80225438      92.30109645
C      80.85177596      88.77546343      97.49595409
H      81.01240270      86.94053918      98.37656655
C      81.87978708      90.73699934      99.02663240
H      82.77551735      90.34015682     100.81809295
C      78.92803457      97.97654085     100.07354078
O      76.83988700      96.98821399     100.52896482
N      79.08110241     100.15917474      98.86411594
H      80.78563554     101.00766185      98.75262209
C      76.93059386     101.01522076      97.26729720
H      75.04275728     100.56546590      97.95137813
C      77.03074936     103.91028147      96.96494099
H      75.90825193     104.53011170      95.35111472
H      78.95638047     104.34869798      96.37912584
C      76.38635268     105.13104467      99.56331467
H      77.91892072     104.63971583     100.85021829
H      74.59489214     104.34302880     100.20582162
C      76.11801155     107.97130332      99.12111872
H      75.07866208     108.40594037      97.39390887
H      77.90191319     108.97474799      98.90568992
C      74.72339353     108.94262264     101.42091564
H      75.83077315     108.86136441     103.15757412
H      72.95460970     107.89382454     101.31320124
N      74.37190443     111.64682100     101.08643408
H      73.15114124     112.16838546      99.71449278
H      75.84778068     112.80522323     100.74250389
H      73.35145223     112.04366352     102.65301720
C      76.87768153      99.61682329      94.67459270
O      78.70126742      99.50154998      93.39902744
N      74.64591475      98.72676219      93.96405561
H      73.27586317      98.64928342      95.28875375
C      73.85600915      97.85181891      91.40725591
H      74.95394014      96.19263921      90.87624281
C      70.95905871      97.11104620      91.60567717
H      69.83089210      98.83069714      91.72284020
H      70.90047720      95.77500969      93.17415001
C      70.11435105      95.79012750      89.14525351
O      67.79565686      95.23643769      88.98651650
O      71.65825745      94.67140953      87.66937726
C      74.37568389      99.97965074      89.49296315
O      74.40969896     102.24165314      90.17893380
N      74.49662637      99.26533419      87.01931141
H      74.00151808      97.49088119      86.52042366
C      74.57599488     100.91506527      84.76864737
H      76.08966565     102.31157301      84.78754463
C      74.98417576      99.42596093      82.32901070
H      75.29787033     100.64105495      80.69439744
C      77.31420830      97.76111205      82.39893057
H      77.66380767      97.07136194      80.49219672
H      76.97594729      96.20775702      83.70662118
H      78.86567361      98.94030127      83.06600396
O      72.88657955      97.87071617      81.77343116
H      73.80120709      96.32303032      81.53532565
C      71.98140065     102.36448535      84.43038636
O      71.63936019     104.16161507      82.99419436
N      70.16915311     101.56702084      85.94783659
H      70.47906823      99.96831238      86.94561208
C      67.93738634     103.10714779      86.46751133
H      67.73896508     104.46019183      84.92738438
C      65.58845653     101.41017356      86.13869895
H      63.93872546     102.55345798      86.60924080
H      65.77742916      99.70186097      87.27631419
C      65.39003527     100.74498990      83.26442522
H      66.66371080      99.20864240      82.75419912
H      65.51097775     102.34369836      81.96996270
C      62.81622803      99.60170548      82.64837445
O      62.83701502      97.48899146      81.74508527
O      60.75264690     100.66373167      83.36269099
C      67.93360689     104.51499389      89.01297267
O      65.97207097     105.60914543      89.68004606
N      69.93482705     104.51499389      90.36601671
H      71.43715947     103.41517318      89.94460774
C      70.24852162     105.97197288      92.77352803
H      69.34145299     107.81634576      92.63179856
H      72.28942604     106.03433385      93.04564862
C      69.35090162     104.67184118      95.21883388
O      69.79876676     105.49954130      97.32209927
N      68.15470486     102.40605933      95.01096399
H      68.26619872     101.50465987      93.33288702
C      67.22684924     100.93774198      97.17281089
H      66.44639228     102.45330248      98.32554394
C      64.91760369      99.35037188      96.40180255
H      63.80455489      98.76833617      98.03263636
H      65.55255173      97.69875108      95.34922500
C      63.00709039     100.69396729      94.68782079
C      62.61591704      99.88894388      92.25007384
H      63.48141169      98.15228540      91.61890525
C      60.92461199     101.23820846      90.59467359
H      60.62792496     100.51444329      88.71061646
C      59.67361317     103.57391019      91.37891001
O      58.16561157     104.80034256      89.72350976
H      57.81034303     106.49542707      90.26208176
C      60.26131805     104.41294867      93.90358437
H      59.66983372     106.24031402      94.59144475
C      61.86380597     102.96541831      95.51930036
H      62.45151085     103.76477255      97.30320200
C      69.13358309      99.27667255      98.59010562
O      70.75307854      98.09748333      97.50540272
N      68.63658507      99.02911840     100.97682996
H      67.14559101      99.99665828     101.67035951
C      70.43560452      97.68174354     102.74561379
H      72.29131576      98.19763883     102.01051025
C      70.24852162      98.62093752     105.55752654
H      71.15747998      97.23765786     106.78206919
H      68.22651446      98.56613546     105.95814852
C      71.50896907     101.17206804     105.95247934
C      70.04065172     103.27344370     106.72537740
H      68.00352676     103.17328821     106.79907673
C      71.22928958     105.50898993     107.55874670
H      70.01986474     107.10769839     107.94425087
C      73.82199408     105.77544134     107.61543849
O      74.98228603     107.99020058     108.10487761
H      73.78419955     109.14671308     108.82675306
C      75.27897306     103.82335406     106.44191845
H      77.28397268     104.13326918     106.22459993
C      74.19427016     101.47064480     105.66146149
H      75.34322376      99.90028224     105.04541071
C      70.40914836      94.76778557     102.40546305
O      68.57233438      93.39962372     102.62845075
N      72.60690006      93.72276692     101.54563758
H      74.04498178      94.96053765     101.34532659
C      73.02452957      91.07715008     100.71415800
H      71.41070330      89.97166019     101.35855467
C      73.27964263      91.24344600      97.76429522
H      74.86701273      92.42263521      97.19170815
C      73.03397820      88.60727779      96.42636899
H      71.26141492      87.75690095      97.04430950
H      74.58922296      87.48478036      97.17848007
H      73.35145223      88.65830040      94.38924403
O      71.14992107      92.58893113      96.71738685
H      71.27275328      94.33314852      97.19737733
C      75.42070254      89.89985059     101.74216911
O      77.05909525      91.27935080     102.60199459
N      75.57566010      87.36761733     101.74783829
H      74.16592427      86.33582676     100.98060941
C      77.84522140      86.09772124     102.69270145
H      79.40046615      87.37328651     102.25050549
C      77.49562203      85.72733489     105.52918064
H      76.92681441      87.55281051     106.29829925
C      75.29787033      84.06815518     106.46081572
H      73.46861526      84.65397034     105.71437382
H      75.24873744      84.20610521     108.51494822
H      75.73817656      82.11984736     105.95814852
C      80.00895803      84.93364984     106.85009934
H      81.49995209      86.06559590     105.99027387
H      80.55697866      82.97778310     106.51939723
C      80.31698341      85.66875337     109.70736552
H      82.08387752      84.95254710     110.48782249
H      79.05842569      84.51979977     110.86765748
H      80.03352447      87.68698107     110.00405255
C      78.49528725      83.65241540     101.24328137
O      77.13468430      82.80959746      99.64079345
N      80.70437731      82.58660976     101.83098625
H      81.90435352      83.43509687     103.05174945
C      81.57743087      80.17531898     101.12611834
H      80.52863276      78.81093658     102.25806440
H      83.46715718      79.89941894     101.90279585
C      81.67569663      79.55926820      98.34066175
O      82.89457011      81.07293898      96.98194853
N      80.53430194      77.45978227      97.55264588
H      79.81053676      76.29193141      98.87923375
C      79.84644156      77.03837330      94.87112424
H      81.04452805      77.87363233      93.41981443
C      79.82187512      74.20945301      94.35522896
H      78.20804885      73.37419398      95.32465855
C      79.71227099      73.62741731      91.49040387
H      77.86978784      74.02048038      90.65703456
H      79.95415596      71.58651289      91.35056412
H      81.40924522      74.33984413      90.56821742
C      82.16135630      72.91688021      95.30954074
H      81.78341103      70.89109360      95.27363594
H      82.43158716      73.27403848      97.31831981
C      84.72949436      73.59907141      94.22483784
H      86.11088429      72.39531575      95.16781127
H      85.11688825      75.60596076      94.47617144
H      84.77673751      73.31183301      92.18582315
C      77.28208296      78.17409881      94.52152487
O      75.37723883      76.93254863      94.83143999
N      77.16869938      80.55326424      94.02452685
H      78.75795921      81.57182673      94.31176525
C      74.91803534      81.97055898      92.98706711
H      74.52119281      81.18065338      91.12568669
H      75.46038679      83.93587434      92.69982871
C      72.45005277      81.81371169      94.53286323
O      70.39403055      81.45088424      93.38957881
N      72.40280962      81.73434319      97.08966293
H      74.14513728      81.91575691      97.84933291
C      70.34678739      81.31671367      98.79608579
H      68.78398373      80.40397586      97.80964866
C      71.34267315      79.64619561     100.91257926
H      72.91114599      80.55704370     101.88578831
H      72.06454861      77.83394808     100.24550587
C      69.13736255      78.99801949     102.66246583
N      67.57833834      76.89853355     102.36766852
H      67.69739110      75.76658749     100.83321076
C      65.83034150      76.94766644     104.01550987
H      64.12202891      75.86674299     103.73960983
N      66.11380045      78.99801949     105.54996763
H      64.84390436      79.52147368     106.87277605
C      68.28509598      80.29626146     104.78273875
H      68.88035977      81.94221308     105.83531631
C      69.27153312      83.79981405      99.74094895
O      70.62646688      85.13774028     101.16391286
N      67.11913484      84.53491758      98.67514331
H      66.18749977      83.37273590      97.47894655
C      65.82656205      86.84794259      99.58410166
H      67.21173143      88.36917227      99.45371055
C      63.67416378      87.48478036      97.88145826
H      62.35135536      85.92575615      97.63012466
H      64.79099203      87.84004891      96.18637375
C      62.05088887      89.98677800      98.25562407
H      60.89059692      90.31748010      96.58510601
C      60.16683174      89.44253682     100.43069905
H      58.47930614      90.61983631     100.35511000
H      61.01153940      89.77134920     102.27885139
H      59.58857549      87.48289063     100.16802709
C      63.59290554      92.34515644      98.66380495
H      64.50564335      92.30736191     100.51006756
H      62.23041287      93.88717311      98.56931863
H      64.91382424      92.58893113      97.10289102
C      64.93650095      86.76668436     102.49050073
O      63.96896108      84.85617106     103.29741387
N      65.59223598      88.82837577     103.87378039
H      66.38025186      90.34204654     103.02151383
C      64.91004478      88.98711278     106.50994860
H      64.32800908      87.10872482     107.11844047
C      67.45172668      89.96599101     107.85543374
H      66.85835261      90.75967606     109.66201209
H      68.15281514      91.59115564     106.80474591
C      69.49452082      87.96477084     108.33731395
H      70.42615589      87.21643922     106.65923698
C      71.53731496      89.38962448     109.85098472
H      70.98929433      89.95654238     111.75393912
H      71.94549585      91.14518023     108.85320923
H      73.38546730      88.50145312     109.66012236
C      68.59879055      85.89174108     110.07208270
H      70.32033122      84.80136899     110.37065946
H      67.26464377      84.75223611     108.98926952
H      67.79187741      86.80636861     111.73126240
C      62.57812251      90.68975619     107.04474115
O      60.67327839      89.72032659     108.25227626
N      62.52709990      93.15584902     106.02050949
H      63.88014394      93.76434090     104.81864355
C      60.45029069      94.87738970     106.30585816
H      58.61347671      93.97976970     106.55341231
C      60.83768458      96.32869950     108.73037702