 %block lattice_cart
   139.898   0.000   0.000
   0.000 144.87   0.000
   0.000   0.000   168.12
 %endblock lattice_cart

 %block positions_abs
N      96.44863209      47.10132905      86.63002779
H      96.35414577      45.45726716      85.66626737
H      95.85903748      46.68936872      88.39881162
H      98.31001251      47.46037705      86.40892981
C      94.91039487      48.93814303      85.23729950
H      95.36770864      50.81275153      85.95350577
C      95.23731752      48.80397246      82.52743196
H      94.57402359      46.96715848      81.86980721
H      97.27255276      48.96837865      82.26476001
C      93.90128102      50.93180429      80.99675365
H      91.98698826      50.74472138      81.73563664
H      93.88616321      50.41968846      79.00120266
S      95.21086135      54.07063969      81.21218245
C      92.73531988      55.76005502      79.65693769
H      90.87582919      55.39533784      80.46385083
H      92.82224729      55.60509746      77.60469492
H      93.12649323      57.78395190      79.71929866
C      92.22698351      48.64523545      86.04610236
O      91.28778953      46.57031596      86.15948594
N      91.02511757      50.74094193      86.64703533
H      92.19296843      52.24516408      86.50341613
C      88.24721989      51.03573924      87.18749705
H      87.26267248      49.53529654      86.18216265
C      87.63494856      50.34220968      90.00507898
H      88.34359593      48.45815254      90.44160576
H      85.58648524      50.49527751      90.16003654
C      88.76689463      52.26217161      91.72095048
O      88.09604179      54.47504113      91.61323608
N      90.46575858      51.51572972      93.18737809
H      91.24432582      52.79507443      94.37034677
H      90.70386410      49.62411368      93.26485687
C      87.07936903      53.49049372      86.31255377
O      88.46642814      55.05707683      85.35824198
N      84.65862962      53.87599788      86.54876956
H      83.63439796      52.54374083      87.45205873
C      83.20165063      56.17957426      85.80232766
H      83.44920478      56.62743940      83.80866640
C      80.28202348      55.59564883      85.95161604
H      80.30092074      53.66245881      85.23352004
C      79.15196715      55.27250563      88.59534315
H      80.57682079      54.40890070      89.80476799
H      77.53625115      54.00449927      88.42715751
H      78.69276365      57.19435729      89.17737886
C      78.69843283      57.29073333      84.19417057
H      79.55258912      57.57986146      82.34223878
H      78.51323965      59.25982815      84.76864737
C      76.06415435      56.26272222      83.77465133
H      76.02635982      54.52606374      82.67483062
H      75.09283503      57.70647312      82.67483062
H      74.98323090      55.88666668      85.48674337
C      83.89895964      58.62865956      87.23096076
O      83.96132061      60.60153383      86.08011743
N      84.68319606      58.42078967      89.65170016
H      84.75500566      56.79751476      90.65136538
C      85.63750785      60.58263657      91.15025313
H      84.32603779      62.15866831      90.94049351
C      85.90584899      59.80784878      93.95460698
H      85.55624962      61.51238191      95.05253797
H      87.71053762      58.98581783      94.51207624
C      83.87250348      57.92757110      95.02797152
C      81.33460104      58.03906495      94.33066251
H      80.59193860      59.29951240      92.90580887
C      79.58282475      56.12288247      95.15269346
H      77.68364980      56.06808041      94.40814129
C      80.41430432      54.11788285      96.70037931
H      78.95354588      52.93302445      97.49406436
C      82.93141977      54.08764723      97.55264588
H      83.50400684      52.72515456      98.96238171
C      84.64351181      55.95091738      96.64935670
H      86.56536347      55.80729818      97.31643009
C      88.07336507      61.63899358      89.99752008
O      88.41162608      63.83863501      89.58744947
N      89.69097079      59.93257072      89.21706311
H      89.31491526      58.08630811      89.51186042
C      92.07958485      60.24437556      87.83567318
H      93.27578161      61.54072781      88.90336854
C      93.57624809      57.71403203      88.09834513
H      92.71453289      56.26083249      86.91915591
H      93.41562136      56.87499354      89.97106391
C      96.45430127      58.18457388      87.58433958
H      96.68106843      59.14266512      85.77398177
H      97.39727470      56.35531881      87.64292109
C      97.64104939      59.95524743      89.35690286
O      96.99098354      60.03650566      91.64158197
O      99.50054008      61.20624625      88.36101709
C      91.92273757      61.33474764      85.11635701
O      93.07736035      63.21880478      84.48140897
N      90.06702633      60.42200983      83.60457596
H      88.95775698      59.18423910      84.53999049
C      89.16940633      61.24782023      81.09123997
H      90.69063601      61.09664213      79.70985003
C      86.93574983      59.58486108      80.30700355
H      85.27657013      60.16689678      81.37847836
H      87.48188073      57.70080394      80.93250296
C      86.20064629      59.75493644      77.53477504
H      87.80313421      58.94802331      76.51810229
H      86.19875657      61.66167029      76.75809753
S      83.20731981      58.16945607      77.09635854
C      84.12572680      56.79373531      74.10303206
H      84.46398781      58.30929581      72.74998802
H      82.62906356      55.63344336      73.29422920
H      85.89640036      55.74871666      74.21641564
C      88.62705488      64.00871037      81.18383655
O      89.65128654      65.40521812      79.67394523
N      87.13795054      64.83263105      82.99230464
H      86.88661694      63.57974250      84.41148910
C      86.31025042      67.44234308      83.34946291
H      85.94931269      68.32673500      81.52587702
C      83.83470895      67.56706502      84.87069259
H      83.89140074      69.38498173      85.83823246
H      83.71565619      66.03260726      86.23885444
C      81.41963872      67.69178696      83.30977866
H      79.82470971      67.70690477      84.61368981
C      81.18720238      69.89142839      81.44083933
H      79.21999729      70.00481197      80.84368582
H      82.29458200      69.53427011      79.74197538
H      81.81081207      71.67533003      82.26664973
C      81.07948798      65.29750372      81.75453390
H      79.19921030      65.51671197      80.94195159
H      80.84516192      63.66666991      82.99230464
H      82.62339438      65.01782423      80.42227685
C      88.36249320      69.05994881      84.64203571
O      88.60059871      71.34462792      84.09401508
N      90.01600372      68.13587264      86.25586198
H      89.63616873      66.43322923      87.03064977
C      92.39138969      69.41521736      86.93994290
H      92.08147458      71.34273820      87.59567793
C      94.07135639      67.86942123      88.81833086
H      95.93084708      68.73491588      88.99218568
H      94.29056464      65.88331888      88.31944311
C      92.90161580      68.04516578      91.36001275
H      90.99677168      67.31195197      91.63591279
H      92.55579588      70.05394485      91.64725115
C      94.36804342      66.79038751      93.41981443
H      93.87860430      67.49336570      95.29442293
H      96.38249167      67.20612730      93.33666647
N      94.22631394      64.01815901      93.36501237
H      95.57746826      63.12998764      92.35022934
C      92.74476852      62.64810743      94.81443245
N      91.25755391      63.57974250      96.58699573
H      90.40717707      62.22291901      97.62823493
H      90.98543332      65.46190991      96.73817384
N      93.16617748      60.31051598      94.90513931
H      92.61626713      59.45635969      96.52085531
H      94.43229411      59.63777341      93.64280214
C      94.18096051      69.95567908      84.72329394
O      95.49621003      71.75658826      84.70250695
N      94.40016877      68.00548153      83.06411424
H      93.65183715      66.28394086      83.40804443
C      95.72297718      68.16610826      80.60180085
H      97.62026240      68.90310152      80.92305432
C      96.31068207      65.42978456      79.52654658
H      94.66662018      64.28083096      79.99708843
C      96.64327390      65.55261677      76.63904477
H      94.90850514      66.24236688      75.76788094
H      97.29711920      63.80084048      75.78110903
H      98.12103988      66.96991151      76.41794679
C      98.41016800      63.93690077      80.91360569
H      97.97364122      64.12398368      82.91671558
H     100.26587924      64.80239543      80.69439744
C      98.50276459      61.08530377      80.30700355
H      99.61392366      61.12309829      78.57223479
H      96.76421638      59.99115223      80.16905352
H      99.59313667      60.10453581      81.75264417
C      94.54945714      69.98024552      78.50042519
O      95.92139845      71.58840262      77.44028873
N      92.03990060      69.91977428      78.02232443
H      90.92685180      68.56106106      78.76876633
C      90.77378397      72.00792186      76.58991189
H      91.83958961      72.16287941      74.83435614
C      88.00911437      71.23880325      76.10803168
H      87.23999577      72.69200278      74.86837122
H      86.89984503      71.15376556      77.84091071
C      87.81258284      68.72735698      74.59436090
O      89.18263442      68.67255491      72.62715581
O      86.35938330      66.97369096      75.34836170
C      90.70764355      74.59306745      77.82957235
O      91.19897239      76.38074855      76.33857829
N      90.02356262      75.04660177      80.16338435
H      89.56624886      73.45923167      81.11958586
C      89.18263442      77.40686993      81.15927011
H      89.01066932      78.81660576      79.66827605
C      86.60504772      77.50513570      82.54443950
H      86.21954356      79.33817023      83.40237525
H      86.90740393      76.18232728      84.09401508
C      84.40729602      76.66609722      81.06667352
H      82.99567047      75.99335465      82.40837921
H      84.96854474      75.16565453      79.77221100
C      83.07125952      78.94321743      79.84024115
O      83.93675417      79.92965456      77.81445454
O      81.40263118      79.95233128      81.02320982
C      91.03456620      78.50480092      82.98663546
O      91.51077723      80.78192113      82.73530186
N      92.24021159      76.94766644      84.65148434
H      92.06824650      75.05416067      84.49463706
C      93.88427348      78.03614880      86.61113053
H      94.60992839      79.90319839      86.12736059
H      95.41495180      76.79459861      87.21206349
C      92.35548489      78.36874063      89.19060694
O      90.08592359      78.53125709      89.37391040
N      93.67829331      77.96244947      91.32788740
H      95.57746826      77.96433920      91.13702505
C      92.96586649      77.89063987      93.88279738
H      90.94007989      77.60340147      94.13224125
C      94.45497083      75.64375528      95.00718453
H      96.40894784      75.86296354      94.39491321
H      93.90506047      73.88442009      94.08499809
C      94.28111601      75.34517853      97.97027539
H      95.40928262      76.79648833      98.90191047
C      91.49943887      75.04093259      98.90568992
H      90.53567846      76.83050341      98.57309809
H      91.59392519      74.76125310     100.94470461
H      90.65473121      73.37230426      98.04019527
C      95.77777925      72.89798295      98.39357409
H      97.80734531      73.10396312      98.11956377
H      95.07480106      71.32006148      97.27296638
H      95.67195457      72.60318565     100.42880933
C      93.45152616      80.49090328      95.03930988
O      95.60581415      81.22789654      95.11678866
N      91.62416081      81.69087948      96.14857923
H      89.98387837      80.74412660      95.90669426
C      91.90006085      84.16075178      97.30320200
H      93.87860430      84.70877241      97.46382874
C      90.47520721      86.04102946      95.58166133
H      89.93852494      87.74745232      96.60400327
H      88.67618776      85.17175535      95.08088386
C      92.32146982      86.66841859      93.47272677
H      92.67673837      85.01490807      92.29920673
H      94.07513584      87.50934680      94.15113851
C      91.04968401      88.59782916      91.76819363
H      92.31391092      89.94331429      90.85734555
H      90.13505648      90.01134444      92.95683148
N      89.13161180      87.39974268      89.97484336
H      88.81035833      85.51757527      90.01452762
C      88.02990136      88.52412983      88.05299170
N      88.31902949      90.92975143      87.50497107
H      87.27779029      91.66296524      86.08200716
H      89.04090494      92.17319134      88.76163907
N      86.61638608      87.41297076      86.50341613
H      85.58648524      88.29358322      85.15604126
H      86.13450587      85.60261295      86.87002303
C      91.00999976      84.24767919     100.03952571
O      88.75366654      84.53113813     100.48928057
N      92.86193155      84.10972917     101.80830953
H      94.64772291      84.00201477     101.13556697
C      92.50855273      83.92642571     104.54463324
H      91.00999976      82.55826386     104.89801206
C      94.90472569      82.92487077     105.92413344
H      94.54756742      82.82471527     107.94803033
H      96.41650674      84.26846618     105.54051900
C      95.63038060      80.19799570     104.98493947
H      95.92895735      80.19043679     102.94592478
C      98.14182687      79.58572437     106.19436431
H      98.04356110      79.27958871     108.22770982
H      99.40794349      81.16742530     105.80697041
H      98.82968724      77.78292547     105.47815803
C      93.72175702      78.06260496     105.78429370
H      94.35481533      76.18988619     105.20792717
H      91.88116359      78.61062559     105.04352098
H      93.56679946      78.32716665     107.81952894
C      91.70163959      86.46432815     105.91468481
O      91.24810528      86.52290967     108.12566460
N      91.53723340      88.63184423     104.54463324
H      92.57658287      88.66207985     102.94403505
C      90.36560309      91.01856857     105.61799778
H      89.60593311      90.87494937     107.52662136
C      92.49910409      92.87427981     105.86555193
H      93.32680422      93.17096684     104.00228178
H      93.78789744      91.87272486     107.12221993
C      91.89061222      95.44052814     107.02773361
H      90.90984427      95.18352536     108.82108388
H      90.82669631      96.30980224     105.49327585
C      94.37749205      96.80868999     107.50394464
H      95.82502241      96.08303508     106.22837938
H      94.87449007      96.33625841     109.44469357
C      94.29056464      99.66217672     107.59465151
H      93.40617272     100.24043297     105.82397795
H      96.25210055     100.27633777     107.72504262
N      92.86949045     100.53523028     109.88311007
H      91.05535319      99.94752539     109.85098472
H      92.62004658     102.40983878     110.14389230
H      93.71041866     100.01933499     111.51772333
C      88.07903425      91.92185774     104.00228178
O      87.89384107      91.45131589     101.79319172
N      86.18741821      93.35993947     105.12099976
H      86.53134840      94.27267728     106.76317193
C      83.98210760      94.20842658     103.77929408
H      83.13173076      92.59460031     102.82498229
C      81.99222579      95.50855829     105.54996763
H      82.69898344      97.30568801     106.26239445
C      79.63195763      96.26444881     104.01362014
H      80.04202824      97.24899622     102.25050549
H      78.56426226      97.45119694     105.31375185
H      78.80803696      94.51456225     103.30308305
C      81.21932773      93.86827585     107.90834607
H      82.89551497      93.16907711     108.87777567
H      79.89840904      92.41129686     107.29607475
C      79.94376247      95.37249799     109.88122034
H      81.31759350      96.67451942     110.68813348
H      79.55258912      93.86638612     111.23237466
H      78.24300879      96.16051386     109.02517432
C      84.41296520      96.19263921     101.58721156
O      85.48821947      98.29779432     102.00484107
N      83.39629244      95.50477883      99.38379068
H      82.57615122      93.78323816      99.34410642
C      83.34715956      97.03167769      97.01974306
H      84.32225834      98.78723344      97.48650546
C      85.05169269      95.72020763      95.06387632
H      86.83370461      95.30824730      96.01251893
H      85.63183867      97.01844961      93.57477199
C      83.95754116      93.32970385      93.79209052
C      82.73299851      93.49411004      91.47528606
H      82.49489299      95.34226237      90.64380648
C      81.90718811      91.38895492      90.11468311
H      81.05303182      91.55714057      88.27031023
C      82.49111354      89.04569430      91.30143123
O      82.05080731      86.75156655      90.01263789
H      81.12106196      87.09927619      88.49329793
C      83.76856853      88.78680179      93.51808020
H      84.45075973      86.96321590      94.12468235
C      84.37706040      90.93542061      94.83710917
H      85.23499615      90.95620760      96.68904095
C      80.79791876      97.69686136      95.78386205
O      78.98567123      96.45909062      96.32999295
N      80.82815439      99.69619180      94.35900841
H      82.42875257     100.64861386      93.94893780
C      78.55481363     100.74876935      93.21005481
H      76.97311271     100.00799664      94.30042689
C      78.39796635     103.72886775      93.16281165
H      76.61973389     104.63593638      92.65258555
H      79.69998778     104.34113907      91.69260458
C      79.28991717     104.67562063      95.85000247
H      81.02090647     103.76477255      96.49817860
H      77.95010121     104.17295343      97.33343763
C      79.87195287     107.60847587      95.89346618
H      78.03513889     108.51365477      95.66669902
H      81.23822500     108.06956909      94.42325910
C      80.67697628     108.66294315      98.37278710
H      82.41174504     107.68973410      98.90757964
H      79.10661371     108.19618075      99.62189619
N      81.09271607     111.35580315      98.03830554
H      81.57837573     112.23263616      99.66347017
H      79.67353161     112.35735809      97.24839994
H      82.49489299     111.69784361      96.79108617
C      78.28269304      99.69430207      90.45294412
O      79.98155700     100.03256308      88.85234593
N      76.16242012      98.50755394      89.90114404
H      74.73189730      98.44330325      91.16537094
C      75.31015355      97.89528262      87.32355735
H      76.57060100      96.59893037      86.33523048
C      72.68343398      96.40050911      87.53142724
H      71.27558787      97.47576338      88.58400480
H      73.15586555      94.79991092      88.73707263
C      71.91242564      95.62383159      84.91982548
O      73.42420669      94.23110330      83.83323285
O      69.98301507      96.54601803      83.87858628
C      75.00212816     100.23287407      85.72106943
O      75.16842408     102.31724219      86.74152164
N      74.59772673     100.33302956      83.19072590
H      74.76213292      98.69274712      82.23074493
C      73.70577591     102.51566345      81.62414279
H      75.03236378     104.06334930      81.92838872
C      74.09883898     102.07346750      78.74986906
H      72.60028602     103.03344846      77.71240932
C      76.59705717     103.07880190      77.78232919
H      76.89752365     105.11403713      77.89760250
H      76.71422020     102.70841554      75.76032204
H      78.10694849     102.21141752      78.88214991
O      74.10072871      99.59792603      77.95996346
H      73.55459781      99.43351984      76.23842279
C      71.03559263     103.42840126      82.05311066
O      70.57827886     105.55812282      81.57689963
N      69.31783141     101.89394350      83.10379849
H      69.91120548     100.11004186      83.43828005
C      66.97268106     102.74432034      84.40959937
H      66.10907613     104.29389591      83.36647045
C      65.03571159     100.56546590      84.76675764
H      63.38409079     101.43662973      85.63603175
H      65.88230898      99.08581020      85.92515987
C      64.04171555      99.38438695      82.25153192
H      62.97968936      97.70253054      82.79010392
H      65.56483496      98.82880742      80.97974611
C      62.25781391     101.16450914      80.84935500
O      63.03071197     103.14305259      79.81567470
O      60.09218755     100.45964123      80.42983576
C      67.56605512     104.09169520      87.00419360
O      65.86908089     105.09513987      88.31755339
N      69.99057398     104.06712876      87.73929713
H      71.25480088     103.16761903      86.62624834
C      71.04693099     104.86081381      90.16381599
H      70.12663427     106.69762778      90.31310437
H      73.07649705     105.08191179      89.88413650
C      70.68410354     103.09580943      92.48439991
O      71.62329751     103.90650202      94.40436184
N      69.50113487     100.88293992      92.30676563
H      68.17076754     100.98120569      90.94238324
C      68.92665807      99.44863765      94.51018651
H      68.18777508     100.65050358      96.00873948
C      66.79693651      97.51922708      94.05287275
H      66.11285559      96.84837424      95.87645864
H      67.66432089      95.80335559      93.31587948
C      64.55761083      98.38661146      92.55243005
C      63.50503327      96.88616877      90.66648319
H      63.96423677      94.93219176      90.29231738
C      61.21468498      97.67796409      89.50241178
H      60.24147593      96.58381256      88.08133760
C      60.39454376     100.21964598      89.85201115
O      58.32529345     101.04356666      88.47818012
H      58.02293724     102.74621006      89.02620075
C      61.75514671     101.81835444      91.47528606
H      61.50948229     103.83847187      91.64347170
C      63.80361003     100.88671937      92.87746298
H      64.87697458     102.26432985      93.93570971
C      71.19055019      97.88583399      95.81220794
O      72.90453195      97.09781811      94.38924403
N      71.16031457      97.64961820      98.36333847
H      69.52381158      98.04835045      99.25906874
C      73.37696353      96.60270982      99.80330992
H      75.14196791      97.42852022      99.13245708
C      73.02547444      97.25655513     102.62845075
H      74.61284454      96.44397281     103.66024132
H      71.21700636      96.53090022     103.29363442
C      73.21066762     100.13838775     102.98749875
C      71.06015907     101.41206329     104.04763522
H      69.35940539     100.35003710     104.41613185
C      71.46833996     103.76477255     105.03785180
H      69.80727053     104.56223705     105.91468481
C      73.65475330     105.10269878     104.60510448
O      73.83616703     107.63493204     104.83565109
H      72.38485722     108.44184517     105.56508545
C      75.69943717     103.96130408     103.33142894
H      77.37562441     105.04978644     102.92135833
C      75.47455974     101.40828383     102.72104734
H      77.04681203     100.43696451     101.85177324
C      73.46389094      93.72465665      99.28174545
O      72.04470648      92.22043450     100.45715522
N      75.31771246      92.97632503      97.84555346
H      76.32682631      94.48432662      97.25028967
C      75.96588858      90.40818697      97.15958280
H      74.30859861      89.22332857      97.47327737
C      76.44020989      90.30803147      94.33633169
H      78.35261292      90.91652335      93.87145902
C      76.30792904      87.62084066      93.35556374
H      74.49190206      86.85550150      93.95649670
H      77.85750462      86.54558638      94.18515359
H      76.65185923      87.45076529      91.33166686
O      74.56182193      91.51367686      92.86801435
H      74.78669936      93.20876136      93.47461649
C      78.34316428      89.53891286      98.67325358
O      79.73967203      91.11683433      99.75417703
N      78.85150066      87.11061455      98.86033649
H      77.65530391      85.82938011      98.10633569
C      81.24578390      86.12417742      99.97149556
H      82.82937455      87.36194815      99.52929960
C      80.93397906      86.31315005     102.91379943
H      80.16297072      88.19153800     103.26339880
C      78.88551574      84.43287237     104.00417151
H      76.99767915      84.92420121     103.34465703
H      78.70977119      84.99223135     105.97893551
H      79.23322538      82.43354193     103.64512351
C      83.72510482      86.22811236     104.10054755
H      85.12350229      87.39218377     103.13489741
H      84.25989737      84.24201001     103.99661261
C      83.57203699      86.77424327     106.81608426
H      85.41263042      86.89140630     107.73071180
H      82.35694297      85.38340470     107.72693235
H      82.67630672      88.59027025     107.19780898
C      81.58593464      83.45588386      99.21938449
O      79.80203300      82.32204807      98.05342335
N      83.86305484      82.38440904      99.42347493
H      85.21420916      83.60895169      99.98472364
C      84.56225358      79.90697785      98.54664192
H      83.20543009      78.57094134      99.33654752
H      86.34993467      79.21722774      99.30253244
C      84.74177758      79.59517300      95.81598740
O      85.94742297      81.24868353      94.59900365
N      83.66274385      77.65631381      94.68026188
H      82.75756495      76.46011705      95.85756138
C      83.52668356      77.18010278      91.89669502
H      85.28790848      77.85095562      91.06899490
C      83.35849792      74.32283659      91.49796277
H      81.94120318      73.66899129      92.84155818
C      82.46843682      73.50647482      88.77297743
H      84.03879939      73.98079613      87.52386833
H      81.03413455      74.71023048      87.91693141
H      81.99789497      71.50525466      88.61990960
C      85.83970857      73.03404325      92.45416429
H      86.05513737      73.03026379      94.50262761
H      87.47243210      74.01292148      91.66614841
C      85.85671610      70.19945378      91.75685528
H      84.01612268      69.53238039      92.39936222
H      87.28345947      69.10152279      92.75841022
H      86.09104217      69.67222013      89.78020155
C      81.48955859      78.86384892      90.69860854
O      81.70309767      79.41942846      88.38180408
N      79.49967679      79.51580450      92.06488066
H      79.40519047      79.12841060      93.93193026
C      77.26035111      80.71767043      90.92159625
H      76.80492706      79.54981957      89.28887271
H      77.86506353      82.51291043      90.11468311
C      75.04370214      81.13529995      92.69415953
O      72.93854703      81.78158635      91.96472517
N      75.31582273      80.65908892      95.20560580
H      77.08838601      80.48145464      95.88779700
C      73.12751966      80.69688344      97.05375813
H      71.66676122      79.47234079      96.27519089
C      73.71900400      79.36084694      99.49717425
H      74.96811309      80.62318412     100.54030318
H      74.74512538      77.60718092      99.15513379
C      71.47967831      78.60306669     101.15446423
N      69.89230821      76.66420749     100.54597236
H      70.26080484      75.22612577      99.34788588
C      67.91376476      76.77759107     102.17680617
H      66.33773302      75.48501827     102.27696166
N      68.49202101      78.71645027     103.96448726
H      67.40920784      79.48178943     105.33642856
C      70.68599326      79.86351414     103.21237619
H      71.58928244      81.42631780     104.16668797
C      72.10517772      83.35194891      97.59610958
O      73.61884850      85.06971013      98.18948365
N      69.59373145      83.89430037      97.34288626
H      68.55816143      82.43921110      96.67014369
C      68.43721895      86.31315005      98.12712268
H      69.63341571      87.90240988      97.59233013
C      66.07506106      86.71566175      96.64179780
H      64.82784169      85.07726904      96.71927657
H      66.50024948      86.82715560      94.62923927
C      64.47446287      89.02301758      97.26918693
H      64.25147517      88.99089223      99.31387080
C      65.67443908      91.47399261      96.35644912
H      67.05960847      92.05413859      97.76618495
H      64.14376077      92.84971336      96.43203817
H      66.43221933      91.19053366      94.46294336
C      61.77404397      88.89640592      96.15613813
H      60.78949656      87.28824882      96.98572798
H      62.05372347      88.77357371      94.11901317
H      60.71579724      90.55747535      96.76274028
C      68.10462712      86.36039320     101.03541147
O      66.98779887      84.61428609     101.89145749
N      68.97012177      88.41641543     102.19192398
H      70.10962674      89.64662726     101.28296562
C      68.33139428      89.24789501     104.94903467
H      67.92132367      87.38840432     105.73327109
C      70.77481040      90.26078831     106.25294582
H      70.25135621      91.06014254     108.07842144
H      71.31338240      91.90485021     105.13422785
C      73.14263747      88.53735792     106.33987323
H      73.73412181      87.69831943     104.55408187
C      75.31204328      90.19653762     107.36599462
H      77.03547368      89.20254158     107.89700772
H      74.77347128      91.23777682     109.05918940
H      75.92998378      91.46832343     105.86744166
C      72.55304286      86.32259868     108.29951942
H      72.12029554      87.12006318     110.14956148
H      74.02513966      84.90152449     108.55274275
H      70.83339192      85.35883826     107.70425563
C      65.94466994      90.71432263     105.24194225
O      64.18533475      89.87717387     106.55719176
N      65.71034388      93.04435517     104.14212153
H      67.24669137      93.68686212     103.20859673
C      63.35763462      94.40306839     103.94558999
H      61.71357273      93.19175383     103.66402077
C      62.86441605      95.75233298     106.43058010