 %block lattice_cart
   139.898   0.000   0.000
   0.000 144.87   0.000
   0.000   0.000   168.12
 %endblock lattice_cart

 %block positions_abs
N      91.26511281      43.33793909      87.00986278
H      90.12938730      42.56315131      88.33456092
H      93.00366102      43.74989942      87.68071562
H      91.51266696      42.15308069      85.53587625
C      89.87049479      45.50356545      85.84579137
H      90.47709694      47.14195817      86.93805318
C      90.50166338      45.76623740      82.90915668
H      90.08781332      43.88029055      82.19295040
H      92.53122944      45.95898949      82.60491074
C      89.36971732      48.01312200      81.59579689
H      87.31369509      47.91107677      81.53910510
H      89.97065029      47.97532747      79.62481234
S      90.50166338      50.74188679      83.14159301
C      89.27523101      52.84137272      80.95706939
H      89.67963244      52.17996851      79.04844582
H      90.33158801      54.58936956      81.21596190
H      87.25511358      53.13050085      81.23674889
C      87.12283274      45.46199146      86.27853869
O      86.20442575      43.31526238      86.08578661
N      85.84348802      47.38762259      87.21962240
H      86.92441147      48.90129336      87.64859027
C      83.12606158      47.61061029      87.83945263
H      81.79380453      46.60149644      86.63569697
C      82.71221152      46.52968684      90.50774618
H      83.61172125      44.67586533      90.55120989
H      80.77524205      45.97221758      90.92915515
C      83.92919527      47.99422473      92.60534239
O      83.05047253      49.95198119      93.51996992
N      86.14017505      47.31581299      93.37446100
H      86.59748882      48.24366860      94.97694891
H      87.07747930      45.68308945      93.06265616
C      82.27946419      50.44519976      87.55599368
O      83.72699455      52.11193837      86.75663945
N      79.93998302      51.05180191      87.94149785
H      78.74378626      49.63261745      88.38558353
C      78.85716984      53.57836599      87.64103136
H      79.37306513      54.06969482      85.70595162
C      75.94888105      53.52167420      87.91882113
H      75.11173229      52.00233424      86.80577233
C      75.46889056      53.08703714      90.73451334
H      76.24367835      54.54968530      91.96094572
H      76.02447010      51.19731083      91.33544631
H      73.42420669      53.31569402      90.84978664
C      74.50135069      55.90083963      87.05710593
H      74.74323566      57.51655562      88.31188420
H      72.50768943      55.38683407      87.14025389
C      75.06448913      56.61704590      84.37936375
H      74.76024320      55.02967580      83.10001903
H      77.08082711      57.01766788      84.22818564
H      73.83238758      58.13827558      83.74441571
C      80.08927140      55.48321010      89.38335902
O      80.30470020      57.67151318      88.53298218
N      81.05303182      54.91062304      91.66425868
H      81.42341818      53.13050085      92.24440466
C      82.33993544      56.83625414      93.21005481
H      80.99256058      58.39338863      93.17603973
C      82.57993068      55.60226287      95.85000247
H      84.16730078      54.29268253      95.77819287
H      80.87161809      54.52700859      96.26763198
C      83.22810680      57.27089120      97.95515758
C      85.23310642      56.45452943      99.54819686
H      86.29891206      54.73298876      99.28552490
C      86.13639560      58.03623036     101.51729168
H      87.44786566      57.24632476     102.86844599
C      85.09137695      60.37760126     101.73272048
H      85.61672086      61.69474050     103.20103783
C      83.42274861      61.41128155     100.03385652
H      82.52323889      63.20841128     100.38723535
C      82.23977994      59.76344021      98.23483707
H      80.77902150      60.48531566      97.00651497
C      84.86083034      57.57891659      92.00062997
O      85.56191880      59.74643267      92.01952723
N      86.17041067      55.72698481      91.03875927
H      85.38050507      53.99221605      91.03686955
C      88.49099459      56.02556155      89.65358989
H      89.70419888      57.17829461      90.85545582
C      89.57002831      53.44041596      89.15470214
H      90.75110726      53.47065158      87.46717654
H      87.97509930      52.21965277      88.69927810
C      91.21786966      52.48988363      91.25796753
H      89.79868519      52.07603357      92.69038007
H      92.68807673      53.81836123      91.81543679
C      92.41028696      50.01056270      90.47940029
O      91.18952376      48.04524733      90.97828803
O      94.60425921      49.82536952      89.43627136
C      87.97509930      57.42584876      87.13458471
O      89.23176730      59.27967027      86.72640383
N      86.07970381      56.76255482      85.67382627
H      85.13106120      55.13550047      85.97996193
C      85.34460027      58.16851120      83.36836017
H      86.98110326      58.00221529      82.12303053
C      82.90118415      57.14050008      82.25153192
H      81.43475653      57.59214468      83.62347322
H      83.08070815      55.09014704      82.16838396
C      82.10371965      58.22709271      79.61725344
H      83.38684381      57.52222479      78.16783336
H      82.12450664      60.27177658      79.85724868
S      78.91575136      57.51466590      78.67239028
C      79.30125553      56.97987335      75.36914869
H      79.65085489      58.75432636      74.38271155
H      77.40208058      56.57925137      74.67561913
H      80.72043999      55.52289436      75.05545412
C      85.00067009      60.98798285      83.98252122
O      86.37639084      62.50921254      82.79010392
N      83.35660819      61.64560762      85.75508450
H      82.31158954      60.34358619      86.68294012
C      82.62528411      64.24020185      86.11980168
H      82.37017106      65.15104993      84.29054661
C      80.05525632      64.50098408      87.54465532
H      79.49967679      66.46251999      87.82811427
H      80.12517620      63.50887776      89.34934395
C      77.84238681      63.37092774      85.96106467
H      78.50001157      61.48120143      85.47351528
C      75.36306589      63.04211536      87.40670530
H      74.07994172      61.94607410      86.22562636
H      74.34072395      64.79956083      87.73551768
H      75.58794332      62.01977342      89.18115831
C      77.28302782      65.03955608      83.51197937
H      75.73156252      64.24587102      82.41593811
H      78.78724997      65.44962668      82.16460451
H      76.39863591      66.86503169      83.86157874
C      84.68886524      65.80867468      87.44827928
O      84.95342693      68.06122844      86.88325111
N      86.47465661      64.80900947      88.88258155
H      86.28946343      62.91928315      89.06777473
C      88.51934048      66.01087539      90.12980092
H      88.01856301      67.83635102      90.94994214
C      89.27901046      64.26287856      92.33700125
H      90.38639008      62.64527284      91.70016348
H      87.58014650      63.88115385      93.43871169
C      91.17629568      65.33624311      94.31743443
H      90.17096128      66.95951801      95.08844276
H      92.96586649      66.03166239      93.56721308
C      91.88872250      63.68651204      96.58132655
H      90.21064553      63.35392020      97.73028015
H      93.35515012      64.52555052      97.75862604
N      92.87893908      61.40561238      95.70638327
H      93.32491449      61.45285553      93.85256175
C      92.75043770      59.14360998      96.81754234
N      91.69974987      58.80723870      99.01529404
H      91.75077248      57.04034458      99.73527977
H      91.12149361      60.37193208      99.94125994
N      93.65183715      57.18963297      95.57977160
H      93.32491449      55.40573133      96.17692512
H      94.21497559      57.37671588      93.76563434
C      90.74354835      66.68739742      88.30999448
O      92.17407117      68.28799561      88.98084732
N      91.00999976      65.54411300      86.10090442
H      89.58136667      64.31390117      85.79665848
C      92.82980620      66.12236925      84.05244110
H      94.20552696      67.47163384      84.78187545
C      94.30190300      63.74509355      83.01687108
H      95.86470666      64.47830735      81.89437365
C      95.39038535      62.23520223      85.28832210
H      96.63382527      60.67050884      84.79132408
H      93.79734607      61.27522126      86.17460374
H      96.48831634      63.33502293      86.64136614
C      92.25343967      62.12370836      81.54477428
H      91.25377446      63.04589481      79.99897815
H      90.75299698      61.90450012      82.94128202
C      93.07925007      59.34203124      81.06289407
H      94.72142224      59.31557507      79.81945415
H      91.53156422      58.29512286      80.19550969
H      93.64805769      58.36693245      82.78632447
C      91.51644641      67.69084208      82.01531613
O      92.56524452      69.38214713      80.78699403
N      89.04657412      67.37903725      81.67138594
H      88.19997673      66.11670007      82.82600872
C      87.39873278      68.59413127      79.77599045
H      88.48721513      69.05900394      78.09035458
C      85.14050983      66.88203922      79.19206502
H      83.69108975      66.89715704      80.65660291
H      85.86616474      64.95640812      79.24119790
C      83.88006238      67.67005510      76.70329546
O      81.58404491      67.79666676      76.63337559
O      85.27468040      67.92705788      74.78144380
C      86.34426549      71.13770288      80.66794127
O      86.85638132      72.94995042      79.27332325
N      84.99311118      71.37958785      82.77309638
H      84.70776251      69.78843829      83.78976914
C      84.06147611      73.73985602      83.86346846
H      83.76856853      75.13636376      82.37814358
C      81.42908735      73.40915392      85.11635701
H      81.44987434      71.89548313      86.51286475
H      80.06470496      73.06711345      83.61213486
C      80.50690091      75.80910633      86.43349625
H      81.95632100      76.52153314      87.71473069
H      78.89307464      75.13636376      87.52197861
C      79.66219325      77.73284772      84.57211583
O      77.46255182      77.35868190      83.61969377
O      80.97366331      79.52241853      83.93338834
C      86.09482162      74.79810276      85.68894408
O      86.81102789      76.96372910      85.37524951
N      86.93197038      73.29199087      87.53520669
H      86.06269627      71.59312692      87.57489094
C      88.57414254      74.14236772      89.59311865
H      89.10704536      76.07933719      89.14336378
H      90.27300650      72.98207577      89.70650222
C      87.30802591      74.36157597      92.09133683
O      85.02145707      74.50330544      92.28219919
N      88.71587202      74.42960611      94.19271249
H      90.51867092      73.84568069      93.94704807
C      87.75400132      74.93605277      96.74573274
H      85.69608937      74.84156645      96.74573274
C      88.36060347      72.48129830      98.34255147
H      90.36749281      72.07500713      98.12334322
H      87.21731905      71.10179808      97.32587872
C      87.53479307      72.64003530     101.13178751
H      88.89350629      73.68694367     102.27507193
C      84.75878512      73.55655257     101.41335673
H      83.64006714      72.74208053      99.88645787
H      84.88539678      75.57478027     101.80641981
H      84.01045350      72.80633122     103.18025084
C      87.61983076      69.89993214     101.97838490
H      89.50010844      69.10813683     101.70248486
H      86.09482162      68.83412651     101.09588271
H      87.35148962      69.98496984     104.02117904
C      88.50422267      77.58166961      97.60555821
O      90.69819492      78.30354506      97.32776844
N      86.61449636      78.95928009      98.51262684
H      84.84760225      78.33378068      98.15735830
C      86.83937379      81.45938800      99.75417703
H      88.82358642      81.85623053     100.12267366
C      85.75089143      83.55320475      97.96271649
H      85.28601876      85.29931188      98.95104335
H      83.85738567      83.07699372      97.31265063
C      87.33259236      83.97083428      95.56087434
H      88.07903425      82.17748400      94.88057287
H      88.95775698      85.09900088      96.13913059
C      86.00222503      85.41080573      93.46138841
H      87.42329922      85.75662564      92.01385805
H      85.10460503      87.16258201      94.07177001
N      84.35627341      83.66280889      92.20283068
H      83.56069864      82.32299292      93.30454112
C      83.76856853      83.53808695      89.70461250
N      84.38839876      85.14435432      87.92826976
H      83.70809729      85.12545705      86.14436812
H      84.87027897      86.91691760      88.44227532
N      82.30025118      81.81654627      88.88825073
H      81.68042095      81.83355382      87.08356210
H      81.88829085      80.42192825      90.12413174
C      85.28601876      81.37435032     102.15601917
O      83.01078828      81.08711193     102.08609930
N      86.58426074      81.70505243     104.21204140
H      88.49099459      81.79009011     104.18936469
C      85.45042495      81.41025512     106.78206919
H      83.90273910      80.05343163     106.68569315
C      87.58203623      80.45027416     108.52061740
H      86.87716831      80.12146178     110.42735125
H      89.07492002      81.87134835     108.53195575
C      88.98610288      77.97095323     108.16723858
H      90.15395374      77.89158473     106.47404380
C      90.91362372      77.74985525     110.33286493
H      90.00844482      77.69694291     112.18290699
H      92.21375542      79.34289453     110.22892998
H      92.07580540      76.06610910     110.08342106
C      87.25133412      75.75619400     108.19369474
H      86.37072166      75.81099606     110.05507516
H      88.13761577      73.97229235     107.67024056
H      85.97009968      76.28153790     106.67057534
C      84.36950150      83.94059866     107.62110767
O      83.21487872      83.90091440     109.67712990
N      84.88728651      85.93237018     106.25483555
H      86.04946819      85.76985373     104.74872368
C      83.84982676      88.46838290     106.78395891
H      83.07125952      88.56664867     108.69069276
C      86.04757846      90.45637498     106.48727188
H      86.97921354      90.19559274     104.66935517
H      87.35337935      90.32031468     108.07653171
C      84.94208857      93.28907472     106.41735201
H      83.89895965      93.69158642     108.14645159
H      83.61550070      93.30608227     104.83943054
C      87.02078751      95.13344761     105.90523618
H      87.86738490      94.75172288     104.06464275
H      88.53256856      94.80652496     107.26394940
C      86.30269152      97.89244802     106.40034447
H      85.72821472      97.99260351     108.37510847
H      84.56981249      98.71636869     105.65579231
N      88.49666376      99.54028936     105.99783277
H      90.05946743      98.73526596     106.73671576
H      88.34359593     101.29395539     106.73293630
H      89.16940633      99.36643455     104.22149003
C      81.75412028      88.90113023     104.84887917
O      81.86561413      88.02429722     102.68892199
N      79.72266449      90.32220442     105.43847378
H      79.35794731      90.48472087     107.30363365
C      77.62317856      91.24250113     103.78685298
H      76.50068113      89.60788786     103.22938372
C      75.92431460      93.16624251     105.06430797
H      76.92020037      94.61944204     106.13200334
C      74.19332530      94.47015366     103.09143370
H      73.05571006      95.98760389     103.89078793
H      72.92720867      93.14734526     102.14657054
H      75.02102543      95.44525244     101.47760743
C      74.27269381      91.75272723     107.05418978
H      75.63140703      91.12344837     108.46581533
H      73.54892863      90.00095094     106.24916637
C      72.38674695      93.37600213     108.49038178
H      72.97823128      95.25250037     109.09887365
H      71.54959819      92.37633691     110.08342106
H      70.71811861      93.64434327     107.31497201
C      78.86283902      92.30263758     101.18847930
O      80.28580293      94.18480499     101.25839918
N      78.26001633      91.06297713      99.00773514
H      77.16586479      89.51529127      99.23450229
C      79.23511510      91.56564432      96.45660461
H      80.50312146      93.18136032      96.60022381
C      80.65618929      89.32442891      95.37379144
H      82.18119843      88.90868914      96.69471013
H      81.64073670      89.76473515      93.62201514
C      79.18976167      87.03408063      94.80687354
C      78.31292866      86.71849633      92.28975809
H      78.44709923      88.24350546      90.94049351
C      77.33216071      84.42247887      91.51308058
H      76.67831540      84.22216787      89.59122892
C      77.24712302      82.51196556      93.28942331
O      76.41375372      80.10445424      92.67148281
H      75.93187351      79.80776721      90.94805241
C      78.09749986      82.74818134      95.79142095
H      78.13151494      80.98695643      96.82132179
C      79.08771645      85.02719129      96.59833409
H      79.83415835      85.33143721      98.47483232
C      77.12807027      92.20059237      94.61790091
O      74.96055418      91.47871691      95.13190647
N      77.60239157      93.84087480      92.65069582
H      79.40708020      94.35865981      92.30109645
C      75.69754745      94.22448925      90.59089414
H      73.79837250      94.02417825      91.36379220
C      75.90163789      97.00805610      89.54965494
H      75.22700559      97.03451227      87.60134711
H      77.95010121      97.19135956      89.43627136
C      74.55804248      98.92234887      91.19182711
H      75.53692071      98.89589270      93.00407464
H      72.58138876      98.49527072      91.57922100
C      74.24623764     101.41678760      90.02964542
H      72.70044151     101.26749922      88.67849111
H      75.78447486     102.07063290      88.82966921
C      73.69443755     103.57107559      91.86834913
H      75.24590286     104.10208868      93.11367877
H      71.98612497     103.23281458      92.97005957
N      73.54892863     105.92189512      90.35467835
H      75.19110079     106.41511370      89.51375014
H      73.25224160     107.45068371      91.45638879
H      72.23367911     105.91811567      88.97139869
C      76.03958791      92.38389582      88.53109246
O      78.01246218      92.10043687      87.48418408
N      74.00246294      90.92691684      88.03598416
H      72.56249149      90.89668122      89.28887271
C      73.90608690      88.65357608      86.27475924
H      75.59361250      87.55564510      86.71506547
C      71.35873583      87.32887793      86.64514560
H      69.96600754      88.84443844      86.74530109
H      71.47967832      86.64857645      88.58589452
C      70.66520628      85.25584817      84.76486792
O      71.99179415      83.27919445      84.88770013
O      68.98901904      85.69426467      83.12458548
C      74.01002185      89.43214332      83.50631019
O      74.12529515      91.68091764      83.07923204
N      73.98545541      87.85233213      81.53154619
H      73.70199646      86.01929759      81.97752160
C      74.01569103      88.53641305      78.75364851
H      75.61250976      89.82331666      78.55522725
C      74.40119520      86.08921747      77.25320582
H      72.58138876      85.14057487      77.41383256
C      74.75079456      86.48417027      74.45830060
H      75.03236378      84.74751179      73.38871551
H      76.47611469      87.58210125      74.21263618
H      73.19366008      87.63879304      73.76288132
O      76.64430033      84.60011314      77.84657988
H      76.26635507      83.56076366      79.28655133
C      71.71400438      90.01606874      77.86925660
O      72.09005992      91.77729367      76.37826254
N      69.48412733      89.46426867      79.04844582
H      69.57294447      88.19248285      80.46763028
C      67.36196468      91.32564908      78.93884169
H      67.35440577      92.20437182      77.07368182
C      64.99791706      89.75339680      79.15993967
H      64.53304439      89.65135157      81.16304956
H      65.23413285      87.79564034      78.55711698
C      62.62064136      90.91179902      77.74075521
H      62.45056599      92.83743014      78.44751285
H      60.95012330      89.80441941      78.22074569
C      63.21968460      91.00628534      74.93073218
O      64.35918957      92.99238770      74.10870124
O      62.81150372      89.21293506      73.48320183
C      67.43188455      93.59710012      80.75486868
O      65.46467946      94.83676057      81.12714476
N      69.65609242      94.15645910      81.87169693
H      71.28314678      93.23805212      81.48241331
C      70.21923087      96.41090259      83.44394922
H      69.37830266      98.01905969      82.47262990
H      72.24879693      96.75483279      83.46095676
C      69.14397659      96.45814576      86.15381676
O      69.25547045      98.39133576      87.22529157
N      67.98746409      94.39456461      87.07789292
H      67.69833596      92.82987123      86.02342564
C      66.37930700      94.30763720      89.33800559
H      65.85396308      96.27295258      89.66114879
C      63.99258266      92.64089859      88.98273705
H      63.17055172      92.34421156      90.84789692
H      64.73146565      90.89479148      88.17771364
C      61.91577345      93.80685974      87.34245461
C      60.77437875      92.34043211      85.45083857
H      61.11075004      90.39968319      84.92171520
C      58.91677779      93.47804736      83.95417533
H      58.10608520      92.39523417      82.42349701
C      58.10041602      95.96681691      84.32834114
O      56.13510065      96.75294306      83.05655533
H      55.26771628      98.20047342      83.72173899
C      59.20590591      97.31419177      86.39948118
H      58.50103800      99.16801329      86.88703056
C      60.97280002      96.19547379      87.95472593
H      61.71168300      97.25372053      89.53453713
C      67.93644148      93.30041309      91.69260458
O      69.55215748      91.73194025      91.35812302
N      67.30527289      94.12622348      93.98862205
H      65.90120624      95.41501682      94.09444672
C      68.77736969      93.51584189      96.30920596
H      70.78803849      93.57442339      95.87645864
C      68.24635659      95.43013464      98.49750903
H      68.76036215      94.35110092     100.17558600
H      66.20734190      95.72682167      98.42003025
C      69.63152598      98.01905969      98.31609531
C      68.11785521     100.11665589      98.86033648
H      66.08639942     100.09775862      99.06442693
C      69.11941015     102.47692405      98.83577004
H      67.82683735     104.04161744      99.06253720
C      71.80471124     102.73203711      98.36711792
O      72.99523882     104.97136280      98.51640630
H      71.64408451     106.16378009      98.71104811
C      73.31460257     100.59664637      97.95326785
H      75.29881519     100.89522313      97.58099177
C      72.26202501      98.25149602      97.86445072
H      73.36373545      96.54318344      97.67169863
C      68.19911344      90.68503186      97.18036979
O      66.11285559      89.94047969      97.68114726
N      70.34962198      89.26584741      96.95171291
H      71.99368387      90.22771810      96.80620398
C      70.54426379      86.49928809      97.02919169
H      68.73579571      85.81142770      97.73594933
C      70.76914122      85.49962286      94.34200087
H      72.52280724      86.14024009      93.46516786
C      70.58961722      82.62534913      94.01129876
H      71.68376876      81.58599967      95.41158596
H      71.45511187      81.85812026      92.30676563
H      68.63752994      81.98473191      93.86578984
O      68.68666283      86.51629562      93.03808971
H      69.04382110      88.28507944      92.83966845
C      72.60217575      85.80008935      98.84521867
O      74.32182669      87.28352451      99.29497354
N      72.44154901      83.60989654     100.03007707
H      70.94677550      82.52708338      99.55008659
C      74.31615751      82.52330391     101.85366296
H      76.00746256      83.68926505     101.99917189
C      73.23145461      82.57243680     104.58242776
H      72.05037566      84.26185213     104.60321475
C      71.35684611      80.50318649     105.11344085
H      70.61607339      80.83388860     107.00883635
H      72.28470173      78.66637251     105.07753605
H      69.67309996      80.73562282     103.95125917
C      75.26480012      82.58566488     106.69703150
H      76.20399410      80.75829954     106.54963285
H      74.24245819      82.88802109     108.46014615
C      77.31893262      84.64546656     106.61577327
H      78.35072319      84.51885490     108.39589546
H      76.51768867      86.54275178     106.62522190
H      78.47544513      84.40169187     104.93013740
C      75.38385288      79.89091516     101.22249438
O      74.23678901      78.52086359      99.67291880
N      77.61750938      79.12935547     102.30152810
H      78.49056294      80.24807343     103.57898309
C      78.70410201      76.56499686     102.10877602
H      77.79136420      75.28754186     103.44103307
H      80.64863039      76.58200439     102.78907749
C      78.86850820      75.83367277      99.41024684
O      79.97021864      77.10356885      97.89090689
N      77.65341418      73.69639231      98.73561455
H      76.51768867      72.67971956      99.88267842
C      77.16019561      73.16537922      96.01062920
H      78.11639713      74.49574655      94.76340984
C      78.20332454      70.64070487      95.15836264
H      77.26035111      68.96073818      95.88590727
C      78.02191081      70.67849938      92.23117658
H      79.78313574      71.35313168      91.40158673
H      76.54225511      71.91060094      91.50363195
H      77.73467241      68.72074292      91.65858951
C      80.96988386      70.09457396      95.99551139
H      80.96421468      69.84513008      98.04208499
H      81.98277716      71.80099682      95.44938049
C      82.08860184      67.53021535      95.00907426
H      82.02435114      67.70784963      92.95872121
H      81.03035510      65.82568222      95.47961611
H      84.12005762      67.34691190      95.29442293
C      74.30103970      73.58489846      95.50796200
O      72.78169975      71.97863109      96.18259430
N      73.53759027      75.67871521      94.26830154
H      74.86039869      77.01853116      93.97161451
C      71.12063032      75.85068030      92.83588900
H      70.76725150      73.99118961      92.02141696
H      71.24724198      77.35112299      91.42993262
C      68.69611146      76.39303175      94.32310361
O      66.57772826      76.67460098      93.28186441
N      68.98523958      76.30988380      96.82699097
H      70.72378779      76.19650022      97.60555821
C      66.95945298      76.70861605      98.64301796
H      65.34751643      75.52942683      98.14224049
C      67.75880721      75.79587824     101.31320124
H      69.26869853      77.02231063     101.99161298
H      68.52414636      73.88347522     101.23761219
C      65.56294523      75.70706110     103.02907273
N      64.19289365      73.53387584     103.42213580
H      64.52737521      72.01831535     102.31286646
C      62.35607968      74.10079375     105.14367647
H      60.96902056      72.83278739     105.93358207
N      62.32017488      76.51964342     105.61232860
H      60.87642397      77.54009564     106.33609378
C      64.49524986      77.61568469     104.38778595
H      64.82217252      79.62068430     104.20448250
C      66.12986312      79.43171168      98.58443644
O      67.56416540      81.07955302      99.53307905
N      63.94911896      79.98351175      97.36556297
H      62.86819551      78.51897386      96.79108617
C      62.83795989      82.42314842      97.22005404
H      64.29871833      83.73839793      96.60022381
C      60.64398764      82.47228130      95.25662841
H      59.29850250      81.07955302      95.95771687
H      61.48113639      82.06221070      93.41981443
C      59.35708402      85.11978788      94.83710916
H      58.78827640      85.78119209      96.70415876
C      61.00114591      87.04541898      93.53319801
H      62.88709277      87.21927381      94.34200087
H      60.24525539      88.88979186      94.05476247
H      61.00870482      86.80920319      91.48662441
C      57.04027956      84.80231385      93.01163355
H      56.74359253      86.67881209      92.21794849
H      55.24881901      84.25429322      93.86578984
H      57.30106179      83.53241777      91.41103536
C      61.96868578      83.46816707      99.77118457
O      60.48336090      82.32677238     101.07509572
N      62.94567429      85.59788862     100.68203265
H      64.40265327      86.34433053      99.69748524
C      62.15387896      87.03408063     102.75128296
H      61.31295075      85.93803936     104.27818182
C      64.39887382      88.56664867     103.80386052
H      63.76392578      89.87811872     105.26272923
H      65.12452873      89.70615363     102.24861576
C      66.50591866      86.89235116     104.95659357
H      67.24858110      85.57143247     103.55819610
C      68.74146489      88.42302946     105.86933138
H      69.96600754      87.33832657     107.12033020
H      68.17076754      90.07087081     106.96348291
H      69.78270409      89.12222820     104.23471812
C      65.62530620      85.00640429     106.93324729
H      67.22779411      84.05965142     107.81574948
H      64.55194165      83.56832257     105.91846426
H      64.36863820      86.00417979     108.22393037
C      59.65944023      88.60822264     102.22215959
O      57.57885156      88.04697393     103.08576452
N      59.98069370      90.47527224     100.61400250
H      61.71546246      90.85132778      99.91102431
C      57.88120777      91.93225123      99.57087358
H      56.46580276      90.60944281      98.87167484
C      56.53005345      93.53662888     101.50784305