 %block lattice_cart
   139.898   0.000   0.000
   0.000 144.87   0.000
   0.000   0.000   168.12
 %endblock lattice_cart

 %block positions_abs
N      92.78823222      45.70576617      82.31200316
H      93.24932544      45.34482845      84.12803016
H      94.45119138      45.99489429      81.42194208
H      91.88305331      44.12028580      81.75642362
C      91.12338333      47.91107677      81.87358667
H      91.53912313      49.33970987      83.29655057
C      91.79612591      49.10727354      79.34891230
H      91.23298747      47.69186853      77.96374292
H      93.83136115      49.42663728      79.31111778
C      90.32402911      51.52990266      78.55711698
H      88.32658840      51.05558136      78.73097180
H      90.87204974      52.09871028      76.65416258
S      90.75110726      54.14906333      80.61313921
C      94.20930641      54.71031204      80.52810153
H      94.78000376      54.84070316      78.55522726
H      95.22030999      53.34026047      81.68839349
H      94.73087086      56.56602328      81.25564615
C      88.33603703      47.41596848      82.16460452
O      87.37983551      45.50356546      81.42194208
N      87.07181012      48.91830090      83.75008489
H      87.98076848      50.42630250      84.48707816
C      84.36950150      48.73499745      84.36802539
H      83.22432735      47.94131239      82.85057517
C      84.04635830      47.12684035      86.80388261
H      84.58304057      45.17853252      86.40515035
H      82.07537375      47.00778759      87.38969776
C      85.55058044      48.63862140      88.83155895
O      84.36005287      50.24488878      90.12602147
N      87.92218697      48.14729257      89.23407065
H      88.75744600      49.12050161      90.64758593
H      88.75177681      46.58448891      88.52353356
C      83.13928967      51.35037866      84.67605079
O      84.48666453      53.25333307      84.67227134
N      80.78847013      51.38628347      85.44705912
H      79.97021864      49.66285306      85.37147007
C      79.32582197      53.71442629      85.39603651
H      79.43920555      54.35504350      83.44205951
C      76.52146812      53.07191934      85.92138042
H      75.99423447      51.54124103      84.64770488
C      76.02824955      51.86438422      88.59534315
H      76.64241060      53.11349331      90.11468311
H      77.42853675      50.37905933      88.85990484
H      74.05159583      51.29935606      88.75030072
C      74.86228842      55.31313474      85.28832210
H      75.11551173      56.89294594      86.58845382
H      72.95555456      54.58747983      85.55855297
C      75.05126105      56.15028349      82.43105593
H      73.73979098      57.70930771      82.12114081
H      74.47489452      54.52322915      81.30666877
H      76.97311271      56.68507605      81.91894010
C      80.25556730      55.73076425      87.31599844
O      80.32359745      57.96253103      86.72640384
N      81.35160858      55.02211689      89.45138918
H      81.80514289      53.17018511      89.52508851
C      82.60071767      56.73798838      91.25796754
H      81.24200445      58.23843107      91.64725115
C      83.34149038      55.41895942      93.79586997
H      84.78902074      56.52633904      94.75774067
H      84.20509531      53.57836599      93.46327813
C      81.12484142      55.09959566      95.72150108
C      80.98122222      56.55279520      97.97405485
H      82.25867720      58.06268653      98.47861177
C      78.74000681      56.10493007      99.52552016
H      78.39040744      57.33325217     101.11855944
C      76.97500242      54.35315377      98.86222621
H      75.29314602      54.06969482      99.98283392
C      77.28113810      52.81491655      96.65313615
H      76.02069065      51.28423824      96.17503540
C      79.32771169      53.33837075      95.14891400
H      79.58093502      52.51256034      93.30076167
C      84.92886049      57.93040568      90.01830707
O      85.07058996      60.19240808      89.72162004
N      86.57481209      56.39405819      88.93738362
H      86.17796958      54.53645723      89.11879734
C      89.00688987      57.07435967      87.89614442
H      89.90073041      58.49921330      89.08289254
C      90.61315724      54.60826683      87.66937727
H      92.38383079      55.09014704      86.73396274
H      89.62483037      53.18908237      86.55254902
C      91.17062650      53.39884199      90.15625710
H      92.57280342      51.93808354      89.77453238
H      89.58325640      52.50311172      91.11623805
C      92.27044721      55.30179639      92.04976286
O      91.51833613      55.03345524      94.25696318
O      93.92017828      56.97042471      91.37513057
C      88.84815286      58.51055166      85.40926459
O      90.52056065      60.05823752      84.75730902
N      86.84882242      58.16473174      83.93716779
H      85.66018457      56.72853975      84.34723841
C      86.15151341      59.51021689      81.67516539
H      87.76911913      59.36848742      80.40337959
C      84.06525556      57.82458102      80.39771042
H      82.71599097      57.46553302      81.91138119
H      85.08570777      56.09170199      79.94795555
C      82.82370537      59.10959490      78.06956759
H      84.09171173      58.90928392      76.45763104
H      82.33048681      61.10136644      78.23586350
S      79.99856453      57.42206930      77.02454894
C      78.76268352      59.44407646      74.76065682
H      79.36361649      59.10959490      72.81801817
H      79.16708496      61.39427401      75.28222128
H      76.71233048      59.28911890      74.89671712
C      85.04980297      62.24276113      81.99452915
O      86.18930794      63.97375043      81.00620229
N      83.19220200      62.52244063      83.65559857
H      82.44198066      60.99932121      84.52865214
C      82.18119843      65.04144580      84.34534867
H      81.78435590      66.03922130      82.58601348
C      79.90029877      64.74475877      86.00074893
H      79.74534121      66.31512134      87.32355735
H      80.16486045      63.19518319      87.33111626
C      77.43042648      64.47641764      84.57967475
H      75.99045503      63.90005111      85.93838795
C      76.72555856      67.00298171      83.18883618
H      76.22478109      68.72830183      84.19795003
H      75.10984256      66.66283097      81.95862435
H      78.04080808      67.22218996      81.62036334
C      77.57404568      62.40905704      82.61246965
H      78.30348002      60.71019309      83.52520746
H      78.80614723      62.84747355      81.02132009
H      75.78447485      61.97819945      81.68839349
C      84.19375695      66.65527207      85.61902421
O      84.47154672      68.92672310      85.21651250
N      85.78490651      65.47608286      87.24418884
H      85.67152293      63.60714354      87.61268548
C      88.13194659      66.65527207      88.45172396
H      87.62361021      67.97241132      89.95216665
C      89.72309614      64.49720462      89.68193579
H      90.55835517      63.21030101      88.30999449
H      88.50233293      63.19518319      90.71183662
C      91.84903824      65.34569174      91.60945663
H      91.05724292      66.19228913      93.31021030
H      93.08113979      66.70440496      90.66837292
C      93.63105016      63.28777978      92.76974859
H      94.92929213      64.28555527      94.01696795
H      94.74031950      62.46196939      91.24473944
N      92.03423142      61.20152194      93.92059191
H      92.53122944      59.43084837      93.40469663
C      90.31647020      61.29600824      95.67614765
N      89.63238928      63.28966951      96.94037456
H      88.45320006      62.99109275      98.41247136
H      90.50922229      64.98097456      96.82510125
N      89.14483989      59.23620657      96.12779224
H      88.02045272      59.12093327      97.66413973
H      89.54546187      57.55057070      95.32843801
C      89.83270026      68.23697300      86.68294013
O      91.02322785      70.03788217      87.50308134
N      90.08214414      67.64926811      84.21684729
H      89.43207829      65.97308087      83.57811979
C      91.57502793      68.91160530      82.13058943
H      92.48776574      70.65960214      82.72774295
C      93.56302000      66.92739266      81.19517491
H      94.77244485      67.76454141      79.75520346
C      95.32613466      66.21496584      83.42694169
H      96.08391491      67.94973459      84.23952400
H      96.90216641      65.00932045      82.87703133
H      94.28300574      65.12837321      84.83100835
C      92.27611639      64.45374091      80.01220625
H      91.07236073      64.96963621      78.41916696
H      91.28212035      63.68273258      81.64304006
C      94.13749681      62.71141325      78.56656562
H      93.17562612      61.10892535      77.70107097
H      95.42062098      61.96119192      79.99330897
H      95.25810451      63.75454219      77.19084485
C      90.23521197      69.87914516      79.83079252
O      91.39361420      70.52921102      77.91083059
N      87.74455269      70.00575682      79.95173500
H      86.96787518      69.65615745      81.66004759
C      85.96632023      70.69928638      77.92027921
H      86.95086764      71.56100158      76.33101938
C      84.76067484      68.21618600      77.01887977
H      83.52857329      67.36769889      78.43428478
H      86.09293190      66.69117687      76.64660367
C      83.49455821      68.66216141      74.44129308
O      81.97332852      70.38937126      73.96319232
O      83.95376171      67.12959337      72.65172226
C      84.13139598      72.72507299      78.63648549
O      84.17674941      74.75085959      77.48942161
N      82.74055742      72.44917295      80.73408170
H      83.05425197      70.77109599      81.59012771
C      81.39507228      74.49385682      82.07956683
H      80.76579342      76.00563786      80.82856800
C      78.83071367      73.60946490      83.21718207
H      79.20110003      72.03154344      84.48896788
H      77.77246694      72.81766957      81.63926059
C      77.03736339      75.58611862      84.34345895
H      78.00679300      76.45917218      85.93649824
H      75.44621385      74.65637329      85.26564540
C      76.13785368      77.39458670      82.20050932
O      74.59205755      76.38736258      80.68872827
O      76.72177911      79.63580211      82.06255929
C      83.12039240      75.65792822      84.09401508
O      83.12795131      77.95583542      84.40959937
N      84.80602828      74.17638279      85.29021184
H      84.62650428      72.28854621      85.07856248
C      86.54835594      74.93416305      87.23285049
H      87.31558482      76.77664620      86.72640384
H      88.20186646      73.70584094      87.24418884
C      85.56947771      75.16470966      89.96161528
O      83.35471847      75.69005357      90.26586122
N      87.33637180      75.13069459      91.85134160
H      89.17696524      75.14014321      91.35056413
C      86.83559434      75.25730624      94.40625156
H      84.80035910      75.33289530      94.72183587
C      87.74077324      72.67971955      95.42292432
H      89.73632423      72.56255652      94.93348521
H      86.61071690      71.06967274      94.81065299
C      87.65951501      72.41704760      98.19893228
H      88.90295492      73.82111425      99.05119885
C      84.99878036      72.82333875      99.15324406
H      84.86838924      72.51342365     101.18469985
H      83.51345548      71.71595913      98.25184462
H      84.51878988      74.79432330      98.79419606
C      88.56280419      69.76765131      98.90946938
H      87.41574030      68.25587026      98.10822541
H      88.98988233      69.61836293     100.91824844
H      90.35237500      69.52765607      97.91736306
C      88.04879863      77.49852165      95.64591203
O      90.42607433      77.46261685      95.45315995
N      86.63717306      79.02353079      96.91958757
H      84.78335156      79.12368628      96.48306078
C      87.60282322      81.04553794      98.32554394
H      89.64939682      81.00963314      98.55798028
C      87.13417109      83.69493423      97.05564785
H      87.47054238      85.03475020      98.58443644
H      85.14428928      84.00862881      96.62479025
C      88.71776174      83.82343563      94.58766529
H      88.41918499      82.36834636      93.16092192
H      90.67362848      83.82910481      95.22639279
C      88.31713977      86.32921271      93.41792470
H      90.08025441      87.25895807      92.90202942
H      87.60282322      87.72005128      94.75963039
N      86.69008541      86.21960859      91.18993739
H      85.94364352      84.57176724      90.58144552
C      85.85860582      88.00728969      89.79153992
N      86.51056141      90.20504139      90.14680846
H      85.86994419      91.65446146      89.08289254
H      87.59148486      90.53763321      91.68504567
N      84.46209809      87.44415125      87.82433482
H      83.78368633      88.88601241      86.77553672
H      83.93486445      85.64513179      87.46717655
C      86.35371413      81.07955302     100.97871969
O      84.01423295      80.79420434     101.33776768
N      87.76722941      81.42159349     102.99505766
H      89.65695572      81.64269146     102.83632066
C      86.79213062      81.25718729     105.72004301
H      85.34837973      79.79075967     105.66713067
C      88.98610288      80.59767281     107.44347340
H      88.23021236      80.60334199     109.36154561
H      90.25599896      82.21716826     107.35087681
C      90.43552296      78.06354982     106.89545277
H      91.52400532      78.56999647     105.22304499
C      92.12304856      77.26797505     109.03840240
H      93.12082405      75.58422891     108.40156465
H      91.06858127      76.85223525     110.75805336
H      93.41940081      78.85723488     109.23493394
C      89.03901522      75.79965771     106.02806839
H      87.64628692      75.13069459     107.39056107
H      90.32969829      74.37102461     105.29107513
H      87.99588629      76.34956805     104.34243252
C      85.20665025      83.49273352     106.57986848
O      83.94998226      83.57588148     108.53384549
N      85.42774823      85.50907150     105.09265386
H      86.70898267      85.15191323     103.72071257
C      84.69642415      88.13768079     105.76350670
H      84.00289459      88.09988628     107.70236590
C      87.10771493      89.79119132     105.67091013
H      87.84470819      89.48694538     103.77173518
H      88.51178158      88.88601241     106.87277606
C      86.91685256      92.64278832     106.51939724
H      86.29135316      92.74672327     108.47904343
H      85.85482638      93.82953645     105.21548608
C      89.64561735      93.80119055     106.45514654
H      90.32402911      93.41757612     104.54841269
H      90.80212987      92.86010685     107.87622072
C      89.70986806      96.51861700     107.01450553
H      88.88027821      96.97215131     108.84565033
H      88.81980696      97.47859796     105.42524570
N      92.37438216      97.22726436     107.05230005
H      93.66695496      96.18224571     106.11310607
H      93.01499938      97.25561025     108.85131950
H      92.61437740      99.02628381     106.46270545
C      82.43442175      88.93892476     104.16668798
O      82.33426626      88.00917941     102.09932739
N      81.06437018      91.04596960     104.93580658
H      81.59727300      91.71115325     106.64411918
C      79.15574660      92.28185061     103.33142894
H      77.56648677      90.98927781     103.12166932
C      77.84049709      94.64211876     104.55219214
H      79.30881443      95.95736829     105.14934565
C      76.03580846      96.07831076     102.67758364
H      76.98256133      97.12332942     101.17336149
H      74.91709048      97.55985619     103.57142419
H      74.84339114      94.59109616     101.89712668
C      76.46099688      93.80497001     106.88411441
H      77.90474778      92.85065822     108.00472211
H      75.03425351      92.35177047     106.57230957
C      75.41219876      95.80807990     108.56219137
H      74.17820749      94.95392361     109.97192721
H      74.25379654      97.06663762     107.41323779
H      76.93153873      96.87010609     109.46170111
C      80.45965776      93.20970622     100.73872445
O      82.44198066      94.37377763     100.69904020
N      79.16708496      92.68247258      98.62034124
H      77.52491278      91.75272723      98.89246184
C      80.00423371      93.69347615      96.21660937
H      81.13051060      95.37155312      96.61156217
C      81.77301754      91.71304299      94.83332971
H      83.24322462      91.35966416      96.23172719
H      82.34938407      92.75050272      93.14958358
C      80.66185847      89.30553166      93.83744394
C      79.63573708      89.18836862      91.45071961
H      79.68109052      90.81164354      90.21294887
C      78.64741022      86.94337376      90.48884893
H      77.91230669      86.82432101      88.58967398
C      78.69087393      84.79664467      92.02708614
O      77.77813612      82.61590051      91.13324560
H      77.63262719      82.66314368      89.32477751
C      79.55825830      84.88924126      94.53475296
H      79.56959665      83.08266292      95.48528530
C      80.56737216      87.14179504      95.42481406
H      81.16830512      87.19092792      97.37501160
C      77.74412104      94.40401325      94.39869266
O      75.59550223      93.53662887      94.85033725
N      78.14852248      96.19358407      92.55809924
H      79.87006315      96.92868760      92.18015397
C      76.20021465      96.94947459      90.64947566
H      74.39552602      96.83231156      91.63780252
C      76.53469620      99.61398870      89.70839195
H      74.90008294     100.16956823      88.58022535
H      78.08427178      99.69713665      88.35534792
C      77.17531342     101.58875269      91.77386282
H      78.94409725     101.19379989      92.75463078
H      75.51424399     101.72103353      92.98517739
C      77.36050660     104.27594351      90.67782156
H      77.67798062     105.69512797      92.13669026
H      75.57093578     105.06773884      90.03720434
C      79.49967679     104.51215930      88.77108771
H      79.39952129     102.99281935      87.38780805
H      81.29113733     104.03594827      89.67248715
N      79.62817818     107.00092885      87.52008889
H      80.51445982     108.00626325      88.87880211
H      77.87829161     107.68878924      87.19316624
H      80.62784339     106.90077336      85.89681398
C      76.12462559      95.14289625      88.28164858
O      78.07671287      94.34921119      87.51064025
N      73.86829238      94.66668522      87.21395323
H      72.28848118      95.04652019      88.21928762
C      73.51113410      93.28529527      84.75352957
H      75.05693023      91.93414096      84.58912338
C      70.86551726      92.22137936      85.11257757
H      69.30082388      93.55552613      84.98596589
H      70.72189807      91.45792993      87.01931142
C      70.36096034      90.28818934      82.99419436
O      68.91154026      90.89290176      81.30099958
O      71.46078105      88.18870340      83.12458548
C      73.59239233      94.92557772      82.37814359
O      73.47144985      97.30285342      82.48396826
N      73.42609642      93.81630836      80.19739943
H      73.33161010      91.90957452      80.15393571
C      72.72878741      95.26194899      77.75020385
H      74.37662875      96.45814575      77.45540654
C      72.29226063      93.57631312      75.49198090
H      70.89953234      92.10988550      75.89260287
C      71.19432964      94.67235438      73.09580794
H      69.58050336      95.74382920      73.79689640
H      70.68599327      93.23427266      71.71252828
H      72.68910315      95.84587443      72.30590234
O      74.60717536      92.39145473      74.78900272
H      74.10072871      91.08565384      73.63626967
C      70.43088021      97.13088833      78.24531214
O      70.57449941      99.15478520      77.28911063
N      68.44288812      96.41846150      79.62859181
H      68.32950455      94.63078041      80.28999602
C      66.30371795      97.99638298      80.25409121
H      66.02214872      99.47792841      78.84813483
C      63.80738949      96.41657177      80.22007613
H      62.36552830      97.88299939      80.33156999
H      63.74124905      95.32430996      81.96618324
C      63.55794561      94.57786807      77.86925661
H      64.94311500      93.05474866      77.93161757
H      63.77526414      95.80996964      76.23275362
C      60.90854932      93.48182681      77.92405866
O      60.65154654      91.27840593      78.80845059
O      58.99236683      94.55330163      76.90549619
C      66.62875087      99.74626954      82.52176278
O      64.81650334     100.88199505      83.47040540
N      68.91342997     100.09964836      83.68583420
H      70.37985760      99.11699067      82.96206901
C      69.65609242     101.70213628      85.79665848
H      68.83028203     103.58052422      85.61146530
H      71.70644547     101.90244726      85.79665848
C      68.78492859     100.75727311      88.42904724
O      69.39719992     101.69268764      90.33956055
N      67.14653587      98.81274475      88.44983422
H      66.57394881      98.25338575      86.71695521
C      66.00703091      97.50127468      90.60412222
H      64.95067391      98.82030364      91.78331145
C      64.04738473      95.73438058      89.59500837
H      62.89087222      94.77817907      91.00474421
H      65.24925065      94.27551186      88.77486716
C      62.09529744      96.83420129      87.79031975
C      60.66855408      95.13911678      86.35979693
H      61.10697058      93.16057333      86.12925032
C      58.55772979      95.84587443      84.90281795
H      57.52593922      94.54763245      83.71229037
C      57.77349337      98.36676934      84.99730425
O      55.82518554      99.01683518      83.32111701
H      55.34519506     100.72892722      83.67449584
C      59.04149972     100.08264082      86.52231339
H      58.45568456     102.03472810      86.63947642
C      61.23358225      99.42879551      87.88669579
H      62.14254059     100.85364915      89.03186994
C      67.96478737      96.34854162      92.20849986
O      69.90553630      95.27895653      91.33355658
N      67.63597499      96.69814100      94.73317422
H      66.04482544      97.67323977      95.14135511
C      69.41420745      95.88933814      96.68337178
H      71.38897145      96.09909776      96.14102032
C      69.08161562      97.34820684      99.20048722
H      69.90553630      96.52806562     100.90124091
H      67.10307218      97.27639724      99.76362567
C      69.75057874     100.07319219      98.87545429
C      67.94777984     101.97614658      98.72049674
H      65.99947201     101.45458213      99.03419131
C      68.61296350     104.50271066      98.35577957
H      67.14086669     105.91622596      98.39168437
C      71.10362278     105.21324776      98.24995488
O      72.02769895     107.66233306      98.06098225
H      70.76536177     108.95490587      98.24050626
C      72.91209086     103.25927076      98.18003502
H      74.82638362     103.94713113      98.00429046
C      72.26013528     100.76861148      98.45593505
H      73.79081360      99.41934688      98.51829603
C      69.02303411      92.95270344      97.05753759
O      67.12385916      92.01161974      97.89846579
N      71.09984333      91.49761419      96.64935671
H      72.66831617      92.56341982      96.42825873
C      71.37574337      88.70459870      96.63234916
H      69.75624792      87.84666294      97.57343287
C      71.62140779      87.76540472      93.92248163
H      71.90297701      85.72450029      93.91303300
C      69.40853827      88.41925002      92.13858000
H      67.57361402      88.45326509      93.07210480
H      69.28003689      87.11344913      90.54932017
H      69.89041848      90.19559275      91.21639355
O      73.71522454      88.76884938      92.65636500
H      74.14797187      90.18614412      93.70327338
C      73.57160535      87.86744993      98.22727818
O      75.00212816      89.47749675      99.15513380
N      73.81160059      85.41458518      98.71104811
H      72.60973465      84.20327061      97.85500208
C      75.92998378      84.26752131     100.23416751
H      77.62695801      85.28986324      99.66347018
C      75.26857957      84.55286999     103.05930836
H      74.54670412      86.44448603     103.44481253
C      73.11807103      82.60645188     103.45048171
H      72.60217575      82.48550939     105.44036352
H      73.70199645      80.64869542     103.19536866
H      71.37952282      83.20549512     102.52262609
C      77.43798538      84.02941579     104.97171138
H      79.06126028      84.66625356     103.87567012
H      77.79514365      82.02441617     105.27217787
C      77.28680728      85.41269545     107.40567888
H      75.53503097      84.86089537     108.34298312
H      77.21499768      87.43092316     107.00694663
H      78.87417738      84.89680017     108.61510372
C      76.38162837      81.44049074      99.46504891
O      74.72622812      80.48428923      98.13279185
N      78.35261292      80.21216864     100.51195728
H      79.45432335      81.14380371     101.76295611
C      78.98945068      77.57789016      99.99228254
H      77.45310319      76.46673110     100.79730596
H      80.81870576      77.16026064     100.84076967
C      79.61495009      77.17726819      97.16525198
O      80.93586879      78.56054785      95.86134083
N      78.36773073      75.12502541      96.13535115
H      77.46255182      73.92882865      97.31643010
C      77.98033683      74.62613767      93.54453636
H      79.21054866      75.76375290      92.34644988
C      78.50946020      71.86146806      92.54676087
H      76.96366408      70.60480006      93.06454589
C      78.28647249      71.86146806      89.64981044
H      76.44398934      72.53799008      89.02431103
H      78.46977595      70.05677943      88.67471166
H      79.69809805      73.18805593      88.95061171
C      81.01901674      70.82211859      93.54075692
H      80.69398382      70.25709043      95.49284420
H      82.40985531      72.32256128      93.29509250
C      81.99789497      68.36925383      92.19149233
H      82.35127380      68.87192103      90.22617697
H      80.69776327      66.83101662      92.60912185
H      83.89140074      68.03666200      92.93415477
C      75.31960217      75.46706588      92.90958833
O      73.50357520      73.97796153      93.19871646
N      75.01724597      77.88591555      92.10645465
H      76.49501195      79.09156093      92.08188821
C      72.68532370      78.84589651      90.88380173
H      72.35084215      77.83678267      89.12068708
H      73.27491830      80.71861529      90.26586122
C      70.26080484      79.14447327      92.42959784
O      68.27470249      79.43927059      91.31087987
N      70.20033360      79.11045821      94.99017700
H      71.82360851      79.17092944      95.99551139
C      67.92510311      79.32210754      96.49817860
H      66.36796863      78.47928961      95.44938050
C      68.56949979      77.94638679      98.96616116
H      70.02080960      78.85156569     100.11700448
H      69.21767592      76.07744746      98.39924326
C      66.45489604      77.48907302     100.84643884
N      65.43633356      75.13447403     101.47571770
H      66.22245971      73.45072789     101.03163202
C      63.72613125      75.68816384     103.25017071
H      62.73591466      74.29543555     104.37077841
N      63.46723875      78.21094847     103.76228654
H      61.94222961      79.04620750     104.55219214
C      65.29838355      79.22384178     102.34499181
H      65.72168224      81.21750305     102.23160824
C      67.12763861      82.11512303      96.82888070
O      68.53926417      83.66847807      97.79831031
N      64.63508961      82.76329916      96.48684023
H      63.36141407      81.40647567      96.06165182
C      63.68455728      85.32576804      96.77407863
H      64.97713006      86.64668674      95.86323056
C      61.08618360      85.42214408      95.41914488
H      59.63676351      84.33366173      96.39613338
H      61.47168776      84.44704531      93.64469186
C      59.93911972      88.17547532      94.81821190
H      59.27582578      88.95782201      96.60400327
C      61.46790830      90.25984345      93.65036105
H      63.37275243      90.32220442      94.43648719
H      60.72146641      92.16468758      93.42737333
H      62.06695154      89.62867486      91.78331145
C      57.90010503      87.62178551      92.92281641
H      56.78705623      86.02307706      93.59555898
H      58.66544418      86.86022581      91.16537095
H      56.77760760      89.24506041      92.33700125
C      63.67888810      86.03819486      99.53874824
O      63.25369968      84.48295011     101.23194302
N      63.95100869      88.51940552      99.99606200
H      64.62753070      89.66457966      98.62601043
C      63.40109833      89.77229406     102.41869113
H      62.70756877      88.40980138     103.79819134
C      65.88608842      90.98171890     103.56953447
H      65.31161162      91.72060188     105.40445872
H      66.44922686      92.52373558     102.32609454
C      68.11785520      89.15057410     104.05330439
H      68.96634232      88.40413220     102.32987400
C      69.93766165      90.85510723     105.27217787
H      70.74457478      92.13634167     103.87944957
H      71.41731735      89.57576253     105.92224372
H      69.19310947      92.00217111     106.81230482
C      67.33739823      87.08888269     105.88444920
H      65.46090000      86.27252092     105.64445395
H      67.68888732      87.66713894     107.83086729
H      68.70744982      85.62812426     105.40256899
C      61.34129664      91.76028614     102.21271097
O      59.38165045      91.53729843     103.37111319
N      61.50003365      93.65568163     100.45715523
H      62.97590990      93.63300492      99.24395093
C      59.51393130      95.53973876     100.17180655
H      57.56940293      94.85943729     100.16424764
C      59.44212169      97.75827745     102.26940276