 %block lattice_cart
   139.898   0.000   0.000
   0.000 144.87   0.000
   0.000   0.000   168.12
 %endblock lattice_cart

 %block positions_abs
N      91.48243134      40.85483872      86.52231338
H      93.26066380      40.48823182      85.92893932
H      90.27111677      39.80226116      85.49241255
H      91.35581968      40.53736470      88.40259106
C      90.84559357      43.53447063      85.99130030
H      92.18163007      44.74956465      86.98340660
C      91.30479706      44.30547897      83.31544783
H      90.04245989      43.26801922      82.06066956
H      93.27578161      43.85005493      82.92994366
C      90.80590932      47.19298077      82.75041967
H      88.78390216      47.45943218      83.03387861
H      91.23487719      47.63706646      80.78699402
S      92.33280818      49.21309820      85.06533440
C      91.10826553      52.46531719      84.27920825
H      91.93218620      53.88450165      85.52264816
H      89.08058919      52.43319184      84.64581516
H      91.40873201      52.79601929      82.26664973
C      88.32280894      44.46988516      86.86624357
O      86.47087716      43.13762811      86.35601747
N      88.09793151      46.65062932      87.96984374
H      89.46042418      47.97910692      88.11913212
C      85.80380377      47.37250477      89.50052206
H      84.34682478      46.08938061      88.81455141
C      86.62583471      46.79235880      92.17070534
H      87.17574507      44.83082288      92.47117181
H      84.81169745      47.11172254      93.08911233
C      88.72154120      48.47799467      93.28186440
O      88.04123972      50.47543538      94.23617619
N      91.05346347      47.87895143      92.99462600
H      92.38949997      48.75578444      94.04153439
H      91.28212035      46.12906486      92.26708138
C      84.80791800      50.02757024      89.08100282
O      86.18174903      51.77556708      88.39314243
N      82.39284777      50.49622237      89.46272752
H      81.32137295      48.96176460      89.84067279
C      81.21554828      52.85271108      88.88258156
H      82.04135868      53.31569403      87.05143675
C      78.32237729      52.72043024      88.50841575
H      77.88396079      51.10849370      87.30277036
C      77.06570930      52.40862540      91.15025313
H      75.02291515      52.14784317      91.09734080
H      77.59483266      53.98654687      92.36534714
H      77.77624639      50.65306965      91.96283544
C      77.15452643      55.04857306      87.17993814
H      78.27513414      55.40951078      85.49241255
H      77.22822576      56.82680552      88.22117735
C      74.34072395      54.91440249      86.43160653
H      73.77002661      56.31091023      85.02942960
H      73.13885802      55.27156076      88.06621978
H      74.11395680      52.91696178      85.97996194
C      82.19442651      55.05235251      90.59278387
O      82.11694773      57.21041996      89.71217140
N      83.05614171      54.57047230      92.93226505
H      82.75945468      52.89995424      93.80342888
C      84.26178710      56.53389794      94.51963514
H      82.99944992      58.08725297      95.00907426
C      85.04224406      55.48887929      97.22761295
H      85.97765859      57.02900623      98.22349872
H      86.22332301      53.83536876      96.88557248
C      82.74244714      54.39661748      98.64301796
C      81.33838049      55.68919028     100.43447850
H      81.68231068      57.68096181     100.70659910
C      79.28046854      54.57047230     101.68169786
H      78.27135468      55.73643344     103.01773438
C      78.69276365      52.03823904     101.13934642
H      77.08838601      51.20864919     102.08987876
C      79.96643919      50.73810734      99.20048722
H      79.23700483      49.01656667      98.38601517
C      82.17174979      51.84548696      98.21593981
H      83.09582596      50.73999706      96.76840945
C      86.64473198      57.72442552      93.26296715
O      87.01700806      59.93729503      93.27430551
N      87.99966574      56.07658417      91.94204845
H      87.61794103      54.21709348      91.76063472
C      90.45064077      56.97609390      90.74585169
H      91.52400532      58.34992493      91.84000323
C      92.22698351      54.72920931      90.52853318
H      93.56302001      54.93518948      88.97328841
H      91.14228060      53.18908237      89.69327413
C      93.64616797      54.00922359      92.94927258
H      94.66095100      52.22154249      92.82833009
H      92.24210132      53.89772973      94.45538444
C      95.55479154      56.20319583      93.38768909
O      97.70152063      56.02934101      92.30865535
O      94.87449007      57.85292691      94.92403658
C      89.85348726      57.94552350      87.99629992
O      91.18196485      59.57635730      86.91726618
N      87.78801640      57.16695625      86.83222850
H      86.79402036      55.94241360      87.90748278
C      86.81480735      58.34425575      84.47196034
H      88.23399181      58.02867145      83.01120189
C      84.25611792      57.12916173      83.66504721
H      82.64796083      57.86804472      84.71573503
H      84.60004811      55.12983129      84.02976437
C      83.64762604      57.37293642      80.81911937
H      84.97610364      56.29201297      79.67961440
H      83.64195687      59.39116412      80.40526931
S      80.43887077      56.14461432      80.10669255
C      80.71099135      55.74777179      76.66361122
H      81.03224483      57.50521726      75.63748982
H      79.08582673      54.74054767      75.90394123
H      82.29458200      54.45897845      76.39904953
C      86.14017505      61.12593288      84.69872749
O      87.39306360      62.70574408      83.67260610
N      84.44698028      61.74954256      86.44861406
H      83.67030276      60.42295469      87.58056013
C      83.92730554      64.44618201      87.19694569
H      83.90084937      65.50820820      85.43005157
C      81.35916748      64.70318479      88.46306232
H      81.30058596      66.52866041      89.41737409
H      81.25712226      63.21785991      89.88602622
C      78.89685409      64.84113481      86.85868468
H      77.42853675      64.85247317      88.30054584
C      78.85528011      67.24486668      85.31288854
H      78.57749035      68.87947994      86.53554148
H      77.37751414      67.07479131      83.88803490
H      80.55603380      67.27699203      84.14881714
C      78.72866845      62.41283650      85.35257279
H      78.94598698      60.72153145      86.50530585
H      80.22344197      62.17473098      83.95228560
H      76.98067161      62.26921730      84.27164934
C      86.14584423      65.76899043      88.38180407
O      86.47843606      68.08201544      87.95283620
N      87.85604654      64.43862311      89.87468786
H      87.25700330      62.79078176      90.62490922
C      90.14261538      65.60269452      90.84411747
H      89.68341189      67.53210508      91.39780727
C      91.10826553      64.18351005      93.16848082
H      93.12460350      64.49531490      93.44816033
H      91.12716279      62.15205427      92.83399927
C      89.81758246      64.82412727      95.76874423
H      87.84281846      64.24020184      95.70827299
H      89.63994818      66.87448032      95.67047847
C      91.07425045      64.08335456      98.29719804
H      89.63427900      64.40082858      99.73716949
H      92.68051782      65.32679447      98.63356932
N      91.78478755      61.33569250      98.20649117
H      92.97153567      60.78011297      96.81943207
C      90.85693193      59.40061276      99.50473315
N      89.30546663      59.75399158     101.35855466
H      88.63083433      58.10992968     102.05397396
H      88.80090970      61.42639936     102.12389383
N      91.69597041      57.27278093      99.00206596
H      91.17629568      55.73454371     100.00551062
H      93.02822746      57.36537752      97.63957328
C      92.22509378      65.96552197      88.80510277
O      93.94852418      67.40738314      89.34178504
N      92.18540953      64.70129506      86.63191751
H      91.38416557      62.96841604      86.64892504
C      93.52711521      65.46474449      84.37747402
H      95.34314220      66.33779805      84.80833162
C      94.14127626      62.97786467      82.85435462
H      92.48965546      61.74765284      82.92049503
C      94.79323184      63.57501818      80.06322884
H      96.08013546      65.17183692      79.86669732
H      93.07169117      64.22130458      79.13726295
H      95.65305731      61.90638985      79.21096228
C      96.44485264      61.46041444      84.04110274
H      96.52989032      61.76466037      86.07633798
H      98.16828303      62.43740294      83.47796429
C      96.48264716      58.69763457      83.36269100
H      95.47920249      57.70930771      84.86691314
H      98.42906526      58.06835571      83.60079651
H      95.65494704      58.21953381      81.53721537
C      92.10037184      67.55478180      82.83734707
O      93.25877407      69.27443274      81.95673461
N      89.56057968      67.40360369      82.68616897
H      88.78768162      65.81812332      83.41749305
C      88.02045273      69.15915944      80.98541528
H      89.12027345      69.55789169      79.29033079
C      85.53735236      67.64737839      80.23708367
H      84.10116036      69.05333476      80.67927962
H      85.26523177      66.08457473      81.55044345
C      85.42018933      66.75164811      77.58390793
O      86.89984503      67.62092222      75.80567547
O      83.66463358      65.22663898      76.95084962
C      87.66707391      71.78209956      82.12869971
O      88.24910962      73.58867791      80.74164060
N      87.01700806      72.04477152      84.46251170
H      86.90740393      70.52543156      85.61335503
C      86.61827581      74.43527530      85.70595162
H      87.03779505      75.89603374      84.31700277
C      83.76667880      74.41637804      86.78309562
H      83.59093426      76.14169816      87.89425468
H      83.44164588      72.64192503      87.77898139
C      81.80325316      74.51842326      84.65904324
H      79.98911590      74.23118486      85.58878859
H      82.05080731      72.91782507      83.38914715
C      81.66908259      76.82199964      82.92805394
O      82.31158954      78.86290405      83.91449108
O      80.44642967      76.69538797      80.83612691
C      88.68563640      74.69416781      87.71851015
O      89.07492002      76.98073665      88.28164858
N      89.74010368      72.78365451      88.92793499
H      89.37538650      70.96006861      88.49896710
C      91.44463681      73.15971004      91.03875927
H      92.01533416      75.10234869      91.41670454
H      93.10381651      72.01453590      90.61168112
C      90.38261062      72.71940381      93.66925830
O      88.11304932      72.16004482      94.12279262
N      92.13249719      73.22962992      95.45315995
H      93.84080978      73.84190124      94.86923451
C      91.73943412      73.51497859      98.19515283
H      89.89695096      72.81011067      98.78663715
C      93.68018304      71.84068108      99.63134482
H      95.56046072      72.63247640      99.34788588
H      93.80301525      69.97363148      98.76962962
C      93.13783159      71.72540777     102.51128772
H      92.66728974      73.63592107     103.12544877
C      91.05535319      69.86402735     103.31442140
H      90.82291686      69.96985203     105.35721555
H      91.54668203      67.91194007     102.88356380
H      89.21287004      70.35724592     102.53585416
C      95.43573879      70.90715628     104.08542973
H      97.22908906      71.65737762     103.40323854
H      95.64549841      68.88892857     103.73016119
H      95.31290657      71.11124672     106.13200334
C      91.81502317      76.38925231      98.96616116
O      93.77088990      77.57789016      99.08143447
N      89.63427900      77.51174974      99.57843249
H      88.00533492      76.63302700      99.11355982
C      89.54924132      80.25374262     100.30975656
H      91.49943888      80.91325710     100.37400726
C      88.19241783      81.87323807      98.23483708
H      87.02456697      83.43604173      98.89813101
H      86.81480735      80.75074064      97.19548760
C      90.17852018      82.51952447      96.15046896
H      91.20275184      80.85467559      95.49662364
H      91.78856700      83.58721984      96.87045467
C      88.93885972      84.05209251      93.91492272
H      90.50355311      84.63034876      92.70927733
H      87.92785614      85.52985849      94.93348520
N      87.27023139      82.37779500      92.59022458
H      87.16251699      80.59578308      93.26296715
C      86.28757370      82.79731424      90.26208177
N      86.72221076      84.76262960      88.83344866
H      85.46554276      85.28419407      87.49363271
H      87.95053286      86.19504215      89.10934871
N      84.97232419      81.03608931      89.19249666
H      84.06903501      81.16081125      87.51441970
H      84.92508103      79.40525551      90.18271326
C      88.41729526      80.80176325     102.85899736
O      86.19497711      80.96427971     103.02529327
N      90.02356262      80.57121664     104.82620245
H      91.88116359      80.35389812     104.45014692
C      89.28656936      80.58255500     107.50772409
H      87.70297871      79.26730549     107.56063642
C      91.60904300      79.78131104     109.13855790
H      91.10448608      79.85878982     111.13410888
H      93.11704460      81.17403933     108.96659281
C      92.84870346      77.18293736     108.47337423
H      93.32869395      77.16215037     106.47026435
C      95.33180384      76.86735307     109.93413268
H      96.18596013      75.06077471     109.43335520
H      95.00866064      77.08278187     111.95991928
H      96.58091293      78.31110397     109.15934490
C      91.12149361      75.03242882     108.98549006
H      92.13438692      73.24285800     108.87399622
H      89.74199340      74.78676440     107.47748848
H      90.24466060      75.08345143     110.84876021
C      88.16785139      83.13746497     108.33164476
O      87.12283273      83.42470337     110.41034371
N      88.43997197      85.08010362     106.64600889
H      89.33570225      84.61712068     105.02462371
C      87.37227661      87.63690333     106.84065071
H      86.16663122      87.47627659     108.50360986
C      89.34704060      89.56253444     107.51717272
H      90.86638056      89.27529604     106.15845950
H      90.35048528      89.20915562     109.28028738
C      88.39461854      92.41035199     107.53418027
H      86.81858680      92.51995612     108.85698867
H      87.54235198      92.86010685     105.71437382
C      90.41473597      94.29062967     108.43180025
H      92.19863761      94.04685498     107.43213503
H      90.87204974      93.95425839     110.41223343
C      89.36215842      97.09120407     107.93858170
H      87.39495332      97.38600137     108.47148451
H      89.21098031      97.29340478     105.89578754
N      91.02133812      98.98470983     109.01950515
H      92.81846784      98.75416322     108.41479272
H      91.11015525      98.71258925     110.90545201
H      90.32213938     100.74971421     108.82108387
C      85.53735236      88.30775617     104.60510447
O      85.89451063      87.38934918     102.50939800
N      83.64195687      89.89512627     105.28162649
H      83.46621232      90.21260029     107.15623500
C      81.68231068      90.84187915     103.42402553
H      80.59571805      89.19592753     102.83443092
C      79.68298024      92.47460269     104.89423260
H      80.85650028      93.88433852     105.82775740
C      77.88585052      93.59710012     102.94214532
H      77.09405519      91.99272248     101.92169312
H      78.88929519      94.73471536     101.54752730
H      76.24556808      94.70636946     103.51095294
C      78.25245742      91.11966892     107.03151306
H      79.49022816      90.09543726     108.32408585
H      76.93342845      89.77418379     106.20192321
C      76.41375372      92.82420205     108.64911878
H      74.96622336      91.62611557     109.49382644
H      75.52369263      94.30952694     107.53229053
H      77.51735389      93.89378715     110.02294982
C      82.93141977      92.02862728     101.03163201
O      84.94586802      93.14545553     101.03541147
N      81.53113257      91.78107313      98.93781526
H      79.92486521      90.75117229      99.03797076
C      82.07915320      92.78451780      96.37912583
H      83.11661295      94.54952218      96.59455464
C      83.67408221      90.74361338      95.08088385
H      85.34271055      90.35999894      96.22794773
H      84.46587754      91.28785456      93.25918770
C      82.65174028      88.16224724      94.78986600
C      81.48577914      87.49328413      92.48062046
H      81.46121270      89.05230833      91.16537093
C      80.56170298      85.03852964      91.81543679
H      79.90407822      84.75696042      89.90492348
C      80.93019961      83.16203142      93.65036104
O      80.31603855      80.79231462      92.87179380
H      80.13651456      80.70160776      91.06899490
C      82.02813059      83.69871369      96.10322579
H      82.17552925      82.27008060      97.55264587
C      82.92764032      86.22716750      96.56620874
H      83.84037813      86.74873196      98.31798503
C      79.65463435      93.39678913      94.98261808
O      77.49656690      93.15112471      95.86701000
N      79.77179738      94.15078993      92.50896635
H      81.57270655      94.57597835      92.03842449
C      77.74223132      94.71959755      90.72884415
H      75.89974816      94.48716121      91.62268470
C      77.79514365      97.53717948      89.80287827
H      76.32304686      97.50127468      88.36290682
H      79.57526584      98.16645834      88.97706787
C      77.09405519      99.47603868      91.77386282
H      78.77402188      99.61020924      92.95872120
H      75.49156728      98.80896529      92.88124243
C      76.47422496     102.11787606      90.69482909
H      74.90764185     101.90433699      89.37580012
H      77.95766012     102.83219261      89.45327889
C      75.68620909     103.95091059      92.79998420
H      76.80303734     104.02649964      94.52908378
H      73.84561566     103.31029337      93.46327813
N      75.41030905     106.50015138      91.72850937
H      77.19799014     107.16344532      91.74929636
H      74.23678901     107.72091458      92.61290130
H      74.99267953     106.58518907      89.86901868
C      77.59861212      92.74105410      88.62368904
O      79.52424323      92.02106837      87.53520669
N      75.31771246      92.01350947      87.78465056
H      73.73601153      92.69570067      88.60668150
C      74.77158155      90.40724210      85.50375091
H      75.97155776      88.73861377      85.65303929
C      72.01636059      89.62300568      85.63603174
H      70.97323166      91.21982441      84.85746450
H      71.30771322      89.41135633      87.55788340
C      71.51936257      87.33454712      83.94661643
O      71.11685086      87.68981566      81.71862909
O      71.27369815      85.13490569      84.82911861
C      75.37440425      91.82075738      83.07167313
O      75.31582273      94.14134129      83.00742245
N      75.37818370      90.50739759      80.85880363
H      75.46700084      88.63467882      81.21218244
C      74.83205279      91.32186964      78.27176830
H      76.45910715      92.49916913      77.81067508
C      74.95866446      89.08443368      76.31401185
H      74.27269381      89.56631389      74.43184443
C      77.71955460      88.21138012      76.14960565
H      78.50190129      87.72949991      77.99397853
H      78.78347052      89.57387280      75.03088768
H      77.41908812      86.48228055      75.07435138
O      73.37696353      87.03974981      77.09257908
H      72.68721343      87.50462248      78.70451562
C      72.38107777      93.01128496      77.79933672
O      72.39997503      95.05218938      76.52566119
N      70.34017335      92.38389582      79.18450612
H      70.52914598      90.71526749      80.09157475
C      67.99124354      93.89567687      79.37158901
H      67.76258666      94.85187839      77.55934149
C      65.63664456      92.19492319      79.96118362
H      63.89620662      93.26261856      80.23708367
H      65.93333159      91.27840593      81.77910034
C      64.85240814      90.23338728      77.99775798
H      63.40865723      88.87845351      78.56278615
H      66.60418443      89.24317069      77.56123121
C      64.02281828      91.55997515      75.59402611
O      65.44767192      92.78073835      74.23720263
O      61.65688094      91.49005528      75.04600548
C      68.26714358      96.12744365      81.28399204
O      66.52670565      97.69969594      81.39548590
N      70.31182745      96.28807039      82.71262513
H      71.65542286      94.93124689      82.67483061
C      71.00913646      98.46881455      84.35668703
H      70.48379255     100.28106209      83.52709719
H      73.06137924      98.45747619      84.18472193
C      70.05293495      98.16456862      87.15726143
O      70.54237406      99.77650516      88.69549864
N      68.76792106      96.25216559      87.71851015
H      68.29359975      95.09565308      86.27475924
C      67.65865171      95.87422032      90.18838243
H      67.19755849      97.66190142      91.09923051
C      65.20011778      94.29251940      89.95594610
H      64.13809159      93.96937620      91.69071486
H      65.62530620      92.35366020      89.40414602
C      63.11952911      95.29218462      88.11535266
C      62.20301184      93.68591725      86.20105992
H      62.81528317      91.74894778      86.02531536
C      60.48147117      94.77250988      84.39826102
H      59.72369092      93.47237818      83.02065053
C      59.52715939      97.24616163      84.78943435
O      58.07773930      98.32141590      83.01120189
H      57.87175914     100.08642028      83.36836017
C      60.42855884      98.70880979      86.78498534
H      59.85219231     100.64011009      87.11379772
C      62.45623517      97.79229253      88.23629515
H      63.13275719      98.89211325      89.81799607
C      69.53326021      94.53251464      92.09133683
O      71.23023444      93.25316993      91.20883464
N      69.57294447      95.09565308      94.53475295
H      68.02714834      96.01028062      95.18103935
C      71.54203928      94.14323102      96.27141144
H      73.44688341      94.62700096      95.64969147
C      71.13007895      95.50194424      98.79419606
H      72.07683183      94.46637422     100.30219766
H      69.11185125      95.58320247      99.19481805
C      72.30170926      98.17779670      98.96238170
C      70.76536177     100.36987922      98.98127897
H      68.72445735     100.31885661      98.98316869
C      72.00502223     102.77550082      99.04930911
H      70.76914122     104.39688600      98.94348444
C      74.67142606     102.84353097      99.18536941
O      75.85817418     105.05451075      99.05497829
H      74.72811785     106.44156987      99.35166532
C      76.16430985     100.61176419      99.03797076
H      78.17875809     100.88577451      99.20615639
C      74.87740623      98.27417274      98.93025635
H      76.07171326      96.64333893      98.65057687
C      71.33038994      91.34643608      96.49439914
O      69.12885878      90.39023456      96.75707109
N      73.39586080      89.92347216      96.83643961
H      74.96244391      91.01006479      96.73817383
C      73.70010673      87.26462724      96.45093543
H      71.88596947      86.30275655      96.60211355
C      74.69032332      86.58621550      93.72972954
H      76.56871128      87.36667246      93.39524798
C      74.73945621      83.67036779      93.18926781
H      75.70321662      82.68959984      94.72183585
H      75.92431460      83.33777596      91.53764702
H      72.83083263      82.99762523      92.81321228
O      72.94043676      87.61422661      91.95716626
H      73.66231221      89.22994261      91.56410318
C      75.55959743      86.26685175      98.40302271
O      77.30948399      87.69359511      98.93025635
N      75.33849945      83.97650346      99.47260780
H      73.86829237      82.88613137      98.92647690
C      76.96555380      83.08455264     101.59666018
H      78.67764584      84.23161651     101.62689581
C      75.52558235      83.50407188     104.08542973
H      74.80748635      85.43537217     104.01928932
C      73.35239709      81.55765378     104.23660785
H      74.05726501      79.63580212     104.00039205
H      71.90675646      81.86000999     102.80041585
H      72.35084215      81.83733327     106.01484031
C      77.08649629      83.10722935     106.50616915
H      77.39074222      81.08144275     106.72726712
H      75.86195364      83.75351575     108.03306800
C      79.69242887      84.19193226     106.75183356
H      79.44298500      86.20260105     106.37577803
H      81.11161333      83.30754034     105.54807790
H      80.58815914      83.83855344     108.57164001
C      77.88207106      80.36334675     101.01462448
O      76.71610993      79.03486915      99.72205168
N      80.12328647      79.60745622     102.11444520
H      81.19854074      80.89813929     103.01962409
C      81.07948799      77.00719281     102.23916714
H      80.05903578      75.64658987     103.39756937
H      82.92575059      76.99963391     103.15379466
C      81.41396954      76.08878583      99.54630714
O      82.89740470      77.13569420      98.15735829
N      80.35005363      73.90237248      98.94159472
H      79.52046378      72.91404562     100.34755110
C      80.18375771      72.80255177      96.39046419
H      81.83915796      73.47340461      95.36434281
C      80.17808853      69.81489447      96.47928132
H      78.22978071      69.36891906      96.97061017
C      80.49745228      68.73964020      93.83933368
H      78.84772121      69.21207177      92.70171844
H      80.86594891      66.72330222      94.04153439
H      82.24355939      69.51442798      93.06454589
C      81.92608537      68.37114356      98.29530831
H      81.38373392      66.39260011      98.11011514
H      81.51223531      68.99286352     100.21527026
C      84.83248444      68.89837721      98.01373910
H      85.97387914      67.94973460      99.44237219
H      85.23499615      70.90715628      98.21405008
H      85.64884621      68.20295792      96.25251417
C      77.78569502      73.82111425      94.97883863
O      75.78069540      72.50586474      94.96750027
N      77.84805599      76.04910157      93.79775969
H      79.38062403      77.16970928      93.98673232
C      75.74101115      77.06388460      92.07432929
H      75.67298100      75.95272553      90.33956054
H      76.25312698      78.99329517      91.56788264
C      73.10862240      77.17537846      93.15336301
O      71.28125705      77.55521345      91.66992787
N      72.84406071      77.37946890      95.64402229
H      74.30103970      77.28309286      96.87234441
C      70.36473979      77.87457719      96.85155742
H      68.95878341      76.78609484      95.81220794
C      70.29481992      76.81444073      99.62378591
H      71.71400438      77.72717854     100.80486486
H      70.96000358      74.86613290      99.61622700
C      67.66810034      76.76341812     100.78596759
N      66.05427407      74.71495480     100.74439362
H      66.55505154      73.12002579      99.82409691
C      63.84707374      75.33100558     101.72894102
H      62.10663580      74.32945063     101.36422384
N      64.04927445      77.70828128     102.32420482
H      62.60930300      78.74196157     103.03663163
C      66.47946249      78.61346018     101.99917189
H      67.08417491      80.51074540     102.44325757
C      69.51058350      80.70916666      96.81376288
O      70.56316105      82.35133883      97.95893703
N      67.36385441      81.35545306      95.68559627
H      66.23379807      79.86067955      95.33599692
C      66.15253984      83.77808219      95.73661888
H      67.54526813      85.07821390      94.95616193
C      63.82817647      83.84989179      94.07554945
H      62.36552831      82.63857723      94.87490370
H      64.27604161      83.33588624      92.13102108
C      62.45245572      86.43503739      94.14735906
H      62.50158860      87.34588547      95.99551139
C      63.60896822      88.25106438      92.13669026
H      62.56205984      90.02173793      92.25385329
H      63.36708325      87.64068278      90.18460298
H      65.63853428      88.43058838      92.43904647
C      59.68022722      86.14779899      93.23462126
H      58.71268734      87.94492871      93.51619048
H      59.00937438      84.78719605      94.62734954
H      59.63865324      85.50151259      91.27875452
C      65.40042877      84.34311036      98.52774465
O      64.15509913      82.82566013      99.70882359
N      65.93144186      86.57676686      99.60299893
H      67.01047559      87.76729444      98.57309808
C      65.02437323      87.46493823     102.03885614
H      64.95067390      86.06843049     103.55252691
C      67.05582902      89.40190770     102.95726314
H      66.36418919      90.39590374     104.62211201
H      67.42054619      90.78140791     101.47382798
C      69.54837802      88.00917941     103.66213104
H      70.21923086      86.57676686     102.34499181
C      71.65542286      90.01984821     104.01739960
H      73.46956012      89.15813301     104.47660308
H      71.28314678      91.35777444     105.53673954
H      72.11840581      91.25950867     102.43947812
C      69.53514994      86.62967920     106.27373281
H      71.41920707      86.40480177     107.07308704
H      68.71500872      84.73995289     106.26617390
H      68.65075802      87.63879305     107.83842619
C      62.39198448      88.68759116     101.80264035
O      60.56272941      87.93736981     102.87222544
N      62.33907214      90.62078117     100.13401201
H      63.93967033      91.13289700      99.23072285
C      60.09974646      92.24594580      99.84866335
H      58.46324347      91.02329288      99.60110919
C      59.66699913      93.97315565     102.09176848