 %block lattice_cart
   139.898   0.000   0.000
   0.000 144.87   0.000
   0.000   0.000   168.12
 %endblock lattice_cart

 %block positions_abs
N      93.40711759      43.09699899      85.68421976
H      93.42412512      41.52663643      84.59762714
H      93.17657098      42.56787563      87.50213648
H      95.20046787      43.72627786      85.49902660
C      91.65345157      45.13790341      84.88486553
H      92.43201881      46.72527351      85.94122254
C      91.83486529      45.48183360      82.02948908
H      90.54040277      44.13823819      81.15076634
H      93.75860668      45.02829929      81.45501229
C      91.26038850      48.10666345      81.07328756
H      89.20625599      48.21815730      80.95234508
H      92.01438930      48.21059840      79.15899481
S      92.66067570      50.67102206      83.03671320
C      92.24304618      52.99727515      80.65943750
H      93.66223064      52.84231759      79.17411262
H      92.16556740      54.84542748      81.56650613
H      90.51016716      52.93869363      79.54638870
C      88.89823061      44.88090063      85.84862595
O      87.84376332      42.85133457      85.61241017
N      87.84754277      46.86700299      86.96923366
H      88.98515801      48.39957103      86.99002065
C      85.17169032      47.24494825      87.58717416
H      84.10966414      46.19237069      86.16798970
C      84.86555465      45.86166859      90.08539236
H      86.01828771      44.16469436      90.26113689
H      83.02685095      44.93381297      90.00413413
C      85.33042732      47.43203116      92.47211669
O      83.74305723      49.00428345      93.33194216
N      87.51495094      47.60399625      93.45477436
H      87.24472008      48.31831280      95.20466093
H      89.07586488      46.58732349      93.03525512
C      84.36477719      49.98883086      87.61363034
O      86.03718498      51.57431123      87.72701391
N      81.82687474      50.43858572      87.52859266
H      80.72705404      48.88145124      87.42276797
C      80.39068274      52.70247784      87.45300359
H      80.40202110      53.17679915      85.44800398
C      77.57876999      52.31130450      88.34117496
H      76.75295959      50.73905220      87.29993576
C      77.28775214      51.45714820      91.08694729
H      78.41969821      49.73938698      91.19844116
H      75.29787033      51.04707759      91.42142885
H      77.94348718      52.81397170      92.49101394
C      75.74195601      54.42401851      87.69299885
H      76.25407184      56.17768453      88.64920036
H      73.89947287      53.63222319      88.16354069
C      75.28653198      54.99660559      84.83384292
H      76.65469382      56.37799552      84.15354146
H      73.43837964      55.90178449      84.74502580
H      75.56243201      53.41868412      83.53938041
C      81.74939596      54.87377338      88.80604763
O      82.05742136      56.91845725      87.65898376
N      82.56386800      54.52795346      91.14930827
H      82.23127618      52.88956075      92.06582553
C      83.70904215      56.53484281      92.68943522
H      82.56386800      58.24504512      92.62518452
C      84.03596480      55.70714268      95.42575891
H      84.90523891      53.84954171      95.59961373
H      82.19537138      55.58242074      96.34227617
C      85.52506913      57.57797173      96.92431188
C      87.78707153      57.01483329      98.10728055
H      88.60154357      55.15156314      97.91452846
C      89.23649162      58.59842394      99.68331230
H      90.80496446      57.92379165     100.80014055
C      88.53351342      61.24593050      99.74567326
H      89.62010606      62.43645808     100.99856181
C      86.29040829      61.93568061      98.48522582
H      85.61010683      63.84241446      98.74222860
C      84.85421629      60.13099198      97.04525437
H      83.08921193      60.92656676      96.39707824
C      86.35276927      57.29829224      91.68221109
O      86.82142139      59.54706655      91.48190009
N      88.06297158      55.51628032      91.22678705
H      87.54140711      53.71159169      91.56126861
C      90.69536034      56.12288247      90.42554308
H      91.73659953      57.01672302      91.96189058
C      91.91423380      53.59820811      89.53926144
H      93.74537860      53.93268967      88.65486953
H      90.50638771      52.75161073      88.29582153
C      92.58130719      51.81052702      91.71811589
H      90.79740555      51.30030092      92.61762562
H      93.79829093      52.65145523      93.15052843
C      93.75860668      49.38411844      90.34806431
O      96.14155156      49.37278008      90.04003893
O      92.42257018      47.49817158      89.90586835
C      90.57063840      57.85009232      88.15220233
O      91.95958723      59.67367821      88.02181121
N      89.11176968      57.01105384      86.31538836
H      88.56752850      55.18368849      86.44388975
C      88.46170383      58.23937594      83.89086950
H      90.10009654      58.44157666      82.66065767
C      86.53985216      56.61043186      82.42633161
H      84.75784025      56.65578529      83.46190162
H      86.99905566      54.61299115      82.63798095
C      86.09954594      57.49104432      79.60308050
H      87.94013936      57.11120933      78.75459337
H      86.08631786      59.54895627      79.52371199
S      83.57298185      56.19469207      77.87965009
C      80.99728490      57.76127518      79.44056403
H      79.34377437      57.65167106      78.21602139
H      81.37523015      59.68690630      80.06417372
H      80.74406156      56.50082773      81.04872112
C      87.48849477      60.95680238      84.32928601
O      88.64689700      62.79172663      83.42221738
N      85.49672324      61.18167981      85.83161842
H      84.68981010      59.60753779      86.54782470
C      84.34021075      63.65344183      86.35696233
H      84.30997512      64.64365841      84.55038398
C      81.69081446      63.27171711      87.56638717
H      81.54719525      64.67767349      89.06305041
H      81.67002747      61.36309354      88.33928524
C      79.63479222      63.60430894      85.58028483
H      79.96360461      62.40433273      83.94000238
C      77.01374182      62.85975677      86.68766444
H      75.45471761      62.92589720      85.34217931
H      76.88146098      64.34319193      88.11062835
H      77.18948638      61.00593526      87.56260772
C      79.37589972      66.35764018      84.76014360
H      77.56554191      66.61653269      83.81150099
H      80.85933488      66.75826216      83.38631258
H      79.65557921      67.53116022      86.42877193
C      86.08064867      65.50537361      87.83472832
O      85.90868359      67.86564178      87.49268785
N      87.76061537      64.50192894      89.42398815
H      87.54896602      62.63487934      89.75657997
C      89.84120404      65.89654696      90.67876641
H      88.84531827      67.40643828      91.66520356
C      91.38888988      63.97847475      92.45510914
H      92.12399343      62.39488410      91.36473706
H      90.02639722      63.13754654      93.75146140
C      93.47136828      65.48458662      93.96122102
H      92.54729212      67.00392658      95.00057050
H      94.99826714      66.19890317      92.78014207
C      94.90945000      63.83296583      95.81504254
H      93.59797994      63.42478494      97.34761058
H      96.41934133      64.99703723      96.59360978
N      95.99226318      61.60308878      94.76624442
H      95.93179194      61.19868735      92.90297428
C      97.14688596      59.73225973      95.94165419
N      97.63065590      59.91178373      98.37940115
H      98.10686693      58.40378213      99.44709650
H      96.92956743      61.38954970      99.36205882
N      97.86309223      57.77261354      94.57538207
H      99.09330406      56.50271746      95.28969861
H      97.33963804      57.62143544      92.74612701
C      91.49093511      67.28927525      88.92887985
O      92.42445990      69.25081117      89.54304090
N      91.93691051      66.30094839      86.65931854
H      91.20747617      64.55106183      86.44955892
C      93.78506286      67.27793689      84.87730663
H      94.86031712      68.79538712      85.76169855
C      95.65022272      65.26915782      83.89086950
H      96.92956743      66.34252237      82.68711383
C      97.10909143      64.25626452      86.05460612
H      96.01305017      63.28872465      87.50591593
H      97.95757855      65.94567984      86.87096790
H      98.73425606      63.24148149      85.29682587
C      94.41056226      63.16400271      82.32050693
H      93.23515249      63.98603366      80.84274096
H      93.22759360      61.99804158      83.53938041
C      96.30595776      61.26482777      81.15832524
H      95.20424732      60.08752827      79.87331135
H      97.01838457      59.92312208      82.55294327
H      97.70435523      62.45346562      80.22669017
C      92.28084071      68.77648986      82.66821658
O      92.95736272      70.77204085      81.76870684
N      90.27017191      67.68800750      81.75358904
H      90.12277325      65.85497298      82.26570487
C      88.37477641      68.74625424      79.95456959
H      89.26672723      69.06183853      78.12531451
C      86.27340075      66.77904915      79.38009278
H      85.29452252      66.72991626      81.19234033
H      87.25794816      65.03483176      78.89443313
C      84.48382994      67.38754102      77.31084247
O      82.21804810      67.55194721      77.86075283
O      85.42113420      67.63698489      75.15088531
C      87.04251937      71.25959024      80.69156286
O      87.12188787      73.06238914      79.28371674
N      85.78963082      71.42966560      82.86474811
H      85.95025756      69.97457634      84.08929076
C      84.61422106      73.91276598      83.75291947
H      84.06809015      75.17888261      82.22413090
C      82.18403301      73.37797343      85.24391353
H      82.81520160      72.17421777      86.79159939
H      80.98405680      72.14776160      84.10629829
C      80.97838763      75.67399090      86.33050617
H      82.08765697      76.87963629      87.57772553
H      79.51196001      74.93132846      87.57016662
C      79.80864704      77.32939115      84.21023325
O      77.44081997      77.22734593      83.98724555
O      81.09177120      78.92054071      83.05750019
C      86.58331587      75.27525865      85.35162794
O      87.13889542      77.42765692      85.18344229
N      87.77951264      73.64631457      86.82939391
H      87.01606320      71.89831773      86.77648157
C      89.15334366      74.51369895      89.14430864
H      89.53884783      76.53759583      89.19155180
H      91.02228299      73.65387347      89.24635387
C      87.82486607      73.98646531      91.59528367
O      85.56286367      73.47812893      91.65764465
N      89.17413064      74.07150299      93.67587234
H      91.05062888      74.38519756      93.52091479
C      88.04974350      73.98457558      96.27046658
H      86.05797195      73.59718169      95.91330830
C      89.11365940      71.63375605      97.40430237
H      91.11865902      71.32762038      97.04336463
H      88.45603465      70.04260649      96.27235630
C      88.57508741      71.14620666     100.19542813
H      89.23649162      72.77326101     101.27068239
C      85.85766097      70.67944426     100.80392000
H      85.09988071      68.98435976      99.91385891
H      84.58965462      72.16476914     100.15196442
H      85.39278830      70.36952914     102.78813263
C      90.07741982      68.89176317     101.24044678
H      89.07397515      67.17400195     100.70754396
H      89.84498350      68.80105630     103.28324093
H      92.06541190      69.21301664     100.80580972
C      88.67524291      76.41476362      97.72744557
O      90.85220761      76.78137052      98.14129562
N      86.86488510      77.84150698      98.52491007
H      85.09043209      77.15553633      98.38129087
C      87.09921116      80.38885805      99.58693626
H      89.03996008      80.83672319     100.11228016
C      86.28851857      82.21055422      97.55737020
H      85.86899933      83.91886681      98.62695529
H      84.44981487      81.67576167      96.79581049
C      88.24060585      82.49401317      95.42764863
H      89.04373953      80.71011153      94.77569306
H      89.80340951      83.48234003      96.33660700
C      87.06708581      84.00201476      93.28847845
H      88.49193945      84.58971965      91.92220632
H      86.14489936      85.55914925      94.27113614
N      85.36633212      82.69810361      91.74079260
H      84.39123335      81.18065338      92.36818174
C      84.87878274      83.08738723      89.32950182
N      85.47971570      85.05648205      87.96700915
H      84.89956972      85.29836702      86.16609998
H      86.22237814      86.59093981      88.82494490
N      83.48227499      81.33183148      88.15976123
H      83.30842018      81.48111986      86.26625548
H      83.06275575      79.80682235      89.22745660
C      85.68002669      80.62507384     102.03413183
O      83.39156813      80.65341974     102.18530993
N      87.22015364      80.98223212     103.97866021
H      89.08720324      81.20333010     103.64228893
C      86.43969667      80.86506909     106.61671813
H      84.83153959      79.58005519     106.67718938
C      88.49004973      79.64052643     108.14550672
H      87.71526194      79.40431065     110.03901250
H      90.18513422      80.80459784     108.27589785
C      89.36499301      77.08372673     107.14206205
H      90.29662808      77.19900004     105.30713780
C      91.25282960      75.80627175     108.96375821
H      92.69091131      77.20277949     109.44563842
H      92.35642977      74.36063112     107.99621834
H      90.08686846      74.95211545     110.43018584
C      87.24094063      75.12974973     106.70364555
H      86.12789183      75.17510316     108.43652457
H      88.06297158      73.27403849     106.35026673
H      86.24127541      75.72312379     105.00478159
C      85.44381090      83.39919207     107.73921556
O      84.58587517      83.63162841     109.75366382
N      85.96537538      85.38907388     106.24255232
H      86.67969192      84.98278272     104.51723220
C      85.33231706      87.94587358     106.67718938
H      84.46871214      88.19153800     108.53290061
C      87.64156260      89.60316356     107.08537026
H      88.60532302      89.83937935     105.28068164
H      88.99460665      88.69987438     108.34959717
C      87.04251937      92.24878039     107.85259914
H      85.57420203      92.36027425     109.29446032
H      86.23560624      93.14262094     106.18208108
C      89.16468201      93.71331829     109.13194387
H      90.83142062      94.03268203     107.96220328
H      89.62766497      92.67585854     110.85159480
C      88.55807988      96.31925087     110.05413031
H      86.68914054      96.34759677     110.92151467
H      88.39934286      97.62127230     108.46487047
N      90.22859793      97.34159281     111.95897443
H      90.23804656      99.24832666     112.03456347
H      92.02005847      97.00144207     111.39961543
H      89.87332939      96.50255433     113.63705139
C      83.46148801      88.86806002     104.62494660
O      83.53140787      87.84004891     102.56514492
N      81.69270417      90.49322465     105.06714257
H      81.54719525      90.99967130     106.90206682
C      79.55353399      91.12250351     103.17741624
H      78.49339753      89.40285257     102.78435318
C      77.59955698      93.08214970     104.25833969
H      78.69748798      94.57692321     105.15784942
C      76.03108414      94.43141429     102.20042774
H      74.87646136      95.95831315     102.96009772
H      74.72339353      93.03679627     101.43697832
H      77.22917062      95.05124452     100.64329327
C      76.06131977      91.46265425     106.09326394
H      77.14791239      90.49133492     107.55024293
H      75.15425113      89.90174031     105.09926791
C      73.93915712      92.98577366     107.41229291
H      72.55020827      93.47899222     105.97421120
H      74.71772436      94.70920405     108.22487523
H      73.06232410      91.65918579     108.72376297
C      80.59288346      92.02201324     100.73022067
O      81.98183230      93.95898271     100.74344876
N      79.59132851      90.94864869      98.55703542
H      78.39135230      89.46521354      98.57782241
C      80.45304372      91.76878991      96.08149395
H      81.49995209      93.52245593      96.32904809
C      82.26529124      89.68820124      95.05726229
H      83.82431546      89.36883749      96.36306316
H      83.03818931      90.57826233      93.36595723
C      81.05964586      87.15407825      94.43365259
C      80.33777041      86.76101518      91.95244195
H      80.33021150      88.20854554      90.51247050
C      79.19448600      84.45932853      91.29292746
H      78.38757286      84.23067165      89.43343677
C      78.86000444      82.66597826      93.17320514
O      77.82443441      80.43988066      92.44755025
H      77.73183782      80.27736420      90.64286161
C      79.60833605      83.08549750      95.65630552
H      79.56487234      81.49812740      96.93942968
C      80.70248759      85.36450744      96.36873235
H      81.23539041      85.77079859      98.29814290
C      78.12679062      92.32058999      94.45066013
O      76.04998140      91.39651383      95.03458556
N      78.31198380      93.72465665      92.36440229
H      79.88990527      94.75644721      92.06771525
C      76.31643281      94.10449163      90.35940267
H      74.46072158      94.11771972      91.25702266
C      76.80587193      96.79924136      89.31627374
H      75.80998616      96.71231395      87.51536456
H      78.75606948      97.21687087      88.80037845
C      75.73628683      98.86471222      90.94521782
H      77.03452881      99.16139925      92.51747012
H      73.81821464      98.36771420      91.50646653
C      75.67392587     101.34025369      89.42020869
H      73.94293656     101.17206804      88.31471880
H      77.34255420     101.32135642      88.21456330
C      75.41503336     103.56068210      91.24001512
H      77.05153635     104.04067259      92.39841735
H      73.74829475     103.12415533      92.36629201
N      74.79709286     105.72252901      89.55815871
H      75.36401075     105.51843856      87.74780090
H      75.71927930     107.30234020      90.10806906
H      72.92437408     105.99275987      89.80571285
C      76.74162123      92.09760229      88.34873387
O      78.81843045      91.81414334      87.19978027
N      74.72717298      90.78046305      87.51158512
H      73.16814877      90.96187678      88.59628801
C      74.93315315      88.81325796      85.64453552
H      76.51863353      87.55281051      86.01114243
C      72.47839867      87.20132141      86.04893695
H      70.77953471      88.32381884      85.72768347
H      72.43304524      86.72700011      88.05204683
C      72.27430824      84.97333409      84.31983737
O      73.62546255      83.11762285      84.57495042
O      70.64158470      85.07726904      82.66443713
C      75.29976006      89.80914372      82.96112415
O      75.09189016      92.03524132      82.31861721
N      75.84589096      88.03658044      81.26226020
H      75.97439235      86.21677400      81.81783974
C      75.45471761      88.47310722      78.55806184
H      76.82098974      89.79780537      77.77004597
C      75.47361488      85.93142533      77.11431094
H      73.82010435      84.80325872      77.60375006
C      75.93470810      86.26401716      74.25704476
H      77.67325630      87.24478512      73.74870838
H      74.12246056      87.01234878      73.62587616
H      75.92336975      84.34216550      73.51816177
O      77.66758712      84.49334361      77.83618639
H      77.04019799      83.23856533      78.98513998
C      72.96405834      89.92441703      77.96846723
O      72.96027889      91.57981728      76.41322247
N      70.90992583      89.22143884      79.13820782
H      70.78142444      87.80603383      80.41377309
C      68.56666520      90.67652810      78.87364614
H      68.64792343      91.47588233      76.97636091
C      66.22907376      88.85861139      78.93222765
H      65.54310311      88.38240036      80.81628478
H      66.96417729      87.05959194      78.24625700
C      63.84990832      89.48033135      77.31084247
H      63.19417329      91.32848368      77.94579051
H      62.31545056      88.17642019      77.73792062
C      64.07100630      89.61639164      74.43278931
O      65.78498808      90.91841307      73.41611654
O      62.34568618      88.57515244      73.15722404
C      68.11880007      92.80624966      80.84274096
O      65.88892302      93.38639564      81.46635063
N      70.16915312      94.08559437      81.57784449
H      71.87935544      93.51867648      80.94856562
C      70.05010036      96.39861938      83.11041253
H      68.65170289      97.64205929      82.24869734
H      71.88880406      97.28301129      82.83451249
C      69.38302698      95.91106999      85.95256090
O      70.41859700      97.29812910      87.44733442
N      67.78998769      94.02890258      86.53648634
H      66.96984647      93.28812987      84.98124158
C      66.69961560      93.37127782      89.02525589
H      65.98718879      95.19297399      89.66776283
C      64.36013443      91.70453922      88.68510516
H      63.53054458      91.69698031      90.57105201
H      65.22940854      89.93008621      88.10306945
C      62.32678892      92.19208861      86.73679732
C      61.81467309      90.41574587      84.73368744
H      62.93717051      88.73199973      84.47290520
C      60.07045570      91.18108503      82.85718920
H      60.06478652      90.08504377      81.13564854
C      58.64749178      93.44119770      82.97246251
O      57.02799633      94.11016081      81.11486154
H      56.59902846      95.87327546      81.12242044
C      59.05567267      94.96809656      85.03415391
H      57.98986703      96.68774750      85.31194368
C      60.88303801      94.47298827      86.77459186
H      61.18917368      95.64650831      88.41298456
C      68.45895081      92.46987837      91.17009526
O      70.47339905      91.15273913      90.82805479
N      67.99218841      93.37883673      93.47745108
H      66.38403131      94.38417113      93.68910044
C      69.62680166      92.68530717      95.59205482
H      71.56944032      92.88372844      94.92876090
C      69.39625505      94.48621635      97.82382161
H      70.11246134      93.61883197      99.54914172
H      67.44794722      94.79235201      98.42097512
C      70.46206069      97.09214893      97.54603184
C      68.96917691      99.20108350      97.92586682
H      66.95094921      99.03100813      98.17531070
C      70.09734352     101.57457975      97.73500447
H      68.86713169     103.19974438      97.83327023
C      72.69760693     101.91284076      97.48367086
O      73.85033997     104.08980547      97.11895369
H      72.76374734     105.49009267      97.51201676
C      74.27741812      99.86248771      97.05848245
H      76.29564583     100.07602678      96.82604611
C      73.13035425      97.33781336      97.16430712
H      74.20560853      95.67674393      96.66730910
C      69.34712217      89.96032183      96.32148918
O      67.16826774      89.01545867      96.15708299
N      71.35779098      88.75467644      96.99612147
H      73.08689054      89.55025122      96.85628174
C      71.63936019      86.01268356      97.09816670
H      69.85545855      85.25868276      97.80303462
C      72.20627809      85.13585055      94.28814367
H      73.94293656      86.04669864      93.66264427
C      72.37446372      82.33905561      93.82705046
H      70.53387029      81.49245822      94.19932654
H      73.22862002      81.31482395      95.39741302
H      73.29853990      81.92520555      92.02992073
O      70.32789013      85.88229245      92.55904409
H      70.75496827      87.44698583      91.74268233
C      73.88435505      85.30403619      98.92931150
O      75.67014642      86.80825834      99.34316155
N      73.82010435      83.02691599     100.06692674
H      72.43304524      81.81938087      99.56236982
C      75.68337450      81.95733089     101.79791604
H      77.38223845      83.12140230     101.72421672
C      74.75551888      82.07071447     104.50400412
H      73.99395917      83.94343325     104.90273637
C      72.63524595      80.04681759     105.25989465
H      73.38924675      78.15898101     104.92730281
H      70.85701349      80.47578546     104.31503148
H      72.17793219      79.86918332     107.26111481
C      76.89657879      81.96866925     106.41262769
H      78.01151731      80.23767995     106.35593590
H      75.96683344      81.81938087     108.24377250
C      78.35922697      84.48200525     106.63561541
H      76.97594729      86.00323493     106.76978597
H      79.88234636      84.61995527     105.25422546
H      78.97905719      84.58594020     108.59715131
C      76.33344035      79.27958871     101.04958443
O      74.67615037      77.93221385     100.14629525
N      78.73906195      78.45377831     101.63350985
H      80.01084775      79.73879220     102.24956062
C      79.66124840      75.83839709     101.44831668
H      78.44237491      74.48535305     102.41207710
H      81.51506990      75.82327928     102.34593667
C      79.92581007      75.43777511      98.64774227
O      81.59443841      76.56405200      97.56870856
N      78.32143243      73.85040501      97.56114965
H      77.22350144      72.68822333      98.60427857
C      78.16836460      73.10396312      94.81348758
H      79.33999492      74.59873663      94.02169226
C      79.32298739      70.44322847      94.26735669
H      78.09655500      69.02026456      95.11395408
C      79.39101752      70.08229074      91.39686241
H      77.64868986      70.50936889      90.38585883
H      79.53085727      68.09807811      90.86018014
H      80.70815676      71.43344506      90.57105201
C      82.10655424      70.13898253      95.48434042
H      81.74372679      70.15410034      97.51201676
H      83.27440510      71.78871360      95.08371845
C      83.47471608      67.58407256      94.61317659
H      82.59599335      65.98536410      95.56748838
H      85.42113420      67.73525066      95.26513217
H      83.71282160      67.47635816      92.57038245
C      75.42070254      73.37419398      94.13507584
O      73.97317218      71.63753550      94.72844990
N      74.79331340      75.42643676      92.80470851
H      75.98006154      76.86073903      92.38140982
C      72.28942604      75.66643200      91.55937887
H      71.99462873      74.16409958      90.18365812
H      72.21950616      77.41064939      90.46333762
C      69.83467157      75.68154981      93.07115992
O      67.60290478      75.48690800      92.22078308
N      70.20883738      76.00091356      95.67331305
H      71.97762120      76.22957044      96.36117344
C      68.11691035      76.46011705      97.47233250
H      66.57111421      75.38675250      96.63329402
C      68.75563783      75.53982034     100.19164868
H      70.17293258      76.84373149     100.92486249
H      69.71561880      73.72001390     100.10472126
C      66.52387106      75.35840661     101.84704892
N      65.05933316      73.21167752     102.30058324
H      65.60357434      71.44667314     101.81303385
C      62.92205270      73.93355297     103.24733613
H      61.29121890      72.73546649     103.51189780
N      63.00520066      76.49224240     103.61961221
H      61.55200113      77.64308572     104.07503625
C      65.25397497      77.37474459     102.82592715
H      65.84545931      79.32872159     102.79947098
C      67.35913009      79.29848597      97.57626745
O      68.55154740      80.80081839      98.95954711
N      65.24263662      80.03925869      96.34416591
H      64.50186390      78.67109684      95.23678628
C      64.24108168      82.64141182      96.17598025
H      65.83979013      83.72800445      95.45788426
C      61.88837241      82.61873510      94.37318135
H      60.39926808      81.40931026      95.11773353
H      62.32300946      82.20866449      92.40030709
C      60.67327839      85.25679304      94.22200326
H      60.55044618      86.05047809      96.11739875
C      61.94506420      86.90274466      92.34172557
H      63.69873022      87.54525160      93.21099968
H      60.83579485      88.60727779      92.01669265
H      62.14915464      86.11094933      90.45199926
C      57.98797730      84.92987038      93.30737572
H      56.83902370      86.63818297      93.37540587
H      56.99776071      83.60139279      94.53191836
H      57.77065878      84.26846617      91.36851652
C      63.41905072      83.52013456      98.88773751
O      62.28332521      82.13118571     100.37495212
N      64.10691110      85.90685889      99.46032460
H      65.21429072      86.88006794      98.24712030
C      63.15637877      87.29958718     101.66563519
H      62.48741565      85.80670339     102.91663401
C      65.40137363      88.82081686     102.87883949
H      64.79666122      90.06047732     104.40951781
H      66.26497855      89.92441703     101.36894817
C      67.48385203      86.83849396     103.78779785
H      67.65014794      85.45899375     102.26845790
C      69.99529829      88.10650032     104.25644998
H      71.06299366      86.84794259     105.49044126
H      69.64758865      89.96977046     105.06336311
H      70.93260255      88.49767366     102.46498942
C      66.66937998      85.59505405     106.15184547
H      68.24919119      84.36295249     106.63750512
H      65.02720783      84.39885729     105.82114337
H      66.71284370      86.98967207     107.66740597
C      61.00398050      89.07592992     100.97588509
O      59.03677540      88.83971413     102.07948526
N      61.03421612      90.57070343      98.90474506
H      62.50820264      90.73133017      97.70476884
C      59.04055486      92.44153248      98.37184224
H      57.17728471      91.59682482      98.60427857
C      59.30322682      94.55046704     100.41463637