 %block lattice_cart
   139.898   0.000   0.000
   0.000 144.87   0.000
   0.000   0.000   168.12
 %endblock lattice_cart

 %block positions_abs
N      93.07547062      43.30770348      85.39131219
H      92.52744999      41.93198273      84.18566680
H      92.52367054      42.84283081      87.16009601
H      94.97086610      43.35116719      85.59540263
C      91.91706839      45.71521481      84.40865451
H      92.62382602      47.04558213      85.81272116
C      92.82602675      46.27079434      81.74791985
H      92.16084309      44.98389072      80.28338197
H      94.88393869      46.25000735      81.64965410
C      91.85092797      48.77846116      80.84274095
H      89.79679547      48.70287211      80.98258071
H      92.15139445      48.91452145      78.80939544
S      93.04523500      51.84548697      81.90665687
C      90.71142300      53.89206056      80.30794841
H      91.21975938      55.84603757      80.71046012
H      88.79713025      53.59537353      81.01470604
H      90.55835517      53.60293244      78.27460290
C      88.98988233      45.69631754      84.66187783
O      87.98265821      43.70643574      83.93622292
N      87.81636229      47.51423426      85.93366364
H      88.89917546      48.90696255      86.66687746
C      85.11405366      47.70887607      86.70278226
H      84.07848363      46.57881973      85.32517176
C      84.53012822      46.49189232      89.30115593
H      85.68286128      44.81759481      89.63374776
H      82.61205603      45.75300933      89.40887034
C      84.91563240      48.32492684      91.44221584
O      83.07692870      49.25845164      92.53258793
N      87.19842179      49.01467695      91.86173508
H      87.52723417      49.77623665      93.58138603
H      88.66673913      48.45153851      90.77892191
C      84.00289459      50.45842785      86.38341850
O      85.27845985      52.16107126      85.39887110
N      81.54814011      50.75889434      86.93899805
H      80.45209885      49.39451194      87.69866801
C      80.37650980      53.35348856      86.72923841
H      80.63540230      54.34748460      84.94344705
C      77.43231619      53.37238583      87.21300835
H      76.45532770      51.92674520      86.11885682
C      76.77091198      52.68263572      89.97578823
H      74.76780210      52.20642469      90.03436974
H      76.91264147      54.16607088      91.39686242
H      77.84994572      51.00644848      90.49357323
C      76.25312698      56.01989239      86.69522335
H      76.79358871      57.47876110      88.04826739
H      74.22923010      56.03878965      87.06183026
C      76.78414008      57.25577340      84.22346133
H      78.79480887      57.58269605      83.91165648
H      75.76179814      59.04534422      84.23290997
H      75.95832968      56.30902052      82.59262752
C      81.57459628      55.27722995      88.46022772
O      81.72577439      57.45986384      87.84417695
N      82.50056217      54.54590587      90.63908217
H      82.45142929      52.72043025      91.19088224
C      83.78746579      56.33169723      92.37385092
H      82.58371013      57.93985433      92.83116469
C      84.84571253      55.07313951      94.70010401
H      86.04757846      53.52356393      94.06893541
H      83.26401159      54.43630174      95.85661651
C      86.23088191      56.91751239      96.41975496
C      88.82925560      56.46397807      96.97344476
H      89.71553723      54.72165041      96.38196043
C      90.17285100      57.99087694      98.60994774
H      92.07013622      57.61104195      99.25623414
C      88.84248368      59.84847790      99.95732261
H      89.87238452      60.85192257     101.40485297
C      86.24599973      60.43618278      99.26379305
H      85.25767286      61.89316177     100.29558362
C      84.99878036      58.92251201      97.49689895
H      83.01078828      59.05101340      97.06415162
C      86.15718259      57.37671588      90.98679180
O      86.47654634      59.63304910      90.90175412
N      87.80124448      55.68919029      89.97767796
H      87.26456221      53.85804549      89.92854506
C      90.02356263      56.51500069      88.68699489
H      91.32180460      57.71875635      89.73957243
C      91.68652178      54.21142431      88.11818725
H      93.27389188      55.05802170      87.11474259
H      90.58103189      52.90751315      86.96923367
C      92.87326991      53.01144810      90.46144788
H      91.43140873      52.85460082      91.92409605
H      94.26977765      54.31913871      91.22678704
C      93.77088990      50.22977097      89.91342726
O      92.04556978      48.60082689      89.59406352
O      96.02155394      49.51545442      89.88886082
C      89.47932145      57.78111731      86.13775408
O      90.97598469      59.05290312      85.11541214
N      87.31936427      57.40884123      84.80171758
H      86.37828057      55.86682456      85.41587863
C      86.52756894      58.70141403      82.55483299
H      88.11304931      58.61826607      81.24336293
C      84.29769189      57.14050009      81.62319792
H      82.65929918      57.84158856      82.65687821
H      84.68130634      55.12605185      81.82161919
C      83.49455821      57.39939260      78.87175641
H      85.11972284      56.60381782      77.88909872
H      83.53991165      59.41573058      78.45412690
S      80.49934201      56.05201774      77.89476790
C      81.04925237      56.48287534      74.54428316
H      82.87283826      55.74588208      73.93390156
H      81.24011472      58.49732359      74.16066871
H      79.47133089      55.86682456      73.37454256
C      85.89262091      61.43395828      83.25592145
O      87.00000052      63.19140375      82.17499800
N      84.17674941      61.84969807      85.08139707
H      82.95220676      60.49476430      85.62941770
C      83.51345548      64.57279368      85.70122731
H      83.17519447      65.57245890      83.93244347
C      81.23633527      64.54255806      87.64197622
H      81.34404967      66.14882543      88.92699013
H      81.44042571      62.70007491      88.54337569
C      78.64741022      64.59547040      86.26247602
H      78.70788146      63.04967428      84.90376280
C      76.49501195      63.93217646      87.98023724
H      74.71866922      63.91705865      86.93710832
H      76.57815991      65.09057868      89.68099093
H      77.13751889      61.99709672      88.28259345
C      78.06726424      67.08235022      84.93966760
H      77.64018610      68.51098332      86.35885206
H      76.59705717      66.84424470      83.51670368
H      79.77179738      67.65682703      83.93622292
C      85.65262566      66.14693569      86.85773980
O      85.66774347      68.41460728      86.51003017
N      87.46487320      64.83735537      88.11818725
H      87.32692318      62.93818042      87.97267833
C      89.57947694      66.08268501      89.41076005
H      88.72154120      67.53777426      90.58805956
C      91.00622030      64.12114909      91.07938839
H      91.58825601      62.52244063      89.91720670
H      89.49821870      63.26888253      92.19432692
C      92.99610211      65.03388689      92.88029756
H      92.07202595      66.39448985      94.11995803
H      94.55134686      66.03166240      91.96944948
C      94.35481533      63.07613044      94.32026901
H      92.89405690      62.16528236      95.45032536
H      95.67006484      63.78477781      95.73945348
N      95.77211007      61.16750687      92.85762085
H      95.98753887      61.59269529      91.00946851
C      96.57713348      58.99621133      93.68154153
N      96.39005057      58.17795984      95.92653638
H      97.01932944      56.39783765      96.21188505
H      95.48298193      59.04912367      97.36272838
N      97.97931039      57.61293167      92.12629676
H      98.95062972      56.06146637      92.66486876
H      98.01143574      58.04756872      90.26869580
C      91.49187997      67.39604479      87.74591118
O      93.04523500      68.87003132      88.67376679
N      91.52211559      66.95951802      85.25147245
H      90.35426473      65.62726097      84.54093534
C      92.41028696      68.67349978      83.36930503
H      93.43451862      70.08701507      84.46156684
C      94.37371260      67.36769890      81.60052120
H      95.25432506      68.87003132      80.49692103
C      96.59792047      66.36425422      83.16332486
H      96.00454640      65.20774171      84.76014360
H      97.60325487      68.04233118      83.80961127
H      97.64860830      65.23419789      81.79705275
C      93.18885420      65.31545612      79.71457435
H      91.33314295      65.76332125      78.94545573
H      92.85437264      63.67139423      80.91266083
C      94.79323184      64.56712450      77.42611578
H      96.34847660      63.31234623      77.93256243
H      95.81179432      66.18661995      76.66266635
H      93.70663921      63.48242160      76.05228476
C      90.23521197      70.13047876      81.97468702
O      90.56780380      72.28098730      81.47957872
N      88.06580616      68.86625187      81.33784925
H      87.75967050      66.99353308      81.55516778
C      86.13450587      70.14181713      79.85630382
H      87.00189024      70.86558231      78.13476314
C      84.32225834      68.13303806      78.82451325
H      82.53646697      68.97585599      78.24058782
H      83.71187674      67.07857076      80.48747241
C      85.38995371      66.31323162      76.86864651
O      84.43753163      64.21752514      76.56251085
O      87.04913341      67.10124749      75.39654972
C      84.74744675      72.46240103      80.88620466
O      83.89706992      74.14047801      79.59174214
N      84.74555703      72.46995994      83.36552559
H      85.40318179      70.95439943      84.31983737
C      83.91974663      74.58456369      84.89620389
H      83.51723493      76.29476600      83.82094962
C      81.22121746      74.15559581      85.72957320
H      81.23633527      72.65326340      87.13741930
H      79.96832891      73.42238201      84.26881477
C      79.94943165      76.35901670      87.15631656
H      81.41019009      77.03931816      88.43755101
H      78.50190130      75.47840423      88.32794689
C      78.99700959      78.32244234      85.21745737
O      80.42375295      80.05910081      84.61085522
O      76.74067636      78.17882314      84.26692503
C      85.59782360      75.29699050      87.06560970
O      85.71876608      77.48907303      87.81961050
N      87.31369509      73.58867792      87.87630230
H      87.25889303      71.88225506      87.01647682
C      89.22798785      73.65670807      89.86240464
H      90.48843530      75.28376242      89.76791834
H      90.58481133      72.13169894      90.13263550
C      87.97698903      73.86457796      92.47589613
O      85.62239004      73.71906903      92.55904410
N      89.44152692      73.73607657      94.45254986
H      91.32180460      73.63970052      94.14074501
C      88.61193707      73.53387585      97.10005643
H      86.59937855      73.96662319      97.14163041
C      89.05224330      70.87881039      98.13184700
H      90.96653606      70.35535620      97.58193664
H      87.95053286      69.59757595      96.95454749
C      88.47776649      70.58023363     101.06848168
H      89.82325164      71.61580364     102.23066336
C      85.87561337      71.58367829     101.55792080
H      84.65296044      71.58934748      99.90063082
H      86.20442575      73.53954504     102.11161060
H      84.90240431      70.66905077     103.12450392
C      88.65918023      67.80422567     101.81870303
H      90.46953803      67.10502694     101.12328374
H      87.11149438      66.64015427     101.10816594
H      88.80090970      67.66816538     103.86716635
C      89.64750709      75.67871522      98.76868475
O      91.92651702      75.83367277      99.08426905
N      88.02045272      77.41537371      99.63039996
H      86.18930794      76.89569897      99.50567802
C      88.68374667      79.84934119     100.88517823
H      90.67362848      79.94193778     101.41241188
C      88.10738013      82.19827101      99.19954236
H      87.91273833      83.93492948     100.28802471
H      86.22710246      82.05465180      98.37184224
C      90.22576334      82.41369980      97.27202151
H      90.55646545      80.60712144      96.34605563
H      91.91706839      83.16959033      98.17342097
C      89.59081529      84.21649870      95.10072598
H      91.48999024      84.72861453      94.49034439
H      88.77256381      85.86434005      96.02669187
N      88.08470343      83.09022182      93.02391676
H      86.55591484      82.01874700      93.42075929
C      88.00155547      83.88390688      90.71656094
N      89.03523576      85.93614965      89.83783820
H      89.14295016      86.11189419      87.94244271
H      90.05568797      87.08321352      90.97356371
N      86.60315800      82.70282793      89.04604287
H      86.28757370      83.33966570      87.27536932
H      85.80758322      81.03608931      89.52603337
C      87.34959989      80.02319601     103.59504576
O      85.21420916      79.19927534     104.00322664
N      88.77067408      81.07388385     105.43563919
H      90.37883117      81.98284220     104.95564871
C      88.12060822      81.13435509     108.08881494
H      86.54646621      79.91737134     108.62738694
C      90.20308662      79.86445901     109.58547817
H      89.62672010      79.32966645     111.48843258
H      91.73943412      81.14191400     110.09192482
C      91.62038136      77.36057164     108.44030403
H      92.40272805      77.75363472     106.57514416
C      93.75388237      76.39114205     110.24499266
H      92.95830759      75.29321106     111.79456823
H      95.01244009      77.90292310     110.86482288
H      95.11637504      75.32533639     109.12627468
C      89.67774271      75.25352679     108.19274988
H      89.15050907      74.51464381     110.04279195
H      90.56969353      73.71528958     107.15340041
H      87.96754040      75.79776797     107.18174631
C      87.47243210      83.61178628     109.09603906
O      86.70520321      83.79320001     111.28245241
N      87.50455745      85.61489618     107.56725047
H      87.95809177      85.18781803     105.76067212
C      86.60315800      88.25673356     107.97732108
H      85.34082082      88.13390134     109.59870625
C      89.03145631      89.95181806     108.50833418
H      90.46764830      89.45104059     107.11938534
H      89.72120641      89.20915562     110.30168444
C      88.51556103      92.77884862     108.61793830
H      87.18708342      93.23049321     110.12405017
H      87.79179585      93.54607750     106.84726475
C      90.99299222      94.00717073     109.52311721
H      92.44052258      92.92813700     108.52723144
H      91.11582442      93.64812274     111.54890382
C      91.21409020      96.83798075     109.33981375
H      89.46609335      97.45970071     110.23743375
H      90.91551345      97.43891372     107.39150593
N      93.50443849      98.00016243     110.51144406
H      95.15416957      97.21025683     109.97098234
H      93.38916519      98.06819258     112.41628819
H      93.59514535      99.88044011     110.20530840
C      84.93263993      89.17325082     105.81169472
O      85.24822423      88.30586644     103.57047932
N      83.09204650      90.81542298     106.26900849
H      82.71788070      91.46737856     108.02267452
C      81.24389418      91.57131352     104.28668559
H      80.51634954      89.75717625     103.63473002
C      79.03291438      93.17569116     105.36949877
H      80.02502070      94.68369276     106.36160508
C      77.58349431      94.65534686     103.29268955
H      78.97433287      95.62288673     102.12294896
H      76.22856053      96.00839089     104.04858008
H      76.52902702      93.24183157     102.22310446
C      77.30003536      91.76028615     107.05891409
H      78.33371564      90.57353801     108.38928141
H      76.05848517      90.59054556     105.90618104
C      75.49912618      93.43269394     108.60659994
H      74.24245819      92.12500332     109.57980899
H      74.38985684      94.63644960     107.35371140
H      76.68209486      94.47771259     109.92751863
C      82.57804094      92.64467806     102.01145512
O      84.23155148      94.33031393     102.26467843
N      81.81270180      92.04374509      99.76268081
H      80.26501595      90.92502712      99.79102669
C      82.86149990      93.00372606      97.47989141
H      84.05202748      94.63644960      97.87862366
C      84.54713577      90.85699697      96.40652687
H      85.93608461      90.31842496      97.82949079
H      85.75278116      91.76406560      95.00623968
C      83.20354036      88.55153086      95.46166372
C      82.53457725      88.29074863      92.86895922
H      82.82748482      89.92347216      91.68221108
C      81.35916748      86.10622502      91.94488304
H      80.79791877      86.23661613      89.98712658
C      80.80358794      83.98406236      93.54170177
O      79.54125077      81.89402506      92.70644275
H      79.23133565      81.90536342      90.91876165
C      81.66530314      84.18059390      96.03803023
H      81.11539278      82.66692313      97.29280850
C      82.75567523      86.38779424      97.03769546
H      83.09015678      86.45393466      99.05214370
C      80.65052010      93.68213780      95.66008498
O      78.45087867      93.21348568      96.30448164
N      81.13617978      94.58731671      93.35461887
H      82.96354512      94.66479549      92.80848796
C      79.08960618      94.86888593      91.45922339
H      77.26035110      94.60999342      92.36629201
C      79.09905481      97.53151031      90.04381838
H      77.72333405      97.43324454      88.51502978
H      81.00011948      97.77906445      89.29170731
C      78.41875334      99.50249485      92.01858237
H      79.75856929      99.28895578      93.56815794
H      76.57438046      99.06596806      92.82360578
C      78.48489376     102.08386100      90.86962877
H      77.13940862     102.27283363      89.32194293
H      80.32548719     102.39944529      90.00035467
C      78.03702862     104.35153257      92.69888384
H      79.28613772     104.23436954      94.33160738
H      76.11517696     103.98870512      93.34517025
N      78.37339990     106.82329459      91.37985487
H      80.08738167     107.66422280      91.30615554
H      77.05437094     108.12720574      91.83527892
H      77.96521902     106.78738979      89.51658473
C      79.25968155      92.91868838      89.39186279
O      81.34027022      92.38767527      88.49046334
N      77.16586479      91.82264711      88.57172157
H      75.51802345      92.40090337      89.34084019
C      77.02791477      90.44314690      86.21145341
H      78.53969582      89.05230833      86.36830070
C      74.58638837      88.86144598      86.19444587
H      73.00279771      90.17291604      86.06783422
H      74.65252880      87.81264788      87.96511942
C      74.41820273      86.91691761      84.06472431
O      76.46099688      85.92292156      83.27481871
O      72.24312775      86.74306279      82.98569059
C      77.27924837      92.12878277      83.81528044
O      77.18665178      94.46259478      83.96078938
N      77.65719363      91.05919769      81.58162395
H      77.74034159      89.15057411      81.57028558
C      77.34916824      92.33098349      79.12497973
H      78.84961094      93.73693987      79.03805232
C      78.00301355      90.33732224      77.13509792
H      77.42286757      91.22927305      75.37009355
C      80.69965300      89.55686526      76.99147872
H      81.15318731      88.83121035      78.86608723
H      82.07537375      91.07998467      76.81384445
H      81.05492154      88.09043765      75.58741208
O      76.63107224      88.08665820      77.79839186
H      74.91898021      88.20382123      77.20690753
C      74.69788223      93.53284942      78.70546049
O      74.42198219      95.27517708      77.22202533
N      72.89130386      92.78262807      80.28716141
H      73.23712379      91.31053128      81.45123283
C      70.41387268      94.12622348      80.53282583
H      69.89230821      94.96337225      78.72435775
C      68.54871280      91.98894302      81.19800951
H      68.29359974      92.03807592      83.23891391
H      69.11374097      90.04819410      80.80116698
C      65.77648430      92.14012114      79.89220862
H      65.08106502      94.07331115      80.04716618
H      64.49147041      90.80975381      80.79360807
C      66.15442957      91.75272724      77.07462668
O      65.82750691      89.55119609      76.33385397
O      67.06338792      93.49505490      75.75370799
C      70.39119596      96.35987998      82.36208091
O      68.44288812      97.52584112      82.84585085
N      72.52280724      96.77561977      83.72268385
H      73.90797663      95.46792917      83.59985165
C      72.91398059      99.07919616      85.10596351
H      72.06927293     100.69869160      84.15543118
H      74.95488501      99.29462496      85.27225943
C      71.74235026      98.98659957      87.74213172
O      72.81571482     100.13366344      89.48067993
N      69.70333557      97.59765072      88.08984136
H      69.02681356      96.55074235      86.64420073
C      68.54682308      96.84931911      90.47089651
H      67.63597499      98.45369675      91.38552406
C      66.30938712      95.11832981      90.01736220
H      65.46278974      94.62322151      91.82772001
H      66.88008446      93.36655351      89.09328604
C      64.41966081      96.32964437      88.30715989
C      63.53715861      94.92746744      86.19822532
H      64.27226216      93.06419730      85.80516225
C      61.62853505      95.92902240      84.69211345
H      60.87453425      94.84054004      83.13875842
C      60.38698485      98.27984192      85.24769299
O      58.40277223      99.10943177      83.76992701
H      57.70168376     100.57774912      84.56739151
C      61.29783294      99.66123186      87.38686318
H      60.32462388     101.34497801      88.01047286
C      63.26125857      98.60298513      88.85707025
H      63.77715385      99.55918664      90.58428009
C      70.47812337      95.43958327      92.19999610
O      72.27147364      94.13945158      91.43843639
N      70.08883975      95.77595455      94.65286086
H      68.72256762      97.00049721      95.17631504
C      71.77258588      94.71203865      96.63518375
H      73.73223207      94.85754758      96.02102270
C      71.43999405      96.03673679      99.17686564
H      72.36218050      94.81030441     100.54880694
H      69.40664854      96.18791490      99.45654513
C      72.86673743      98.58219813      99.20899099
C      71.51369339     100.92356904      99.31292593
H      69.58995200     100.92923821      99.99322741
C      72.73256686     103.23092486      98.93876013
H      71.94833044     105.10553337      99.13718139
C      75.32338164     103.31029337      98.47388745
O      76.51201949     105.54772933      97.97310998
H      75.39141178     106.92911926      98.33593744
C      76.60083662     100.97270192      98.15830316
H      78.55670336     100.93868685      97.58193664
C      75.45188303      98.65778718      98.64207310
H      76.53280648      96.93057734      98.72144160
C      71.46078105      91.90579507      96.91486324
O      69.46145060      90.74361339      96.95832696
N      73.63396631      90.64534761      97.07360026
H      75.21566723      91.71304299      96.99612147
C      73.98356568      87.97705407      96.72022143
H      72.23178938      87.09644160      97.35139003
C      74.38985684      87.03597036      94.04436897
H      76.30792905      87.44415125      93.41509011
C      73.84561566      84.28830831      93.79870456
H      74.18954584      83.83477398      91.81827139
H      71.90486673      83.81209728      94.29381285
H      75.21566723      83.45304928      95.08938763
O      72.54170450      88.32476371      92.60250781
H      72.93854703      90.05575301      92.95966608
C      75.88652008      86.91502787      98.69120598
O      77.59294294      88.26429247      99.43386843
N      75.65030429      84.61145150      99.78157807
H      74.22545065      83.44926982      99.27135196
C      77.47200045      83.44171092     101.65240712
H      79.38062403      84.20705008     101.52768518
C      76.34194412      83.71005206     104.38873082
H      75.99423447      85.73394894     104.53801920
C      73.75112934      82.24173470     104.78557335
H      73.90608690      80.19894057     104.99155350
H      72.40375447      82.62156970     103.27379229
H      72.94232648      82.72739437     106.61671813
C      78.10127931      82.83321904     106.54490854
H      78.56048281      80.82632969     106.60537978
H      76.97500242      83.39446775     108.17385262
C      80.67886601      84.21460898     107.01922984
H      82.04513813      84.18437335     105.47910289
H      81.54814011      83.22628212     108.60282050
H      80.20454470      86.10055583     107.69764158
C      77.80459228      80.55042966     101.06092277
O      76.28714206      79.40336579      99.63606913
N      79.79069464      79.32966645     102.25145036
H      80.98500166      80.22917619     103.43441902
C      80.17241936      76.55743796     102.23444281
H      78.48489376      75.65981795     103.00545116
H      81.77868672      75.94516663     103.37016834
C      80.58815913      75.85634950      99.43386843
O      82.26434638      76.82766882      98.17909015
N      79.21054866      73.84568069      98.46254909
H      78.16930946      72.77231615      99.64929722
C      79.17275414      73.29010117      95.78102746
H      80.74878588      74.27086912      94.89096636
C      79.27668908      70.42905552      95.46355343
H      77.63640664      69.55789169      96.35361454
C      79.10661372      69.35947043      92.70644275
H      77.62506828      70.14748631      91.51213571
H      78.96866369      67.30722766      92.82360578
H      80.73366807      69.88292462      91.55748915
C      81.69931822      69.48419237      96.86384064
H      81.26090171      69.75442323      98.85750189
H      83.08637733      70.91849464      96.35739399
C      82.75756494      66.85747280      96.17409054
H      84.03501994      66.59669056      97.76712982
H      83.70809729      67.03321734      94.35428409
H      81.11161333      65.64426850      96.41786522
C      76.64052088      74.39370132      94.75301634
O      74.73756648      73.10112853      95.11395407
N      76.68020513      76.45917218      93.34328052
H      78.32237730      77.42671205      93.45288464
C      74.64685962      77.37568945      91.74079260
H      73.98545541      75.90170292      90.46144788
H      75.41030905      78.90069859      90.58616982
C      72.23178938      78.41503893      93.11084417
O      70.26458430      78.67771088      91.91842687
N      72.40375447      78.48684852      95.64685689
H      74.05537528      78.32244234      96.58794059
C      70.01891988      78.47739989      97.29280850
H      68.43910867      77.53631619      96.36306316
C      70.73890560      77.35679219      99.92708699
H      71.98234552      78.71739514     100.84549397
H      71.59306188      75.48218368      99.93842534
C      68.37107853      77.09600995     101.66752492
N      66.56827963      75.14392267     101.61461259
H      66.95378380      73.41671282     100.89840632
C      64.40832244      75.99429951     102.61238808
H      62.64898725      74.97195758     102.77301481
N      64.85429785      78.33756014     103.65551700
H      63.56739423      79.42982195     104.54746782
C      67.34117769      79.09156094     103.04891485
H      68.18399562      80.94916191     103.13395254
C      69.22901427      81.28553319      97.43453798
O      69.95844863      82.68204094      99.06159234
N      67.61518801      82.07543879      95.72433566
H      67.03504202      80.88680093      94.34861491
C      66.34718165      84.54153163      95.86417542
H      67.68510787      86.00417979      95.30859589
C      64.20234228      84.31854393      93.91397786
H      63.05338869      82.64613614      94.26168750
H      65.24925065      84.25807269      92.14141458
C      62.28993926      86.60700249      93.67587235
H      61.09563223      86.68070181      95.35394931
C      63.71479290      89.04285971      93.41697985
H      65.15287462      89.54930635      94.80403895
H      62.24836527      90.49227978      93.45477436
H      64.69556085      88.95215285      91.60851175
C      60.45312528      86.17047571      91.58772477
H      58.72402569      87.20037655      92.01669264
H      59.80305943      84.22027816      91.46678228
H      61.31484047      86.87534362      89.85295602
C      65.34940615      85.19159748      98.50601280
O      64.04549499      83.75351575      99.71354791
N      65.51381235      87.58966018      99.23166770
H      66.65520704      88.67247335      98.15074425
C      64.69367112      88.65924527     101.70909891
H      64.17399638      87.00006556     102.81269907
C      66.80449542      90.00662013     102.99978198
H      65.92955213      91.23116278     104.40573835
H      67.50936332      91.45981966     101.72232698
C      68.73201626      88.45326510     104.22810408
H      69.63530542      87.30242177     102.78057372
C      70.71433916      90.16346741     105.40540357
H      72.18265650      88.92947613     106.15373519
H      69.61451845      90.94203466     106.96442778
H      71.41542761      91.45604020     103.96354240
C      67.90242640      86.52007507     106.35215645
H      66.38875563      87.44226152     107.40473402
H      69.45200198      85.83788388     107.52567649
H      67.09740299      84.80798304     105.53768442
C      62.27482145      90.32220442     101.49933929
O      60.60808284      90.22960783     103.05458404
N      62.10852553      91.88122863      99.52457528
H      63.67510864      92.14012114      98.46632854
C      59.90321492      93.48371654      98.99356219
H      58.14576944      92.41791091      98.87639916
C      59.76904434      95.61154837     101.03824606