 %block lattice_cart
   139.898   0.000   0.000
   0.000 144.87   0.000
   0.000   0.000   168.12
 %endblock lattice_cart

 %block positions_abs
N      88.98137856      41.35561620      85.01053233
H      88.33131271      40.67531472      86.67160176
H      90.80685417      40.96066340      84.61935899
H      87.87966812      40.49579073      83.70851090
C      88.60532303      44.04280701      84.89903849
H      89.92057254      44.94609619      86.20105992
C      89.35554437      44.83271261      82.16082506
H      87.98549279      43.83304739      80.98919474
H      91.13944601      43.98422550      81.57500991
C      89.40656698      47.60116166      81.50509002
H      87.43936189      48.17185901      81.29155095
H      89.95458761      47.73722196      79.52465685
S      91.35676454      49.75167021      83.54410472
C      91.00527544      52.33870553      81.33123520
H      89.00594500      52.58625968      80.89659815
H      91.95958723      51.63572734      79.64559933
H      91.87454955      54.07347428      82.02287503
C      85.95214728      44.84405097      85.70406189
O      84.25895251      43.37006445      85.64925984
N      85.58176093      47.28746709      86.28798732
H      86.95748168      48.60838579      86.18783183
C      83.19692631      48.16241038      87.47473546
H      81.61333567      46.91141156      87.05899566
C      83.54652569      47.93942267      90.38869342
H      84.06431070      45.98544566      90.78175649
H      81.77585213      48.52145838      91.26363671
C      85.60632736      49.62316882      91.38835865
O      85.19058758      51.81147189      91.69827377
N      87.75683591      48.68775429      92.25196357
H      88.95114294      49.85749488      93.17415002
H      88.27084147      46.86416840      92.03464504
C      82.52607348      50.94408751      86.69994766
O      83.95470657      52.19886578      85.35446253
N      80.47383070      51.98910616      87.62591356
H      79.28897230      50.92519025      88.67660138
C      79.67825592      54.58181066      86.99285524
H      80.31131424      54.91251277      85.06155495
C      76.73784178      54.67062780      86.88703057
H      76.08588620      52.91318233      86.03098454
C      75.59455736      54.64228190      89.52130905
H      73.64247008      54.00922359      89.68760496
H      75.89502385      56.40350683      90.54554071
H      76.71894452      53.24766389      90.53987154
C      75.70416149      56.97420417      85.46973583
H      76.66414245      56.98176308      83.64803966
H      76.01029715      58.74109828      86.48451886
C      72.81854940      56.96664527      84.97462753
H      72.56721581      55.21864843      83.91071163
H      72.37257400      58.68629621      83.92960888
H      71.80565610      56.55279521      86.71884492
C      81.01807188      56.73231921      88.58589452
O      80.86500405      58.85448186      87.92638003
N      82.00450901      56.08981226      90.84789692
H      82.33143167      54.27378527      91.34111548
C      83.54463596      58.01166392      92.31810400
H      82.61867007      59.80879364      92.71116706
C      84.16257646      56.85704114      94.92781602
H      85.56664311      58.11181942      95.75740588
H      84.96004097      54.99755045      94.54609131
C      82.00639874      56.49421369      96.69848959
C      81.78152130      58.04567899      98.89246184
H      83.38778868      59.27022164      99.19670777
C      79.97305323      57.73009470     100.79730595
H      79.91825117      58.76755445     102.55475143
C      78.30631462      55.66273411     100.47227304
H      76.90602742      55.18841281     101.87822940
C      78.28174818      54.28134418      98.13279185
H      76.91358633      52.80546793      97.80208975
C      80.21682792      54.70275315      96.26952171
H      80.32454232      53.67474203      94.51018651
C      86.03529524      58.65228114      90.96317022
O      86.84031865      60.90294518      91.06710517
N      87.37700092      56.88916649      89.86145978
H      86.67402273      55.17896418      90.34145026
C      89.69758484      57.20097133      88.32700202
H      90.81252336      58.72031129      89.16037132
C      91.03173161      54.62338464      88.22684652
H      92.30540715      54.40417639      86.62435860
H      89.63522387      53.12483168      88.01519717
C      92.41879073      54.24543938      90.67404210
H      93.04995931      52.28579319      90.72695444
H      91.16401245      54.54779559      92.27841973
C      94.68268285      55.98020813      90.97072912
O      94.56551982      57.62804948      92.66959309
O      96.69713110      55.49076902      89.91815157
C      89.13633612      58.03245091      85.56800161
O      90.83331035      59.07746956      84.35101786
N      86.78551659      57.59403441      84.58912337
H      85.72915958      56.33358695      85.55855296
C      85.91624248      58.89794556      82.17972233
H      87.32975777      58.81101815      80.68305908
C      83.61644555      57.47120219      81.21974135
H      82.16513575      57.43529739      82.67672035
H      83.94525794      55.45675395      80.94384131
C      82.50528648      58.29134341      78.72341289
H      83.80352846      57.77544813      77.20974212
H      82.33710085      60.33224783      78.51176355
S      79.27385449      56.92507129      78.38704161
C      79.73116826      54.73865795      75.83780082
H      80.92169584      55.53801218      74.36003483
H      77.93781799      54.14150443      75.01954932
H      80.70815676      53.26845087      76.89982700
C      85.45703899      61.72119667      82.70506624
O      86.49827819      63.28589006      81.26509479
N      84.06997988      62.41472623      84.72140422
H      83.33298661      60.92562190      85.65870846
C      83.39534758      65.10569650      85.15037208
H      83.01362287      66.03922130      83.35324236
C      80.95571091      65.21719035      86.85490523
H      81.22972123      66.98786391      87.86968825
H      80.99917462      63.66950450      88.21550816
C      78.44237491      65.32679448      85.49241255
H      77.08555142      64.65405191      86.88892029
C      77.98695087      68.07067708      84.71951448
H      76.24840267      68.26153944      83.63292186
H      79.54975453      68.58279292      83.47985403
H      77.99073033      69.37269851      86.31444350
C      77.99639950      63.57312846      83.29466085
H      75.99328961      63.62793052      82.81844982
H      78.56142767      61.64938707      83.76142325
H      79.05464624      64.08524429      81.60335579
C      85.67813697      66.68739742      86.07822770
O      85.78207191      68.97963544      85.54721462
N      87.48660505      65.45529587      87.45961765
H      86.92913578      63.88115385      88.38747327
C      90.01505886      66.62692618      88.03787389
H      90.01127940      67.86280719      89.68571524
C      92.03706600      64.54255806      88.41203970
H      92.22792837      63.28966951      86.78876479
H      91.67612828      63.11959414      89.85768033
C      94.63166023      65.82946168      88.85612538
H      94.54284310      67.05022488      90.51341536
H      94.91133973      67.07479132      87.23662993
C      96.81807357      63.87548467      89.18493777
H      98.74370470      64.60113957      89.07722337
H      96.77838933      62.55645570      87.60512657
N      96.71602836      62.33535772      91.56032373
H      95.96580702      60.61759651      91.19749628
C      97.43412436      62.80778930      93.84878230
N      98.67189510      64.70696425      94.61223173
H      98.83819100      64.99042319      96.49061969
H      99.04606091      65.97308088      93.23273152
N      96.79539687      61.17317604      95.55520516
H      97.54372849      61.23742674      97.31076092
H      96.07352142      59.50643743      94.96561056
C      90.94669393      68.49586550      86.11413250
O      91.72526117      70.54810828      86.92104564
N      91.08086450      68.03288256      83.65748830
H      90.43835755      66.35480559      83.02254025
C      92.21092083      69.47285401      81.60335579
H      93.69246625      70.65771241      82.40837920
C      93.58475186      67.78343868      79.67772468
H      94.42379034      69.14404163      78.37759299
C      96.07352142      66.62314673      80.75486868
H      96.97303113      65.48364176      79.29222051
H      95.54439805      65.43450888      82.35168741
H      97.55128739      67.93083734      81.34635302
C      91.93691052      66.00709595      78.17917171
H      90.54796168      67.27699203      77.34391268
H      90.91078913      64.79578138      79.49064178
C      93.01972369      64.49909435      76.06267825
H      91.34920563      63.86414631      75.04033631
H      93.93057178      62.86637082      76.92817289
H      94.30284786      65.59135616      74.87593012
C      90.30796643      71.15093097      80.39582068
O      91.00338572      73.25797581      79.84591033
N      87.94391882      70.35913565      79.91771993
H      87.67557767      68.51476277      80.32968027
C      85.94836783      71.74997422      78.70262590
H      86.72504534      72.30933320      76.87904001
C      83.75439558      69.91504997      78.33223954
H      81.91947133      70.85046449      78.27554775
H      83.63723255      68.72263266      80.00653707
C      83.82809491      68.32767986      76.06645769
O      82.16891520      66.68928715      75.86992617
O      85.68002669      68.56578538      74.52066157
C      85.16602114      74.15559581      80.37503369
O      84.41202034      76.19650023      79.36403011
N      85.29452253      74.05355059      82.80522174
H      85.65357053      72.41326815      83.71418009
C      84.33832101      76.02075568      84.58345420
H      84.17769426      77.74229635      83.46473621
C      81.71349115      75.23273981      85.62280366
H      81.97427339      73.50930941      86.72073466
H      80.56453756      74.28787665      84.19983975
C      80.28296834      77.07900242      87.28198337
H      81.66246855      77.47773467      88.75785962
H      78.57276603      76.10957282      87.89425470
C      79.52896754      79.49407265      85.82122492
O      78.09466527      80.91892629      86.95506072
O      80.13745942      79.95327614      83.60079651
C      86.08064866      76.69349825      86.73963191
O      86.14300963      78.89313968      87.44449983
N      87.71337220      74.97573703      87.52764778
H      87.57920164      73.20128402      86.83978741
C      89.36310328      75.39336655      89.84445224
H      90.14922942      77.29821067      89.82366526
H      90.99204736      74.13291910      89.85012142
C      88.04218459      75.27053434      92.37668551
O      85.78585136      75.25352680      92.51085607
N      89.61821633      75.31210832      94.51774542
H      91.49849401      75.44060971      94.22861729
C      88.84909771      75.68627413      97.06887595
H      86.87244400      75.18171720      97.34666570
C      90.26639246      73.71151013      98.73939401
H      92.23548727      74.14614718      98.31420558
H      89.79963006      71.78398929      98.18003501
C      89.62766496      74.01008689     101.63823417
H      89.81096841      75.91493101     102.40357332
C      86.97826867      73.10301826     102.35255072
H      86.24127541      71.39848512     101.46248962
H      85.75750547      74.66960137     101.80641980
H      86.62300012      72.94050179     104.37644760
C      91.45314058      72.26209005     103.23505291
H      93.47892719      72.53421064     102.99316794
H      90.99771654      70.35157674     102.61522267
H      91.19991725      72.49452638     105.26650868
C      89.60876770      78.25252246      97.97972402
O      91.84998311      78.86101433      97.84555345
N      87.58487082      79.63391239      98.81876250
H      85.85955069      78.83833762      99.01340432
C      87.70014412      82.06599016      99.80519964
H      89.62010606      82.61779024     100.30975656
C      86.47182202      83.85556098      97.96082677
H      85.34743486      85.39379820      98.73561455
H      85.31719924      82.71227656      96.69282040
C      88.48249082      85.25206872      96.54164231
H      89.71459237      83.75540548      95.84811275
H      89.61065742      86.35944834      97.85878154
C      87.71337220      86.84321828      94.12090290
H      89.31586012      87.73516910      93.18359864
H      86.38678433      88.27185137      94.78419683
N      86.38489460      85.24262009      92.31054509
H      85.90112467      83.53241778      93.00596437
C      85.75939520      85.81142771      89.92571047
N      85.86521987      88.16791642      88.96383979
H      85.30964034      88.69703979      87.21584294
H      86.47938092      89.58710088      90.08066804
N      84.83342931      84.05587197      88.55187944
H      84.46871213      84.62467959      86.76608809
H      85.06208618      82.23984498      89.09234118
C      86.34898981      82.05654153     102.37711716
O      84.17958400      81.41025513     102.46215484
N      87.54329684      83.13935470     104.39156540
H      89.27428614      83.90280413     104.14968043
C      86.59087478      82.81054233     106.90868086
H      85.10743962      81.39135786     106.73293631
C      88.69225044      81.86567917     108.58675781
H      88.08564829      82.12457167     110.53884511
H      90.27395136      83.18281841     108.48849205
C      89.51617110      79.09156094     108.41668246
H      90.11710408      78.66637252     106.49294106
C      91.75171734      78.83077871     110.12310532
H      92.77405927      77.09412023     109.70358608
H      91.16401245      78.98762599     112.09220013
H      93.11798946      80.32555222     109.75082922
C      87.78140235      76.89191951     109.12155036
H      86.95748168      77.14703257     110.99237941
H      88.82075183      75.12691514     108.92501882
H      86.14489937      76.93916267     107.87055154
C      85.17924921      85.26907626     107.94236115
O      83.79596955      84.92514607     109.65067373
N      85.35121432      87.37234165     106.54585341
H      86.14678909      87.25895807     104.81675383
C      84.08887714      89.77796324     107.07119732
H      83.15724207      89.57198307     108.89667293
C      85.96159591      91.83587520     107.61354876
H      87.63589343      91.55997516     106.44380818
H      86.46426311      91.42391486     109.56752578
C      85.00161495      94.52117629     107.06174868
H      83.46904690      95.05596883     108.32786531
H      84.37989499      94.77250989     105.11344085
C      87.05385772      96.34098273     107.96314814
H      88.77350867      95.83264635     106.94647538
H      87.44503107      96.18980462     109.98137583
C      86.31686446      99.05273999     106.87277606
H      85.18113895      99.77461544     108.42991054
H      85.06775537      98.91856942     105.24005252
N      88.53729288     100.60798474     106.43813901
H      89.35743410     101.08608550     108.09353925
H      88.13856063     102.22748019     105.51028339
H      89.90356500      99.77272571     105.39878952
C      82.16324603      90.18992358     104.91690931
O      82.26529125      88.93703503     102.87411517
N      80.34154986      91.88500808     105.28540595
H      80.34910876      92.82609178     106.94647538
C      78.41402902      92.26484307     103.31820085
H      77.71672000      90.39590375     102.80230557
C      76.20871840      93.95992757     104.26684346
H      77.05720553      95.39234012     105.48004776
C      74.52875171      95.07108664     102.29963838
H      73.06232410      96.35987999     102.96104259
H      73.90703176      93.61221793     100.98060940
H      75.78164027      96.35610054     101.29052452
C      74.47017021      92.17224648     105.86366220
H      75.67959504      91.42202513     107.35465626
H      73.69160296      90.70014968     104.65234763
C      72.23840343      93.34198707     107.29418502
H      72.82043913      95.02384349     108.32597559
H      71.33889370      91.95303823     108.52439685
H      70.96094844      94.02228854     105.82586768
C      79.64802030      93.52906997     100.98060940
O      81.24483903      95.20147776     101.26595808
N      78.83354826      92.88278357      98.69404058
H      77.25751652      91.81130875      98.57309808
C      79.78597032      93.93158168      96.39991283
H      80.59855264      95.79863128      96.71171767
C      81.91947133      92.29885814      95.49851337
H      83.22149275      92.02484783      97.07076567
H      83.03818931      93.16435279      93.99807068
C      81.28074384      89.76851461      94.47239199
C      80.77051773      89.42647415      92.04409367
H      81.19003697      91.02140316      90.84033801
C      80.00139911      87.04919845      91.19749628
H      79.57999016      86.77329840      89.21895284
C      79.97494295      84.99128649      92.87935271
O      79.09810995      82.65369504      92.05354231
H      78.80331264      82.46094296      90.27342013
C      80.64768552      85.26718653      95.43993187
H      80.32265260      83.66091917      96.65313615
C      81.32231782      87.76540472      96.22983745
H      81.80419803      88.09988628      98.18570419
C      77.42570216      94.29818858      94.59900365
O      75.45471760      93.23616239      94.97316946
N      77.81120633      95.66635043      92.52975334
H      79.51196001      96.48649165      92.25574302
C      75.91770056      96.20303271      90.56632769
H      74.06576877      95.92146349      91.42615317
C      76.15013690      98.96770230      89.74807620
H      75.18826620      98.90345161      87.92638003
H      78.08710637      99.65934213      89.64225153
C      74.41158868     100.62688200      91.49796277
H      75.17125867     100.69113270      93.41225553
H      72.63902540      99.59131199      91.66425868
C      74.35111744     103.32919063      90.40003179
H      73.37034949     103.03628305      88.61235070
H      76.32777117     103.86020373      90.17326463
C      72.74485008     104.94490663      92.21983822
H      73.80687626     104.85042031      93.98106315
H      70.92504364     104.05484554      92.60345266
N      72.49162675     107.48847825      91.02742091
H      74.19238044     108.33696536      91.22962164
H      71.20283341     108.67144692      91.78709090
H      71.96817257     107.13698915      89.22840146
C      76.39202187      94.33787284      88.43282669
O      78.42725710      94.16212829      87.32355735
N      74.49662637      93.18702951      87.52953751
H      72.91303572      93.45537065      88.56132808
C      74.20938797      91.71682244      85.17304881
H      75.97817180      90.83809970      84.58534392
C      72.01541572      89.83087558      85.10501866
H      70.16915312      90.50928733      85.71728997
H      72.55020827      88.61200211      86.67727095
C      71.92470886      88.28318973      82.70695596
O      70.06521817      88.64790691      81.30855849
O      73.66514679      86.85077718      82.06822847
C      73.61223446      93.60465903      83.09812930
O      72.39903016      95.55296685      83.52898691
N      74.56276679      93.15490416      80.73408169
H      75.57377037      91.54296762      80.58290358
C      74.37001471      94.74227427      78.47396903
H      75.37723883      96.50349919      78.83301703
C      75.75707381      93.45726037      76.37637281
H      75.65880806      94.61755233      74.67750885
C      78.53875096      93.35332543      77.09446881
H      79.71982990      92.71081848      75.53166515
H      78.88079142      92.39901364      78.88970882
H      79.23417024      95.26761818      77.39871475
O      74.91614561      91.12155865      75.79244739
H      76.34288898      90.01795848      75.58457749
C      71.75463348      95.49249561      77.51776750
O      71.62424238      97.33308904      76.13070839
N      69.72884689      94.22826871      78.28121694
H      69.98018049      92.73349520      79.43961917
C      67.16826773      95.02006403      77.85791825
H      66.94339030      95.40556820      75.84724944
C      65.48641131      92.73916437      78.62325741
H      65.16893728      92.55019174      80.64904401
H      66.60890873      91.15746345      77.93539702
C      62.79544103      92.67113423      77.61792300
H      61.72963540      94.29440913      78.30767310
H      62.19450808      90.99116753      78.64782385
C      62.65560129      92.46704379      74.73042119
O      62.28710467      94.43235915      73.40761277
O      62.88047873      90.34488114      73.63060049
C      66.45962035      97.36332466      79.57945892
O      64.53587898      98.65400773      79.28466162
N      68.26430898      97.71859321      81.29533040
H      69.55688179      96.32586492      81.45784688
C      68.35879531      99.87288121      82.98285601
H      67.55944107     101.53773009      82.07200793
H      70.24663190     100.52105733      83.49875128
C      67.15692936      99.31163249      85.60390641
O      65.94372508     100.95569438      86.70372711
N      67.26464377      96.95325405      86.44483461
H      68.42493572      95.67957852      85.62469340
C      66.18749978      95.88933814      88.82400004
H      65.11791467      97.19513902      90.00318925
C      64.17872069      93.90701524      88.28731777
H      63.20551165      93.51395216      90.06177077
H      64.99130301      92.13823141      87.61457519
C      62.02065325      94.88400374      86.56010792
C      61.36491822      93.45348092      84.40581991
H      62.19450808      91.60532859      84.15259660
C      59.28243982      94.21504062      82.91293613
H      58.64749178      92.87522467      81.50886948
C      57.98419784      96.48649165      83.44961840
O      55.83368931      96.99860748      82.17027369
H      54.91906176      98.25905493      83.09812930
C      58.66449932      97.92079392      85.55666325
H      57.75932042      99.71414420      85.92327015
C      60.72052154      97.11010134      87.09679019
H      61.25531410      98.25149603      88.69927810
C      68.01486512      94.88400374      90.86868391
O      69.94427569      93.74071932      90.15625708
N      67.52920545      95.44525245      93.30832058
H      65.85301822      96.24082723      93.75996517
C      68.93138237      94.57597835      95.42103460
H      70.89480802      95.14856542      95.17914963
C      67.90337127      95.88366896      97.64524246
H      68.89169813      95.12588871      99.28552490
H      65.96451207      95.30541271      98.03452609
C      68.29265489      98.72014816      97.51296163
C      66.13269770     100.27728264      98.11767405
H      64.30344263      99.49493594      98.57876727
C      66.66749026     102.89077413      98.13279185
H      65.04043590     104.11531678      98.28396997
C      69.09011939     103.93390305      97.96649594
O      69.46239548     106.39243699      98.34255147
H      67.93171716     107.35241795      98.15168912
C      71.18771560     102.37676857      97.48461574
H      73.14169261     102.96069400      97.37123216
C      70.74551964      99.72170310      97.00651497
H      72.29131577      98.43479948      96.65502588
C      68.90303649      91.65068202      95.68181682
O      67.03409715      90.31842497      95.35867362
N      71.08944983      90.47527225      96.18259431
H      72.69004802      91.49572446      96.36211830
C      71.56755059      87.75406636      96.12968197
H      69.90837089      86.62212030      96.59455464
C      72.46706031      87.02652173      93.54831583
H      74.26796949      88.02618695      93.51619048
C      72.82610831      84.25618296      92.72817460
H      74.47017021      83.34533487      93.57288227
H      72.99429395      84.34122064      90.67782156
H      70.93449227      83.44171091      92.79620475
O      71.06299365      88.09988628      91.51497030
H      70.99118406      89.89890573      91.73795802
C      73.48373307      87.11344914      98.12901240
O      74.51930309      88.87845352      99.15891325
N      74.06387905      84.69270973      98.65435632
H      73.17570767      83.23573075      97.80208975
C      76.22950540      83.96705483     100.35699973
H      77.71294056      85.33710641      99.95259830
C      75.37723883      84.19382199     103.19914811
H      74.90669698      86.17614489     103.49583513
C      73.08500082      82.39480254     103.60543925
H      71.59967594      83.26974582     102.47916237
H      72.63713568      82.68771012     105.59532107
H      73.26452482      80.41247963     103.08009534
C      77.58632890      83.62123491     104.99438810
H      79.22472160      84.54720081     104.15534962
H      77.94159744      81.62568393     105.34965665
C      77.34255420      85.08010363     107.50394464
H      75.61534435      84.51696519     108.47337425
H      77.20460418      87.11344914     107.20347815
H      78.91858595      84.63979740     108.75305374
C      77.11578704      81.31198936      99.70693388
O      75.92714919      79.91926107      98.24239599
N      79.23983942      80.38602347     100.79541624
H      80.03730392      81.58788940     102.04830477
C      80.13367996      77.79142924     100.81998268
H      78.69370851      76.48940781     101.51351224
H      81.78719049      77.63836141     102.03885615
C      80.63823689      77.11301749      98.05909253
O      81.97616312      78.34322932      96.68715123
N      79.56109289      74.92093497      97.38446024
H      78.32899134      74.05733004      98.55987000
C      79.48361411      74.13291910      94.80120436
H      80.87256294      75.17604802      93.69760419
C      80.09588543      71.16037961      94.83521943
H      78.60867083      70.25331098      95.93315043
C      80.14312860      70.28354660      92.06866012
H      78.35922696      70.47062950      91.05954626
H      80.53430194      68.26153944      92.04787312
H      81.49239318      71.30777826      90.89702980
C      82.58843445      70.61235898      96.31298541
H      82.24450426      71.13770289      98.27452132
H      84.09265659      71.72351805      95.44938049
C      83.66557844      68.03666201      96.30164705
H      83.60321748      67.03321734      94.50451734
H      82.75662009      66.91416458      97.76996440
H      85.67057806      68.25964972      96.72872520
C      76.84744591      74.88314044      93.86012067
O      75.10889770      73.39214638      93.72972954
N      76.42792667      77.24907779      93.00218491
H      77.60900561      78.62290882      93.60500762
C      74.36056608      78.04843202      91.40158672
H      74.28308730      76.75585922      89.79909882
H      74.64402503      80.05154191      91.01419283
C      71.54676360      78.05977038      92.38046496
O      69.84223046      77.98418132      90.77230786
N      71.19149505      78.14858751      94.89758040
H      72.74107063      78.13346970      96.01062920
C      68.69516658      78.19394094      96.15424841
H      67.33456365      77.16970928      94.99584617
C      68.93327211      77.11112777      98.80931387
H      70.34300794      78.20338957      99.83921471
H      69.82333320      75.29699051      98.40302271
C      66.46906900      76.89569897     100.32109493
N      65.30877704      74.68282945     100.81998268
H      65.61491270      72.96506824     100.04708461
C      63.47007333      75.11368705     102.47160347
H      62.22096423      73.73418684     103.31253169
N      63.30566715      77.62513332     102.91190970
H      61.91482858      78.40370056     103.95881808
C      65.20106263      78.80432254     101.57020402
H      65.89648191      80.71483584     101.76862528
C      67.75219316      80.97750780      96.08243881
O      68.87091114      82.52330393      97.36556297
N      65.69428120      81.34411471      94.85978589
H      64.99130301      79.91548161      93.80909805
C      64.23730221      83.78186165      94.90513931
H      65.33523320      85.47694615      94.48939953
C      62.27954576      83.61367601      92.59022458
H      61.38570521      81.76363395      92.70360816
H      63.20362193      83.54753559      90.75152088
C      60.11769886      85.68292632      92.41070059
H      59.01976787      85.96449554      94.13035153
C      61.39515384      88.18492396      91.90236420
H      62.77843350      88.61200211      93.36879182
H      59.93061594      89.62678514      92.05354231
H      62.44206222      88.18114451      90.12980093
C      58.30545131      85.02341184      90.22239751
H      59.25598366      84.90246935      88.39881161
H      57.05823195      86.63912784      89.94838720
H      57.28688883      83.26785609      90.56065852
C      62.98063421      84.27508022      97.36367325
O      62.01309434      82.58755462      98.51640629
N      63.41149182      86.61456139      98.21593981
H      64.62091666      87.59343962      97.11233964
C      62.47229784      87.46493823     100.59888470
H      61.71451758      85.89835512     101.70248487
C      64.67949818      88.74806240     102.01051025
H      63.80833435      89.80252968     103.55063720
H      65.36546883      90.26551263     100.79919569
C      66.59190120      86.99061693     103.06686726
H      67.41393215      85.62056535     101.76673555
C      68.95405910      88.58743566     103.78496326
H      70.40536891      87.52918893     104.79596684
H      68.46273025      89.89512627     105.29863403
H      69.58900714      89.72694063     102.19192398
C      65.61113325      85.24262009     105.24005252
H      64.06344739      84.07854868     104.54085378
H      64.78154339      86.44448603     106.69325205
H      67.21173144      84.12957129     105.90145673
C      60.21407489      89.40190771     100.37211754
O      58.34513558      89.22616316     101.74027939
N      60.28588450      91.14801482      98.50317821
H      61.78443746      91.06675659      97.32398900
C      58.22986227      93.01695414      98.13846104
H      56.49509352      91.91335398      98.03074663
C      57.62703957      94.76117153     100.34755110