 %block lattice_cart
   139.898   0.000   0.000
   0.000 144.87   0.000
   0.000   0.000   168.12
 %endblock lattice_cart

 %block positions_abs
N      91.78856701      43.51746310      84.52298296
H      93.67451386      43.33793910      84.29621579
H      91.06291210      41.92820327      83.75764380
H      91.46353407      43.34549800      86.39759145
C      90.62449559      45.72844288      83.12269575
H      91.17440594      47.58604385      83.82567395
C      91.36526831      45.64151547      80.32968027
H      90.86071139      43.84627548      79.45473698
H      93.41184190      45.67742027      80.08968502
C      90.39394899      47.91107678      78.80467112
H      88.37383155      47.66919181      78.47774847
H      91.31991487      47.86194389      76.96407770
S      91.08936826      51.02345601      80.04433159
C      90.32213938      52.97554330      77.24564692
H      91.80935399      52.98310220      75.82079327
H      90.26166814      54.99377100      77.64815863
H      88.51745075      52.37838978      76.45385160
C      87.74833215      45.76245796      83.51575883
O      86.58615047      43.74611998      83.13025466
N      86.75811555      47.97910692      84.36991511
H      87.92596642      49.37750440      84.94250220
C      84.11627817      48.29658094      85.21462279
H      82.95409649      46.95109581      84.17527330
C      83.84037813      47.71454524      88.07377870
H      84.36383231      45.73222234      88.28353832
H      81.92230592      47.99989391      88.76730826
C      85.21420915      49.38317357      90.00129954
O      86.04190929      51.41840881      89.42115355
N      85.40696124      48.55547345      92.39936223
H      86.39717784      49.72143458      93.54075692
H      84.87216869      46.78291017      92.86423490
C      83.22810680      50.98944094      84.70250695
O      84.79280019      52.55413433      83.79921778
N      80.78091122      51.69808831      85.39603651
H      79.90785768      50.40740524      86.49774695
C      79.80959190      54.22654211      84.97084809
H      80.18375771      54.55346477      82.97151765
C      76.83138324      54.33425651      85.10879811
H      76.15675094      52.71665079      84.02031576
C      75.85628446      53.97142906      87.94338758
H      76.35517221      55.67029302      88.99407540
H      76.96177435      52.45019938      88.78620552
H      73.84183620      53.58214544      88.12858076
C      75.57093578      56.77011373      84.10346370
H      76.40997426      58.42740371      84.99541453
H      73.58294370      56.49421369      84.56077748
C      75.67676045      57.08947748      81.32934549
H      74.25379655      58.53700783      80.98163584
H      75.07771722      55.42651832      80.27298848
H      77.52113334      57.85859609      80.82478855
C      81.16074621      56.36004312      86.53932092
O      81.18342293      58.53322838      85.57745024
N      82.32670735      55.94808279      88.79187469
H      81.98466688      54.22276266      89.53264741
C      83.84037813      57.78489676      90.33956055
H      82.91441223      59.59147512      90.68349073
C      84.27690491      56.56980274      92.97761848
H      85.58081606      55.03912443      92.53731225
H      82.64229165      55.51722519      93.65791995
C      85.19531190      58.29323314      95.11300920
C      87.84281845      58.53511811      95.58922025
H      89.20720085      57.66584400      94.34389060
C      88.61193707      60.26799714      97.55075616
H      90.56969352      60.44563141      98.09499734
C      86.73165939      61.57757747      98.92836664
H      87.24755468      62.86259136     100.42880933
C      84.28257408      61.30356716      98.38979464
H      82.92386086      62.46952829      99.36489342
C      83.42274861      59.62171074      96.58699574
H      81.42152845      59.50076825      96.20716075
C      86.30458125      58.42362426      88.93738362
O      86.96031627      60.64594240      88.83911786
N      87.71053761      56.51311095      88.04732252
H      87.03590532      54.74243740      88.26653078
C      89.94041466      56.75499592      86.37302501
H      91.30101762      57.86993445      87.44449984
C      90.92496207      54.09048182      86.00263865
H      92.21564514      54.07536401      84.39826102
H      89.47743173      52.67129736      85.63792148
C      92.19674789      53.08892687      88.44227532
H      90.93630043      53.10593441      90.07121940
H      93.73309538      54.31157980      89.06588501
C      93.35137066      50.45086894      87.78087111
O      92.50666301      48.59137825      89.09234118
O      94.93118186      50.29591138      85.93082906
C      89.35459951      57.99087693      83.84457120
O      90.81913740      59.40628194      82.88836969
N      87.29101837      57.39750287      82.54821896
H      86.25922780      55.92162662      83.17938754
C      86.44631071      58.31968931      80.09535419
H      87.87683354      57.99087693      78.64971357
C      83.93486444      57.02900624      79.45284725
H      82.50434162      57.64694674      80.80022211
H      84.18808777      55.00888881      79.77599045
C      83.34338010      57.44852548      76.60502970
H      84.87594814      56.42807327      75.68284325
H      83.43786642      59.43840729      76.07968579
S      80.23100088      56.22020337      75.80378574
C      80.50690091      55.27722994      72.38338111
H      82.44009094      54.70842232      71.95063380
H      79.92675493      56.80034935      71.12293367
H      79.41841855      53.61238106      71.84669884
C      85.91529762      61.25443427      80.39393096
O      86.64851142      62.73220025      78.72152318
N      84.88350705      62.07835495      82.48963743
H      83.88951101      60.78011297      83.47796431
C      84.08793227      64.71074370      82.68994843
H      83.59282398      65.39860408      80.81345020
C      81.80892234      64.84113481      84.44928362
H      81.57837574      66.81400909      84.99919399
H      82.30781008      63.84524905      86.18216266
C      79.29747607      63.95674290      83.20584372
H      79.53558158      62.07835495      82.39704084
C      76.92964900      63.85847713      84.75163983
H      76.14163312      65.74253427      85.02376043
H      77.34538879      63.06290235      86.60357163
H      75.48589809      62.77944341      83.75197461
C      78.76646297      65.70662947      80.83234746
H      78.88740547      67.65304757      81.49942086
H      76.94854627      65.26254378      79.97063227
H      80.14974263      65.40238353      79.33568422
C      86.36127303      66.30756243      83.68583420
O      86.31214015      68.66783060      83.43261087
N      88.41540553      65.22474926      84.64203571
H      88.59681925      63.32557431      84.67038161
C      90.59614970      66.58535220      85.67571600
H      89.86671534      67.66816538      87.27064502
C      92.43296367      64.49342517      86.45428324
H      93.03011718      63.21785991      84.95006109
H      91.38794502      63.76399082      88.07377870
C      94.88393870      65.35891982      87.58244985
H      94.58347222      66.92550294      88.88636100
H      96.00454640      65.80300551      85.91004206
C      96.13304779      63.32179486      89.26997545
H      95.01999900      63.12148387      90.99151613
H      98.00387685      64.04556004      89.73862758
N      96.76988556      61.00688013      87.89614442
H      96.04423066      60.83302530      86.14058868
C      97.50120964      58.82046678      88.86557401
N      98.20040839      58.60881743      91.22206274
H      98.86370231      56.90239457      91.76819364
H      98.29111524      60.03367107      92.48628963
N      97.85836792      56.97420417      87.25363748
H      99.06023386      55.62682931      87.86590879
H      97.51443772      57.40128232      85.42438241
C      91.81502316      68.45618125      83.64048077
O      92.93941032      70.45362196      84.36802539
N      91.84336906      67.69651127      81.20273382
H      91.19141348      65.94284526      80.82478855
C      92.92240279      69.21396150      79.13915268
H      94.07891530      70.77865489      79.80811580
C      94.92740240      67.69273182      77.63115108
H      95.83447104      69.01176079      76.33479884
C      96.98531436      66.70062551      79.41694245
H      96.30879235      65.00365128      80.37125425
H      97.68640282      68.10280243      80.75108923
H      98.64260433      66.10347199      78.34735736
C      93.78789744      65.67828357      76.02299400
H      92.29312393      66.61936728      74.96285754
H      93.01688910      64.18728951      77.21730103
C      95.57935799      64.43862311      74.11626015
H      96.94940956      63.26510307      75.11025618
H      96.64894308      65.99197814      73.29233948
H      94.49465509      63.46730379      72.65928116
C      90.86449083      70.50464457      77.58012848
O      91.24999500      72.49074693      76.41605706
N      88.57981172      69.50119990      77.59902575
H      88.28690414      67.90627089      78.60436014
C      86.27434561      70.60102062      76.37448309
H      86.91496283      71.40793375      74.59058146
C      84.27312545      68.65271279      75.54678297
H      82.40796558      69.41238277      75.11403563
H      84.03124048      67.52265645      77.25131609
C      85.17641463      66.88392896      73.39627443
O      84.02368158      64.85436290      73.14872028
O      86.94330873      67.52643591      71.98464886
C      85.11594339      72.82522849      77.97319155
O      84.52823850      74.88503017      76.91305508
N      84.77390292      72.50208529      80.37503370
H      85.51656536      70.86369257      81.01565092
C      83.50211712      74.35779653      81.97185243
H      83.11472323      76.13980844      81.00998173
C      81.02468592      73.29199089      83.22096153
H      81.44987434      71.85579889      84.63447680
H      80.13273510      72.40759897      81.59012771
C      79.32582196      75.18171720      84.49274733
H      80.45587830      76.34011943      85.76831259
H      77.69876762      74.17260335      85.25052759
C      78.16553002      76.92215513      82.61057992
O      79.46944117      78.81944035      81.81311541
O      76.03013927      76.39492149      81.73563663
C      85.18208381      75.19872474      84.19039112
O      84.89484541      77.30010040      85.18438717
N      86.92063201      73.63403135      84.92171520
H      87.01700806      71.93516739      84.05622056
C      88.26422743      73.90048276      87.35379296
H      89.13728098      75.74863509      87.60323684
H      89.81191327      72.57200516      87.64481083
C      86.50678196      73.61513409      89.79531937
O      84.27501519      73.27876280      89.82933443
N      87.68975062      73.93071838      92.11590327
H      89.49065981      74.55999724      92.08755738
C      86.82992515      73.34301350      94.56309885
H      84.77390292      73.21829156      94.61979064
C      87.99588629      70.88258984      95.61000723
H      89.96120165      70.62558706      95.04497907
H      87.08503820      69.24608685      94.75018175
C      87.74455269      70.52921102      98.52018575
H      88.68185694      72.07500714      99.50851262
C      85.09137695      70.63881514      99.51040234
H      85.22365779      70.47251923     101.55886567
H      83.91596718      69.08923957      98.83388032
H      84.11060900      72.35846609      98.93781527
C      88.78390217      68.05177982      99.20615641
H      88.12060822      66.52299123      97.99673157
H      88.42674389      67.81556403     101.22060466
H      90.77378397      68.00075721      98.67703303
C      87.46487319      75.63714124      96.06732100
O      89.40184267      75.70517139      97.25217940
N      85.74711197      77.41726343      96.33188269
H      83.97454869      76.97317774      95.78197232
C      86.14017505      79.71895008      97.82476647
H      88.15840275      80.06099054      98.05531308
C      85.20098107      82.13591003      96.41692037
H      84.77957210      83.67036780      97.72839043
H      83.35093901      81.74095723      95.60811750
C      87.28534920      82.99195605      94.42514884
H      88.28501442      81.35167361      93.68248640
H      88.77256381      83.96138565      95.47205720
C      86.24033055      84.48106039      92.04031423
H      87.90139998      84.94404333      90.91214762
H      85.56191879      86.38212506      92.45605402
N      84.59626865      83.10344990      90.37735507
H      83.56447808      81.62379420      90.99529558
C      84.26934600      83.80075891      87.91882114
N      84.81169746      86.07598939      87.11568745
H      84.43375219      86.65991482      85.33934472
H      85.46365303      87.44037179      88.27786914
N      82.97677321      82.48928885      86.30499486
H      82.43253203      83.52674860      84.79888300
H      82.09049157      80.83199888      86.63002779
C      85.02523652      79.57722060     100.50817783
O      82.70087316      79.20494452     100.66880457
N      86.50489223      80.32177277     102.41113223
H      88.40028772      80.41625909     102.22782878
C      85.79246541      80.39358237     105.09832305
H      84.05580692      79.29943084     105.27217787
C      87.55369033      78.99140545     107.00694663
H      86.28001479      78.78164583     108.61132427
H      88.88216793      80.41625909     107.67590974
C      88.60815761      76.32878107     106.32286569
H      89.58892557      76.41381876     104.51439762
C      90.20308662      75.19683501     108.53006604
H      90.92307235      73.34301350     107.99905294
H      88.97287479      75.04187745     110.17412792
H      91.68652178      76.58200440     108.88533458
C      86.35371412      74.43338558     106.04696566
H      87.01700806      72.53421063     105.59532107
H      84.98366254      75.15904048     104.69014216
H      85.47877084      74.55999724     107.90645635
C      85.00067008      82.99762523     106.11499581
O      83.66085412      83.05809647     108.04440637
N      85.86427500      85.02152211     104.84887918
H      87.25700330      84.62845904     103.60354954
C      84.86083034      87.52163002     105.15501484
H      83.80447333      87.61989579     106.92001921
C      87.13039163      89.47371730     105.17769155
H      87.92407669      89.42647415     103.27851660
H      88.60815761      88.87656379     106.48160271
C      86.35749358      92.34799103     105.60854915
H      85.56947770      92.44247734     107.50961383
H      84.74933648      92.89601166     104.44447775
C      88.39650826      94.39834408     105.40634844
H      89.47932144      94.25661460     103.66024133
H      89.64372764      93.86733098     106.95781374
C      87.62927938      97.13844723     105.86366220
H      87.65573556      97.49560550     107.89133854
H      85.67152293      97.34631712     105.25894978
N      89.25255429      99.07541670     104.52006679
H      91.10070662      98.81841392     104.91879905
H      88.95208780     100.88010533     105.06619769
H      88.90862411      99.08675506     102.64167885
C      82.87283826      88.07343011     103.15379468
O      83.17708419      87.41391562     101.00706558
N      80.96232495      89.64757213     103.86433177
H      80.71477081      89.90835436     105.73894026
C      78.97622259      90.66613461     102.14846027
H      77.76679775      89.12033848     101.52107113
C      77.38885250      92.45759515     103.72071257
H      78.47922457      93.95047894     104.63156065
C      75.57471523      93.94103031     102.13523219
H      76.68398458      95.14856542     100.88990255
H      74.35584177      95.23927229     103.17269194
H      74.33505478      92.72404656     101.03163202
C      75.81093103      91.00628534     105.71059437
H      77.04870175      89.77796324     106.80663563
H      74.69977195      89.69481528     104.57297913
C      74.02136021      92.61822189     107.31686174
H      73.48089848      91.43903267     108.91557020
H      72.22800993      93.08498429     106.41924174
H      75.02858434      94.21126117     108.15023104
C      80.38973788      91.97571494      99.86945034
O      81.92419564      93.59143094     100.05275380
N      79.36739594      91.38612033      97.63579384
H      78.07482314      89.98961259      97.48650546
C      80.15163236      92.41035199      95.15269346
H      81.35538802      94.05630361      95.44182159
C      81.84482714      90.62834008      93.79586997
H      83.43219724      90.12378316      95.01096398
H      82.93708896      91.74516833      92.45227457
C      80.60138722      88.05831230      92.72061569
C      79.89462958      87.72761019      90.23940505
H      80.22344197      89.42080497      89.14525352
C      78.63607186      85.60544754      89.36824122
H      77.86506352      85.50529205      87.48229435
C      78.32993620      83.59666847      91.03686956
O      77.27735864      81.36868115      90.22428723
H      76.76713254      81.43860102      88.48573903
C      79.27479935      83.70816232      93.47650623
H      79.04614247      82.06976961      94.66892352
C      80.41808377      85.96071609      94.43648719
H      80.98500166      86.12134283      96.39235393
C      77.82537927      93.33631789      93.68437611
O      75.77880568      92.56153010      94.42325910
N      78.16553002      94.80841469      91.58300045
H      79.73400285      95.85532306      91.29198261
C      76.29281123      95.22793393      89.62902345
H      74.45221781      94.70447974      90.39058316
C      76.37784891      98.08520011      88.81266168
H      74.98134117      98.58597759      87.38213887
H      78.16175055      98.60865430      87.93015949
C      75.72211388     100.01272095      90.97450858
H      76.60839552      99.60076062      92.78675612
H      73.69065810      99.77650516      91.23151137
C      76.10005915     102.72825766      90.08633722
H      74.92464938     103.04384196      88.42337807
H      77.99545464     103.37076461      89.60256728
C      75.25535149     104.66900659      92.01007860
H      76.03958790     104.40822436      93.89980492
H      73.23523406     104.46302642      92.35589852
N      75.94888105     107.21635766      91.07088462
H      77.83671763     107.29572616      91.33544631
H      75.20810833     108.51837909      92.25007385
H      75.29503575     107.53572140      89.30399053
C      76.78791953      93.47993709      87.33111626
O      79.00834794      93.14923498      86.45806269
N      74.89063431      91.96437659      86.47129077
H      73.27302858      91.85099301      87.47662518
C      74.84717061      90.06898109      84.40015074
H      76.52335784      88.89546105      84.62502818
C      72.29981953      88.50617743      84.47951925
H      70.64252955      89.47749676      83.73685681
H      71.82738796      87.75028691      86.33334075
C      72.30737844      86.09299693      82.87703133
O      74.38607738      85.17081049      82.06822848
O      70.32883499      84.86278510      82.31200316
C      75.38385288      91.22738332      81.71295993
O      75.65030429      93.48938572      81.51075920
N      75.52936181      89.65891048      79.71551922
H      75.47078028      87.77485335      80.01220625
C      75.29881520      90.50928732      76.95084962
H      76.67642567      91.92469233      76.37070364
C      75.29314601      88.14334998      75.21986032
H      74.94354664      89.05797752      73.40572306
C      77.75734912      86.63912784      75.20285277
H      78.98945069      87.57643209      76.56156599
H      78.49812184      86.41425040      73.29611893
H      77.45121346      84.75129125      75.96441248
O      73.27302858      86.61267167      75.96252276
H      74.00435266      85.13490569      76.72030301
C      72.83650180      91.94736905      76.35558582
O      72.98012101      93.51962134      74.70963421
N      70.91653987      91.68469709      78.07712650
H      70.99590837      90.24472564      79.33001505
C      68.59028678      93.42135557      78.09035459
H      68.62430185      94.54952218      76.36881392
C      66.13175284      91.83776492      78.48530738
H      65.61207812      91.83209574      80.47896865
H      66.39442480      89.94047970      77.72752712
C      63.69967508      93.10766100      77.18328596
H      63.72235180      95.07864555      77.78232920
H      61.93467070      92.44247734      78.01854499
C      63.61652712      92.78829726      74.36570402
O      63.89620662      90.59999419      73.52855526
O      63.37653188      94.55708109      72.73675994
C      68.71122926      95.69280660      80.06700831
O      66.84228995      96.91545953      80.33156999
N      70.86173781      96.06886214      81.35391193
H      72.43587983      95.12021953      80.83801665
C      71.19999882      98.18913506      83.04521698
H      70.72567752      99.99949287      82.18728122
H      73.23712378      98.34598234      83.31355812
C      69.76569654      98.00583161      85.58311941
O      70.14553154      99.61776815      87.22907104
N      68.38052716      95.91201485      86.06310989
H      67.95344901      94.77062016      84.59479255
C      67.06716737      95.35832504      88.40637052
H      66.60418442      97.15923422      89.29454190
C      64.75981154      93.87300016      87.70717179
H      63.53715862      93.46859873      89.31721860
H      65.46845891      92.10421633      86.92482510
C      62.80016535      94.98226951      85.92515987
C      62.05183373      93.48938572      83.92771917
H      63.07417567      91.76028614      83.56300198
C      60.29249854      94.36999818      82.07200793
H      59.54605664      93.34765625      80.47140974
C      59.40432717      96.88333418      82.39137168
O      57.57129265      97.76961582      80.85880364
H      56.94768296      99.24171262      81.70918048
C      60.04116494      98.40834331      84.52676240
H      59.47991622     100.35287169      84.78943437
C      61.85152275      97.39545001      86.22940582
H      62.49969887      98.53117552      87.79787866
C      68.79626695      93.94480976      90.31688382
O      70.48568227      92.42735953      89.56666248
N      68.34651209      94.33031393      92.78297667
H      66.73835499      95.24305174      93.25540825
C      69.75435820      93.26072884      94.83521945
H      71.72723246      93.58954121      94.34767006
C      69.30838278      94.81219414      97.28430475
H      70.42332131      94.09787759      98.86600567
H      67.33928796      94.64967768      97.86634044
C      70.02269932      97.53151030      97.17470062
C      68.15753946      99.46092087      97.33343763
H      66.14876039      99.11132150      97.24462049
C      68.82461284     101.99315413      97.28052529
H      67.34684687     103.39533105      97.18414925
C      71.40408926     102.62243299      97.38257051
O      72.11462635     105.18301214      97.00462524
H      70.59150694     106.15433147      97.18036979
C      73.26357995     100.81774436      97.39768832
H      75.24968230     101.21080743      97.14824445
C      72.56816068      98.17212752      97.28619446
H      73.95710951      96.67735401      97.31643010
C      69.39153074      90.49794897      95.40969624
O      67.24669137      89.75528653      95.30387157
N      71.43054543      89.10522067      95.22639279
H      73.02925389      90.14457015      95.14135511
C      71.55715710      86.34055108      95.04119961
H      69.79026300      85.54497630      95.74039835
C      72.06927293      85.51852013      92.29542728
H      73.90986635      86.13835036      91.60756689
C      71.86140303      82.65936422      91.79276007
H      72.51335861      82.26630115      89.87846733
H      69.86207260      82.17370456      91.92126147
H      73.16153474      81.53119761      92.92092669
O      70.31749663      86.78274703      90.57577634
H      70.48379255      88.52507470      91.05009764
C      73.73223208      85.53552767      96.82132180
O      75.24590285      87.11155941      97.72839043
N      73.75679852      83.11100881      97.68114726
H      72.46989490      81.83166409      97.08777320
C      75.60873030      81.79386957      99.23072285
H      77.39452167      82.81999096      99.17970024
C      74.53725549      82.01685727     101.95192873
H      73.94388143      83.96894455     102.21838014
C      72.09572909      80.39736182     102.42436032
H      70.36662951      80.96616944     101.46248962
H      71.54581873      80.55609883     104.40290376
H      72.75335386      78.51141496     101.92358284
C      76.34950302      81.55954351     104.11566537
H      77.17531342      79.67548637     104.03062769
H      75.24023367      81.86945862     105.82397796
C      78.28458276      83.64580136     104.19692360
H      79.33905006      84.08610759     102.48294183
H      79.43164665      83.37368077     105.88633892
H      77.29625590      85.42025436     104.52762570
C      76.03202900      78.99707463      98.43136861
O      74.65819798      77.97851214      96.91580812
N      77.88585051      77.75552444      99.50095371
H      79.19354112      78.78353555     100.43825796
C      78.08616151      74.96628840      99.25717901
H      76.16242012      74.25197185      99.44426191
H      79.22188701      74.13480882     100.76140116
C      79.13684933      74.16315472      96.64557724
O      80.46910639      75.49352204      95.36812227
N      78.12206631      72.00697699      95.74984697
H      76.86728804      71.23785838      96.96683072
C      77.87262243      71.56667076      93.11556849
H      79.30125552      72.62869695      92.07810876
C      78.42631224      68.75097856      92.31621427
H      76.98634079      67.47352357      93.04942808
C      78.27324441      68.70751485      89.41926383
H      76.60083662      69.67505472      88.70305756
H      78.13340467      66.82345772      88.60101234
H      79.93809329      69.62025266      88.62179933
C      81.03224482      67.96296268      93.29509250
H      81.34404967      68.48452715      95.26418732
H      82.39851695      68.81711898      92.01385806
C      81.28924760      65.12837321      92.90013970
H      83.12984103      64.46129983      93.53697747
H      81.02846537      64.52177107      90.94994214
H      79.85116589      64.21185595      94.05287275
C      75.30637409      72.54554899      92.28975809
O      73.49601630      71.24541729      92.85478627
N      75.23834396      74.59968149      90.95750105
H      76.92775927      75.48407341      90.87246337
C      72.94799567      75.65225905      89.75563511
H      72.39619558      74.21795678      88.38369381
H      73.35239709      77.47017576      88.87502266
C      70.59150694      76.28342764      91.22962164
O      68.68477309      76.97506747      90.09011667
N      70.60284530      76.40814958      93.75996517
H      72.26769418      76.02453513      94.60656256
C      68.22556961      76.83522772      95.23773114
H      66.60607415      75.99052006      94.28719882
C      68.48446211      75.39714600      97.73594934
H      69.66365132      76.52153316      98.99450706
H      69.30460332      73.56978065      97.24651022
C      66.09395832      75.14959185      99.47449754
N      64.37052793      73.26364499      99.40457767
H      64.44989643      71.67060571      98.35577957
C      62.27104199      73.93449783     100.78596760
H      60.57217803      72.84979493     101.10911081
N      62.66599479      76.33256052     101.66658007
H      61.48113639      77.27931341     102.82687201
C      65.06216775      77.09600995     100.81242377
H      65.86719116      78.97061846     100.89179228
C      67.54337840      79.54698498      95.51174147
O      68.90587107      81.05687631      96.69659986
N      65.49680480      80.48239951      94.24940428
H      64.48391150      79.17848835      93.29131305
C      64.91854856      83.16581087      94.06988029
H      66.52103647      84.39035352      93.64658160
C      63.16299281      83.41903420      91.75874501
H      61.43011378      82.38346418      92.16503617
H      64.14754023      82.71227656      90.09200639
C      62.28804952      86.12701200      90.96505996
H      63.62030657      87.44793070      91.81921625
C      62.26159336      86.33677162      88.09078623
H      64.20234228      86.15346817      87.42371285
H      61.36208363      88.18303423      87.92071086
H      60.90665959      84.91947689      87.45961765
C      59.70101420      86.67881209      92.19527179
H      58.22702768      85.39568792      91.54898539
H      59.30984085      88.69703979      92.04976286
H      59.69534502      86.12323255      94.17759469
C      63.89431689      83.95571647      96.62479025
O      63.25747912      82.49306830      98.28963914
N      63.83951483      86.34433053      97.31643010
H      64.96201226      87.43281289      96.22038883
C      63.04582978      87.37045192      99.68425716
H      62.09151799      85.89835512     100.76329089
C      65.37208287      88.25295411     101.10911081
H      64.81650333      89.22049398     102.84198983
H      66.40954261      89.73260981     100.12078393
C      67.05204957      86.09299693     102.14279110
H      67.85518324      85.04230910     100.56297990
C      69.35373621      87.37423137     103.41646662
H      68.62619158      88.75184185     104.76384149
H      70.55371242      88.41169112     102.10499656
H      70.22678977      85.89268594     104.55219214
C      65.61774729      84.48295011     104.13834209
H      66.79693651      82.91258755     104.76195176
H      63.75447714      83.69304451     103.75283792
H      65.16799242      85.71694139     105.72571218
C      61.07673496      89.41135634      99.48016671
O      58.88843189      89.13167684     100.39857370
N      61.71546245      91.44848130      98.18759393
H      63.29338392      91.42202513      97.11611910
C      60.10163618      93.62355629      97.57343287
H      58.17222561      92.91868837      97.41280614
C      59.80116970      95.61532782      99.75228731