 %block lattice_cart
   139.898   0.000   0.000
   0.000 144.87   0.000
   0.000   0.000   168.12
 %endblock lattice_cart

 %block positions_abs
N      91.24338097      43.38329253      86.41270926
H      90.34009178      43.36061582      88.09267595
H      93.06696686      42.97511164      86.80010315
H      90.54985140      41.96410807      85.34123444
C      90.78228774      45.75111960      85.04643714
H      91.78006324      47.22132668      86.08578661
C      91.76872488      45.64529493      82.30444426
H      90.74638294      44.19587485      81.25753588
H      93.78695258      45.24278322      82.36491550
C      91.41912551      48.01312200      80.79077348
H      89.43113343      48.37405972      80.38070287
H      92.59075583      47.87328226      79.10324788
S      92.57185856      50.72298953      82.47262990
C      91.84431392      53.57647626      80.48463782
H      92.66445515      53.34970911      78.60813959
H      92.51516677      55.23754569      81.50131057
H      89.82608623      53.66340367      80.08968502
C      87.96281609      46.33504504      84.90281794
O      86.50016791      44.81381536      83.98819040
N      87.11810841      48.46287686      86.07444825
H      88.20470105      49.86316405      86.78309562
C      84.55374982      49.00900777      86.67349149
H      83.35944278      47.74289114      85.57178105
C      84.15123811      48.11327750      89.39847683
H      84.87689302      46.19709502      89.61957481
H      82.17080494      47.92052541      89.92948993
C      85.38144994      49.78379555      91.44694016
O      86.75528096      51.54502048      90.98773666
N      84.71437654      49.37939413      93.84311312
H      85.48727461      50.59259841      95.09789139
H      83.28385374      48.22099189      94.34767005
C      83.87533806      51.85871504      86.12358113
O      85.47215680      53.36482691      85.50753036
N      81.45837811      52.55035487      86.41081953
H      80.22816629      51.08959644      86.43538598
C      80.62311909      55.12983130      86.00263865
H      81.33554591      55.60982178      84.12991987
C      77.72805837      55.16384636      86.20105991
H      77.16680966      53.69363929      84.87069259
C      76.77563631      54.29835171      88.85801511
H      77.35578229      52.35949251      89.24351928
H      74.75929834      54.45897846      89.24729873
H      77.68648440      55.40384160      90.33767081
C      76.30887391      57.72253579      85.62658311
H      77.03074936      59.27400110      86.77175726
H      74.30576401      57.55623988      86.08578661
C      76.41091914      58.41039618      82.75608884
H      75.25251690      60.06012725      82.33279015
H      75.71927930      56.81357743      81.65626813
H      78.36678586      58.77700307      82.22318602
C      81.99695012      57.20664052      87.61835465
O      81.92703023      59.41573057      86.82466960
N      83.02118178      56.56980275      89.91815157
H      83.13834481      54.75944494      90.51341536
C      84.32887239      58.23087218      91.67748677
H      83.17802905      59.93918477      91.78331144
C      84.62177997      57.07624940      94.40625156
H      85.90112468      58.33480712      95.41158596
H      85.78207191      55.40006216      94.11901316
C      82.42780772      56.59058973      96.28274979
C      82.71315638      57.21041996      98.92647690
H      84.43091760      57.97008994      99.72205168
C      80.83854788      56.86460005     100.73494499
H      81.36767124      57.28789875     102.66057610
C      78.46694135      55.94997251      99.97149556
H      76.90980688      55.52289436     101.21871492
C      78.16647488      55.28667857      97.43170339
H      76.40147050      54.60259765      96.67014369
C      80.23005600      55.30557585      95.61000723
H      79.74250663      54.84637235      93.68248639
C      87.05574745      58.82046679      90.77230786
O      87.83809415      61.01821849      90.66648319
N      88.32564354      56.85515141      89.65925907
H      87.52817903      55.12416212      89.78209128
C      90.55363085      57.18774325      87.99252046
H      91.91045435      58.50299277      88.81077195
C      91.63266459      54.50055244      87.74685604
H      93.09720247      54.46275791      86.29743595
H      90.07930956      53.22120772      87.31221899
C      93.07641549      53.45742350      90.04854269
H      93.96269713      51.66596297      89.55343439
H      91.58353170      53.01711728      91.39780727
C      94.86031712      55.49832792      91.07277435
O      94.50504857      56.56035411      93.19304727
O      96.47792284      56.37516093      89.53831658
C      90.03395613      58.33102767      85.30532964
O      91.83486530      59.43840728      84.15637604
N      87.65479070      58.14961394      84.28109798
H      86.37544597      57.20097134      85.33178581
C      87.05763717      59.23620657      81.85846885
H      88.49760862      58.94329900      80.41471794
C      84.81642178      57.73576388      80.63959537
H      83.33487634      58.38016056      81.91705036
H      85.01673275      55.70052865      80.90604678
C      83.98872164      58.40472700      77.95429428
H      85.34743486      57.59214468      76.63526532
H      83.91502232      60.45319032      77.75587302
S      80.92358556      56.95908637      77.18517567
C      80.96138010      56.84192334      73.82713202
H      80.99539516      58.76944418      73.10147711
H      79.33999492      55.72320536      73.22619905
H      82.69614885      55.97831840      73.12604355
C      86.70992753      62.06890632      82.25720110
O      87.60943726      63.64304834      80.71140497
N      85.48916433      62.92495234      84.35479731
H      84.44603542      61.80056518      85.49241255
C      85.08854236      65.68962194      84.92171520
H      84.69547929      66.44551245      83.04710670
C      82.81142216      66.11292063      86.56577709
H      83.25361811      67.82501267      87.62591355
H      82.66213378      64.67483891      88.03220471
C      80.42280809      66.41905628      85.28454265
H      78.98094692      65.92205827      86.66971204
C      80.00139913      69.09490874      84.37180484
H      80.23383546      70.16827330      86.11224278
H      78.15513652      69.49931018      83.54977390
H      81.53585689      69.58056841      83.08490122
C      79.86911829      64.58980121      83.10568821
H      80.80831227      64.78822247      81.28210232
H      77.86411867      64.73531014      82.65404362
H      79.80297787      62.61125777      83.67638556
C      87.46770778      67.06912214      85.81744547
O      87.49038451      69.40860332      86.10468387
N      89.48026631      65.50442876      86.42026817
H      89.40845671      63.68840176      85.82878383
C      91.89722627      66.56078577      87.15159225
H      91.74415844      67.57367907      88.93927334
C      93.83230600      64.41783612      87.70339233
H      94.01371973      63.18762430      86.05933044
H      93.14066618      63.24809554      89.25107818
C      96.44390778      65.65938630      88.55187945
H      96.03383716      66.18095077      90.50396673
H      96.87665510      67.44328794      87.62213410
C      98.56229097      63.71296820      88.72762399
H     100.40288441      64.60869847      88.95061170
H      98.70024100      63.01187975      86.79443398
N      98.09930802      61.75143230      90.72317498
H      97.31129215      60.11681904      90.13169064
C      99.05739927      61.72686585      92.99462601
N     100.61642348      63.25565443      94.00751931
H     100.92633858      62.98542357      95.87078946
H     101.12098040      64.96396703      93.31587948
N      98.43567931      59.77855802      94.37790567
H      99.27093834      59.68974089      96.09188744
H      96.82941195      58.84503322      93.94515834
C      92.82130244      68.27098808      85.22029196
O      93.39011006      70.38748154      85.77965095
N      93.04806959      67.47352358      82.80144228
H      92.16178795      65.84835895      82.33656960
C      93.97592521      68.95506900      80.70573579
H      94.98881851      70.46496033      81.67705512
C      95.72392204      67.44895713      78.94073142
H      96.50626874      68.73019156      77.52910586
C      97.90277649      66.16583297      80.33345971
H      98.93078761      67.50375920      81.51831811
H      99.22936436      65.63104042      78.85191428
H      97.28861543      64.54444779      81.44083933
C      94.14789031      65.52899520      77.51020860
H      92.39233455      66.14504598      76.62770641
H      93.60742858      64.12492855      78.91805470
C      95.66534054      64.01154496      75.37103841
H      97.00515649      62.69062627      76.21007690
H      96.95980306      65.39104518      74.56034582
H      94.42001089      63.12337360      73.99153820
C      91.81218859      70.43283498      79.23363900
O      92.34698113      72.31689212      77.90705113
N      89.32908821      69.92638833      79.60780481
H      88.81508264      68.37114357      80.58479331
C      87.32030914      71.50808925      78.59680123
H      87.82486607      72.21106744      76.72786191
C      85.10177044      69.65426774      78.23397378
H      83.40668594      70.82400833      78.29066557
H      84.92791562      68.51854223      79.94228636
C      85.12633689      68.02721338      75.86992616
O      83.92447096      65.97119115      75.63560010
O      86.66079465      68.71318403      74.15783412
C      86.51717546      73.87213687      80.01976514
O      85.76695410      75.74863509      78.86136291
N      86.45103503      73.85701906      82.59546211
H      86.73827343      72.16571400      83.43450059
C      85.89545549      76.14925708      84.19795002
H      85.70081369      77.84245184      83.03954779
C      83.26873593      75.85445977      85.53965570
H      83.38400922      74.02898416      86.48640859
H      81.71916035      75.72784811      84.18850139
C      82.44670497      77.94638680      87.47095600
H      83.82431546      78.00118886      89.00352404
H      80.82343008      77.26419560      88.53865136
C      81.91380216      80.65436460      86.46373187
O      81.54341580      82.22472717      88.18338282
O      82.29363714      81.40269622      84.20172947
C      87.73226948      76.65192427      86.45239351
O      88.19903188      78.84967598      87.14403334
N      88.97004021      74.76408769      87.41993338
H      88.60721276      73.01231139      86.75286000
C      90.58008703      74.81700002      89.80287827
H      92.05785300      76.24752285      89.92571048
H      91.79896049      73.15782032      89.91437212
C      89.11365940      75.01164184      92.28219919
O      86.77606796      75.02109047      92.23306630
N      90.48371098      75.02864937      94.35144950
H      92.39233455      75.00030348      94.39869266
C      89.33475738      75.16281994      96.95360263
H      87.27684544      75.25919597      96.98194853
C      90.09631709      72.81011068      98.52396520
H      92.05218383      72.54554900      97.93626032
H      88.90389978      71.29643990      97.79453084
C      89.78073280      72.94428124     101.42469509
H      91.12999738      74.24252322     102.28074111
C      87.10865979      73.54332448     102.25617467
H      86.92913578      73.84946016     104.28574073
H      85.82553563      72.04099206     101.67413896
H      86.39434324      75.27431379     101.39823892
C      90.20025204      70.32323086     102.53018498
H      89.80340951      70.24575207     104.55030241
H      92.11454480      69.73363624     102.04641505
H      88.97004021      69.03821696     101.49272524
C      90.42512946      77.47773468      98.14224048
O      92.73815447      77.52119837      98.67892276
N      88.71681689      79.16148082      99.01718377
H      86.85543646      79.03486916      98.61656179
C      89.29507313      81.41970377     100.46471412
H      91.33030838      81.32143800     100.76140115
C      88.69602990      83.82154591      99.02096322
H      88.48815999      85.42214410     100.30030793
H      86.94803305      83.62690410      97.94948840
C      91.14511519      84.44515559      97.44115202
H      91.59109061      82.60078271      96.63801834
H      92.71736749      85.16514131      98.55987000
C      90.56496921      86.06465104      95.19993662
H      92.40556265      86.36700725      94.32499333
H      90.07175065      87.89579584      96.00307030
N      88.56185933      85.08010363      93.56343363
H      88.10076610      83.25462802      93.87901792
C      87.62077562      85.89646540      91.39213809
N      88.27840037      88.08098902      90.60034277
H      87.33920639      88.70270898      89.05643637
H      89.26672723      89.16191247      91.82299569
N      86.19403225      84.42814806      90.06555022
H      85.27373554      84.99506595      88.49329793
H      85.92191167      82.75574027      90.93860378
C      87.83620441      81.50474145     102.98182957
O      85.72349041      80.56176801     103.17836111
N      89.13255667      82.43448679     105.00383673
H      90.69347061      83.43982118     104.55597159
C      88.51461617      81.76741340     107.62866658
H      87.06141664      80.31043442     107.57386451
C      90.74449322      81.03230987     109.38044287
H      90.19458285      80.99829480     111.36465550
H      92.21470028      82.47417105     109.27461819
C      91.77628379      78.38480331     108.80596607
H      93.15578398      77.94071762     110.26861424
C      89.78640197      76.25508174     109.18769078
H      90.56307949      74.34834790     109.13477845
H      88.41635039      76.02264541     107.66646110
H      89.10421078      76.43271603     111.12277053
C      93.15767372      78.05032175     106.22648965
H      93.93435124      76.14547762     106.32286569
H      94.77527944      79.31265893     106.03562729
H      91.81785777      78.15992587     104.66368599
C      87.13889540      84.02185689     108.88155512
O      86.04285415      83.62123492     110.95269516
N      87.29385297      86.28763875     107.85354401
H      88.41257094      86.62023058     106.34365268
C      85.83876370      88.58554593     108.45069752
H      84.80886287      88.30208700     110.21003272
C      87.79652017      90.65101680     109.45981137
H      89.27995533      90.61700173     108.03306801
H      88.39367369      89.78363243     111.23048493
C      86.85921591      93.41001722     110.00594228
H      85.71026231      93.23805213     111.70669596
H      85.82931508      94.28496050     108.45069752
C      89.27428614      95.05218939     110.82041432
H      90.57819729      95.20147777     109.23304422
H      90.03773557      93.85221318     112.31140838
C      88.29918736      97.69213705     111.78984392
H      86.56819806      97.54473839     112.89533381
H      87.97793390      98.79951666     110.08342106
N      90.39111439      99.18313111     112.94068724
H      91.64967212      99.78973325     111.64055554
H      91.34164673      98.21559124     114.28617238
H      89.93191090     100.96514302     113.44146471
C      84.21926826      89.39434881     106.16790814
O      84.92413618      88.77829802     103.99661260
N      82.40135155      91.13478674     106.66679588
H      82.02340628      91.42013541     108.51305849
C      80.48327933      91.92658207     104.71659833
H      79.76140388      90.13323179     104.00039206
C      78.30820435      93.37789187     105.89011837
H      78.96393937      95.18635996     106.62711163
C      76.46383146      94.08464951     103.83409614
H      75.84778069      92.43113899     102.77018023
H      77.48617340      95.05596884     102.33365345
H      74.86134355      95.17124213     104.54274351
C      76.91925550      91.76595533     108.03495773
H      78.45182354      91.36533335     109.35209697
H      76.32966089      89.95370779     107.24883159
C      74.70638600      93.28529528     109.27839765
H      74.12057083      92.19492320     110.92434927
H      73.01508094      93.31931035     108.09920843
H      75.18637648      95.14667569     110.01539091
C      81.85522063      93.21915485     102.50939799
O      83.31030989      94.99549760     102.89301244
N      80.98783626      92.58420682     100.18881408
H      79.61589496      91.27840594      99.96204692
C      82.18970219      93.49694462      97.84177400
H      83.17235988      95.27706681      98.16869665
C      84.20604017      91.66013066      96.92147729
H      85.75372602      91.35588472      98.24428571
H      85.15468279      92.64656779      95.38324007
C      83.28763319      89.21482481      96.04464428
C      82.33143166      89.01073436      93.54075691
H      82.66213378      90.46960308      92.15180807
C      81.43948084      86.66558400      92.69038007
H      81.02563079      86.48983946      90.69860854
C      81.28452330      84.59822342      94.32121388
O      80.87067322      82.21716826      93.51241102
H      80.59288346      82.43637652      91.73228883
C      82.05175217      84.79097551      96.87801358
H      81.63412265      83.24706911      98.14601994
C      82.95315163      87.17014094      97.69059590
H      83.39723731      87.41013618      99.66913935
C      80.34343958      93.99016320      95.81976685
O      78.12868034      93.25316994      96.07865935
N      81.10877874      95.40934766      93.95271725
H      82.95882080      95.86855114      94.03208575
C      79.69337373      95.94791966      91.71150184
H      77.66758713      95.73816004      92.03086559
C      79.61967441      98.68991254      91.00663393
H      78.56142768      98.80140639      89.24351928
H      81.53018772      99.39478045      90.70238799
C      78.38946258     100.24137784      93.08911232
H      79.67825593     100.15445043      94.69348996
H      76.53942051      99.54973801      93.67303775
C      78.36678586     103.00415770      92.25196357
H      77.22728090     103.33863926      90.56632770
H      80.33399095     103.50682491      91.90614365
C      77.60144671     104.67656550      94.49884815
H      79.19448599     104.77861071      95.79709013
H      76.06698894     103.72414344      95.48717502
N      76.96082949     107.25415219      93.63902268
H      76.18415197     108.18200780      95.11678866
H      75.64557998     107.10486381      92.26519165
H      78.34788861     108.35964208      92.93793422
C      80.15257723      94.20370227      89.60823646
O      82.26718098      93.78985221      88.73329317
N      78.07954746      92.93002673      89.01108294
H      76.48461846      93.50261381      89.88791595
C      78.00773786      91.63556421      86.62624833
H      79.37967916      90.10488590      86.47884968
C      75.43771008      90.47527226      86.17271402
H      73.86545778      91.78674231      86.38625309
H      75.28275253      89.02207272      87.62591355
C      75.40558473      88.94081449      83.77087187
O      74.08466603      89.69481529      81.96996270
O      76.93815277      87.17581011      83.44772867
C      78.58788384      93.57253368      84.38503293
O      78.26285092      95.87988951      84.72518366
N      79.31164903      92.62011161      82.10980245
H      79.64613058      90.74172367      82.06444901
C      79.80486759      94.29440914      79.87803567
H      81.10499929      95.78162374      80.46196110
C      81.31097945      92.72971575      78.08468540
H      81.44515003      93.89189743      76.39149062
C      83.86022026      92.33287322      79.26387462
H      84.65390530      94.06764198      80.03866241
H      85.08665264      91.27840594      77.99019908
H      83.47282637      90.85321751      80.64526455
O      80.28863753      90.37889621      77.26454418
H      80.70437731      90.16913659      75.51276789
C      77.40302544      95.38289149      78.62703685
O      77.41814325      97.19891847      77.19462431
N      75.27141417      94.49472012      79.43394999
H      75.18637648      92.95837263      80.56400632
C      72.87146175      95.90823540      79.04655609
H      72.79587270      96.67546429      77.13793252
C      70.67937922      93.98260429      79.31111778
H      70.34489766      93.65757137      81.31611739
H      71.05921421      92.14012114      78.47207929
C      68.19627884      94.90101128      78.34735736
H      67.91281990      96.83231156      79.00309239
H      66.71662314      93.74071933      79.18828557
C      67.86557674      94.60243451      75.51465761
O      69.07500158      95.84398471      73.92728751
O      66.52954023      92.84498905      74.83624587
C      72.60123089      98.12677410      80.88903925
O      71.39369576      99.95791890      80.23897340
N      73.54987350      98.05496450      83.25119714
H      74.68937845      96.53562454      83.44961840
C      73.98829000     100.20169359      85.00297343
H      73.46861527     101.95158016      84.04866164
H      75.95738482     100.37554841      85.57178105
C      72.75051927      99.75949763      87.55221423
O      73.22484056     101.25616086      89.28131380
N      71.15747999      97.73560074      87.77520193
H      70.59434154      96.87955473      86.16326539
C      69.80632567      97.03829174      90.25830231
H      69.25074613      98.83731119      91.09356134
C      67.45928559      95.36777368      89.66681797
H      66.20828676      95.58131275      91.28820315
H      67.92037880      93.40623777      89.23596037
C      65.91726891      96.07264160      87.45205873
C      65.06689207      94.13189267      85.84957082
H      65.72073737      92.20437183      85.97996193
C      63.52109594      94.63267015      83.79354859
H      62.82756640      93.16813225      82.55199840
C      62.73874926      97.18569039      83.26820468
O      61.14759971      97.75827747      81.33690438
H      60.69406539      99.49493595      81.60713525
C      63.64203844      99.16423384      84.88581040
H      63.16015823     101.13899783      84.68738914
C      65.02531810      98.54440360      87.08545183
H      65.72262711      99.96169835      88.37991435
C      71.44093893      95.67012989      92.20472041
O      73.25129674      94.41913107      91.52441894
N      70.75874773      96.06886214      94.61034201
H      69.63625029      97.51450277      95.15080373
C      72.29698494      94.91801882      96.67203341
H      74.33788936      94.91801882      96.37912583
C      71.76975130      96.34665191      99.10222145
H      72.34422811      95.07108665     100.61400250
H      69.71372908      96.47893275      99.16458242
C      72.97917614      98.98093039      99.38190095
C      71.54109443     101.17490264     100.06409215
H      69.50585918     101.01049645     100.09054831
C      72.76752680     103.52572217     100.61400250
H      71.68282390     105.13198954     101.25084027
C      75.35078266     103.64855438     100.31731547
O      76.57721505     105.85008554     100.84265939
H      75.57377038     107.18234259     101.55508621
C      76.74162123     101.50182529      99.46126945
H      78.78063593     101.56229654      99.47449754
C      75.56621147      99.17557220      98.97560979
H      76.58099449      97.60709936      98.15546857
C      71.84156090      92.04752455      96.95927181
O      69.73640579      91.07620522      96.56053956
N      73.78419956      90.55842021      97.53374861
H      75.40180528      91.51651145      97.20493623
C      74.04498179      87.83532460      97.39390886
H      72.18549110      87.01140393      97.71327261
C      75.05976481      87.34588548      94.65758516
H      76.96082949      88.13768081      94.62923927
C      75.06354426      84.69837892      93.80531860
H      73.21350220      83.85556098      93.48217540
H      76.04809167      83.48328490      95.14891401
H      76.07643757      84.47539121      92.02330668
O      73.35145223      88.39279386      92.66770336
H      73.15681041      90.13701125      93.11745822
C      76.06698894      87.13801559      99.37812149
O      77.55609327      88.67058363     100.24361614
N      75.71361013      84.85144675     100.45148604
H      74.63457640      83.64580136      99.44048246
C      77.66191794      83.66091917     102.20137261
H      79.35700246      84.67759193     101.62122663
C      77.00051373      84.05776170     104.98682919
H      76.25407184      85.97583391     104.96604220
C      75.02386001      82.23228608     106.11877525
H      74.29064621      83.33021706     107.69858645
H      75.87801631      80.52586322     106.89356304
H      73.54231459      81.96772440     104.71281888
C      79.44959905      83.98406236     106.68758287
H      80.68359033      85.43537217     105.90334645
H      80.31887314      82.12079223     106.58553765
C      79.08677159      84.84010839     109.49949563
H      80.98972599      85.18781802     110.20625327
H      78.16269543      83.43793147     110.69002320
H      77.86789812      86.50117782     109.45603192
C      78.18726187      80.92459547     101.49083551
O      76.41469858      79.71517062     100.67447374
N      80.36044713      79.95705559     102.18058562
H      81.76829323      80.84711669     103.11411041
C      81.07287394      77.28687232     101.87067050
H      79.59132852      76.01697624     102.52640553
H      82.74339201      76.89380924     103.00828574
C      81.63223293      76.63491674      99.07765501
O      83.00984342      78.05221148      97.74728769
N      80.53052250      74.77920549      97.93626032
H      79.35133328      73.77387110      99.04930912
C      80.72516430      74.05921978      95.23395169
H      82.05931108      75.32344667      94.30609607
C      81.12389655      71.20951249      94.96561055
H      79.42881206      70.30622332      95.71394217
C      81.45270894      70.53865965      92.18582315
H      81.92325078      68.55066756      91.92126146
H      82.96637971      71.82745300      91.64347169
H      79.64424085      70.79377271      91.23340108
C      83.44070102      70.21173700      96.54164230
H      83.29519208      70.72196311      98.53152411
H      85.25861772      70.88070012      95.84244356
C      83.90746341      67.32990437      96.84399851
H      85.64979107      67.19762352      97.93248086
H      83.80352846      66.19228913      95.12812702
H      82.32954194      66.55322686      97.91925278
C      78.13057008      74.86802264      93.98106314
O      76.27107939      73.40915392      94.21349948
N      78.10789336      77.08845106      92.78108693
H      79.73494772      78.04654230      92.49951771
C      76.05376086      77.80843678      91.06710517
H      75.93659783      76.51019480      89.47217616
H      76.50918490      79.61123568      90.18082353
C      73.32688579      78.13157998      92.33889098
O      71.45416701      78.60968073      91.00096475
N      73.04720629      78.07677792      94.85411670
H      74.61189968      78.03331421      95.94826824
C      70.55654702      78.35834714      96.26952171
H      69.11279611      77.17915792      95.38890925
C      70.50741412      77.13569421      98.89057210
H      71.59778622      78.17882314     100.29274903
H      71.25952520      75.21951173      98.82065223
C      67.85045894      76.82577910     100.12078393
N      66.17805115      74.78865413      99.89401678
H      66.45395118      73.10112854      99.04363994
C      63.93683574      75.66737687     100.82565185
H      62.36080400      74.38803215     101.03730120
N      64.06722686      77.93315872     101.78185336
H      62.75575680      78.77408693     102.88545353
C      66.54087860      78.77219720     101.32264987
H      67.11535539      80.72428448     101.48516633
C      69.54554344      81.08900166      96.38479501
O      70.78898334      82.55920873      97.62067602
N      67.45550614      81.81465655      95.21127497
H      66.35946488      80.45783307      94.43837691
C      66.46528955      84.51318574      95.11300921
H      68.14714596      85.63190372      94.70860777
C      64.68516736      84.68893028      92.83210955
H      63.44928635      83.03919922      92.90580887
H      65.86246686      84.41869942      91.16348121
C      63.17905548      87.14368477      92.35967797
H      62.21718480      87.65580060      94.10767481
C      64.91004478      89.37167209      91.45071961
H      66.27253746      89.93858997      92.88691161
H      63.66471515      90.93069630      90.93104487
H      66.01742440      88.72727542      89.84067279
C      61.00398051      86.56542852      90.61357085
H      60.04022009      84.85333648      91.23340108
H      61.83357035      86.48417028      88.73140345
H      59.55645014      88.03185613      90.63813730
C      65.17271675      85.38434957      97.64902192
O      63.55511103      83.95571648      98.70537893
N      65.81711341      87.45737933      98.82632141
H      67.52164656      88.16413698      98.33121312
C      64.58501186      88.50428771     100.99194776
H      63.99352753      86.90557924     102.14846027
C      66.64859300      89.94992834     102.52262608
H      65.93994563      90.82676135     104.24605648
H      67.47251367      91.59021078     101.58910128
C      68.68949742      87.96382598     103.47693787
H      69.40381397      86.68448127     102.02751778
C      71.11779573      89.46048923     104.26117429
H      70.81921898      90.68125243     105.89389782
H      71.86801708      90.40346265     102.59065623
H      72.60690006      88.17925478     104.88478397
C      67.68605275      86.05331268     105.49516557
H      69.13169337      84.67948166     106.01106085
H      66.19127923      84.85900565     104.73360586
H      67.00764100      87.10400051     107.13166856
C      62.39670880      90.15590850     100.09810722
O      60.27076669      89.35088510     100.55353126
N      62.71418282      91.92469234      98.28396996
H      64.50186390      92.53129449      98.01184937
C      60.61847634      93.82953646      97.84744318
H      58.79866990      92.87900413      97.67169863
C      60.45973933      95.58509221     100.14724010