 %block lattice_cart
   139.898   0.000   0.000
   0.000 144.87   0.000
   0.000   0.000   168.12
 %endblock lattice_cart

 %block positions_abs
N      95.21558567      45.34860790      85.02565015
H      95.85809262      45.82481893      86.75852918
H      96.89177291      45.44120449      84.11669179
H      94.50504858      43.60439051      84.72329394
C      93.55451624      47.45565274      84.26220072
H      94.11198551      49.02034612      85.47729474
C      93.61687721      48.16996928      81.37847836
H      93.22381414      46.49378204      80.25031175
H      95.56896449      48.74822553      81.06856325
C      91.77628378      50.21276343      80.76998649
H      90.03017667      49.41529892      81.51831811
H      91.88777764      50.41685387      78.72341289
S      92.10509616      53.23254608      82.51798333
C      95.14377607      54.49299353      81.61658388
H      95.20424731      56.53956712      81.83579213
H      95.56896449      54.11504826      79.63615070
H      96.47036394      53.67852148      82.96584847
C      90.87677406      46.75267455      85.18627688
O      89.94702871      44.65696807      84.71762476
N      89.62955469      48.64618031      86.38058391
H      90.57441785      50.27701412      86.67916067
C      86.90645907      48.70098238      86.90403810
H      85.85577124      47.56336714      85.54343516
C      86.44725558      47.56903631      89.63280290
H      87.17668994      45.66419219      89.92571048
H      84.40635116      47.59738221      89.91059267
C      87.56786328      49.10160435      91.74362719
O      88.37477642      51.31258414      91.36379220
N      87.84565305      47.90162815      93.93004053
H      88.75461141      48.87294747      95.30009211
H      87.85132223      46.01757101      93.63524323
C      85.73671849      51.36738620      86.75286000
O      87.17857966      53.23632553      86.41459899
N      83.10810919      51.60927117      86.81900042
H      82.14812822      49.96898873      86.65648396
C      81.57176169      53.78623588      86.16893457
H      81.72293980      54.30213117      84.17905276
C      78.66725235      53.22687690      86.59412299
H      78.41969820      51.56580747      85.40170568
C      77.96805361      52.24043976      89.21895284
H      77.65057959      53.80702287      90.52097427
H      79.47983466      51.02345602      89.90870294
H      76.20682869      51.19542111      89.00352404
C      76.85311509      55.27345049      85.69272354
H      77.38223846      55.84603757      83.78409996
H      76.94760140      56.92318156      86.92104564
C      74.09222495      54.69330451      85.57745023
H      73.63491118      53.18908237      84.24330345
H      72.85445421      56.25421845      85.05588577
H      73.68782351      54.04134894      87.48985326
C      82.27285015      56.09737117      87.72984850
O      82.09521588      58.30457150      86.99096551
N      83.13078590      55.61549096      90.06932968
H      82.96448999      53.82214068      90.70238799
C      84.00194973      57.56001933      91.74551692
H      82.46560224      58.90739419      91.99118134
C      84.65768476      56.52066986      94.44026664
H      85.01295331      58.34047630      95.33977636
H      86.37355625      55.38494435      94.40247211
C      82.57709609      55.11660321      95.76685451
C      80.33021151      56.32602805      96.47739160
H      80.11289298      58.35181466      96.35644912
C      78.21938721      54.89550523      97.24273076
H      76.46194174      55.87249373      97.59988903
C      78.58032494      52.26878566      97.48272600
H      77.05153635      51.12550124      98.20649118
C      80.81398144      50.96865395      96.91958756
H      80.95949037      48.93341871      96.83643960
C      82.88701121      52.45964801      96.20905047
H      84.69358956      51.60738145      95.79897986
C      86.39056379      58.91117365      90.90647843
O      86.42457886      61.21475002      91.05387709
N      88.16312707      57.52411453      89.97106391
H      87.87021949      55.65895466      89.68004606
C      90.22481848      58.82991541      88.70494728
H      90.58386648      60.46263895      89.90492349
C      92.60398391      57.11026447      88.39125271
H      93.05940795      56.50555205      86.47507023
H      92.18257494      55.36982654      89.40603574
C      94.94724454      58.40472699      89.46839671
H      95.35920487      60.20563617      88.55565890
H      96.59130643      57.34081108      88.83344867
C      95.00015687      58.76944417      92.32377317
O      93.93435123      57.02900624      93.64658159
O      95.60297957      60.88215819      93.13824521
C      89.59176017      59.86926489      85.99319002
O      90.23804656      62.02544261      85.55099406
N      88.04218459      58.51055167      84.49274733
H      87.63211398      56.75310620      85.11635701
C      87.04062964      59.30045727      81.93972708
H      88.47115246      58.94707845      80.50164535
C      84.73705327      57.66962346      81.22541053
H      83.09110165      58.27055643      82.30444426
H      85.16413141      55.67785192      81.53721537
C      84.06053125      57.85481664      78.35680599
H      85.34176569      56.55846439      77.39304557
H      84.37989499      59.79934501      77.75020384
S      80.71571567      57.19908161      77.65004835
C      81.10121984      56.61515618      74.31657113
H      83.10432973      56.43941163      73.87248545
H      80.36611631      58.11181942      73.10336684
H      80.21493820      54.80479837      73.90272107
C      86.11655348      62.06512686      81.97185243
O      86.68347137      63.45596543      80.17094325
N      84.47438131      62.64905229      83.77465133
H      83.89612506      61.34325141      85.04076796
C      83.18369824      65.06979170      84.13936851
H      82.49016868      65.77843907      82.33467988
C      80.79697390      64.88081907      85.80610711
H      80.40391083      66.67227961      86.74530109
H      81.05964586      63.72052711      87.48607381
C      78.52741260      63.95863263      84.29621579
H      76.88713016      63.62226134      85.49619200
C      77.57876999      66.07512610      82.71262514
H      78.81276128      66.40204875      81.09690914
H      77.73372755      67.84013047      83.76898215
H      75.61912381      65.77465961      82.16271478
C      78.82220991      61.71741722      82.43672510
H      79.52707782      60.08658341      83.47796430
H      79.86155938      62.44874130      80.81533992
H      76.96082949      60.97286505      81.95295516
C      84.78996560      67.25998450      85.24863785
O      84.33265184      69.41805195      84.48896787
N      86.72315562      66.41338711      86.68671958
H      86.67024329      64.66539027      87.45016901
C      88.76783949      68.04611064      87.48040463
H      87.97793389      69.85079927      88.08133760
C      90.32875343      67.02376871      89.67815633
H      91.91423380      68.32956959      89.82744471
H      90.64244800      65.03577663      89.24540900
C      88.92279705      67.27132285      92.14235944
H      86.97637895      66.60047001      92.07999847
H      88.83397991      69.27632247      92.60534239
C      90.54607195      66.16394323      94.21727893
H      89.96592598      66.80078100      96.08810798
H      92.36020921      67.12392420      94.04720357
N      90.84275898      63.42572981      94.38168512
H      92.26761262      62.62259612      93.39713771
C      89.83364513      61.94985356      96.13157169
N      88.10832501      62.49031528      97.73972878
H      87.32408859      61.15049933      98.84899813
H      87.12188787      64.11925936      97.61311712
N      90.43835755      59.70296897      96.30164706
H      89.81285814      58.63716333      97.75862604
H      91.79329132      58.75054691      95.35678390
C      90.61410210      68.98719435      85.29777074
O      91.91612353      70.84668504      85.67004682
N      90.61977128      67.67194483      83.08112177
H      89.39711835      66.21307612      82.95073066
C      91.99738176      68.39382028      80.70006662
H      93.73781970      69.31978618      81.29155095
C      92.47926197      65.95796307      79.08246089
H      90.99015764      64.59736012      79.49442123
C      92.41879073      66.25842955      76.11937003
H      93.96269713      67.58501742      75.80567547
H      90.61788155      66.98030500      75.43339938
H      92.74004420      64.51043271      75.07246166
C      95.02094386      64.65216218      79.85913841
H      95.07763565      64.71074370      81.91705036
H      96.72736672      65.56489999      79.15427049
C      94.89622193      61.88560286      79.07868144
H      95.35353569      61.70229941      77.07746127
H      93.17657098      60.90483491      79.64748906
H      96.37398790      60.86137120      80.08590557
C      90.40056303      70.29677468      79.12214515
O      91.38133098      72.13169893      78.15838473
N      87.91557293      69.90560133      78.99364376
H      87.20692556      68.28421616      79.70985003
C      86.15434800      71.35124196      77.29477980
H      87.11432897      71.70840024      75.50709871
C      83.95470657      69.47285401      76.80723041
H      82.42591799      70.69928639      76.17228237
H      83.25928729      68.43161481      78.44373340
C      84.61044160      67.62092222      74.77388490
O      86.07497950      68.15382504      72.97108600
O      83.94147849      65.43639860      75.10836646
C      85.10554990      73.79276836      78.42294641
O      85.11499853      75.80721661      77.27210309
N      84.11344358      73.72473821      80.75675841
H      84.41391007      72.15626537      81.79799760
C      83.17047015      75.92248992      82.21373739
H      82.47127142      77.37757918      80.93439268
C      81.13712464      74.97951649      84.18094249
H      82.21804809      73.79465809      85.47162556
H      79.53652645      73.99118962      83.34190400
C      79.83510321      77.01853118      85.82878383
H      81.40357605      78.02575530      86.70183739
H      78.66914208      76.12280090      87.27253473
C      78.17781323      78.79487391      84.37936375
O      78.84866608      80.94160300      83.82189449
O      75.89880330      78.16181560      83.91827053
C      85.38144994      77.13758393      83.72173899
O      85.53451777      79.46005757      84.07889726
N      87.07464472      75.56344192      84.85179533
H      86.84031865      73.69639232      84.53054185
C      89.08342379      76.36090642      86.60924080
H      90.00749995      78.01441694      85.80232766
H      90.55930004      74.95495004      86.90970728
C      88.01950787      77.12435585      89.13958433
O      85.81608699      77.01853118      89.61579536
N      89.66734922      77.94827652      90.93860378
H      91.47770703      78.31866288      90.46050302
C      88.90201006      78.22606629      93.56910281
H      86.84976728      78.24874301      93.71083228
C      89.63711360      75.75619400      94.96372083
H      91.64400294      75.51241931      94.56687830
H      88.53162370      74.26142049      94.07743919
C      89.12499777      75.86201867      97.85689181
H      90.21725957      77.26797505      98.89813101
C      86.35087954      76.57255577      98.39168436
H      86.00316990      78.60023210      98.27452133
H      85.80852809      76.13224954     100.32865383
H      85.05074783      75.61635425      97.11044992
C      89.82608623      73.21262238      98.78474743
H      91.65345157      72.54176954      98.11578432
H      88.50327781      71.95784411      97.82665619
H      89.69191566      73.15782032     100.83887993
C      89.86010130      80.71294612      94.79742491
O      91.84998311      80.74129201      95.97850386
N      88.11210446      82.47417104      94.94104411
H      86.72882480      82.51574502      93.62579460
C      88.13100173      84.77207824      96.43392790
H      89.92246227      85.76229483      96.67014369
C      86.44914531      86.72794497      94.93348521
H      86.37922543      88.53830278      95.91047371
H      84.75595053      85.62812426      94.52719405
C      87.54518657      87.32320876      92.28975809
H      87.90612429      85.59221946      91.23529081
H      89.29129368      88.40980139      92.42959784
C      85.58176093      88.87845352      90.95750104
H      85.09043209      90.55653048      92.04787313
H      83.84132299      87.78241226      90.81766130
N      86.34898981      89.32631865      88.30054585
H      87.04818855      90.99116754      87.68260534
C      85.95403701      87.79186089      86.39759145
N      84.78240670      85.69048523      86.45995242
H      83.87911752      85.00262485      84.92549465
H      84.39879226      84.87601319      88.14558829
N      86.54930080      88.26240274      84.07511781
H      86.31497474      86.93581487      82.72207377
H      87.06519608      90.04063520      83.61213487
C      87.21448446      84.33933091      99.14190571
O      84.90523891      84.22216788      99.66347017
N      88.87744362      84.34688982     100.98816831
H      90.72181650      84.57554670     100.54975181
C      88.45792438      84.03697470     103.73016119
H      86.97259950      82.64613614     104.04952494
C      90.83708981      82.79353479     104.74116477
H      90.69536033      82.75762999     106.79529727
H      92.48682088      83.89146578     104.18180578
C      91.30196248      80.04965218     103.93803109
H      91.50605292      80.19516111     101.89334722
C      93.78317313      78.99896435     104.95848330
H      93.79262176      78.64369581     106.98804936
H      95.30818226      80.22350700     104.31408662
H      94.04584508      77.13569421     104.11755509
C      89.21570463      78.32622179     104.68825243
H      89.90167528      76.48751808     104.06086330
H      87.50361259      78.78164583     103.63378515
H      88.84531827      78.22228684     106.71214932
C      87.56597356      86.39724287     105.04352098
O      86.58898505      86.21204969     107.04285142
N      87.76439482      88.61011238     103.87000094
H      88.55430042      88.62900964     102.13334246
C      86.78929604      90.95526274     104.92446822
H      86.19970143      90.33732223     106.79907673
C      88.96626076      93.09443292     105.13800730
H      89.22893271      93.82197755     103.22938372
H      90.61599183      92.08153962     105.83909576
C      88.31619490      95.40178875     106.75561302
H      87.98360307      94.78006879     108.68880304
H      86.74394261      96.61310332     106.20570266
C      90.64055827      97.26127944     106.93324729
H      91.36999263      97.68646786     105.05485934
H      92.02761738      96.12933338     107.94803032
C      90.09064791      99.59887089     108.50738931
H      89.93758008      98.88455434     110.43113070
H      88.21225996     100.33208470     108.08409062
N      92.06730164     101.49615611     108.42424136
H      91.95391806     102.78683918     109.82641828
H      91.91045435     102.47125489     106.78962809
H      93.80396012     100.70436078     108.36377011
C      84.50083748      91.94358960     103.24639126
O      84.18903264      91.35399499     101.03730120
N      82.95693108      93.50072408     104.48038254
H      83.44825992      93.97315566     106.26239445
C      80.66847252      94.54385300     103.32009058
H      79.31731820      93.10199183     102.73994461
C      79.14346338      96.18224572     105.23438334
H      80.40769028      97.55040757     106.11688553
C      76.89846852      97.63544525     103.93236191
H      75.98951016      96.26350395     102.69081172
H      77.58065972      99.21147700     102.79663639
H      75.36590048      98.36110016     105.10210250
C      78.01340705      94.33031393     107.26961858
H      79.37400999      92.89790138     107.85165428
H      76.38824242      93.26261856     106.59120683
C      77.04586717      95.76650593     109.65256346
H      76.71327534      94.31141667     111.07174792
H      75.25251690      96.73971498     109.36343533
H      78.37056532      97.17246230     110.36688000
C      81.25995685      96.03673679     100.95037379
O      83.01362287      97.59387127     101.02785257
N      79.82754431      95.57375384      98.85088785
H      78.58410439      94.16212829      99.17214133
C      79.99572995      96.97215132      96.45282516
H      80.93114447      98.80140639      96.60022381
C      81.44137058      95.32997915      94.61034201
H      83.30842017      94.86132702      95.34544554
H      82.14434877      96.34287245      92.96061094
C      80.57587593      92.70514930      93.87523847
C      79.28708258      92.34799103      91.62835389
H      78.79953319      94.06764197      90.64947565
C      78.86189416      89.96693587      90.55498934
H      77.92647963      89.81197832      88.74652126
C      79.29086203      87.85611158      92.15558753
O      78.99039555      85.55442493      90.98962639
H      78.00395841      85.65458043      89.46839671
C      80.44926426      88.13201162      94.44971527
H      80.79130473      86.51818535      95.65158121
C      81.03318969      90.60188391      95.41725514
H      81.85900009      90.81920244      97.27107666
C      77.35389256      97.52584113      95.41914487
O      75.46605598      96.74160471      96.59833409
N      77.21594254      99.01494546      93.41603498
H      78.88268115      99.56863527      92.66770336
C      74.81599012      99.71603392      92.25385329
H      73.51207897      99.00738655      93.68248639
C      74.56087707     102.54117476      92.03653477
H      72.79776242     102.77550082      90.99718530
H      76.01407661     103.51060436      90.94616269
C      74.33222019     103.91500579      94.52719405
H      76.18982115     103.81107084      95.40969624
H      73.07555219     102.85108988      95.76307506
C      73.62357282     106.72691854      94.08310837
H      71.66392663     106.85541993      93.45571923
H      74.82165930     107.60186183      92.65636500
C      73.85789888     108.26326604      96.52463476
H      75.86289850     108.34830372      96.98383826
H      72.75996790     107.36186658      98.01373910
N      72.94894053     110.83896300      95.96716550
H      74.20938798     111.77437753      94.87868314
H      72.73162200     111.73091382      97.64146301
H      71.28787110     110.89376506      95.03364070
C      74.40214006      98.27606247      89.61579536
O      76.33155063      98.16456862      88.22306707
N      72.16470411      97.39733974      89.06966446
H      70.85701350      97.38978083      90.46050302
C      71.60345539      95.78162374      86.86246412
H      72.75051926      94.09976732      86.55065928
C      68.81988853      94.83865031      87.18749705
H      67.59345616      96.48838138      87.06466484
H      68.74996866      93.97126593      89.05643637
C      67.88069456      92.95459317      85.26375566
O      68.71595359      90.66613461      85.25052758
O      66.24230184      93.67457890      83.67071638
C      71.61479375      97.47670824      84.49274733
O      71.94171640      99.72737228      84.74219120
N      71.07433202      96.60365468      82.20239904
H      70.92126419      94.74416399      81.80555651
C      70.46206070      98.33653371      80.12181037
H      71.81510474      99.86532230      79.84780005
C      70.59434154      96.81908348      77.60280519
H      69.53609481      95.05407911      77.50453942
C      69.95372432      98.60298512      75.29544936
H      70.45072234     100.57585939      75.62048229
H      67.98651923      98.47259401      74.69829585
H      71.01952996      98.13622272      73.59658541
O      73.18704604      96.25783477      77.26643391
H      73.08311109      95.87233060      75.49765008
C      67.87502538      99.75004900      80.39393095
O      67.60857397     101.71914381      79.33379449
N      66.11946963      98.75605296      81.97941133
H      66.36135460      96.91734925      82.43105592
C      63.81211380     100.21303194      82.86191352
H      63.15637877     101.55284790      81.44083933
C      61.62192101      98.30062891      83.32678619
H      59.92305705      99.36454483      83.79921777
H      62.04521970      97.08364517      84.93494328
C      60.97941406      96.89467254      80.76809676
H      62.67071911      96.16334845      79.84968978
H      60.14226530      98.24204740      79.45284725
C      59.04622404      94.77062016      81.18950573
O      59.88904198      92.61633216      80.66227209
O      56.86170042      95.31486134      81.79232843
C      64.28076593     102.00260276      85.16360017
O      62.65560130     103.28950638      86.16893457
N      66.62969574     101.96669796      86.20672909
H      67.99407813     101.05396015      85.23540977
C      67.50463902     103.56162697      88.20794926
H      66.49552517     105.35308751      88.06244033
H      69.51908727     103.89799825      87.94527730
C      67.00764100     102.56952065      90.91403734
O      68.02998293     103.58997286      92.67526226
N      65.58467708     100.54562377      91.14269422
H      64.49430500     100.01461068      89.67059742
C      65.11791469      99.38344209      93.51619047
H      64.45651048     100.90467177      94.73695367
C      62.85969174      97.46725961      93.41981443
H      62.20395671      97.25938972      95.36245308
H      63.54566239      95.60776892      92.85667599
C      60.54477701      98.40456386      92.01763751
C      59.63203920      97.24238218      89.81610635
H      60.42572425      95.53406959      89.03564938
C      57.55334025      98.29684946      88.60101233
H      56.85603124      97.57119456      86.82466960
C      56.17950922     100.33964361      89.75374538
O      54.14049453     101.34497800      88.49896711
H      53.39594237     102.62810217      89.54209604
C      57.22830733     101.58875270      91.80220871
H      56.37604076     103.31596255      92.48062045
C      59.41094122     100.50027034      93.06832534
H      60.25564888     101.23726360      94.77474820
C      67.35157119      98.21370150      94.77096874
O      69.03531733      97.21592601      93.49351376
N      67.58022807      98.27039329      97.26351775
H      66.11380045      98.97526121      98.26129324
C      69.65892702      97.15734449      98.59955425
H      71.39369577      97.79607199      97.69059590
C      69.67404483      98.16078917     101.36422385
H      70.86835186      97.02128420     102.59632541
H      67.72762672      97.99827270     102.01995888
C      70.73607101     100.88388478     101.69870541
C      69.28476121     102.60353573     103.06308781
H      67.52542601     101.90811645     103.83031669
C      70.22584491     105.08096692     103.29174469
H      69.01642007     106.47747467     104.15912907
C      72.57099526     105.86520334     102.53018498
O      73.31176798     108.28783248     102.60955349
H      71.97006230     109.38576347     103.14434604
C      74.05443042     104.05106608     101.18847930
H      75.91203139     104.37042983     100.40613261
C      73.21728166     101.53584036     100.83510048
H      74.32277156     100.12988398      99.85244280
C      69.55688179      94.21882008      98.22916790
O      67.71250891      92.87333494      98.60900289
N      71.77164103      93.17947061      97.52807943
H      73.24562756      94.38322627      97.39390887
C      72.15147602      90.51684623      96.99139716
H      70.59434154      89.34143646      97.65658082
C      72.32911030      89.98961259      94.07177001
H      74.01096671      90.91935794      93.32532811
C      72.19871918      87.28352451      93.15903220
H      72.15714520      86.85266691      91.14458395
H      70.38836137      86.52574426      93.78453161
H      73.78042010      86.29708737      94.03397548
O      70.33544904      91.08943330      92.71494652
H      70.62268744      92.88089385      92.69038007
C      74.55898735      89.56631390      98.33310284
O      76.27485884      90.96660109      98.86789539
N      74.78953396      87.06053680      98.77718853
H      73.27019400      86.10433529      98.13090213
C      76.95516031      85.59599891      99.95259829
H      78.63701673      86.76573950      99.74283867
C      76.42225749      85.21238447     102.81364393
H      75.97250263      87.11911832     103.45237143
C      74.28875648      83.41336502     103.42780498
H      73.40625429      84.14279938     105.13989702
H      75.32621623      81.71072161     103.94936945
H      72.82610832      83.34344515     101.98027463
C      78.77685648      84.65680493     104.41235239
H      79.43259151      82.99762523     103.38434128
H      78.19671050      84.28263912     106.35121159
C      80.71382595      86.84132855     104.37077841
H      79.95982515      88.52885415     105.28351622
H      81.35633289      87.00762447     102.42058086
H      82.33899058      86.29897710     105.51595256
C      77.37467955      82.98250742      98.65246659
O      75.44148953      81.88835589      97.71138289
N      79.67447647      81.81276683      98.84710840
H      81.20893424      82.92770536      99.04930912
C      80.16769504      79.19927534      98.30097750
H      78.69937770      78.06732928      99.20237695
H      81.81931584      78.48117934      99.29497354
C      80.21871765      78.27897863      95.55520516
O      81.15413218      79.55643362      93.88279738
N      79.21149353      76.03776322      94.93537493
H      78.80709210      74.83967674      96.36400803
C      78.37812422      75.20817337      92.33700125
H      79.84077239      76.00374815      91.12757641
C      78.14946734      72.23374415      92.04598340
H      76.35611707      71.69139270      92.89636024
C      78.10411391      71.37391868      89.28131380
H      78.15702625      69.31978618      89.12824597
H      79.75384498      72.13736811      88.31377393
H      76.43548557      72.27342840      88.47629039
C      80.40202110      71.01109123      93.54642609
H      80.30753479      68.98719435      93.17792946
H      80.21871765      71.36258032      95.56843325
C      83.10999891      71.83879135      92.85856571
H      83.36511196      73.74552520      93.59933843
H      83.63723255      71.81233518      90.86868391
H      84.44981487      70.66716104      93.89602546
C      75.90069303      76.60279139      91.60189772
O      74.02041535      75.58422891      90.82333048
N      76.03864305      79.12935547      91.79464980
H      77.71860974      79.86634873      92.31999372
C      74.17915236      80.81877079      90.83466883
H      73.89002423      80.23673509      88.88069183
H      74.75929833      82.79164506      90.94427296
C      71.66581636      80.59011391      92.21227932
O      69.70428045      80.90758793      90.84222774
N      71.59211703      80.26130153      94.68971051
H      73.36468032      79.84178229      95.25662841
C      69.39625506      80.23295564      96.31298542
H      67.81266441      79.49029319      95.22261333
C      69.87624554      78.50007661      98.39924326
H      71.70550061      78.79487391      99.29875299
H      70.05954899      76.57444549      97.69059590
C      67.78998769      78.24496355     100.28519012
N      66.20072786      76.29854545     100.46849358
H      66.28954500      74.68093973      99.46126945
C      64.45840020      76.79365375     102.19948288
H      63.17527604      75.40092545     102.96104258
N      65.08200989      78.91581640     103.37489265
H      64.16927208      79.63013294     104.89234288
C      67.12858348      79.97028368     102.20326233
H      68.17738159      81.64269146     102.72293707
C      68.49863506      82.82377041      97.22383350
O      69.97262158      84.32232338      98.06854116
N      66.07978538      83.60044792      96.78541699
H      65.06689207      82.42881761      95.67236819
C      65.04799481      86.03630514      97.35233489
H      66.22340458      87.63123415      96.78919645
C      62.56867389      86.20071133      95.79897986
H      61.37814631      84.61901041      96.36211830
H      62.83890475      85.72450030      93.81287750
C      60.91516337      88.50617743      96.31298542
H      60.63548387      88.81987200      98.32932339
C      61.94506421      90.83998943      95.15836264
H      63.63636926      91.23116278      96.26763198
H      60.64304278      92.42735953      95.30576129
H      62.61969650      90.59810446      93.22706235
C      58.42261436      87.92792118      95.02230234
H      58.68906577      87.38368000      93.05320753
H      57.26988131      89.63434404      95.13946537
H      57.43239777      86.27819011      95.75362643
C      64.62658584      86.28196956     100.16424764
O      63.29243907      84.73617344     101.29241425
N      65.41649144      88.36444796     101.37745193
H      66.27253746      89.64379267     100.24928532
C      65.01775919      88.82365145     104.11944481
H      65.01964892      87.03597036     105.14178675
C      67.19094445      90.58298665     105.04730043
H      66.46151009      91.45226076     106.76317193
H      67.67093493      92.00406084     103.63567488
C      69.66837565      89.12411794     105.81074986
H      70.16159421      87.91280337     104.21960031
C      71.83589173      90.91179903     106.24916637
H      72.06832806      92.18547456     104.64667846
H      73.39680566      89.57765225     106.40223420
H      71.42771084      91.97004577     107.96881731
C      69.42271123      87.42525398     108.11054679
H      71.09511901      86.27063121     108.45069752
H      67.77864933      86.18937297     108.22770982
H      69.23373860      88.70081924     109.71492443
C      62.50631292      90.06709137     104.74116477
O      61.16271751      89.35466455     106.54585340
N      61.71451760      91.92847179     103.22560427
H      62.82756639      92.55586092     101.80641981
C      59.35235970      93.37789187     103.65457214
H      57.75176152      92.10799579     103.91535437
C      59.55833987      95.25627982     106.00350195