 %block lattice_cart
   139.898   0.000   0.000
   0.000 144.87   0.000
   0.000   0.000   168.12
 %endblock lattice_cart

 %block positions_abs
N      95.18062574      44.36783993      87.72417932
H      97.06279314      44.15997005      87.48229435
H      94.11293036      43.07715686      86.80955178
H      94.85559281      44.24122827      89.60067756
C      94.27544683      46.72432864      86.77742643
H      95.15227984      48.32303710      87.73740740
C      94.58347222      46.86227866      83.92393971
H      93.40239327      45.46010175      82.98096628
H      96.54311841      46.35016283      83.55922252
C      93.66128578      49.33593041      82.84679571
H      91.76022110      49.96520927      83.32867591
H      93.96553171      49.63639689      80.83045774
S      95.53022510      52.00233425      83.89559382
C      94.07135639      54.52700859      82.12492026
H      94.90850515      56.35626367      82.56711621
H      92.19107871      54.83125453      82.91104641
H      93.93907555      54.12260716      80.11047200
C      91.40306284      46.89062457      87.12702580
O      89.89695096      45.13317910      86.55254901
N      90.44119214      48.86916801      88.30054585
H      91.67896288      50.13906410      89.00541377
C      87.67652254      49.42663727      88.21739788
H      86.63528335      48.16052064      86.97206825
C      86.67685733      48.82948376      90.86868391
H      87.07558958      46.86605813      91.34489494
H      84.62083510      48.90885227      90.93482432
C      87.89006162      50.48110456      93.01163354
O      88.41540552      52.70531243      92.73195405
N      88.43997198      49.29813589      95.16403182
H      88.84059395      50.46409703      96.62101080
H      87.58014650      47.63517674      95.53630789
C      87.18141424      52.08926166      87.34245461
O      88.98043370      53.55946873      86.76419835
N      84.72665977      52.71665078      87.15348198
H      83.31503421      51.46565196      87.44449983
C      83.57581645      55.19030254      86.28609760
H      84.08604254      55.71564644      84.36046648
C      80.68831463      54.68574561      86.04232290
H      80.47666529      52.80546793      85.22785086
C      79.15007741      54.79723946      88.48006985
H      79.05181165      56.74743702      89.13391516
H      79.98911589      53.61238106      89.94460774
H      77.29814563      54.06780510      87.94716702
C      79.71888503      56.77767264      84.14881714
H      80.76201397      56.60381781      82.38003331
H      80.01557207      58.66172977      84.92738438
C      76.80303733      56.41106573      83.77843079
H      76.36840029      57.12916173      81.89815309
H      75.76179814      57.62804947      85.07478303
H      76.09061052      54.48354489      83.92393971
C      84.35627341      57.46931247      87.82244508
O      84.60949674      59.61793128      86.90403811
N      85.08192831      57.00821924      90.18271326
H      84.97232419      55.21675870      90.83277911
C      86.03057093      58.88660720      91.84378269
H      84.54146659      60.30390193      91.70772239
C      86.04190929      57.95686185      94.65758517
H      86.31780932      59.46297372      96.03519565
H      87.61794103      56.64161233      94.82955026
C      83.58715480      56.64728152      95.53063872
C      81.19476128      56.77011373      94.25885292
H      80.80547766      57.83025019      92.55809924
C      78.99134041      55.62116014      95.18103935
H      77.37940387      55.36415736      93.95649671
C      79.15196715      53.91851673      97.25406911
H      77.49845662      52.98499193      98.00429046
C      81.48955860      53.75411054      98.52018574
H      81.51412504      52.46531719     100.10377640
C      83.67030276      55.15817718      97.76429523
H      85.38617425      55.13361074      98.86978512
C      88.61004734      60.11681902      91.01986202
O      89.19586250      62.36181389      91.45638879
N      90.14828456      58.51433111      89.62524400
H      89.71364750      56.65861987      89.53453713
C      92.48209655      59.27022164      88.44227532
H      93.19263365      60.94451916      89.40603574
C      94.35292561      57.00066033      88.71817537
H      93.98253924      55.72320535      87.14781279
H      94.08458447      55.97075950      90.48317973
C      97.13271302      57.99843584      88.59912260
H      97.23475824      59.35147988      87.04765731
H      98.52166186      56.49799314      88.33834038
C      97.86025765      59.50454771      90.89136063
O      97.95474395      61.83080080      90.98584694
O      98.66339133      58.30835095      92.86234516
C      92.43674313      60.20752590      85.73051807
O      93.84458923      61.93284602      84.95384054
N      90.47709694      59.47431209      84.41337882
H      89.28278991      58.27055643      85.28832210
C      89.91017905      60.43807251      81.89815309
H      91.39739366      59.96942037      80.55077823
C      87.44597594      59.04534420      80.98730502
H      85.85104693      59.71997650      82.10413327
H      87.14928889      57.10837473      81.62036334
C      86.54457647      59.53856278      78.27365804
H      88.09982124      58.82235651      77.12659415
H      86.21954356      61.49065006      77.69540177
S      83.90840827      57.48632001      77.37036886
C      84.24477956      57.59025494      73.96886148
H      84.99311118      59.38549494      73.29044974
H      82.62150466      56.77011373      73.00321135
H      85.90206954      56.47909587      73.46052511
C      89.32436388      63.16305784      82.12114081
O      90.53567846      64.66916972      80.81345020
N      87.62738966      64.05311894      83.72929790
H      86.63339362      62.84936328      84.82722889
C      87.24377521      66.83479607      84.11480206
H      86.79591008      67.41872151      82.19106067
C      84.74366731      67.26754340      85.53209680
H      84.98933172      68.56956483      87.11190799
H      84.33548642      65.46474449      86.43916542
C      82.43820120      67.92327843      83.91260135
H      80.79413931      67.88737362      85.15226180
C      82.55536423      70.63881514      82.90348750
H      84.10682954      70.77109599      81.55611264
H      82.87472797      71.85957833      84.53054185
H      80.76957287      71.10557753      81.98885996
C      81.90340866      66.06189801      81.83579213
H      80.07982277      66.47763779      80.97218721
H      81.84293742      64.12303882      82.52932169
H      83.33204174      66.25087064      80.36180561
C      89.61349202      68.25964971      85.21651250
O      90.29379349      70.34590757      84.49274733
N      91.36904775      66.98597417      86.66026340
H      91.18196486      65.14160130      87.11190799
C      93.58947618      68.23319355      87.80732728
H      93.03767610      70.11914040      88.42715752
C      94.33969753      66.84613443      90.18460298
H      96.34091769      67.19762352      90.51530508
H      94.03923104      64.85058344      89.76697347
C      92.93941032      67.56423043      92.57321705
H      90.92496208      67.14660091      92.66014445
H      93.08113979      69.60891430      92.79431501
C      94.03545159      66.52488096      95.05820715
H      92.77500414      67.32045573      96.47739161
H      95.77399980      67.56045097      95.44560104
N      94.70063525      63.77721889      94.96372082
H      96.41650673      63.35014075      94.23995565
C      93.53845356      61.87048505      96.08621826
N      91.45786490      62.21063579      97.39012941
H      90.85126274      60.72531091      98.42191998
H      90.49032503      63.85091823      97.50351299
N      94.41528658      59.54234222      96.00496003
H      93.33058367      58.15906256      96.75140192
H      96.06690737      59.16817641      95.12434756
C      95.80801487      68.52232167      85.98374139
O      97.81301449      69.39537522      86.74719082
N      95.48487167      67.55667152      83.73496708
H      94.13938653      66.20929667      83.62158350
C      96.90027668      68.04989009      81.44272906
H      98.74087010      68.84357515      81.92082981
C      97.46341512      65.54222327      80.20495833
H      95.68140321      64.51421215      80.11614119
C      98.34402757      66.02599320      77.47997298
H      96.77177529      66.67227960      76.31779130
H      99.22841949      64.44996147      76.48975640
H      99.81045520      67.47163384      77.44784763
C      99.31156746      64.13059771      82.00586749
H      98.51599268      63.86414630      83.88803491
H     101.06901293      65.20018282      82.11736136
C     100.11848059      61.50954732      80.92494404
H     101.64348973      60.48531566      81.85846885
H     100.78177453      61.72497612      78.98608486
H      98.36103512      60.44185196      81.02698926
C      95.60959361      69.97930066      79.63804043
O      96.86626161      71.67627488      78.68561837
N      93.09436788      69.81489446      79.25064654
H      92.06824649      68.41460727      80.04244185
C      91.92084784      71.63848035      77.42517091
H      92.97909458      71.93327767      75.68284325
C      89.14295017      70.73708090      76.82990713
H      87.85793627      72.23563388      76.24409198
H      88.24155071      70.15126575      78.58546287
C      88.91429328      68.48452715      74.97608561
O      90.28434486      68.27476753      73.14494082
O      87.29479783      66.89904677      75.36725896
C      91.68274233      74.25197184      78.54577861
O      91.81124372      76.05855021      77.11525581
N      90.96653606      74.56188696      80.93250295
H      90.59048052      72.82711821      81.63548114
C      90.48654557      76.84656607      82.49719634
H      91.01944839      78.45094371      81.31989684
C      87.75778078      77.05443598      83.40048552
H      87.88817189      78.24874300      85.07478303
H      87.29857727      75.18171720      84.12236097
C      85.66585375      77.94638679      81.52020784
H      83.76100962      77.64025113      82.24019356
H      85.86805446      76.57822495      79.99330897
C      86.16285176      80.58255499      80.49975563
O      86.41229564      82.11134359      82.23452439
O      85.83970857      81.13624481      78.23586350
C      92.37816161      77.08089215      84.67416106
O      92.86949044      79.18982671      85.47540500
N      93.57624809      75.11746650      85.60390639
H      92.90917470      73.40915392      85.07856248
C      95.20330245      75.08912061      87.84701154
H      96.50910332      76.68215989      87.81866564
H      96.30501289      73.35435186      87.97362320
C      93.69719058      75.37446927      90.30365574
O      91.42196010      74.87558153      90.38680369
N      94.89149760      76.42515710      92.31621427
H      96.77366502      76.73696195      92.25196357
C      93.65561659      76.89191951      94.83143999
H      91.62605054      76.61790919      94.60656256
C      94.21308586      74.59401232      96.42069982
H      96.25965946      74.46362120      96.61534163
H      93.48365150      73.00475248      95.33032773
C      93.13405214      74.49196710      99.17403106
H      93.91639883      76.04532212     100.27952095
C      90.33725718      74.86046373      99.31387080
H      89.29601799      73.21451210      98.64490768
H      89.68341188      76.59901194      98.42380970
H      89.88561261      75.08912061     101.30942179
C      93.57057891      72.00130782     100.56864907
H      95.56424018      71.50997897     100.72360663
H      92.60492876      70.39881990      99.70504414
H      92.90350552      72.14114756     102.51317744
C      94.10159201      79.38824797      96.34700048
O      96.30312317      80.09689533      96.78352727
N      92.10415130      80.73940228      97.09722183
H      90.39394898      80.12146178      96.51518613
C      92.33280817      82.89180056      98.83199058
H      94.32457971      83.29242254      99.17214133
C      91.20275185      85.21427420      97.46193902
H      90.34481609      86.62589974      98.69215085
H      89.75711122      84.57365698      96.14102031
C      93.39672410      86.55597988      95.88212781
H      94.09025365      85.13112623      94.56498858
H      94.96519694      87.18714847      97.05564785
C      92.03423142      88.64790690      94.54042214
H      93.35892956      89.82709612      93.48973431
H      91.34448132      90.03118656      95.90102508
N      90.05001879      87.97705407      92.68471089
H      89.63427901      86.11378391      92.63179855
C      88.93508027      89.70615364      91.26552643
N      89.37916594      92.12500332      91.51874976
H      88.16407193      93.41946585      90.81955103
H      90.67740792      92.76562053      92.76407940
N      87.06614095      89.00317544      89.81988581
H      86.50867168      90.11622424      88.37424517
H      86.36505247      87.22683272      89.88602622
C      90.99488195      82.36267718     101.36989303
O      89.16562688      80.93215437     101.39445947
N      91.86037660      83.48706435     103.47126869
H      93.59892481      84.24862404     103.26717824
C      91.15361895      82.74440191     106.08853963
H      89.60215366      81.38568869     106.09609854
C      93.48743096      81.46127773     107.34142818
H      92.96019732      81.10600919     109.30296409
H      95.10692641      82.72928409     107.26394939
C      94.14505571      78.84211706     106.09987799
H      93.51010767      78.80432253     104.13834207
C      97.03633697      78.31677314     106.18491568
H      98.14560632      79.65658910     105.08131550
H      97.30089865      76.39681121     105.48760667
H      97.63726994      78.44149508     108.15023103
C      92.54067808      76.94294211     107.42646587
H      93.31735559      76.67838043     109.31430245
H      92.39705887      75.18549665     106.36443967
H      90.57158326      77.49285248     107.67402000
C      90.44308187      85.04797828     107.68157891
O      89.13728099      84.71349672     109.61287921
N      91.14794978      87.33265739     106.91435004
H      92.40272805      87.40635672     105.47626830
C      90.16907155      89.78930159     107.66268166
H      89.67585299      89.86678038     109.66012237
C      92.22887323      91.68280737     107.28851585
H      92.34603627      92.35554993     105.34587720
H      94.03545159      90.97604972     107.97826595
C      91.37471694      94.07331115     108.67746468
H      90.05190852      93.61410765     110.18735600
H      90.54134764      95.22415448     107.18458090
C      93.61404262      95.54540794     109.57319495
H      95.01621954      95.58698193     108.06519335
H      94.43796329      94.55141190     111.17946231
C      93.05090417      98.31574672     110.23837862
H      91.80935399      98.43479948     111.87677132
H      92.10604102      99.41178799     108.77195099
N      95.43573878      99.62154761     110.82986296
H      95.14850039     101.49804583     111.03773284
H      96.84169516      99.27761741     109.58642303
H      96.02155394      99.02439408     112.54384472
C      87.76533968      90.17291604     106.21515129
O      87.48943964      89.31309056     104.05708384
N      86.00978394      91.71493270     107.37166379
H      86.43686208      92.69381094     108.95525445
C      83.85927539      92.70703903     106.06019374
H      82.71221152      91.18202989     105.28162650
C      81.90907784      94.22259953     107.72693234
H      82.78969029      95.94602993     108.43368999
C      79.86061452      95.31297161     106.08664991
H      78.56615199      96.62444167     107.00694662
H      78.73433763      93.82575700     105.21359635
H      80.79035986      96.57341906     104.74683394
C      80.67508656      92.61255270     109.95302994
H      82.20198542      92.09476770     111.23615410
H      79.71321586      91.07809495     108.97037226
C      78.67008694      94.05819333     111.63866581
H      78.42253279      93.17569115     113.48303870
H      76.85594968      94.37566736     110.71836910
H      79.69242887      95.82886690     111.89188914
C      84.88539678      94.32653448     103.80952970
O      86.74299774      95.74571893     104.04196604
N      83.59093426      94.49094066     101.62122662
H      82.29647173      93.13600689     101.26406836
C      84.04635830      96.19925324      99.42347492
H      85.11405367      97.87544048      99.96960583
C      85.96254078      94.88967292      97.49784382
H      87.85982600      94.71392837      98.28019051
H      86.17230040      96.22759914      95.94448879
C      85.05925160      92.27240197      96.53030395
C      83.12039241      92.17035675      94.64813653
H      82.52512861      93.94292004      93.82988503
C      82.35694298      89.78363241      93.67303775
H      81.21743801      89.82142694      91.97984297
C      83.34338011      87.53863755      94.62545981
O      82.74055741      85.12923650      93.72406037
H      81.91474702      85.37679066      92.12724163
C      85.08003858      87.64824169      96.73250466
H      85.66018457      86.02118732      97.81909728
C      85.90206954      90.05197356      97.57154314
H      87.26267248      90.18425439      99.08521391
C      81.53113258      97.06474791      98.20082200
O      79.48077953      96.04618541      98.80931388
N      81.69742849      98.89967216      96.50006831
H      83.42085889      99.51383320      95.95204768
C      79.60172200      99.36076537      94.65380572
H      77.84427654      98.64644883      95.45693940
C      79.27290962     102.31629732      94.20027140
H      77.57026622     102.71502958      93.11178904
H      80.96988386     103.13832828      93.36690210
C      78.74378626     103.80162221      96.70604848
H      80.35005363     103.80162221      97.99295211
H      77.15452644     102.82652343      97.57910205
C      78.00868272     106.52282809      96.24495527
H      76.60461608     106.64755003      94.74640231
H      79.69431859     107.53383168      95.63268394
C      77.09972437     107.75870910      98.76773990
H      78.41308416     107.28060835     100.28141067
H      75.29881520     106.86297884      99.20993585
N      76.64807977     110.59707803      98.41814053
H      75.03425351     111.12431167      97.54508698
H      78.07482315     111.27171033      97.34477599
H      76.67642568     111.60430215     100.03952570
C      80.12139674      97.83008706      92.33889097
O      81.90907784      98.03984668      90.92726543
N      78.07671287      96.53940399      91.70394294
H      76.56682155      96.42413068      92.86801435
C      77.77435666      95.31108189      89.25674736
H      79.54880967      94.63644958      88.45928285
C      75.92809406      93.02262332      89.80476799
H      74.08561090      93.78229330      90.33011190
H      76.73311747      91.83398546      91.28442370
C      76.02635983      91.24817031      87.63158273
O      78.08427178      90.24850509      87.05332649
O      73.99301431      90.73794421      86.73018329
C      76.59138798      97.05340954      87.07789293
O      76.34572357      99.30029413      87.67126698
N      76.27391397      96.22004023      84.61557953
H      76.50257086      94.35299065      84.29432607
C      76.66319759      98.05496448      82.51987306
H      78.40363552      99.09809341      82.87703132
C      76.73500719      96.57719852      80.00086788
H      76.76902227      97.96614736      78.47963820
C      78.91764108      94.77062016      79.71362949
H      79.05559111      93.60654874      81.40871398
H      80.70343245      95.78351346      79.87425622
H      78.67008694      93.72938095      77.95429429
O      74.57127057      94.99738731      79.77221099
H      73.42231697      95.74571893      78.58546287
C      74.37851848      99.84264558      82.31200316
O      74.56938084     101.93457260      81.21596189
N      72.29226062      99.05462970      83.51575883
H      72.51524834      97.26127944      84.13369933
C      69.96411781     100.40578403      83.73118762
H      70.02836851     101.83252739      82.24775246
C      67.64353390      98.69936116      83.22852042
H      66.10529668      99.94847026      82.65782308
H      67.10874136      97.59009181      84.87825150
C      68.05549423      96.94380541      80.93439267
H      66.23379807      96.05374432      80.56778578
H      69.24602182      95.43013464      81.66949622
C      69.02870329      98.36298987      78.57601425
O      70.72756724      97.10254242      77.39871475
O      68.07817095     100.42657102      77.82012371
C      69.63908489     101.80985068      86.30310514
O      67.76636611     102.90967138      87.08923129
N      71.77447562     101.82685821      87.64481081
H      73.20499844     100.67601489      87.12135663
C      72.34328324     103.32163173      89.91626185
H      70.82583301     104.70113194      90.09956529
H      74.16875886     104.21736200      89.59500837
C      72.09005991     101.81740957      92.38424441
O      73.18988063     102.69046314      94.25318373
N      70.75969259      99.78406406      92.45416428
H      69.95844864      99.34753729      90.77797705
C      69.64853351      98.46692483      94.57065776
H      68.49202102      99.81807914      95.60811750
C      67.97612573      96.22759914      93.80342888
H      67.36952358      95.28084626      95.52874900
H      69.19499921      94.78951742      92.97194930
C      65.61774729      96.54507317      91.90992310
C      64.47446288      94.52873519      90.64380647
H      65.28326574      92.66357532      90.81955103
C      62.74536330      94.97282087      88.78431578
H      61.86853029      93.45537065      87.73362796
C      61.95356797      97.48237742      88.08700677
O      60.51170679      97.84709460      86.03098454
H      60.20557113      99.61965788      85.78532012
C      62.87764413      99.53839964      89.55532411
H      62.34285159     101.50182528      89.38146929
C      64.58406700      98.96392284      91.56410318
H      65.18311024     100.61176420      92.60345266
C      71.71211464      97.56741510      96.36778748
O      73.72845263      96.71892799      95.41914486
N      71.36251529      97.42946507      98.84899813
H      69.73168148      97.92646310      99.70693388
C      73.12940939      96.28429094     100.64045867
H      75.01346652      96.97971021     100.18125517
C      72.70233124      97.00427665     103.21426590
H      73.67176084      95.72115249     104.50305926
H      70.71244943      96.76050197     103.68480777
C      73.62451768      99.60831952     103.79441188
C      71.91431537     101.49237666     104.44258802
H      69.92254383     101.09553413     104.65990654
C      72.77981002     103.96224894     104.98682920
H      71.48723722     105.35119778     105.74271971
C      75.39519123     104.59341754     104.75250313
O      76.21722218     106.90077335     104.99816755
H      74.75079457     107.95524065     105.16068402
C      76.99956888     102.69235287     103.91346465
H      78.86850820     103.19879952     103.27095769
C      76.22289136     100.19602441     103.41079745
H      77.61939910      98.81463446     102.85521790
C      73.03870253      93.46103983     100.35133054
O      71.11307140      92.16090811     100.54975180
N      75.29314602      92.44247734     100.10566612
H      76.76713254      93.58387203      99.69559552
C      75.68242964      89.86867011      99.37812150
H      74.14797187      88.59877402      99.90913459
C      75.87518172      89.92347217      96.51707586
H      77.54947922      91.03463124      96.06543127
C      75.86195364      87.35344437      95.25662841
H      74.10261844      86.46338329      95.85000246
H      77.57026622      86.20827024      95.35111473
H      75.84494609      87.60666771      93.21194454
O      73.69254783      90.98738807      95.54008735
H      73.46011148      92.73160547      95.98039359
C      78.08994096      88.61767129     100.54975180
O      79.86439397      89.87244956     101.51162250
N      78.39229717      86.05520241     100.41936069
H      77.00901751      85.10655979      99.51040234
C      80.52768789      84.87412346     101.66091088
H      82.17552925      86.08543803     101.41146700
C      80.15730155      84.36956652     104.60888393
H      79.39574184      86.04953323     105.52729092
C      77.98033683      82.39291280     104.89045315
H      76.18509684      83.20360539     104.28007154
H      77.64963472      81.64269146     106.77828974
H      78.48300402      80.78286599     103.70748448
C      82.52134916      83.43982118     106.00728140
H      84.02368157      84.54531108     105.13611757
H      82.79913893      81.41970376     105.70492519
C      82.58371013      83.86311987     108.91934965
H      80.67886601      83.61178628     109.65634292
H      83.25456297      85.78308182     109.25383121
H      83.73833291      82.37023609     109.74327032
C      81.05870100      82.33811074     100.14535037
O      79.47133090      81.32521743      98.82065224
N      83.37361573      81.32143799     100.37400726
H      84.84760225      82.10000523     101.30186288
C      83.91596718      78.89313968      99.22883312
H      82.32859708      77.64592031      99.63701399
H      85.51845510      78.18071285     100.30786683
C      84.44698028      79.14825273      96.34700048
O      86.10049079      80.46539196      95.56654353
N      82.93897868      77.64592031      95.06387632
H      81.62750862      76.79743319      96.16180730
C      82.99944991      77.20561407      92.30487590
H      84.38272957      78.30165534      91.24662917
C      83.93486445      74.40692940      91.74362719
H      82.24733885      73.23340936      91.88724638
C      85.05547215      74.55999723      89.01864184
H      86.52001003      76.00941733      89.08667199
H      83.82526032      75.48596314      87.65048000
H      85.86805446      72.81955930      88.27786914
C      85.92474625      73.39592583      93.62957404
H      84.85705089      72.79121342      95.28308458
H      87.41007114      74.73952123      94.11145426
C      87.26645194      70.82211860      92.97383902
H      88.06769589      69.96607257      94.66892352
H      88.75177681      70.99786314      91.55843401
H      85.93041543      69.38970604      92.33700125
C      80.46154748      77.96150461      91.28253396
O      79.34282950      76.79932292      89.57422139
N      79.41652883      80.06665972      92.38424441
H      80.22533169      80.52397348      94.05287275
C      77.16586479      81.58788940      91.72284020
H      76.73500719      81.71450107      89.71028168
H      77.96710875      83.45871845      92.04787312
C      74.84339114      81.52552843      93.42926307
O      72.85539907      82.37590527      92.70360816
N      75.02669461      80.37657483      95.60244833
H      76.71799965      80.16114604      96.46227380
C      73.02925389      80.00429874      97.35422461
H      71.48912695      78.84778624      96.62479025
C      73.81538004      78.63046771      99.79197156
H      75.21755696      79.83800283     100.69526074
H      74.83394252      76.99396474      99.06820637
C      71.83683659      77.82544431     101.75539720
N      70.63875010      75.46328641     102.11255547
H      70.78992821      74.02898414     100.86155665
C      68.78303887      75.76753236     103.84732422
H      67.55093731      74.22929514     104.38022704
N      69.06082864      78.10323408     104.84698944
H      67.94211066      78.72495403     106.26239445
C      70.81260493      79.46572674     103.40890771
H      71.36629473      81.38001951     103.84921396
C      71.64030505      82.36645664      98.28019051
O      72.63619082      83.79697945      99.95070857
N      69.35184649      82.84455739      97.38446024
H      68.59406623      81.56899214      96.18637376
C      68.10462711      85.20104611      97.91547332
H      69.29137524      86.83943883      97.52807943
C      65.68577744      85.61300644      96.32432378
H      64.65209714      83.83099454      96.30731624
H      66.11096586      85.68670576      94.30987552
C      64.03037719      87.89579583      96.82510125
H      63.35574490      87.68981566      98.76018099
C      65.47601782      90.35621948      96.30164705
H      66.26025424      90.09732698      94.41381047
H      67.08606463      90.75495174      97.52241026
H      64.38564573      92.07587043      96.60967245
C      61.55105626      88.04319449      95.24717978
H      60.67611299      89.90646462      95.26985648
H      60.41911020      86.50495727      96.01818811
H      62.05183374      87.54997592      93.31021030
C      67.60951882      85.46182834     100.79352650
O      66.55883099      83.71383149     101.99728217
N      68.37674770      87.52351975     102.03507670
H      69.28381633      88.91435832     101.09588272
C      67.54904758      88.12823217     104.68447299
H      66.91976872      86.44637574     105.69169711
C      69.92821301      89.26773714     106.12255470
H      69.33105950      89.74394817     108.03495774
H      70.54993297      90.92313739     105.06430797
C      72.18454623      87.43470260     106.22271019
H      72.94988539      87.12856695     104.33487361
C      74.53725549      88.94081449     107.30930283
H      74.28970134      88.98805764     109.35398671
H      74.76024320      90.76251065     106.37199857
H      76.22856053      87.82587596     106.93891648
C      71.66676122      85.10467007     107.71559398
H      73.28625667      83.83288425     107.74016042
H      70.10584729      83.93492948     107.05041033
H      71.39086117      85.42592353     109.73193197
C      65.45523083      90.10677562     105.01895454
O      63.85085319      89.71560227     106.64222944
N      65.47412809      92.05886290     103.54874746
H      66.78181869      92.43113899     102.21082123
C      63.35763461      93.94292004     103.41835636
H      61.54916653      93.03396168     103.04041108
C      63.13842637      95.59265111     105.76917589