 %block lattice_cart
   139.898   0.000   0.000
   0.000 144.87   0.000
   0.000   0.000   168.12
 %endblock lattice_cart

 %block positions_abs
N      92.39989347      41.66458644      84.40204047
H      92.54918184      41.64379945      86.30310514
H      94.15355948      41.19971377      83.80866641
H      91.21125562      40.26429924      83.87858628
C      91.50416319      44.21004778      83.62158350
H      92.62666062      45.53852538      84.72518367
C      91.98793313      44.51429372      80.78699403
H      90.65189663      43.30675861      79.78543908
H      93.86065191      43.79052854      80.33345972
C      91.58920088      47.34510374      79.83457197
H      89.58231153      47.80808668      79.79299799
H      92.05407355      47.10321877      77.84469016
S      93.51672172      49.83198357      81.04399681
C      91.91045435      52.16579556      79.13159378
H      89.95080816      52.17524419      79.75898292
H      91.81218858      51.65745918      77.13793252
H      92.80996408      53.94591775      79.64748906
C      88.70169907      44.42358686      84.04488219
O      87.28818379      42.58866261      83.45150813
N      87.94013937      46.58732349      85.20328442
H      89.05885734      47.94603671      85.94216741
C      85.13200607      46.76684749      85.73051807
H      84.27029087      45.57443018      84.29054662
C      84.54052173      45.70671102      88.25141297
H      85.51751023      43.89824294      88.09645541
H      82.54308102      45.36467056      88.62368905
C      85.67246779      47.07109342      90.43026741
O      85.69892396      49.43703077      90.54743044
N      86.32253364      45.82387406      92.48439991
H      86.88000291      46.89912833      93.96027616
H      85.87844796      43.97005254      92.60345267
C      84.24005525      49.68836437      85.45461802
O      85.86144042      51.29085228      85.23540977
N      81.85711037      50.36488639      85.70406190
H      80.50028687      49.03829851      85.90815234
C      80.73461294      52.89900937      85.56989133
H      81.09366094      53.46592727      83.61969377
C      77.88112620      52.69491893      85.90059343
H      77.30664940      51.06408512      84.78187546
C      77.03074936      52.16012638      88.68605002
H      75.10133880      51.46092765      88.49140821
H      77.14413294      53.83064444      89.88413650
H      78.04931185      50.64456588      89.64225153
C      76.51863353      54.94747270      84.76486792
H      77.32176721      56.61988048      85.66059819
H      74.51930309      54.75661034      85.21651251
C      76.69059863      55.24038027      81.86413803
H      78.63512700      55.02684120      81.21785163
H      75.93848755      57.08475316      81.34257357
H      75.46794570      53.82875472      80.99108447
C      81.86655900      54.87188364      87.38780804
O      82.13112068      57.02428191      86.63569697
N      82.90779820      54.17457463      89.70839195
H      83.06275575      52.29240723      89.98807145
C      84.27218059      55.86965914      91.32977713
H      83.20448523      57.62143543      91.50363195
C      84.31375457      54.83597884      94.08121864
H      85.46837735      53.13144571      94.18893304
H      82.35032893      54.31441438      94.41192075
C      84.92413617      56.45169484      96.49250942
C      84.36288746      59.08408359      96.60778272
H      83.41613457      59.90611454      94.99773590
C      85.03751975      60.55240094      98.59766453
H      84.88634165      62.58763618      98.57309809
C      86.31308501      59.46958776     100.62156141
H      87.06897554      60.74326330     102.02373834
C      86.83464947      56.84664764     100.65179703
H      88.14045036      56.19658179     102.07854040
C      86.24316514      55.36132276      98.53908302
H      87.07275499      53.50183207      98.41058163
C      86.92535634      56.79373530      90.40381124
O      87.94202909      58.69479997      91.12946614
N      88.02139760      55.20825493      88.85612539
H      87.12188787      53.52828823      88.76541852
C      90.35331987      55.57108238      87.40670531
H      91.44936113      57.03562027      88.35723764
C      91.78951187      53.09176146      87.21395322
H      93.49215527      53.60009783      86.16704484
H      90.66323498      51.72170988      86.16326539
C      92.55107157      51.81052702      89.63469263
H      93.86443136      50.28173843      89.21139393
H      90.92023776      51.03007005      90.62679894
C      94.16867729      53.28451354      91.52252921
O      93.57908269      53.15034297      93.82232614
O      95.90722550      54.69235964      90.64002703
C      90.05285339      56.48570991      84.74975011
O      91.89911599      57.62143543      83.68205474
N      87.82486606      56.23815577      83.51386910
H      86.52473436      55.31407960      84.56077748
C      87.19558720      57.26994633      81.08746051
H      88.85665663      57.20947509      79.86858704
C      85.14145470      55.57864128      79.99519871
H      83.52951815      55.60131800      81.27643315
H      85.90490413      53.67379716      79.80622607
C      84.22871689      56.53484280      77.45729627
H      85.72160068      56.30429619      76.05889880
H      83.64857091      58.50771707      77.55556204
S      81.62656376      54.79440486      76.15527484
C      81.28263357      56.04918314      73.00888053
H      79.90880254      54.83030966      72.07157628
H      83.24227975      55.99816053      72.37204276
H      80.52107386      57.95591699      73.15816891
C      86.47938093      60.06107210      81.29344068
O      87.31841941      61.71647235      79.98008090
N      85.06397592      60.79239618      83.33056565
H      84.33454156      59.44313159      84.46629116
C      84.58965461      63.53438906      83.90126299
H      84.25706278      64.62854060      82.18728123
C      82.20482001      63.69312607      85.52642762
H      82.29741660      65.35797496      86.73585246
H      82.16324603      62.00182102      86.70561684
C      79.81431622      63.95201858      83.89559382
H      78.24395366      64.22791863      85.19761525
C      79.90313336      66.45590594      82.61057992
H      80.68736978      66.31039702      80.71329470
H      81.08043285      67.84485478      83.57623007
H      77.95293580      67.10597179      82.50475525
C      79.27196477      61.72592098      82.11358190
H      79.63290250      59.91745290      83.02442999
H      80.67981087      61.70702372      80.60747003
H      77.30475968      61.84875319      81.52209757
C      86.85732619      64.95357352      85.15037209
O      86.88378236      67.26659853      85.06911386
N      88.75083196      63.56273496      86.00074893
H      88.82264156      61.70324426      85.57745023
C      90.89756105      64.78160843      87.26119638
H      90.32686370      65.89276750      88.89769937
C      92.52083595      62.65566633      88.52542328
H      93.67167927      61.57285315      87.20828404
H      91.21503507      61.47647711      89.59500838
C      94.33119376      63.74792813      90.65136538
H      92.93468601      64.48114194      91.97606353
H      95.65211245      65.15577425      89.93326939
C      95.91667413      61.77127441      91.87968749
H      96.89744209      62.65755605      93.45760896
H      97.38877093      61.24970995      90.53609208
N      94.62599106      59.60942751      92.91525751
H      95.07385620      58.02961631      91.94204846
C      93.11798946      59.61509669      94.95805165
N      92.68146269      61.49537437      96.36211830
H      92.02950711      61.24404077      98.13846104
H      93.59420050      63.13376708      96.00118058
N      91.73470980      57.60064844      95.68937574
H      90.77850829      57.58931008      97.34099653
H      91.77817351      55.96981463      94.70104887
C      92.57563801      66.55606144      85.56233242
O      93.79451148      68.01115071      86.80955179
N      92.41501128      66.34819154      82.99419436
H      91.56274471      64.77027007      82.34034906
C      93.59609022      68.01115071      81.09879887
H      94.59953489      69.47757832      82.14003807
C      95.55006723      66.39165525      79.60402536
H      96.54784272      67.79383218      78.47585875
C      97.64577371      65.51482225      81.46351605
H      97.13176815      64.03327681      82.79766283
H      98.25993476      67.15510468      82.54821895
H      99.32007122      64.78727761      80.50353508
C      94.67134449      64.25059533      77.88437441
H      93.17279153      63.14132599      78.76498688
H      96.24170706      63.04872940      77.30800789
C      93.84553410      65.40521811      75.42395075
H      95.20046786      66.79227724      74.73042120
H      91.94068997      66.19323399      75.43528911
H      93.92490260      63.79517129      74.13893686
C      91.74982761      69.41332762      79.43772944
O      92.53217431      71.34273820      78.40593888
N      89.33097793      68.67444463      79.31111778
H      89.06641625      67.24581154      80.54510906
C      87.23338173      69.74214001      77.86736688
H      87.87021949      70.37141887      76.01165564
C      85.21515402      67.54816775      77.54044423
H      83.30464072      68.31917609      77.59524629
H      85.20192594      66.23102851      79.12214515
C      85.67246779      65.98536409      75.09135892
O      84.37800527      64.00493091      74.71719311
O      87.33542695      66.83196148      73.54934225
C      86.09576649      71.97012732      79.43772944
O      85.01862249      73.57828442      78.17350254
N      86.08631785      71.90020745      81.90193256
H      87.05763718      70.41677229      82.61246965
C      85.10554990      73.91843515      83.61969377
H      84.91846699      75.70422652      82.61057992
C      82.39379264      73.17766245      84.26409045
H      82.57331664      71.50903410      85.45461802
H      81.36389180      72.34807259      82.68427925
C      80.87634241      74.93321818      86.02531537
H      82.11978232      75.38108332      87.60701629
H      79.21338325      73.86363309      86.60357162
C      79.73305799      77.31805279      84.76297819
O      78.19482077      76.99868904      82.87136215
O      80.21871765      79.42131818      85.75697423
C      86.72882480      74.36252083      85.92327015
O      87.12944678      76.59239788      86.63758670
N      88.04029486      72.45011781      87.00608333
H      87.53195848      70.68133399      86.50341613
C      89.67868758      72.75058430      89.17359941
H      90.86921515      74.40598454      88.88258156
H      90.88055351      71.07817650      89.20950421
C      88.45414492      72.89987267      91.87212858
O      86.11277402      73.12663983      91.94015873
N      89.89033692      73.04727132      93.94326862
H      91.72337145      73.52915153      93.72217064
C      89.06830598      72.88475486      96.51329641
H      87.01228375      72.93955693      96.61534163
C      89.62388551      70.31283735      97.63768356
H      91.64022349      69.91788456      97.47138765
H      88.75650113      68.84074055      96.48684024
C      88.70736825      69.64198451     100.32109493
H      88.79618539      71.30872311     101.52863004
C      86.02017743      68.46468501     100.16424764
H      86.12033293      67.04361083      98.67703304
H      84.90712863      70.15599006      99.77874348
H      85.40979583      67.69367668     101.97271573
C      90.38355549      67.54627802     101.46626907
H      89.51239166      66.92833752     103.22749400
H      92.21470029      68.33807336     101.97649518
H      90.57819730      65.92867230     100.20582162
C      89.92813145      75.15242643      98.10255624
O      91.93691052      75.08250656      99.25339956
N      88.45414492      77.15553633      98.24617544
H      86.66268438      77.11207262      97.59233013
C      88.97192993      79.75202028      99.28552491
H      91.00716517      79.88052167      99.56709413
C      88.42957848      81.65875414      97.20871569
H      87.95336745      83.49367839      98.01373910
H      86.80441385      80.95955539      96.15235868
C      90.79173637      81.75324045      95.60811750
H      91.59109060      79.93721346      95.06198660
H      92.32619414      82.52991797      96.74384302
C      90.75394185      83.51257564      93.40091717
H      92.66634488      83.60328251      92.63935747
H      90.39678357      85.48167047      93.89224601
N      89.12877722      82.52802823      91.27308534
H      88.48438055      80.78192112      91.69260458
C      88.12155309      83.57115716      89.23029120
N      88.61666139      85.86528491      88.55754863
H      88.05163322      86.44921034      86.82844905
H      89.78262252      86.81392751      89.73295840
N      86.71181726      82.28047409      87.69961288
H      85.78585137      83.03825434      86.21239828
H      86.62866931      80.43232176      88.16259583
C      87.60754754      80.27736419     101.80075063
O      85.22838211      80.66286837     101.83476570
N      89.06830598      80.10728883     103.90023657
H      90.95803229      80.01469224     103.65268242
C      88.21414968      80.34350463     106.65923698
H      86.39623297      79.39297228     106.85387879
C      90.18324450      79.13030033     108.39967492
H      89.76939444      79.15486677     110.41790262
H      91.91045435      80.25090804     108.36943930
C      91.03929052      76.29949031     107.88377963
H      92.37721675      76.30515948     106.31908625
C      92.41123182      75.23935384     110.15145121
H      94.05151426      76.42421225     110.52750674
H      93.27105730      73.39876043     109.81507992
H      91.30952138      75.29037646     111.89377887
C      88.85665663      74.44377908     107.46803984
H      87.35621394      75.25447166     106.31719652
H      87.77006400      74.11685642     109.18769079
H      89.52561974      72.62208290     106.77073083
C      87.74549756      82.92865022     107.67779946
O      87.19747693      83.27258040     109.89822788
N      87.64723179      84.68420596     105.86933138
H      88.08564829      84.17775930     104.08165029
C      86.80441385      87.38462487     106.40034448
H      85.74238767      87.40919131     108.16534885
C      89.12877722      89.11372443     106.94458566
H      90.23048766      89.36505804     105.22115526
H      90.51016715      88.22555307     108.18613584
C      88.31430518      91.85382759     107.61165904
H      86.85354674      91.86894541     109.06107913
H      87.54707629      92.86483118     105.98838414
C      90.90700968      93.17852573     108.51872767
H      92.35642976      93.11994422     107.05796923
H      91.61376732      92.16941188     110.16845875
C      90.24182602      95.87894463     109.26327984
H      88.55619015      95.63894939     110.42357180
H      89.85065267      96.82758724     107.47559875
N      92.47548252      97.06191331     110.69758211
H      94.17056702      96.64428380     109.92468405
H      92.84208942      96.17941113     112.34920291
H      92.17879549      98.90061701     111.10576300
C      85.09232181      88.17642018     104.32920444
O      85.46270817      87.44509611     102.15412945
N      83.21960304      89.80725399     104.84132027
H      82.92669546      90.47432739     106.60632465
C      81.35822262      90.71243290     102.89679189
H      80.34532932      88.95687716     102.53018499
C      79.59699770      92.80435992     103.96070781
H      80.71193622      94.19519849     104.99438810
C      77.99828923      93.91551900     101.78563282
H      76.95516031      92.46987838     100.75006280
H      79.13779420      94.91329450     100.38912508
H      76.51674381      95.23076851     102.34688154
C      77.88868511      91.61383235     105.90334646
H      79.01496199      90.45165066     107.18080144
H      76.47139037      90.41196641     105.01328536
C      76.68681917      93.43552851     107.74016043
H      78.07198856      94.12338890     109.09887365
H      75.06543400      92.59649003     108.69825167
H      76.20304924      95.12494384     106.66679589
C      82.62622898      91.62517070     100.59699497
O      84.53863200      92.97065585     100.65368676
N      81.66435828      90.81258840      98.36333847
H      80.01084776      89.86394578      98.46727342
C      82.39946182      91.63272961      95.81409767
H      83.09488110      93.54702237      96.12401279
C      84.53107310      89.90551977      94.64435708
H      85.99750072      89.46332380      96.02385729
H      85.56475339      90.88061855      93.15336302
C      83.51251062      87.36761732      93.77130353
C      83.04385849      86.86872958      91.19371684
H      83.38211950      88.32192911      89.80287827
C      82.13112068      84.49901278      90.34522972
H      81.49995209      84.07382437      88.44983423
C      81.64546102      82.57149194      92.03275532
O      80.59288346      80.32082790      91.20694492
H      80.63256771      80.35673270      89.39469739
C      82.17080493      83.00801872      94.64813654
H      82.04041382      81.40175135      95.90291481
C      83.03629959      85.36072798      95.44371131
H      83.36889142      85.56103898      97.44871093
C      79.95415597      92.25822902      94.26830155
O      77.81876523      92.18452970      95.18292908
N      80.33966014      92.97254557      91.89102585
H      82.08765698      93.45253605      91.29387233
C      78.41780848      93.19742300      89.89169541
H      76.70760616      92.77601404      90.96317023
C      78.15513652      95.96209260      88.79565415
H      76.93626305      95.80524532      87.14403335
H      80.03352447      96.61026872      88.24385406
C      76.64524519      97.87260591      90.32444273
H      77.30475968      98.13716758      92.25763275
H      74.73284217      97.18096607      90.64569621
C      76.42792667     100.17807200      88.67471166
H      75.47172515      99.55257259      86.95884017
H      78.23828448     100.93774197      88.04732253
C      74.91992507     102.41739768      89.75563511
H      76.18226225     103.22242109      91.17104012
H      73.12846453     101.64827908      90.42270850
N      74.58922297     104.39594113      87.83756290
H      73.82388381     103.97831161      86.13680922
H      76.24840267     105.15372138      87.28576282
H      73.55743240     105.82457422      88.56699726
C      78.72016469      91.31903504      87.84512181
O      80.80642254      90.75778633      87.13269499
N      76.62067875      90.37984106      86.84167714
H      74.95582987      90.97321514      87.56355259
C      76.58099450      88.87183948      84.56266720
H      77.82065496      87.24100566      84.76864737
C      73.72183859      88.08193388      84.41526855
H      72.94705080      89.85260743      83.70851091
H      72.79398297      87.72666532      86.21995718
C      73.17570768      85.94465342      82.63703609
O      73.36468032      86.40574663      80.30322409
O      72.49918566      83.79603460      83.30599921
C      77.31420831      90.40062805      82.18728123
O      77.66002822      92.72688114      82.56900594
N      77.43326107      89.30836625      79.90449184
H      76.78319522      87.51501597      79.96496308
C      77.56743164      90.72755072      77.47430380
H      78.65780372      92.46798864      77.62548191
C      78.66158317      89.07404019      75.32946444
H      78.80142292      90.13984583      73.57012924
C      81.32042809      88.53924764      76.15338511
H      82.40324127      87.74745232      74.59247118
H      81.37334043      87.18809332      77.70862987
H      82.42213853      90.21921434      76.59747079
O      77.45404806      86.73077955      74.86459177
H      75.88368549      87.16730634      74.06712726
C      75.02197029      91.86138650      76.65605231
O      75.02008057      93.53001484      75.09135892
N      72.90736655      91.07337062      77.86358742
H      73.10389808      89.82993071      79.29977942
C      70.33544904      92.05224885      77.45540654
H      70.00663666      92.56625442      75.48631172
C      68.30588298      90.10961020      78.19806898
H      68.27186790      90.00189581      80.25598094
H      68.93894129      88.20665580      77.72374768
C      65.64325860      90.34582599      77.20785239
H      64.52076117      91.68186249      78.30200393
H      64.62469612      88.62806477      77.71429905
C      65.45995515      90.38928971      74.29200469
O      65.07634071      88.50901201      72.92195312
O      65.62814079      92.50767289      73.44162785
C      69.95939350      94.54479786      78.98986431
O      68.25675009      96.12649878      78.47207930
N      71.68282390      94.84715407      80.90037761
H      73.19082549      93.67930322      80.87392144
C      71.90392188      97.23576814      82.39704085
H      71.10456764      98.86471221      81.42005235
H      73.94482629      97.37749761      82.64081554
C      70.60945935      97.16206880      85.01431179
O      70.70394567      99.10470745      86.45995242
N      69.56633043      94.84148490      85.60390640
H      69.77042087      93.53946346      84.22251647
C      68.46084053      94.16874232      88.05677116
H      67.53109519      95.90162136      88.66715276
C      66.44261283      92.25067011      87.55788341
H      65.43538871      91.90673992      89.32099806
H      67.36668900      90.45920957      87.13647444
C      64.35257553      92.85727227      85.84579137
C      63.06756164      90.79180141      84.87069259
H      63.90471039      88.94553880      85.09745975
C      60.91327364      91.03557610      83.31166838
H      59.91549815      89.37639640      82.66538199
C      60.07990433      93.47899222      82.71640460
O      58.00309512      93.75678199      81.33690439
H      57.24342514      95.40462333      81.30477904
C      61.24775520      95.63328021      83.80866641
H      60.50698248      97.51733735      83.54599445
C      63.46629389      95.31580619      85.28832211
H      64.45084130      97.00522152      85.86846809
C      70.40347918      93.28246068      90.06177077
O      72.44249387      92.61727702      89.45138918
N      69.89514280      93.49599975      92.56754787
H      68.09045418      93.84559913      93.08155342
C      71.64502937      92.76467568      94.68404134
H      73.51396869      93.36182919      94.06421111
C      70.72662238      94.31614097      96.93092592
H      71.80376638      93.48655113      98.48050150
H      68.71973304      94.01189504      97.27296639
C      71.31999644      97.14128181      96.74195329
C      69.57577906      98.73810055      95.63268395
H      67.72195754      98.08425525      95.08277359
C      70.15025586     101.30056943      95.29253321
H      68.67626933     102.39094152      94.39491321
C      72.46895004     102.32102165      96.15613813
O      73.02075013     104.92128504      95.82543603
H      71.50707935     105.74142627      95.25851814
C      74.27174895     100.62404742      97.07643485
H      76.13879854     101.38938656      97.38257051
C      73.64435981      98.05212990      97.58666095
H      75.13913332      96.91451466      98.38412546
C      71.61290402      89.94520402      95.25662841
O      69.56066125      88.87939837      95.61000723
N      73.85978861      88.64129286      95.15269346
H      75.52274776      89.52946422      94.85789616
C      74.14135783      85.89363080      95.70449355
H      72.33855893      85.00923889      96.15991759
C      75.01063193      84.64452170      93.25540824
H      75.63046216      82.74345704      93.75051654
C      72.62012815      84.08705244      91.81732652
H      73.12468507      83.44643522      89.92571048
H      71.76219240      85.94276368      91.57544155
H      71.26141493      82.76613375      92.62612938
O      76.89468907      85.79347530      91.85512105
H      78.46505163      85.30214646      92.62046020
C      75.84967042      85.61962048      98.03074664
O      77.03641854      87.41486048      98.98127897
N      75.99517934      83.18565299      98.93025636
H      74.76307779      81.86851376      98.30475695
C      77.80553715      82.17086997     100.78974705
H      79.71038127      82.95510638     100.75384225
C      76.74918014      82.40519603     103.45237143
H      76.16147526      84.37240112     103.59977008
C      74.42292705      80.65719918     103.74905846
H      74.61756886      78.63141258     103.42402553
H      72.91114600      81.44332533     102.59443568
H      73.95049547      80.64019165     105.75594780
C      78.49150780      81.87040348     105.70870465
H      79.32298738      80.04303813     105.24194225
H      77.51640902      81.80615278     107.52095218
C      80.50595605      83.76012979     105.98838414
H      79.93714843      85.72922461     105.77106561
H      81.75884460      83.43887632     104.38589623
H      81.29397192      83.50879620     107.87622073
C      78.54630987      79.37407502     100.06031270
O      77.04019799      78.25535704      98.72994537
N      80.70815677      78.23079061     100.81431350
H      81.93269942      79.37029556     101.73272048
C      81.32798700      75.48879772     100.50250865
H      79.94092788      74.27181397     101.41524646
H      83.22716194      75.35084771     101.28485535
C      81.86844872      74.76503254      97.71516234
O      83.32164826      76.20311426      96.41503064
N      80.57776565      72.71845895      96.87612386
H      79.47227576      71.66021222      98.01751855
C      80.36233685      72.12886434      94.02263713
H      81.91191243      73.01136652      92.99084656
C      80.56831702      69.28482623      93.26863633
H      79.12645584      68.04705551      94.06988028
C      80.26785054      68.91255015      90.43971604
H      78.26285092      68.73491587      89.99752008
H      81.12578628      67.13809714      89.84445225
H      81.30531028      70.36574968      89.41170492
C      83.19881605      68.37964733      94.05854193
H      83.91313259      69.67599958      95.49284420
H      84.63122859      68.74814396      92.62423966
C      83.31408935      65.58285238      94.76529957
H      82.24828371      64.57373853      93.31965894
H      82.53552211      65.34852632      96.65880533
H      85.17924922      64.70790910      94.72372559
C      77.83955222      73.20033915      93.15714248
O      76.00462797      71.79438278      93.51996993
N      77.67136658      75.47745936      91.95338681
H      79.29653121      76.46956567      91.83055460
C      75.43582035      76.59239788      90.73262362
H      74.83866684      75.43966484      89.13202543
H      75.83455261      78.48968310      90.03720433
C      72.92437408      76.69444311      92.21416905
O      70.78898335      76.44877869      91.30521069
N      73.03397821      76.82672396      94.69537969
H      74.70638600      77.06105002      95.58544079
C      70.76819636      77.04971166      96.40180256
H      69.13736255      76.01414163      95.69126546
C      71.30487863      75.85729435      99.05119885
H      72.65036377      76.99679932     100.11700449
H      72.09100478      73.95433995      98.97560979
C      68.96539746      75.62296829     100.54219291
N      67.41204243      73.51025427     100.76896006
H      67.47062394      72.11374652      99.47071809
C      65.43727843      74.07906189     102.21838015
H      63.67983296      73.05671996     102.38089661
N      65.65459696      76.54515473     102.81742339
H      64.32422963      77.64686517     103.62433652
C      67.78998769      77.54293022     101.77051501
H      68.15659460      79.54792984     101.89334722
C      69.74018525      79.69343876      96.54920121
O      70.78142445      81.27702941      98.00618019
N      67.57455889      80.04303813      95.19048799
H      66.93016222      78.52558791      94.23050702
C      66.24419157      82.48834399      95.06765578
H      67.52731573      83.95477160      94.39869266
C      63.95384328      82.33338642      93.24784934
H      62.80299995      80.72900878      93.83744395
H      64.69083654      81.95922061      91.36001275
C      62.25497932      84.60861690      93.26674660
H      61.62381073      85.07726904      95.16970100
C      63.54377267      86.81392751      92.02897587
H      62.16238273      88.34082638      92.11779300
H      64.21273578      86.53802748      90.10334475
H      65.10090715      87.45265502      93.21572399
C      59.82101183      83.86595446      91.88346694
H      58.93661992      82.33527616      92.94171368
H      60.25375916      83.34816946      89.93704884
H      58.79866989      85.65363557      91.88913612
C      65.32389485      83.47667085      97.66980891
O      64.19194879      81.94788227      99.09277282
N      65.67160449      85.88607189      98.36333847
H      66.43883338      87.09927619      97.10856020
C      64.98752357      86.93675973     100.77462924
H      63.96518163      85.58560542     101.94436983
C      67.27409241      88.19720717     102.12767328
H      66.66937999      89.52946422     103.57709337
H      68.27186790      89.30836625     100.71037855
C      69.23751805      86.29236306     103.09710288
H      69.83089211      84.96388545     101.63634444
C      71.34834234      87.95154275     104.04385576
H      72.70705556      86.85172205     105.13611757
H      70.57166482      89.48411079     105.17769155
H      72.34044865      88.92475180     102.52262608
C      68.04321102      84.75790528     105.35343610
H      66.65615190      83.47856057     104.53140515
H      67.23818761      85.84071847     106.90868086
H      69.67026537      83.62973867     105.92224372
C      62.75575679      88.85672167     100.33999219
O      60.74319827      88.45987913     101.46437935
N      63.16771713      90.82392676      98.78663716
H      64.91193452      91.33226314      98.20082201
C      61.18161478      92.44153248      97.80397948
H      59.52054535      91.24722544      97.57910205
C      60.75642635      94.62605609      99.75606676