 %block lattice_cart
   139.898   0.000   0.000
   0.000 144.87   0.000
   0.000   0.000   168.12
 %endblock lattice_cart

 %block positions_abs
N      93.53750869      42.13323858      81.95673462
H      95.39133022      42.16347419      81.50509003
H      92.73815447      40.60067053      81.14982149
H      93.35798469      41.73261659      83.81433558
C      92.38288593      44.67114101      81.12336532
H      93.44680184      46.24528303      81.92082982
C      92.22036946      44.92625407      78.23775323
H      90.50071852      44.04942105      77.51965723
H      93.85876218      44.30264439      77.15871950
C      91.91045435      47.82320450      77.65949699
H      90.24938492      48.78696492      78.40782861
H      91.29818302      47.74005655      75.69607134
S      94.83764041      49.63734177      78.12814911
C      93.71136352      52.67224222      76.86203248
H      95.18535005      54.03473489      77.32690516
H      91.90100572      53.25805737      77.65193808
H      93.19546824      52.37933465      74.89104794
C      89.70514374      44.77129651      82.13436889
O      88.47115246      42.83054758      82.28932645
N      88.86043608      46.96904822      83.19450536
H      89.79018142      48.58665394      82.79199365
C      86.17324525      47.17502837      84.12047125
H      85.19247730      46.03363368      82.71451486
C      85.93513975      46.02040561      86.78876480
H      87.03873990      44.31398274      87.12891554
H      83.92825040      45.58198909      86.92860454
C      86.69858918      47.92335999      88.74463153
O      85.14334442      49.49939174      89.45705836
N      89.06830597      47.87989630      89.43627136
H      89.79396088      49.32175746      90.45483384
H      90.17568559      46.51740363      88.68982947
C      85.30397115      49.86788837      83.88803490
O      86.78173713      51.57620096      83.37213963
N      82.90401874      50.44236517      84.21684729
H      81.67569664      49.00617318      84.48518843
C      81.90246379      53.01050324      83.79732805
H      82.19159192      53.31096971      81.77910035
C      79.02819007      53.05396693      84.14881714
H      78.20804885      51.40612559      83.22474098
C      78.74284139      52.38500382      86.98529634
H      79.71605045      53.50750126      88.41203970
H      78.91669622      50.33654050      87.11190799
H      76.74729041      52.77995662      87.30843954
C      77.69971247      55.61643582      83.54599445
H      78.48205917      56.52917362      81.87358665
H      78.10411389      57.06963536      84.94817138
C      74.89535862      55.46903716      82.96962792
H      73.80498653      53.74749650      83.25686633
H      74.53820035      55.85076188      80.97596667
H      74.06387905      56.93357505      84.15259660
C      83.13834480      55.29140289      85.23918923
O      83.16102152      57.48726487      84.34912812
N      84.35154910      54.83219939      87.36891078
H      84.45170459      53.07286421      88.10212458
C      85.61577600      56.81263258      88.76541853
H      84.36666691      58.44913556      88.72195482
C      85.99372125      56.14744891      91.51497031
H      87.55274547      57.30207169      92.20472041
H      86.81764193      54.26906096      91.69449431
C      83.74305722      56.19280234      93.42737333
C      83.50117225      58.21858896      95.10545031
H      84.81264232      59.77950288      95.04308934
C      81.60577676      58.05607249      96.95360263
H      81.27507465      59.55462546      98.29908778
C      79.81998540      56.02839616      96.93848483
H      78.23828447      56.09831603      98.22538844
C      80.02974502      53.98749173      95.34166609
H      78.75984893      52.39256272      95.46449831
C      82.10277478      54.12922121      93.55020554
H      82.51095566      52.54185110      92.33322180
C      88.00439006      57.67812722      87.35001352
O      88.80752374      59.95524743      87.29332172
N      89.35743410      56.07185985      85.99319003
H      88.85098745      54.23315615      86.09523524
C      91.26038850      56.65389556      84.24708290
H      92.53406403      58.02961632      85.10123920
C      92.79295654      54.28606850      83.52709719
H      94.24993552      55.03062067      82.27609836
H      91.61754677      52.98782652      82.44617374
C      93.67923818      52.72326484      85.94405713
H      94.91889864      51.29085228      85.14092346
H      92.08619889      51.82564483      86.89081002
C      95.17023224      54.58653497      87.68449508
O      94.27450196      55.01361312      89.88413651
O      97.19790857      55.53517758      87.01364224
C      90.17568559      57.97670399      81.86035858
O      91.61943649      59.38266036      80.70006661
N      87.82297632      57.68379641      81.12903449
H      86.86110564      56.17957425      81.80366679
C      86.81764193      58.97636920      78.91427525
H      88.27273118      58.86298563      77.46107571
C      84.39690253      57.63844297      77.99775800
H      83.20826468      56.94302370      79.53221575
H      85.04318893      55.99060162      76.94518043
C      82.73583310      59.22581307      76.39527007
H      83.90179423      60.37098723      75.13671236
H      81.98939120      60.63365917      77.69918123
S      80.21493820      57.70836284      74.85325341
C      82.11222341      55.80351872      72.79156199
H      83.91313258      56.76916886      72.53644895
H      81.15224244      55.47848579      70.99443227
H      82.59410362      53.99127119      73.64382856
C      86.58142614      61.80151005      79.51142877
O      87.45070025      63.39454932      78.08846485
N      85.88789659      62.23992655      81.85657912
H      85.40412665      60.76782975      82.97151765
C      85.35499377      64.85530776      82.93750257
H      84.62744914      66.01748944      81.40304480
C      83.31408934      64.88932284      84.97273782
H      83.68636543      66.17811618      86.53743121
H      83.29708181      62.97503009      85.73240780
C      80.61556017      65.53182978      83.99196985
H      79.40613533      65.28427564      85.64170092
C      79.98061213      68.05272469      82.66349225
H      80.56831702      69.65710233      83.81622531
H      78.08521664      68.01493016      81.86224830
H      81.06153558      68.10941647      80.90982625
C      79.79163949      63.34163699      82.41404839
H      80.58154510      63.74981786      80.55644741
H      77.73561727      63.26604793      82.51042442
H      80.45871288      61.51616137      83.09246013
C      87.81541743      66.21591070      83.72551845
O      87.83809414      68.65554737      83.61780404
N      89.79963006      64.83830022      84.22818564
H      89.35554437      62.98447872      84.29810552
C      92.37343729      65.58663184      84.97840700
H      92.20714138      66.64676830      86.73585246
C      94.15355948      63.26037875      85.41493377
H      94.66000613      62.37976629      83.62347322
H      93.20302715      61.81662786      86.53365175
C      96.49870983      64.15043984      86.89647919
H      95.78250356      65.46190990      88.31377394
H      97.61553808      65.11609000      85.46217692
C      98.19568406      62.13410187      88.14747802
H      99.58463289      63.18856915      89.23973983
H      99.34841712      61.20246679      86.71695519
N      96.94468524      60.32941324      89.69705359
H      96.96169278      58.44724583      89.37580012
C      95.84486453      61.03617088      91.77197308
N      95.97336592      63.19234860      92.90580888
H      94.72425682      63.62698565      94.28341936
H      96.99570786      64.66822486      92.25574303
N      94.33875266      59.42801379      92.67715200
H      93.49971418      59.79084125      94.35144951
H      93.95891767      57.86709985      91.64536143
C      93.59986966      67.33273895      82.96962792
O      95.10409182      68.98813921      83.59134787
N      92.86665586      66.90944027      80.63581593
H      91.55518579      65.53749896      80.44306384
C      93.77750393      68.50058982      78.46829985
H      95.09842264      69.94812017      79.09946844
C      95.27605691      66.83196148      76.72597219
H      95.92234330      67.95067947      75.12159454
C      97.68545796      65.86064217      78.26042994
H      98.82118347      64.38098645      77.38548667
H      97.16200377      65.01782422      80.06511857
H      98.83441156      67.53493968      78.60247041
C      93.82285737      64.59452554      75.51654735
H      92.12021397      65.32962907      74.61703762
H      92.90822984      63.62698565      77.09068937
C      95.26471855      63.13187737      73.52288608
H      96.97870031      63.98603365      72.76888528
H      93.82663683      63.21124588      72.05078928
H      95.47258844      61.10231131      73.79500667
C      91.80462967      70.05394484      77.07179210
O      92.49815923      71.89642800      75.77732957
N      89.46703822      69.36230502      77.54233396
H      88.94358404      67.86186233      78.59869095
C      87.36755229      70.77015113      76.46141049
H      87.96281608      71.29738477      74.56223556
C      85.09043208      69.08640497      76.36881390
H      83.43692155      70.29205036      76.14393648
H      84.88823137      68.05839386      78.13948747
C      84.94114370      67.28549580      74.23153344
O      83.24794893      65.59608048      74.37326293
O      86.08442812      67.69367668      72.23976192
C      86.63244875      73.06427887      78.12059020
O      85.83687398      74.96156408      76.95273934
N      86.73638370      72.97168228      80.65660291
H      87.50739204      71.35785601      81.32367631
C      85.78585136      75.02392506      82.38948194
H      85.58554038      76.67554585      81.17627765
C      83.15535234      74.20378383      83.47418484
H      83.49361334      72.72034867      84.86313368
H      82.10655424      73.29293576      81.95295517
C      81.57176168      76.27303414      84.67983023
H      82.97204889      77.49568708      85.56800161
H      80.37367520      75.11274219      85.88925507
C      80.05620119      77.52781241      82.63325663
O      77.96616388      76.67176639      82.05122094
O      81.11822737      79.33250104      81.44839823
C      87.73793864      75.61918884      84.54376994
O      88.32942297      77.69788779      85.06911385
N      89.03051145      73.67088101      85.50942009
H      88.41635039      71.91154582      85.09368029
C      90.83520007      74.02803929      87.57489094
H      92.07863999      75.57761486      87.02498058
H      92.12021397      72.45200754      87.89236496
C      89.38766972      74.55716266      90.04476324
O      87.12377760      74.38141810      90.05610160
N      90.81441308      75.32817098      91.92126147
H      92.69847022      75.19211069      91.64725116
C      89.94702871      75.87808134      94.46294335
H      87.88911675      75.97067793      94.41570019
C      90.95803229      73.91843515      96.36211830
H      92.96114218      73.55938717      96.03897511
H      90.11710408      72.13075406      95.78575177
C      90.25316437      74.30204961      99.26851738
H      91.43613303      75.86296354      99.90157568
C      87.48282560      74.89731338      99.80330991
H      86.37355625      73.34395836      99.03041185
H      86.95559195      76.63775133      98.83577005
H      87.23905090      74.91054148     101.84988352
C      90.89189185      71.71312456     100.58943607
H      92.80807435      71.17644227     100.06031269
H      89.66545948      70.29771955      99.73339004
H      90.75394184      71.87564102     102.63978911
C      90.71614732      78.55015435      95.34544555
O      92.91956820      79.19833048      95.41536541
N      88.91901759      80.07516348      96.23739636
H      87.16535158      79.47800997      95.78386205
C      88.98893747      82.56393304      97.44493148
H      90.93913502      82.96077557      97.97216513
C      88.06675103      84.62562444      95.57788188
H      87.37133173      86.28858361      96.57565738
H      86.45670421      83.74501198      94.63679817
C      90.05852256      85.64985612      93.80153915
H      91.34542618      84.13240588      93.26863633
H      91.21692479      87.04636386      94.77663793
C      89.07586488      86.99534124      91.48473469
H      90.70480896      87.77579822      90.49451810
H      87.89856538      88.54302710      92.16692588
N      87.96281608      85.21332933      89.68193578
H      88.11210446      83.34250028      90.02775571
C      87.04062964      85.74623216      87.47473546
N      86.79685493      88.07437498      86.51853393
H      86.13167128      88.38806953      84.75730902
H      87.35432420      89.55592039      87.58433958
N      86.38678433      83.81493187      86.17838321
H      86.12789183      84.04169902      84.29999525
H      86.14678909      82.04803775      86.85490522
C      87.47337696      82.50157208      99.93370103
O      85.21137456      82.93809885      99.79575101
N      88.81508265      82.12362681     102.05208423
H      90.71992677      82.02347131     101.98594381
C      87.68313658      82.00268432     104.64478874
H      86.33576172      80.44554984     104.57108940
C      89.57475262      81.29025750     106.69514179
H      88.43146820      80.33216627     108.11621596
H      90.41568083      82.99101118     107.50016519
C      91.56463443      79.19833048     106.05830402
H      90.62355073      77.72434395     104.96982166
C      93.89466698      80.26035666     104.88289425
H      94.83575067      81.43009725     106.29263008
H      93.37121278      81.23734516     103.14623577
H      95.21369594      78.78448041     104.31975580
C      92.54729211      77.98512619     108.45258725
H      93.51483199      79.44210517     109.53917988
H      93.87387999      76.51113967     107.89889745
H      91.00716517      77.12719043     109.51839290
C      86.23560622      84.30248124     105.62555669
O      84.13612029      84.05681682     106.69325206
N      87.27117625      86.59471927     105.26650869
H      89.09665186      86.41519526     104.73738533
C      86.01828769      89.08537854     105.66524094
H      84.93358480      88.83593468     107.39623024
C      88.12344282      90.99022268     106.09420882
H      89.13822585      91.36060903     104.34054280
H      89.45758959      90.41763560     107.55685698
C      86.99527621      93.59615526     106.79907673
H      85.64790135      93.17096684     108.29951942
H      86.13545072      94.48054717     105.14934566
C      88.86799498      95.44808704     107.90834607
H      90.17757531      96.22287483     106.52128697
H      90.21725957      94.57881294     109.19902914
C      87.45258997      97.44930720     109.31619217
H      86.56819806      96.56113584     110.95080544
H      86.12033292      98.38472173     108.05196528
N      89.31208067      99.25210612     110.30262932
H      90.28339999     100.21775626     108.97415172
H      90.64433772      98.40928818     111.37788359
H      88.51461615     100.62026797     111.36654522
C      84.20792990      89.81481290     103.41835636
O      84.82398067      89.36127859     101.15824369
N      82.13678986      91.16029804     103.96448725
H      81.62278430      91.34171177     105.79563205
C      80.05053201      91.88973240     102.14279109
H      79.33054628      90.11905885     101.37367249
C      77.86222894      93.44875660     103.47693786
H      78.69748797      94.88683833     104.69392161
C      76.00462796      94.88116915     101.67413896
H      74.61189968      95.94886451     102.75506241
H      75.18070730      93.48088196     100.40802233
H      76.97027811      96.19830838     100.41747096
C      76.42225749      91.47021316     105.09832305
H      77.61656452      90.52912946     106.48538217
H      75.63424160      90.09260267     103.78496325
C      74.22072633      92.59837977     106.57608903
H      73.38924675      91.09226789     107.70992481
H      72.69571720      93.18986409     105.32320047
H      74.98795521      93.99488751     107.88000018
C      81.16547053      93.49222030     100.13401203
O      82.31631386      95.43485896     100.65935593
N      80.46438207      92.99333257      97.80775893
H      79.34566409      91.49666932      97.42036504
C      81.12011709      94.40306839      95.62512503
H      81.83443365      96.24933100      96.19960183
C      82.93425436      92.65885101      94.06988028
H      84.39312306      92.27145712      95.47394694
H      83.80730792      93.68308267      92.51085608
C      82.05364189      90.11149994      93.07966369
C      81.36200206      89.86772525      90.46617221
H      81.24483903      91.51367687      89.26241654
C      80.85933487      87.44131666      89.41737410
H      80.26218135      87.14651936      87.48985326
C      81.08988147      85.31159511      91.07277435
O      80.59666291      83.00612900      90.15247763
H      80.60233209      83.15352766      88.34589929
C      81.49617264      85.64796638      93.65036104
H      81.30908973      83.89996955      94.68593107
C      81.86466927      88.06681607      94.72372558
H      82.07253916      88.26334761      96.74195330
C      78.73906195      95.12683358      93.87145902
O      76.63579655      94.07425602      94.28341936
N      79.16991954      96.88427904      92.25763274
H      80.98027735      97.30757773      91.82110597
C      77.46538641      97.35104144      90.19972080
H      75.57943954      96.66318107      90.65892428
C      76.95893976     100.19130008      90.11846257
H      78.44993382     101.11159681      89.03564938
H      76.91358632     101.07569201      91.97606353
C      74.39647088     101.06624337      89.01297268
H      72.95083025     100.45019260      90.34711945
H      73.76908174      99.90028223      87.43694093
C      74.47394965     103.91595065      88.51597465
H      75.93470810     104.08602602      87.07411348
H      75.15803057     105.03277890      90.10523448
C      71.95494448     104.94585149      87.29332172
H      70.53009084     105.27655359      88.74085209
H      71.27464301     103.63060197      85.86090918
N      72.32155139     107.50832038      86.15570648
H      73.16058987     108.73097330      87.35946214
H      70.77386553     108.26799035      85.33367553
H      73.42893101     107.14927238      84.64581517
C      78.25907145      96.37783239      87.54465532
O      80.44737453      96.85782288      86.69049904
N      76.55264860      94.93408149      86.49774695
H      74.95205041      94.75833693      87.52575807
C      76.71894452      93.64339842      84.06944864
H      78.57654548      92.75333732      84.11669179
C      74.49095718      91.75556183      83.57245061
H      72.93382270      92.87427980      82.82600872
H      74.09600439      90.90140554      85.40548514
C      75.08244153      89.60505328      81.65626814
O      73.35523167      88.43720243      80.61502893
O      77.31609803      89.01545867      81.23674890
C      76.61123011      95.60304461      81.88492501
O      75.60967516      97.59481614      82.25342165
N      77.56554191      95.00778081      79.61158427
H      78.60489138      93.41285181      79.47930342
C      77.14035347      96.57436393      77.33068461
H      77.67325630      98.53212039      77.67272506
C      78.84677635      95.49155075      75.22175003
H      78.13812898      96.39483993      73.51154772
C      81.64924047      96.07547618      75.37481786
H      82.48638922      95.48399184      77.16249896
H      82.03852409      98.09181416      75.20852195
H      82.55063992      95.19297399      73.74587379
O      78.56142767      92.87239007      75.04600550
H      79.33054628      92.17508107      73.55690116
C      74.37568389      96.84648451      76.59558107
O      73.75207420      98.75132863      75.55434186
N      72.75807816      95.01911917      77.41194284
H      73.47995361      93.61883198      78.48908683
C      70.10112297      95.27801167      77.07935101
H      69.86490717      95.54257336      75.04978494
C      69.01264061      92.63806401      77.80122646
H      69.13358310      92.36027424      79.84024114
H      70.13891750      91.24533572      76.78455369
C      66.22340456      92.25255985      77.20974211
H      65.06878180      93.69253130      78.12436965
H      65.48452158      90.44598150      77.86547714
C      65.67538393      92.15618381      74.35436567
O      65.03287699      94.18574986      73.25832440
O      66.21017649      90.13795611      73.20352234
C      68.96539744      97.45119694      78.70640536
O      66.96228756      98.29968406      78.16027445
N      70.36568465      98.39039092      80.58101387
H      72.15336574      97.75922232      80.79455293
C      69.50585917     100.30468366      82.27987782
H      68.11124116     101.64449963      81.56934073
H      71.14992107     101.33647423      82.96584846
C      68.15848431      99.32958490      84.57022611
O      67.32511501     100.74687962      86.25208253
N      68.04699047      96.88049958      84.76486791
H      69.27909202      95.91862890      83.66693693
C      66.85835262      95.67296447      87.02120113
H      65.59223599      96.91451467      88.06810952
C      65.14248111      93.50733812      86.06122016
H      64.45462074      92.55491606      87.75063549
H      66.41426693      92.18263998      85.13147482
C      63.07323080      94.26133892      84.28865688
C      62.10947038      92.41507631      82.51609360
H      62.72930061      90.47621711      82.67672034
C      60.28021532      93.09915724      80.79644267
H      59.77754812      91.79902553      79.30733833
C      59.15015897      95.50855828      80.83801664
O      57.16027718      96.13972688      79.31678695
H      56.92028194      97.93685659      79.36025066
C      60.13092694      97.25277568      82.52365251
H      59.47330218      99.18596569      82.58412375
C      62.08490394      96.69341668      84.17527331
H      62.57812252      98.14283676      85.52453789
C      68.90114675      95.04746507      89.10556926
O      71.09889845      95.07581096      88.46495203
N      68.23785281      94.28023619      91.35434358
H      66.43316420      93.70953883      91.60189771
C      69.88947361      94.11016082      93.44438087
H      71.82833282      94.59393076      92.94171368
C      68.90114675      96.05846865      95.36245308
H      69.79687703      95.59170625      97.15958280
H      66.84323480      96.06602754      95.28875376
C      69.69861126      98.79668208      94.79364546
C      68.36068502     100.23665353      93.04564862
H      66.93205194      99.41273284      91.84378268
C      68.86713169     102.84825528      92.87935271
H      67.87124592     104.03689313      91.55276484
C      71.00441215     103.83469242      94.17948440
O      71.64691909     106.32724143      94.07177001
H      70.69071758     107.22297170      92.81699174
C      72.33477946     102.30212439      95.93881961
H      73.89947285     103.15061149      96.93848483
C      71.66014718      99.72264796      96.28086007
H      72.45194249      98.74754918      97.88901716
C      70.15592503      91.51178713      94.42703855
O      68.29454460      90.03969033      94.61979064
N      72.47461922      90.79369113      95.18103935
H      73.91270094      92.04657969      95.14513455
C      73.23995837      88.17642019      94.73317422
H      71.78108966      86.72700011      94.63490846
C      74.84055656      87.88162289      92.40503141
H      76.84744591      88.18208938      92.77163830
C      74.41536814      85.36072799      91.08033325
H      72.49351648      84.81459709      90.57955578
H      75.24873745      83.92453599      92.29731700
H      75.54164502      85.16608618      89.36635150
O      74.18482153      89.76756975      90.66459346
H      75.59266763      90.76723497      90.10334475
C      74.84811547      87.43186802      96.94604374
O      76.12368072      89.03624566      97.98539320
N      75.14858195      84.94309846      97.23895131
H      73.87490641      83.95477160      96.22038883
C      77.12145622      83.69398938      98.85277758
H      78.55764822      85.16986562      98.94537417
C      76.10856292      83.51068592     101.64390334
H      74.75362915      85.05270259     101.81397872
C      74.35300717      81.29970614     101.82531708
H      72.96594805      81.34694930     100.30219766
H      73.61979335      81.26947051     103.74905845
H      75.53219639      79.61218055     101.78374310
C      78.08710637      83.58438526     103.78496325
H      79.45526822      84.97900326     103.12733850
H      79.22094216      81.87796239     104.00417151
C      77.03830826      84.07949354     106.52506641
H      78.38379339      84.59160937     107.99716322
H      76.08777593      82.35039396     107.12221992
H      75.34322376      85.24545467     106.38333694
C      78.32143242      81.26947051      97.76051578
O      77.16114047      79.92209565      96.28274980
N      80.45115399      80.41153478      98.80931388
H      81.25428767      81.56993700     100.09810722
C      81.62089457      77.92087549      98.44459670
H      80.62878826      76.49791157      99.55764550
H      83.50495171      78.11929675      99.25717902
C      82.09143642      77.29915554      95.67425793
O      83.56731268      78.45377831      94.39869266
N      80.76673828      75.37163470      94.82577081
H      79.57054152      74.42299209      95.97094495
C      80.66280332      74.33795441      92.33322180
H      82.35221866      75.02014561      91.37513057
C      80.92547529      71.39754025      92.46739238
H      79.02252089      70.69267235      92.82077120
C      81.79663912      70.51314834      89.91626184
H      83.79974901      70.95345457      89.72539950
H      80.87634241      71.61863823      88.44416505
H      81.39790687      68.56484051      89.38335903
C      82.66591322      70.35063189      94.63112899
H      82.08576724      71.25770052      96.38668474
H      84.59721352      70.73235659      94.02074740
C      82.44481525      67.61430817      95.04497906
H      83.21015440      66.40677307      93.56154390
H      80.51918413      66.88487382      94.95238247
H      83.15535234      67.13242797      96.91580812
C      78.32521188      75.57761486      90.99529558
O      76.54508970      74.23212972      90.16192627
N      78.35544750      78.05126660      90.78931540
H      79.90880252      79.03392429      91.29765178
C      76.42981639      79.46100244      89.40036656
H      76.58477395      79.12841060      87.37457996
H      76.72839314      81.49812740      89.47973506
C      73.85411943      79.15675649      90.46995166
O      72.12879930      79.30226543      89.06399529
N      73.44971800      78.63519203      92.90013969
H      75.00496275      78.96778387      93.95838643
C      70.97039707      78.37440980      93.99807069
H      69.66459618      77.36340623      92.76596912
C      71.11023682      77.07238838      96.53786285
H      72.25352124      78.29882076      97.73405960
H      72.07021778      75.28281756      96.19960183
C      68.52887068      76.68121503      97.70949316
N      66.94905947      74.64786951      97.34477598
H      67.08511977      73.05483023      96.30164706
C      64.95350849      75.00880724      98.85655703
H      63.32834385      73.82016939      99.18725914
N      65.30499758      77.20655895     100.12645312
H      64.07100630      78.10228922     101.27351699
C      67.50274929      78.21945225      99.48205644
H      68.28320625      79.89186004     100.35133054
C      69.69672153      80.99734993      94.19460222
O      70.65481278      82.62818373      95.53441817
N      67.48007257      81.38663354      92.87557326
H      66.68827724      79.85028605      92.06110121
C      65.98529905      83.70910718      93.10611986
H      67.38558626      85.13774027      92.61479103
C      64.12580836      83.91508735      90.81766129
H      62.68961637      82.46566727      91.10112025
H      65.30310786      83.44076606      89.19627612
C      62.80866912      86.46054869      90.48884892
H      64.16927207      87.74556259      91.35056411
C      62.48363620      87.12573237      87.62402384
H      64.16171316      86.88006795      86.45617296
H      61.99986626      89.11183471      87.37080051
H      60.94917842      85.98244794      86.86435386
C      60.24997970      87.00101043      91.69071485
H      59.66983371      88.97199496      91.53008811
H      60.35391465      86.45298980      93.67303775
H      58.86481031      85.72922461      90.85356610
C      64.98563384      84.17775932      95.74039835
O      63.98974807      82.33338643      96.73250465
N      64.94594958      86.46621788      96.68904095
H      65.89648191      87.80981328      95.71961135
C      63.90660010      87.15407826      99.13056735
H      63.21685000      85.52324444     100.18503463
C      65.92104835      88.51090175     100.63101004
H      64.95539822      89.58804574     102.09554793
H      66.76764574      89.90551977      99.37434205
C      68.10935142      86.75156656     101.46059990
H      68.82177825      85.64040747      99.87889897
C      70.25985997      88.14429484     102.80230558
H      69.28098175      89.61072247     103.86244204
H      71.35779097      88.94742852     101.25650945
H      71.17826697      86.79503026     104.06086330
C      67.43660886      84.41964429     103.25395017
H      65.98907850      83.24423451     102.37711715
H      66.41048747      85.04703341     104.92635796
H      69.16759817      83.40297152     103.72638174
C      61.47641207      88.90396483      98.66002549
O      59.41850012      88.32003940      99.70882361
N      61.84112925      90.86928019      97.20115678
H      63.63447953      91.17352612      96.63045944
C      59.95896185      92.75522704      96.32621350
H      58.05978690      92.02012351      96.01629838
C      59.89282142      94.78668283      98.32932340