 %block lattice_cart
   139.898   0.000   0.000
   0.000 144.87   0.000
   0.000   0.000   168.12
 %endblock lattice_cart

 %block positions_abs
N      95.97997996      43.50517988      86.02909482
H      95.80612514      43.35400178      87.92449031
H      97.80734530      43.95682446      85.70217217
H      95.33747302      41.81387482      85.42627213
C      94.40394821      45.63490143      85.23352004
H      95.00110172      47.36400100      86.18027293
C      94.69118661      45.67458568      82.34034906
H      94.35859478      43.77163128      81.62414279
H      96.56201567      46.46638101      82.00775723
C      92.97909458      47.43959006      80.88148035
H      91.02511757      46.92369478      81.28021260
H      93.34003230      47.36967018      78.85380401
S      93.55546110      50.59543300      81.64492978
C      91.45219572      52.15256748      79.57190001
H      89.43774747      52.09398597      79.99141925
H      91.68274232      51.45525848      77.64437917
H      91.88872249      54.16323628      79.62292262
C      91.66573478      45.10388834      85.77209204
O      90.79646068      42.98550514      85.61335503
N      90.19741744      47.10321878      86.21428800
H      91.14794978      48.74161150      86.44294488
C      87.40818140      47.46226677      86.14247840
H      86.69953403      46.25284193      84.63447680
C      86.60693744      46.38512277      88.79187469
H      87.48188074      44.54452935      89.10178981
H      84.55658440      46.17914261      88.77864661
C      87.43841702      48.14823742      90.99529557
O      87.98265820      50.38756310      90.70427772
N      87.55558005      47.06731397      93.24595961
H      88.70075420      48.05186139      94.41381047
H      87.15684780      45.22672054      93.55776445
C      86.48788468      50.06441991      85.66626737
O      87.70297870      51.73871742      84.50030623
N      83.97076924      50.22504664      86.03098455
H      82.97866292      48.80586219      86.83789768
C      82.47032654      52.46626206      85.37902897
H      82.78969029      52.88011212      83.38536771
C      79.45621307      51.85588045      85.50942009
H      79.21621783      50.03040483      84.58534392
C      78.65118967      51.41368449      88.44227532
H      79.80770218      50.00016921      89.39658711
H      76.64807977      50.96770909      88.62179932
H      78.66819720      53.25994711      89.35312341
C      77.90474778      53.68891498      83.90693217
H      78.14852247      53.57364167      81.86413803
H      78.21277317      55.63911254      84.48896788
C      75.03236379      53.12199708      84.39637129
H      74.63363152      53.63222319      86.35034830
H      74.62607262      51.10376938      84.36802539
H      73.70955536      54.01583763      83.09623958
C      83.16574583      54.80385350      87.06466484
O      82.57804094      56.90144970      86.28231815
N      84.39595766      54.25961232      89.27375490
H      84.90240431      52.42846753      89.44760972
C      85.11594338      56.02839616      91.27119561
H      83.57014727      57.38710938      91.32410795
C      85.35782835      54.82841995      93.97539397
H      86.03624011      56.19469206      95.35867363
H      86.77323336      53.33364643      93.99618096
C      82.87850744      53.54718551      95.13757565
C      81.58404490      54.69991855      97.03297114
H      82.23033130      56.51216608      97.71327262
C      79.27479935      53.71537114      97.97972403
H      78.21655261      54.86243502      99.29497354
C      78.44898896      51.29274202      97.21438487
H      76.63296196      50.58598438      97.81720756
C      79.72644394      50.07764799      95.23962087
H      79.16141577      48.17091414      94.77852765
C      82.01490250      51.15290227      94.33255224
H      82.97677321      50.05875073      92.90580887
C      87.55746978      57.38899910      90.65892429
O      87.84470819      59.75493644      90.91970652
N      89.29412826      55.84887216      89.49296315
H      88.89161655      53.98182256      89.47784534
C      91.37471693      56.69735927      88.15125747
H      92.38194106      57.87654849      89.50808096
C      92.96019732      54.43346715      87.68071562
H      92.33091844      52.99349570      86.34845857
H      92.92996170      53.37711014      89.44949945
C      95.76644088      55.10620971      86.87569221
H      96.39383002      56.78617640      87.88858551
H      95.96297243      55.10054054      84.82533916
C      97.65805692      53.15979162      87.92449031
O      99.01865987      52.06186063      86.29176678
O      98.00009739      52.90656828      90.19027216
C      90.87582919      58.17134580      85.63414202
O      91.95675264      60.15177896      85.22785087
N      88.86705011      57.54395666      84.14692741
H      88.06202670      55.83942353      84.45117335
C      88.05446781      58.88566233      81.88303529
H      89.60215365      58.85353699      80.52621180
C      85.76411952      57.65545050      80.73786115
H      84.15596242      58.05418277      81.96240380
H      86.25733807      55.69769404      80.32401108
C      85.09137694      58.58897530      78.16594363
H      86.59748881      57.76316490      77.02643867
H      85.09515640      60.64688726      78.10169294
S      82.04702785      57.54584638      76.95273934
C      82.40040667      57.06963536      73.57012924
H      84.20131586      56.15311809      73.16950726
H      82.33804570      59.00849454      72.88037914
H      80.88295645      56.00949890      72.66684006
C      87.71809651      61.71080318      82.31578262
O      88.71398229      63.25470957      80.91171597
N      86.18174903      62.46858342      84.17338358
H      85.35782835      60.95869210      84.99919398
C      85.46554276      64.85530776      85.22596114
H      85.02334679      66.10441685      83.64803967
C      82.92197113      64.62476116      86.64892505
H      82.86527935      66.12709356      88.05677116
H      83.09204650      63.02227324      87.93015949
C      80.41997349      64.68523239      85.25997621
H      78.90819244      64.27516178      86.59601272
C      79.80014327      67.43667390      84.32645141
H      80.18753716      68.92766796      85.69650299
H      77.77813611      67.47257870      83.93905752
H      80.98878111      67.70123559      82.66538198
C      80.32359745      62.76338073      83.27009440
H      81.64451614      63.09786229      81.72618801
H      78.39418690      63.04117050      82.60491074
H      80.51634954      60.84152907      83.98630068
C      87.56691842      66.05906343      86.93616345
O      87.61416157      68.30972746      87.08545183
N      89.26956182      64.65688650      88.07755815
H      89.42640911      62.76904991      87.85457044
C      91.53912313      65.82851682      89.39280766
H      90.97220524      67.59541092      90.28853793
C      92.59170068      64.32051522      91.67748677
H      94.53244960      64.83074131      92.14235944
H      92.62193630      62.37976630      90.98962639
C      90.83425521      64.56051045      93.97539397
H      88.97098506      63.90855488      93.39146854
H      90.82480657      66.50692856      94.64624681
C      91.27834089      62.80873416      96.25440390
H      91.50510805      60.84908797      95.66291957
H      89.61916120      62.97125063      97.46193902
N      93.40806244      63.81595829      97.78319249
H      94.82724690      64.74759337      96.91202866
C      94.00332624      63.21691505     100.14724011
N      92.64272329      61.69757509     101.54563758
H      93.32302476      61.25915859     103.27284743
H      91.06102236      60.84152907     100.90691008
N      96.13871697      64.02193845     101.16958204
H      96.51477250      63.80650965     103.02718301
H      97.11570547      65.25026056     100.08298941
C      93.58569673      66.56739981      87.31788817
O      95.41306207      67.90910548      87.85834989
N      93.32680421      65.70568461      85.00108371
H      92.02667252      64.34697138      84.67794051
C      94.87826951      66.62409160      82.75986830
H      96.67539924      67.21746565      83.57434034
C      95.49243058      64.33752276      80.98541529
H      93.65372686      63.69690553      80.31078300
C      96.79823145      65.19545849      78.54199917
H      98.08891452      66.70534982      79.08057117
H      95.34692164      65.95890793      77.29477980
H      97.95285424      63.70635417      77.70862987
C      97.17050753      62.25504436      82.35546687
H      96.60736909      62.12654296      84.33401032
H      99.09613866      62.97314035      82.23452439
C      97.10058766      59.59241997      81.05722489
H      97.23475824      58.05985193      82.42538674
H      98.71063448      59.49604394      79.77599045
H      95.32424493      59.42801379      80.02732405
C      93.59703507      68.85207891      81.58634826
O      94.70441469      70.91943950      81.21785163
N      91.09125798      68.41933158      80.96462830
H      90.43174351      66.63165050      81.07990161
C      89.57947694      70.40165448      79.65693769
H      90.49788392      71.00825663      77.91649976
C      86.90929365      69.37742282      78.88970881
H      85.73010444      71.06872787      78.92183416
H      86.26867644      68.01493016      80.29377546
C      86.70142377      68.13020346      76.22519471
O      88.23966099      68.82373302      74.61514789
O      84.86649952      66.67511420      75.82457273
C      89.02011794      72.81672472      81.24619752
O      89.13350152      74.88597504      80.21440696
N      88.37572128      72.54082467      83.61969377
H      88.27934523      70.80038674      84.40204047
C      87.76344995      74.72345857      85.22407141
H      88.13383631      76.46389650      84.18472194
C      84.87405841      75.02770451      85.91760097
H      84.62839399      76.75113491      87.02120114
H      84.06147610      73.65576320      87.21962240
C      83.19598145      75.27903810      83.47985403
H      81.27979897      74.72534830      83.99574931
H      84.01801239      74.10551806      82.00019832
C      83.02401636      77.90197822      82.37058468
O      84.55091522      79.61407026      82.88836969
O      81.20043046      78.47267557      80.93628241
C      89.35270979      74.94077710      87.58811903
O      89.31869470      77.02514521      88.79187469
N      90.90795454      72.99435899      88.27408968
H      90.45819968      71.20289845      87.79598892
C      92.82224729      73.39687070      90.14869818
H      93.45530560      75.34895798      89.97673309
H      94.39260986      72.07028283      90.00885844
C      91.83014097      72.92065967      92.86045544
O      90.17663045      71.33895874      93.26485687
N      93.08302953      74.14898177      94.73128449
H      94.74409895      74.95967436      94.25696319
C      92.31202118      74.42866127      97.48650546
H      90.25977841      74.51558868      97.34477598
C      92.79390139      71.97390678      98.95104335
H      94.81212910      71.63186631      98.72427619
H      91.86226632      70.49992026      97.85689181
C      92.14383555      71.90209719     101.92169311
H      93.75388236      72.67310552     102.94781450
C      89.82703109      73.33073027     102.62278158
H      89.64561735      73.40065015     104.67313463
H      88.23588152      72.35563149     101.75161775
H      89.85348726      75.34139907     102.18247535
C      91.60526354      69.30939269     102.76829050
H      91.26133336      69.24136253     104.79785656
H      93.14539050      68.08862948     102.15412945
H      89.77033929      68.70656999     102.05586368
C      93.38160627      76.99490959      98.57309809
O      95.55668126      77.18388223      99.34788588
N      91.75644166      78.99801949      98.72994537
H      89.96876056      78.63141259      98.17058638
C      92.38572052      81.46978151      99.95070857
H      94.28111601      81.42820753     100.75762171
C      92.27611638      83.55603935      97.82854592
H      92.32713899      85.45143484      98.63167960
H      90.51300174      83.43887632      96.77407864
C      94.60425921      83.31793384      96.12779224
H      94.75921677      81.32994175      95.61189696
H      96.29178480      83.81304214      97.19926706
C      94.12426872      84.80514845      93.68437612
H      95.93840599      85.44954513      92.95116231
H      93.13405214      86.54747611      94.15869742
N      92.49721437      83.37840508      91.76819363
H      91.59770464      81.87229321      92.52408416
C      91.81691290      84.18342850      89.56288303
N      92.63138493      86.18086920      88.68982947
H      91.93218619      87.03880494      87.13458472
H      93.86348648      87.31092553      89.61012619
N      90.08403386      82.97022420      88.33078147
H      89.33003306      83.89052091      86.83978741
H      89.26578236      81.44899451      89.14336379
C      90.75866616      81.89308019     102.21838015
O      88.59115008      81.08616706     102.59065623
N      91.83769988      82.87195843     104.23660785
H      93.70852894      83.20643999     104.07031193
C      90.74921752      82.58283031     106.77451029
H      89.28090018      81.13907941     106.82175344
C      92.86382126      81.79859389     108.55274275
H      92.08903349      81.42631780     110.42735125
H      94.18096051      83.36328728     108.78328936
C      94.28111601      79.38163393     107.41323778
H      94.99543255      79.39297228     105.48193749
C      96.67728897      78.74290643     108.97604144
H      96.21808547      78.35173309     110.94513626
H      98.01143574      80.30382036     109.13855790
H      97.95474395      77.33317061     108.18802557
C      92.37249243      77.22545621     107.62299740
H      90.78512233      77.43899527     106.32475542
H      91.62227108      77.04404249     109.53162098
H      93.36081929      75.56249705     106.91623976
C      89.35648923      84.89396559     107.76283715
O      88.33981647      84.77302310     109.76405731
N      89.15239879      87.00667961     106.27184309
H      90.19174827      86.87250903     104.67691408
C      87.95053285      89.44253681     106.74238494
H      86.76945391      89.26301281     108.42046190
C      90.09348250      91.42297000     107.34142818
H      91.18574431      91.82548171     105.64067450
H      91.31613542      90.65007193     108.80785580
C      88.92941108      94.00433614     108.37321875
H      87.95431231      93.52812511     110.12121559
H      87.33637180      94.65062253     107.23938296
C      90.74543807      96.10193234     108.91557020
H      89.65317626      97.81591411     109.24438258
H      91.71486767      96.30791251     107.10899184
C      92.47453764      95.48777130     111.16434451
H      93.75955154      93.89662173     110.90734173
H      91.15928813      94.99077327     112.67045638
N      93.83514059      97.88394426     111.98259600
H      95.02377845      98.48676695     110.61632388
H      94.84047499      97.67229491     113.59264282
H      92.56713423      99.30690818     111.91834531
C      86.41229563      90.32692873     104.44069829
O      87.45353483      90.29480338     102.42813977
N      84.16919051      91.34171176     104.85454835
H      83.52668356      91.12439323     106.63844999
C      82.50434162      92.17697080     102.87411518
H      81.67286205      90.50267329     102.00862052
C      80.03446933      93.38450590     103.96070781
H      80.45020911      95.25722468     104.70903943
C      77.89718887      93.45064632     101.79508145
H      78.54725473      94.14795534      99.96960583
H      76.27958315      94.50133415     102.51695690
H      77.17153396      91.53635358     101.55508621
C      78.70977118      91.99177762     106.17168759
H      80.13840427      91.17730558     107.40945833
H      77.71199569      90.37417190     105.37422309
C      76.83138324      93.65851622     107.66268165
H      76.17942765      92.55113660     109.27083875
H      75.11740147      94.06480738     106.59498629
H      77.70632652      95.37438771     108.39967492
C      83.43975615      93.81536350     100.71226827
O      84.08037336      96.03957137     101.02596284
N      83.48888903      92.69853525      98.41058162
H      82.66496835      91.01100965      98.07043089
C      84.44320081      94.01945394      96.09566689
H      84.79657964      95.95264396      96.71360740
C      86.88283748      92.79491130      95.33788664
H      88.23966099      93.07648052      96.86100605
H      87.42518895      93.70197993      93.57099254
C      86.61449635      90.07937458      94.50262761
C      86.43308262      89.44631628      91.90425393
H      86.49922304      90.88061855      90.45105439
C      85.58837496      87.02557687      91.22773191
H      85.06681050      86.81392752      89.26619600
C      85.29735711      85.03380533      92.93415477
O      84.69075496      82.85306116      92.01763751
H      84.53390769      82.95132693      90.21294888
C      85.74522224      85.68576090      95.48717502
H      85.51089618      84.27035591      96.94037455
C      86.46709771      88.08760306      96.27330116
H      86.54268676      88.44287160      98.28208024
C      82.64229165      94.13661699      93.94704807
O      81.31003460      92.29980301      93.18548837
N      82.56670259      96.28145634      92.56376841
H      83.60983151      97.73276615      93.22895207
C      81.42908734      96.76522628      90.13169065
H      79.42219800      96.31925087      90.25452286
C      81.46688187      99.49777054      89.42115355
H      80.59571804      99.66028699      87.56355259
H      83.48699930      99.88516442      89.28320353
C      80.26501595     101.41206329      91.20316547
H      81.48199969     101.05868446      92.82644037
H      78.38284853     100.83002758      91.80598816
C      80.27068511     104.13326917      90.12602147
H      79.04803220     104.03689313      88.47251094
H      82.17930870     104.74743023      89.65547962
C      79.21432812     105.64505023      92.26330193
H      80.26690566     105.24631797      93.98862205
H      77.24901275     105.14805220      92.62801911
N      79.25212263     108.40027120      91.66236896
H      78.55103417     108.43806571      89.88791595
H      81.00767838     109.13537473      91.80409843
H      78.06537452     109.40182613      92.76785885
C      82.58559985      95.20620207      87.96039511
O      84.86083034      95.27423223      87.40292585
N      80.78469067      94.00244641      86.64325587
H      78.92897944      94.38228141      86.88703057
C      81.33082158      92.30547218      84.52865213
H      83.24889378      92.64751265      83.86157874
C      80.93964823      89.60127382      85.44327966
H      79.04992192      89.50300807      86.25397225
H      82.48922382      89.46710327      86.79443398
C      81.14940785      87.48667009      83.36269099
O      83.05614171      87.49422900      81.98319079
O      79.37495485      85.82182121      83.26253550
C      79.55258912      92.87050036      82.26476001
O      77.33782989      93.52623539      82.46507100
N      80.70154272      92.59649004      79.98952953
H      82.53079779      92.06358721      80.09724393
C      79.81715080      93.12750313      77.41383256
H      81.56703737      92.91963324      76.34802692
C      77.88018134      91.15840832      76.43306460
H      77.43798537      91.74044401      74.50743349
C      78.72488900      88.45609968      76.29889404
H      79.01401712      87.75501123      78.21318679
H      80.59193860      88.35972365      75.43528911
H      77.31326345      87.51690570      75.12726372
O      75.52369262      90.85794182      77.75020384
H      75.92242488      90.92219252      79.51898767
C      79.02535547      95.72965627      76.84502494
O      80.53902625      97.20175307      75.84913917
N      76.72744828      96.18508030      77.51209833
H      75.74290088      94.72999105      78.25287104
C      75.23267476      98.53401012      77.08124073
H      76.30037013      99.85303907      75.91338987
C      72.92153948      98.03890182      75.59969530
H      71.84817494      99.78689866      75.41828157
H      71.66676121      96.67640914      76.49731530
C      73.28436695      97.14884072      72.84636406
H      74.37851847      95.44052813      72.47786743
H      74.37662875      98.63794506      71.93740571
C      70.80315629      97.05057496      71.34025219
O      69.09106426      98.72676220      71.53678373
O      70.64441928      95.02478835      70.13082735
C      74.79992744      99.89272333      79.68717332
O      73.28436695     101.61237427      79.86291786
N      76.38540783      99.51477807      81.61469415
H      77.51546416      97.97654085      81.69784211
C      76.17942765     101.00010294      83.84835066
H      75.46133165     102.90305734      83.52331773
H      78.09749987     101.34592287      84.51920350
C      74.77158155      99.87193634      86.04610236
O      74.05726501     101.39883520      87.64859027
N      74.33694449      97.38883596      86.05366126
H      74.43143081      96.59704064      84.31889251
C      72.59461683      96.38161184      87.89425469
H      71.54959818      98.00866620      88.60290206
C      70.73701587      94.66196089      86.50719558
H      69.10051289      94.35582523      87.71851015
H      71.53825982      92.77412431      86.29743596
C      69.31783141      95.66918503      84.20172948
C      69.00224712      94.03079231      82.12869971
H      69.39719992      92.03335159      82.29499563
C      68.17643672      95.08525959      79.83835142
H      68.00447163      94.05157929      78.08846485
C      67.58873184      97.65528738      79.70796030
O      66.67410430      98.89494783      77.64248944
H      66.92921736     100.68073920      77.83335180
C      68.01769970      99.27667256      81.73185719
H      67.56983458     101.25332628      81.49375167
C      68.65642720      98.31102241      84.12991988
H      69.02114438      99.71319933      85.56611188
C      74.12151569      95.08714932      90.09011667
O      75.71266526      93.53757373      89.58178029
N      73.52625190      95.55958089      92.46739237
H      72.04848594      96.72743175      92.77919721
C      74.75457402      94.57881294      94.67648243
H      76.78036061      94.90195614      94.51018651
C      73.63774577      95.89784190      97.05564786
H      74.36340067      94.78857256      98.63167960
H      71.62329752      95.47643294      97.10289102
C      74.35962122      98.59259162      97.59044040
C      72.56249148     100.45208231      97.64524247
H      70.60473502      99.97776101      97.31831982
C      73.32972037     103.07880189      97.81531784
H      71.93699207     104.56601650      97.94003977
C      75.89218926     103.73264719      98.20082200
O      76.63863115     106.20440921      98.13657131
H      75.32716109     107.45351831      98.19893228
C      77.64774499     101.78433936      98.23672680
H      79.59416309     102.26810930      98.59766453
C      76.94476681      99.20864241      97.89846579
H      78.35261291      97.72898670      97.90980415
C      74.55237329      91.67808304      94.82577081
O      72.37540859      90.70109455      94.86923451
N      76.76146336      90.47810684      94.77474820
H      78.28269303      91.62328098      94.65947489
C      77.14696752      87.71343724      94.74451258
H      75.32905082      86.77424326      94.98261809
C      78.29025194      86.97266452      92.11023410
H      80.14407345      87.82682082      91.83433406
C      78.45465814      84.05870656      91.85701077
H      79.36739594      83.65241540      90.05610159
H      76.49690168      83.41619961      91.87968749
H      79.26724044      83.09305640      93.48406513
O      76.56871127      87.81170302      90.14302901
H      76.79925789      89.55781013      89.71217141
C      78.71921982      86.97644399      96.99706634
O      80.09872002      88.60727778      98.03263636
N      78.51512938      84.65397035      97.82854592
H      77.18287233      83.47667085      97.13123691
C      80.00801316      83.48422976      99.89968596
H      81.79569426      84.50468197     100.00740036
C      78.89307464      83.95288188     102.50183909
H      78.57371090      85.97866849     102.68325282
C      76.29848042      82.58849948     102.60388431
H      76.51012975      80.54948479     102.80041585
H      75.13440900      82.82093581     100.92202789
H      75.28747683      83.20832972     104.28763046
C      80.48233446      83.10439476     104.78840793
H      80.88862563      81.08616706     104.79785656
H      79.47888980      83.48422976     106.54774313
C      83.04102389      84.38184976     104.86588671
H      82.93519923      86.23000208     105.76917589
H      83.98399733      84.59916827     103.04797000
H      84.34493505      83.34439000     106.07909100
C      80.82437493      80.82727456      99.38757013
O      79.39007265      79.56871684      98.03830554
N      82.97110403      79.75957920     100.41180179
H      84.11438845      81.07482871     101.19036903
C      83.60794178      77.11963153     100.20204217
H      82.03568949      76.17854782     101.13934642
H      85.26334203      76.64342050     101.33398823
C      84.24100010      76.07461288      97.55831506
O      85.72632499      77.13663906      96.02574702
N      82.78024167      74.10362833      97.01596361
H      81.82970932      73.24947205      98.43325834
C      82.79913892      72.60129591      94.65569544
H      84.59626866      72.98302064      93.72217064
C      82.72543961      69.77237562      95.36434281
H      80.80358795      69.20923719      95.84433329
C      83.58715480      68.35508090      92.90391915
H      83.43597669      66.31039703      93.10234041
H      85.49955782      68.93522687      92.40881085
H      82.32670735      68.75381314      91.32410795
C      84.88728650      69.23191390      97.38068078
H      84.67752688      70.39031614      99.07009611
H      86.57103265      70.00481197      96.47739161
C      85.23310641      66.40866279      98.13657131
H      83.37361572      65.80395037      98.78663716
H      86.80724844      66.35197100      99.46126945
H      85.71498662      65.21813521      96.52463476
C      80.72988861      73.71623444      92.85667599
O      78.97244314      72.36885958      92.14046972
N      80.93775851      76.23712934      92.30487591
H      82.10182991      77.21789730      93.45760896
C      79.21810756      77.40875965      90.36790644
H      79.19921030      76.06705397      88.80510278
H      80.06281522      79.21911746      89.86901869
C      76.57627018      77.79426383      91.38835865
O      74.65630825      77.69410833      89.97862282
N      76.17186874      78.11551730      93.85823094
H      77.71010596      78.33661527      94.96372083
C      73.68498892      78.41976324      95.01096399
H      72.29604007      77.34072952      93.93948917
C      73.70010672      77.47490007      97.69248563
H      74.80559662      78.65975848      98.96238171
H      74.48056370      75.60974020      98.08932815
C      71.06771797      77.30860417      98.66191522
N      69.26869853      75.53793060      98.08365897
H      69.55971638      73.91276597      97.12367801
C      67.10496190      76.11051769      99.34221670
H      65.41932603      74.96723327      99.24206120
N      67.58495239      78.22890087     100.71415800
H      66.36796863      79.28336816     101.74027939
C      70.12474454      78.87518728     100.36455863
H      71.14141731      80.54759506     100.94281488
C      72.74579495      81.02569582      94.80120437
O      73.45633204      82.74156731      96.20905047
N      70.86740699      81.45655342      93.16470138
H      69.92254383      79.99390526      92.38613414
C      69.78837327      84.10217026      92.76596913
H      71.46267077      85.28135948      92.52786361
C      68.22745932      83.81304214      90.33389136
H      66.63442004      82.57905086      90.76852841
H      69.56160610      83.00990846      88.98462678
C      67.02559340      86.15819249      88.98084732
H      66.48891112      85.54592116      87.08734156
C      64.61430261      87.04447412      90.22617696
H      63.41621613      85.38907387      90.47373111
H      63.57873260      88.40129762      89.07344391
H      65.10941091      87.84949753      92.05732176
C      68.90398135      88.20665582      88.70305755
H      69.78648354      88.96821551      90.40192151
H      67.73802022      89.74867249      87.99252046
H      70.35340143      87.38084541      87.49741217
C      68.21990043      85.04703342      94.99962563
O      66.57016936      83.56359826      95.80086959
N      68.83406147      87.23722621      96.23361691
H      70.10584728      88.46365859      95.51174146
C      67.27503727      88.13862567      98.28019051
H      66.36985836      86.53046858      99.19670777
C      68.90587108      89.34238133     100.36455863
H      67.70211542      89.99055746     101.90657530
H      69.85829313      91.02423774      99.65591126
C      70.96945220      87.70776806     101.67224924
H      72.30548871      86.90085493     100.32865383
C      72.31304762      89.23655666     103.62055707
H      74.11962598      88.41074626     104.16290852
H      71.08283579      89.74489302     105.19091964
H      72.85728880      91.07526035     102.87033572
C      69.52381157      85.60450268     103.05174945
H      70.68032408      84.34972441     104.20637223
H      68.36540935      84.37996003     101.86878078
H      68.11974493      86.48700487     104.27440237
C      65.10374173      89.89229169      97.64713219
O      62.95512292      89.86772525      98.72616592
N      65.77648430      91.70453921      96.05220319
H      67.60007020      91.65162688      95.48717502
C      64.00581075      93.73032582      95.29253321
H      62.24458583      92.92152296      94.59900365
C      63.45023121      95.61627268      97.46193902