 %block lattice_cart
   139.898   0.000   0.000
   0.000 144.87   0.000
   0.000   0.000   168.12
 %endblock lattice_cart

 %block positions_abs
N      96.37115330      48.94192247      85.84012219
H      96.66784033      47.34699346      84.83667751
H      95.25621478      48.57909503      87.34245461
H      98.05489945      49.61844449      86.43349625
C      94.94252022      50.78062618      84.22440620
H      95.12204422      52.58720453      85.19572551
C      96.09903271      50.93369400      81.51642839
H      96.69996568      49.13656428      80.70762552
H      97.76388160      52.08075788      81.90571200
C      94.35670506      52.16579557      79.57756919
H      92.37816161      51.59509822      79.59457672
H      95.18818463      51.88989553      77.71240932
S      94.61559757      55.48982415      80.10480284
C      91.51455669      56.47815101      78.90671635
H      91.37282720      58.52850405      79.03521774
H      89.79301602      55.86776941      79.86102813
H      91.35959913      56.00949888      76.90549619
C      92.19296843      49.80741713      84.03354383
O      91.72809575      47.56998117      83.53654582
N      90.33914692      51.33620571      84.84234670
H      90.79646068      53.11632789      85.36013171
C      87.62172048      50.65779397      85.22974060
H      87.15306836      49.06097524      84.01464658
C      87.17763480      49.64868011      87.86779853
H      88.39461855      48.08209701      88.41581916
H      85.22176807      49.01373208      87.93015949
C      87.37794578      51.61399548      90.01641735
O      88.72532064      53.40356629      90.01452761
N      85.88317227      51.21715296      91.83811350
H      85.85860582      52.36988600      93.35934320
H      84.81547690      49.64679039      92.01574779
C      85.96065105      52.96703952      84.74975011
O      86.95653681      54.86810420      83.84835065
N      83.50967603      52.89145046      85.31288854
H      82.43820120      51.35888242      85.69650300
C      81.92797509      55.10431998      84.98029672
H      82.21332378      55.52761867      82.98474573
C      79.18220276      54.26906094      85.02376043
H      78.85716983      52.79507443      83.62347322
C      78.31481838      53.02373130      87.43127175
H      78.15419166      54.45047468      88.90714800
H      79.60739118      51.55163452      88.06810952
H      76.38351809      52.34154012      87.20639432
C      77.33782989      56.34398044      84.43983500
H      77.51735389      57.54206693      86.10657360
H      75.45944192      55.50116251      84.47573980
C      77.61184019      57.84253340      82.02098531
H      77.47577990      56.60287295      80.38448232
H      79.32204251      58.93479522      81.67138594
H      75.98100639      59.09731168      81.94350654
C      82.68197589      57.47970596      86.55065928
O      82.64607109      59.63399396      85.55288380
N      83.55502945      57.15467303      88.82777950
H      84.05391719      55.45391935      89.53453713
C      84.14840351      59.47525694      90.25830232
H      82.80291838      60.98514826      89.86712897
C      83.80636306      58.72125614      93.17981919
H      84.03879939      60.55807011      94.07932891
H      85.46365302      57.66489913      93.79964943
C      81.28546816      57.57041281      93.81098778
C      81.20798937      56.20225096      96.05409292
H      82.81992591      56.13422082      97.30509173
C      79.07637809      54.84164802      96.76840946
H      79.21432812      53.70214306      98.45593505
C      76.85783939      54.81141240      95.34544554
H      75.30826382      53.54340604      95.74795725
C      76.82004487      56.32319346      93.15336303
H      75.11929120      56.37799552      92.02708613
C      78.99700959      57.72159093      92.43715675
H      79.11039317      58.55873967      90.57955578
C      86.68441622      60.70357904      89.40792548
O      86.97354436      62.95046363      89.39847683
N      88.22265345      59.09920141      88.24952325
H      87.69541981      57.26805660      88.36668628
C      90.38827980      60.05918237      86.78687508
H      91.46920325      61.48403602      87.80732729
C      92.53500890      58.22236840      86.68482986
H      91.96809099      56.68791064      85.43194131
H      92.52367053      57.30018195      88.52731300
C      95.21464081      59.12754731      86.27475925
H      95.18251546      60.01004949      84.41337882
H      96.46186017      57.48726487      86.27286951
C      96.39383002      61.06640650      88.02275608
O      98.06623781      62.49126013      87.23474021
O      95.67384429      61.23459213      90.14869819
C      89.91584823      61.20246679      84.14314796
O      91.04590455      63.08652393      83.38158825
N      88.02045274      60.19146321      82.82789844
H      86.85638133      59.00093563      83.76331297
C      86.86960941      61.17412090      80.39204123
H      88.29824249      61.10042157      78.91049581
C      84.87783787      59.31651994      79.42072190
H      83.09582595      59.58486106      80.41660767
H      85.46365302      57.37766073      79.80433634
C      84.32603778      59.79273096      76.58046326
H      86.01923256      59.15022401      75.59780557
H      84.17296995      61.83174565      76.33668857
S      81.67853123      58.00127042      75.26899320
C      83.46621231      56.08697766      73.03533670
H      83.81581168      57.04506891      71.24387615
H      82.49867244      54.33898083      72.53644894
H      85.32381328      55.47092688      73.68162309
C      86.15340314      63.94823913      80.49030699
O      86.69386486      65.36364414      78.62136767
N      85.18397353      65.08207491      82.57845457
H      84.62839399      63.88965761      83.96173423
C      84.72854949      67.82595751      82.63703610
H      84.50934125      68.60641449      80.74164060
C      82.25867720      68.34941170      84.01464658
H      82.03002032      70.38464695      84.22629592
H      82.30214091      67.37809239      85.82878383
C      79.83226862      67.72958148      82.59168265
H      78.36773073      68.28894046      83.92582943
C      79.47133089      68.90499125      79.96685282
H      77.47766963      68.78593849      79.46607533
H      80.74689616      68.07540140      78.57979370
H      80.28013375      70.79282783      80.13881790
C      79.34849868      64.87042557      82.10413328
H      80.69587354      64.12965286      80.73030224
H      77.38885249      64.83452077      81.47674413
H      79.55825830      63.94445967      83.93149862
C      86.96976491      69.35285638      83.58378898
O      86.93952927      71.52415192      82.96773820
N      88.85382203      68.12831372      84.77431656
H      88.49099458      66.29527920      85.15604126
C      91.23487719      69.42466597      85.65303929
H      91.07425045      71.42966560      86.08767633
C      92.09470266      68.02248905      87.88291634
H      93.94474472      68.58373778      88.59534315
H      92.17407117      66.01937917      87.41426420
C      90.38072089      68.71601861      90.10712420
H      88.52311993      67.85430342      89.87279814
H      90.18418936      70.76637166      90.02586597
C      91.39550392      67.66722051      92.63746774
H      90.08214413      68.15476990      94.14735906
H      93.15105967      68.62153229      93.13257603
N      92.14950472      64.96491188      92.63179856
H      93.61782206      64.49248031      91.50552168
C      90.97031551      63.13187736      93.79964943
N      89.15806797      63.57596305      95.44371132
H      88.84248367      62.08685870      96.59644436
H      89.09948646      65.31451125      96.22605800
N      91.57124848      60.78105782      93.44816033
H      90.76244562      59.28061513      94.30798580
H      92.99799183      60.38799476      92.24440466
C      93.20775145      69.61741806      83.65937802
O      94.55134686      71.50147519      83.66126776
N      93.47798232      67.82406780      81.80177707
H      92.39516914      66.25748468      81.91894010
C      94.54567769      68.32106581      79.28277188
H      96.41083756      68.94656523      79.89126376
C      94.95574829      65.71702296      77.93917648
H      93.37215765      64.42256043      78.19051007
C      95.06724216      66.03638670      75.00065205
H      96.75665747      67.13809715      74.57924310
H      93.30412750      66.88676354      74.35625538
H      95.11826477      64.14855012      74.18051084
C      97.34436236      64.50570838      78.73853070
H      97.35570071      63.79706101      80.67361045
H      98.98842425      65.74725858      78.70829509
C      98.25143098      62.18134502      77.36469967
H      98.96952699      62.76716018      75.52599598
H      96.64705335      60.90389004      77.15682979
H      99.77266067      61.24215104      78.38704162
C      93.26822270      70.37708804      77.66516616
O      94.62315646      71.97201705      76.79589205
N      90.73598945      70.33551406      77.24375720
H      89.62294064      69.13931731      78.22830461
C      89.56246941      71.70556563      75.10836646
H      90.93063125      71.67910948      73.56823951
C      86.91496283      70.56228123      74.60947871
H      85.52979344      71.97201705      74.03311218
H      86.27812506      69.66277150      76.34991665
C      87.02267724      68.45334666      72.49487497
O      88.29824249      68.83318164      70.57491304
O      85.65451538      66.53905389      72.85581269
C      89.01255905      74.37952838      75.70363024
O      89.03334603      75.82138955      73.84980874
N      88.74799737      74.95400518      78.06767787
H      88.74988708      73.38742206      79.16182940
C      87.96376095      77.55993776      78.90104716
H      88.48343567      78.95266605      77.47430381
C      85.04980296      77.83961726      79.10891707
H      84.08604254      77.59395283      77.30611817
H      84.59248919      79.74635111      79.74008566
C      83.65707468      75.83272790      80.68494881
H      84.67941661      75.45478264      82.43294564
H      83.62305960      74.09795915      79.57567947
C      80.99822975      76.66231776      81.31233794
O      79.30125553      76.47523485      79.52087740
O      80.33682554      77.60529118      83.44961840
C      89.16373714      78.53503654      81.26131534
O      89.51333652      80.86884853      81.65437840
N      90.25977841      76.89664382      82.80900118
H      89.83081053      75.04660177      82.62380801
C      91.52589504      77.41064938      85.11824674
H      92.93185141      78.82227493      84.59668228
H      92.53122944      75.74957994      85.80043793
C      89.87994342      78.64464066      87.22340185
O      87.68219172      79.04715237      86.90970728
N      90.93063125      79.03203455      89.37580013
H      92.83925482      79.03959346      89.30588024
C      89.61349202      79.12463114      91.74173746
H      87.55935951      79.03770373      91.62268471
C      90.73598945      76.78137052      93.07399452
H      92.79390140      76.90609246      93.07588424
H      90.22765306      75.01258669      92.14991836
C      90.11426948      76.34862320      95.91803262
H      90.57914215      77.98323645      97.08210403
C      87.46109374      75.72879296      96.46416353
H      86.98488271      73.75213924      96.12779224
H      86.26111753      77.08372673      95.48150585
H      87.20787042      76.04248752      98.48428096
C      91.70730876      74.06205436      96.96494100
H      91.20464157      72.38964657      95.87267919
H      91.24243610      74.01103174      98.96994062
H      93.72742619      74.44755851      96.81376289
C      90.31835992      81.48867877      93.20627536
O      92.39516914      82.34661451      92.98139793
N      88.51556102      82.60550702      94.61412147
H      86.81102789      81.76457880      94.80498382
C      89.07303029      84.69365459      96.30164705
H      91.11393471      84.95443681      96.20905047
C      87.65573555      86.95376726      95.11300920
H      87.47432183      88.35405445      96.61345191
H      85.86616473      86.18086919      94.44593582
C      89.10326591      88.17830991      92.79431503
H      89.84214889      86.61550625      91.67559704
H      90.58481133      89.27246145      93.71650146
C      87.44030675      89.94331428      91.25796754
H      88.47398705      91.07715008      89.88602622
H      86.45386962      91.28313024      92.47117182
N      85.76411952      88.27279623      89.80098854
H      85.53735235      86.42275417      90.20916942
C      84.72099058      88.93797989      87.65992863
N      84.43186246      91.32281450      86.98340662
H      83.40763080      91.83682006      85.45650775
H      85.26712149      92.56625440      88.16637529
N      83.93675416      87.21643921      86.22562636
H      83.20543009      87.81548245      84.56833639
H      84.09927063      85.34938962      86.59412299
C      88.33792675      83.85461611      98.97560979
O      86.32158877      82.76991320      99.29686327
N      89.76089067      84.63507307     100.83887993
H      91.25188472      85.75757051     100.43069905
C      89.35082005      84.15886205     103.51095295
H      87.77667804      82.83794334     103.67535914
C      91.50888751      82.51668987     104.57297913
H      91.04023537      82.12551652     106.54018422
H      93.18885420      83.66942293     104.87911479
C      92.20619652      80.02225114     103.26717824
H      91.67707314      79.98823606     101.27729644
C      95.06346269      79.54415038     103.36355430
H      95.49809975      79.04715237     105.31186213
H      96.18218067      81.13718966     102.69081173
H      95.75888199      77.93221385     102.28452057
C      90.71331272      77.74702066     104.24605647
H      88.78768161      78.20811389     103.68291804
H      90.93630043      77.29348635     106.24349720
H      91.17818539      76.10295876     103.09710288
C      88.59870899      86.36984182     105.31375185
O      87.71431707      86.06181643     107.46426039
N      89.07492002      88.69609492     104.41424213
H      89.72498586      88.67719766     102.61900213
C      87.65384583      90.99022267     105.32886966
H      87.08503821      90.68030755     107.28284666
C      89.38105567      93.35238055     105.82964713
H      91.10259634      92.82325719     106.82742262
H      88.27934523      94.56180540     107.08064595
C      89.88183315      95.08714932     103.50150432
H      88.02423219      95.67863365     102.83821037
H      90.77567369      93.93063681     102.05019451
C      91.77722864      97.30379828     104.14779072
H      93.35515012      96.46098034     105.17202238
H      90.72087163      98.52834092     105.42335597
C      92.34792599      98.82124850     101.66469033
H      90.53567845      99.46375545     100.92769707
H      93.11326514      97.50410926     100.27574150
N      93.97120089     101.09836872     102.11255547
H      95.46408467     100.77900496     103.25772961
H      92.93374114     102.53456071     102.82309256
H      94.78000375     101.58024893     100.44959632
C      85.23121670      91.59304536     103.74338929
O      84.92508102      90.37795134     101.75728692
N      83.55125000      93.04435516     104.65234764
H      83.89518019      93.76245117     106.38711639
C      81.31192431      93.92496762     103.28418579
H      80.23478033      92.29035436     102.64923774
C      79.82281998      95.68619256     105.05485935
H      80.94909687      97.32836472     105.58398271
C      77.36617578      96.41373719     103.63567489
H      76.28903177      94.78479311     102.97993985
H      77.69498816      97.62505175     102.00484108
H      76.03769818      97.32647499     104.91879905
C      79.08393700      94.05535875     107.47370903
H      80.77335233      93.15206957     108.22582009
H      77.67987034      92.56625440     107.22048570
C      78.02946972      95.91106998     109.51650316
H      78.23544988      95.02856780     111.36465551
H      75.99234474      96.03579192     109.23871339
H      79.04236301      97.70442026     109.45225247
C      81.94876208      95.21187124     100.80108541
O      83.68164112      96.81246943     100.80864432
N      80.57115160      94.68652733      98.83010086
H      79.31259388      93.26923260      99.04741939
C      80.51823927      96.25877963      96.62290054
H      81.87128331      97.81024493      96.67581287
C      81.83726823      94.73754994      94.45160499
H      83.44353560      93.80402514      95.33977637
H      82.71599097      95.95642342      93.04186917
C      80.66563792      92.30925163      93.29698222
C      79.53936103      92.43397357      90.88191199
H      79.34471923      94.26133891      89.99563036
C      78.86094929      90.10205129      89.72162004
H      77.93876285      90.27023693      87.90748278
C      78.81937532      87.73422423      91.01419283
O      77.91608614      85.73867324      89.75374539
H      77.78758475      86.04858836      87.97173348
C      79.86439397      87.61328174      93.46705759
H      80.16297072      85.74812187      94.24373511
C      80.66185846      90.02457252      94.65191598
H      81.72388466      89.99811634      96.39424364
C      77.98600600      97.16017908      95.70827300
O      75.96966803      96.24933099      96.50006833
N      78.17308891      98.89494783      93.90169464
H      79.89273986      99.29556980      93.17981919
C      75.93565295     100.15161583      92.66392390
H      74.25946572      99.57524930      93.71461174
C      76.11895641     103.02211010      92.92470614
H      74.72811784     103.68918349      91.56221347
H      77.91608614     103.77611090      92.25952248
C      75.30637409     103.83280269      95.65725038
H      76.44587906     102.86337309      97.07643484
H      73.36940463     103.20730328      95.95960659
C      75.40463986     106.66739216      95.86889974
H      77.02980449     107.20218470      94.72183587
H      75.20999805     107.26454567      97.83043564
C      73.08027649     107.81823549      94.40436185
H      71.48156803     107.21352307      95.55520516
H      73.03303334     106.84124698      92.59022459
N      73.32594092     110.51298521      94.16247688
H      71.83305714     111.58068058      93.63713295
H      74.65630825     111.16683051      92.96061094
H      73.81349031     111.19139694      95.87834836
C      75.35739670      99.18218624      89.97673310
O      76.94098736      98.83069713      88.38747327
N      72.92153948      98.72298274      89.53264741
H      71.76502699      98.72676218      91.05198737
C      71.75179891      97.82725247      87.21962239
H      73.10484295      96.50444404      86.40704009
C      69.27625744      96.60837899      87.86968825
H      68.10651685      98.18252102      88.49707739
H      69.47656842      95.12683356      89.28509325
C      68.12541411      95.27234248      85.45650775
O      66.62497142      96.60459954      84.13369933
O      68.64130940      93.12372367      85.03131932
C      71.66298176      99.98909937      85.26942485
O      71.87463111     102.18118189      85.95161605
N      71.32850020      99.28045200      82.92238477
H      71.29637487      97.40773323      82.55955732
C      70.91465014     101.18529612      80.79644267
H      72.57194012     102.40605933      80.76053787
C      70.82016382      99.97587128      78.09791348
H      70.39875487     101.52922632      76.81100986
C      73.36373545      98.68140876      77.41005311
H      73.45633204      98.60959915      75.35214115
H      73.49034710      96.77845437      78.18862035
H      74.83394252      99.95508430      78.08279567
O      68.94744506      98.23165389      78.06956759
H      67.37330304      98.90628618      77.46674490
C      68.65831693     103.01077174      81.18761600
O      68.83028203     105.24064879      80.54699878
N      66.84417966     102.30212438      82.84679572
H      67.06338792     100.46153095      83.29655057
C      64.67288414     103.69107322      83.57056088
H      64.62186152     105.38048853      82.39515113
C      62.15765842     102.24921203      83.33056565
H      60.68556161     103.53044648      83.98441096
H      62.45245571     100.69774673      84.65526379
C      61.71924191     101.50088041      80.63959537
H      60.29060881     100.01744527      80.66416181
H      63.38787025     100.72798235      79.70985003
C      60.65343626     103.59658690      79.00687185
O      58.26104276     103.62304307      78.82734784
O      62.04238511     105.17450836      77.94106620
C      64.90343075     105.01577135      86.19161128
O      63.31795037     106.41416883      87.04198812
N      67.00291668     104.52822197      87.52575806
H      68.41643196     103.64005060      86.59790244
C      67.61707773     105.58835844      90.02208652
H      66.71000910     107.38548816      90.45672358
H      69.62396707     106.05701056      90.00507899
C      66.90276119     103.96886299      92.37290606
O      67.40731811     104.96096929      94.46105364
N      65.87475007     101.79378800      91.81543680
H      65.25303012     101.48576261      90.03720434
C      65.33428835      99.86059798      93.70138366
H      63.93778060     100.64105495      94.99962564
C      63.94533951      97.57402914      92.58644513
H      63.35574490      96.33436868      94.12090290
H      65.33428835      96.48743651      91.52441895
C      61.52837955      98.04646071      91.22584219
C      60.64776708      96.48365705      89.23596037
H      61.72869053      94.86416161      88.62368905
C      58.42544894      96.99199343      87.84701154
H      57.85853105      95.72398707      86.35412774
C      56.86453501      98.93085263      88.60101234
O      54.54584082      99.33147460      87.36891077
H      54.02238664     100.96608787      87.96039512
C      57.71302213     100.59003234      90.63624757
H      56.61887058     102.18307162      91.29387234
C      60.04872384     100.14972610      91.79464981
H      60.47769172     101.37426876      93.36879182
C      67.73424077      98.94786016      95.03364071
O      69.79215272      98.90817592      93.90547409
N      67.46589963      97.98976893      97.30509173
H      65.74057950      98.17874156      98.09688705
C      69.64853351      97.03923660      98.79041661
H      71.42109679      97.66473600      97.95326786
C      69.74301983      98.00866620     101.57209374
H      71.14519676      96.82380780     102.50561855
H      67.96100791      97.67229491     102.55286170
C      70.37796787     100.75443852     101.77429446
C      68.31438673     102.35692644     102.02940752
H      66.40576316     101.64260990     101.91035476
C      68.89831217     104.98364602     102.48294183
H      67.42054620     106.39338185     102.47160347
C      71.32283102     105.97008315     102.36766852
O      71.89919756     108.44562461     102.78151859
H      70.23812813     109.16372062     102.88734326
C      73.30704366     104.31279317     102.14846027
H      75.15708571     105.15750084     102.32231509
C      72.81004563     101.70119141     101.97838491
H      74.44087944     100.48420766     102.12011438
C      69.79215272      94.19708821      98.65246659
O      67.84006543      92.85727227      98.76773990
N      72.05226538      93.12939284      98.26696243
H      73.51869301      94.32181015      97.99673157
C      72.60217574      90.51212191      97.45249039
H      70.99590837      89.46332381      98.19893228
C      72.95555456      90.34204653      94.52341459
H      74.90386240      90.78991167      94.03208575
C      72.82516345      87.69453997      93.58422063
H      73.19177036      87.87784342      91.56599292
H      70.99779811      87.05770220      94.29664744
H      74.15364105      86.59282954      94.70482832
O      71.53637011      92.08059474      93.09100205
H      71.21511662      93.47710249      94.20594057
C      75.02102543      89.75056220      98.65246659
O      76.56871127      91.35305012      99.13056736
N      75.44621385      87.35627897      99.29686327
H      73.90797663      86.26023770      99.01529404
C      77.81026146      86.17897948     100.20771135
H      79.42030827      87.35627897      99.68614688
C      77.98033682      86.52668911     103.07064672
H      77.61750937      88.44287159     103.73394064
C      75.83738720      84.87128886     104.25172566
H      74.08183145      85.08104848     103.19158920
H      75.51046453      85.34938962     106.22837939
H      76.23800916      82.86062007     104.07787083
C      80.38406869      85.51568554     104.22337977
H      82.01490250      85.94087396     103.04041109
H      80.38784816      83.45777358     104.22337977
C      81.07003936      86.22244317     106.97671100
H      80.99445029      88.25956815     107.26961858
H      83.09393624      85.86717463     107.13922747
H      80.25367759      85.03758477     108.45069753
C      78.18820673      83.51068591      99.14568517
O      76.38918727      82.36173231      98.42380970
N      80.44265022      82.63196319      99.34788588
H      81.87128331      83.69209964     100.03952570
C      81.08137770      79.98823606      98.77340907
H      79.60550145      78.74290643      99.49339481
H      82.91441224      79.43832572      99.53496878
C      81.13806949      79.34005995      95.88590727
O      81.90340865      80.89152524      94.41758993
N      79.97966727      77.24246374      95.19237771
H      79.80581245      75.93288340      96.56998820
C      79.02346576      76.76814244      92.65825473
H      80.30658992      77.74513094      91.37324083
C      79.43353636      74.02614956      92.01763751
H      78.26946496      72.91688020      93.30643086
C      78.51323964      73.40253986      89.27564463
H      76.47422495      73.27403847      89.01864184
H      79.14629797      71.50714437      88.78053633
H      79.11984179      74.79904762      87.88480606
C      82.18875732      73.05671996      92.24440466
H      82.23222103      71.02148471      91.92504092
H      82.99189101      73.40253986      94.10956454
C      84.24288983      74.28693179      90.36790644
H      84.50556178      76.28815194      90.78175649
H      83.83281922      73.84284609      88.39881161
H      85.99466612      73.33262000      90.88380173
C      76.28714206      77.68843915      92.34078071
O      74.49568150      76.28626223      92.13858000
N      75.81471047      80.21311350      92.05543203
H      77.18476205      81.53970138      92.08377792
C      73.47900875      81.39419245      91.17670929
H      72.65697780      80.53436697      89.49296316
H      74.01002184      83.24045505      90.43215714
C      71.36251529      81.65119522      93.20816508
O      69.10618206      82.09528090      92.52408417
N      71.79526261      81.22978626      95.71016273
H      73.46956013      80.45310874      96.19582239
C      69.73546092      81.13907939      97.58855067
H      68.28037167      80.06760458      96.59644436
C      70.54426378      79.33817022      99.69559552
H      72.06171401      80.18665734     100.80108541
H      71.43054543      77.75835903      98.71482757
C      68.37296826      78.43866049     101.44926154
N      66.93866599      76.23712934     101.16769232
H      67.07094683      75.09762437      99.64079345
C      65.35696506      76.06138479     103.20292756
H      64.07384090      74.52503730     103.60543925
N      65.57806303      78.27047486     104.51061817
H      64.37241764      78.75991396     105.90712591
C      67.61140855      79.68776958     103.50906321
H      68.33895319      81.45655342     104.22149003
C      68.84162038      83.72800444      98.39546381
O      70.40820349      85.24356495      99.18347969
N      66.38686589      84.25334835      98.17436584
H      65.33617806      82.78692073      97.54697670
C      65.41365685      86.82148641      98.64112823
H      66.76859062      88.27090650      98.08932816
C      62.85307769      86.94053917      97.17281089
H      61.43767269      85.96733013      98.31042614
H      62.91543866      85.80292393      95.45882912
C      61.78916177      89.43119846      96.02196757
H      59.91077383      89.35371967      95.17725990
C      61.64932203      91.65918577      97.98728293
H      61.12586785      93.52812511      97.30320201
H      63.50314355      91.70453921      98.88679265
H      60.08651837      91.13762132      99.22316394
C      63.40487778      90.38739997      93.88090766
H      65.19822805      90.88061853      94.76907902
H      62.54883176      92.08059474      93.07777397
H      63.83195593      88.75845589      92.69793899
C      64.99980679      87.12573235     101.56642457
O      64.17966557      85.47978074     102.87600491
N      65.76514595      89.33860187     102.53207471
H      66.38875563      90.67274864     101.32076015
C      65.61963702      90.01890334     105.11722031
H      65.36641370      88.35783391     106.31152733
C      68.13675247      91.38706518     105.80130124
H      67.64164417      92.34893589     107.55307752
H      68.53548472      92.76089622     104.31975580
C      70.59528640      89.84693825     106.17924650
H      70.99590837      88.70743327     104.51061817
C      72.76091275      91.66107550     106.79718701
H      72.23178938      93.51300729     107.52662136
H      73.69254783      91.81603306     104.96604221
H      74.06293419      90.78235276     108.12755433
C      70.29293019      88.04791880     108.36565985
H      71.83683659      86.70054393     108.16345913
H      68.54871281      86.96321590     108.20692284
H      70.14931098      89.11750389     110.11932587
C      63.25558940      91.82359197     105.59343134
O      61.58696106      91.35305012     107.09765348
N      63.21212569      94.00433614     104.18936469
H      64.59918481      94.08937382     102.87978435
C      61.02949181      95.82414257     104.01362015
H      59.24181071      94.81124927     103.87000095
C      60.94445411      97.34726199     106.41546228