 %block lattice_cart
   139.898   0.000   0.000
   0.000 144.87   0.000
   0.000   0.000   168.12
 %endblock lattice_cart

 %block positions_abs
N      91.84809338      42.54047460      89.52319877
H      92.09564753      42.97889110      91.36379220
H      93.52050117      41.98678479      88.78809524
H      90.59331511      41.12129013      89.28887271
C      90.90700968      44.81570508      88.15314720
H      91.69124610      46.49756150      89.04509801
C      91.47203784      44.66263725      85.22596114
H      90.47237262      42.97700137      84.58912337
H      93.39388950      43.99745358      84.88770012
C      90.90323022      46.98133143      83.67449584
H      88.86799498      47.26479038      83.81811504
H      91.24338096      46.48433341      81.70351129
S      92.54162294      49.79324419      84.57022611
C      91.94257970      51.83225888      81.81122570
H      93.49404500      51.60360199      80.47707891
H      92.16556740      53.84670713      82.17216341
H      90.11521435      51.39006292      80.97029749
C      88.00250033      44.86294823      88.39692190
O      86.59654396      43.13951784      87.69205397
N      87.09921116      46.86038895      89.62146454
H      88.09887637      48.37972890      90.19783107
C      84.43091760      47.37628423      89.79153992
H      83.50117226      46.14985185      88.42148834
C      83.77140312      46.77724099      92.46550265
H      84.68225120      44.95932428      92.79053557
H      81.74939596      46.52023821      92.76029994
C      84.99783550      48.56303236      94.40436184
O      85.93325002      50.61338541      93.88090766
N      85.25294855      47.63328701      96.66447451
H      86.10521511      48.56303236      98.09688705
H      84.33076211      45.98166621      96.90824921
C      83.71093188      50.07103395      89.01675212
O      85.14712387      51.69241913      88.20605953
N      81.38467878      50.86660873      89.50241178
H      80.10911352      49.50789551      89.91437212
C      80.15446695      53.26656115      89.20383503
H      80.26596081      54.04323866      87.29899090
C      77.30098022      52.91507205      89.77831183
H      76.72461370      51.28045879      88.66526303
C      76.59800203      52.56547269      92.64502665
H      77.84900085      51.23132591      93.59177952
H      74.64213530      51.92107601      92.56943759
H      76.47516982      54.41551475      93.54264665
C      75.64557997      55.19975117      88.84100758
H      76.36556570      56.81735689      89.89358513
H      73.75018448      54.88227715      89.58367001
C      75.58510873      55.48887929      85.94972632
H      74.38324279      57.09514666      85.48296391
H      74.94071206      53.71442628      85.12769538
H      77.38223845      56.15784241      85.19950497
C      81.43570140      55.49454847      90.78742567
O      81.83065419      57.67907209      89.81043718
N      82.54497074      54.89739496      92.97194930
H      82.56764746      53.10026523      93.61256651
C      84.17769428      56.70019386      94.39491322
H      83.34243524      58.57669209      94.55553995
C      84.73327381      55.80446359      97.16147254
H      86.20915006      57.08569803      97.81153839
H      85.63845272      53.96198043      96.97816909
C      82.50906594      55.47376148      98.85466731
C      82.27662960      57.12727201     100.91257927
H      83.57865103      58.67117840     101.20548684
C      80.23383546      56.91940211     102.59443568
H      79.67069702      58.35937356     103.92669274
C      78.51418452      54.87660797     102.32798428
H      76.91547605      54.55535449     103.55819610
C      78.98472637      53.07569879     100.34377165
H      77.60900561      51.64706570      99.86378117
C      80.92358556      53.44230570      98.52963438
H      81.31853836      52.03823905      97.10478074
C      86.60788231      57.27845011      92.85289653
O      87.34487558      59.51210661      92.49195882
N      88.09698665      55.35092927      92.15180808
H      87.73982838      53.60482216      92.83399927
C      90.63866854      55.95942114      90.84978664
H      91.64400294      57.27089121      92.07999847
C      92.16934685      53.44797487      90.50018728
H      93.98348411      53.98465715      89.68193578
H      91.19046862      52.24421921      89.14525351
C      92.49815923      52.19319660      93.06265615
H      90.62166100      52.31980827      93.90169465
H      93.82285738      53.29490704      94.19082276
C      93.34853607      49.41340920      93.00974383
O      95.60486929      48.90696254      92.80754310
O      91.63266458      47.73344250      93.03997945
C      90.24182601      57.14805900      88.26275132
O      91.72715090      58.76377499      87.43694093
N      88.06108185      56.79279045      87.05332648
H      87.06519608      55.28478885      87.66748754
C      87.51684067      57.76033032      84.57400556
H      89.20625599      57.65639537      83.40048552
C      85.44192118      56.22587255      83.47607457
H      84.00572918      56.07847390      84.94628164
H      85.94269865      54.26811609      83.07734233
C      84.10021550      57.20853024      80.99108447
H      85.24349992      57.32758300      79.28088216
H      83.71093188      59.20408122      81.31989685
S      81.28452329      55.43974641      79.87803568
C      80.50028687      57.32191382      77.15116061
H      78.47072081      57.57702687      76.92628317
H      81.27318493      56.58492055      75.38993568
H      81.39034796      59.14927916      77.48753188
C      86.88945153      60.67428830      84.73463229
O      87.91746265      62.06512686      83.29466084
N      85.41735474      61.50198842      86.60168189
H      84.75595053      60.05634779      87.65614917
C      84.73894299      64.06256757      87.02687031
H      84.51784501      65.10191705      85.26375567
C      82.04419327      64.42161557      88.45739314
H      82.37111592      66.29055490      89.25674736
H      81.79096994      63.07802017      89.99563036
C      79.65746893      64.46129983      86.80010316
H      78.03041458      64.92617250      87.97173347
C      79.73683744      66.72897140      84.91793576
H      77.83955222      67.12959338      84.22251646
H      80.73839239      65.97686033      83.28332248
H      80.48894851      68.36547439      85.91571124
C      79.00362363      62.05000905      85.42060294
H      80.31698342      62.00843507      83.83701229
H      77.24617816      62.36937280      84.39637129
H      79.06598460      60.36059373      86.59601272
C      87.01795292      65.52899519      88.15125747
O      87.25416871      67.71918799      87.70339234
N      88.75083195      64.33657789      89.57800083
H      88.38044560      62.56779406      90.19594134
C      91.15267410      65.48931094      90.42837767
H      90.78984664      67.38848589      91.13891478
C      92.53028458      64.02477305      92.43526703
H      94.42190062      64.84302454      92.39180332
H      92.85909696      62.01032480      92.16503617
C      91.33219810      64.44807174      94.98450782
H      89.84120404      63.05156400      95.24906950
H      90.54607195      66.35102614      95.08844276
C      93.03862096      64.02477305      97.21249515
H      91.79140159      64.09280320      98.85088785
H      94.58441708      65.38348627      97.20493624
N      94.18001565      61.54545213      97.04808895
H      95.86754125      61.53789322      96.15613814
C      93.22570386      59.35147988      97.87956854
N      90.91834803      59.05857230      98.79041661
H      90.46292399      57.34081108      99.48772562
H      89.80718896      60.60625815      98.73561455
N      94.52772529      57.27845011      97.93626033
H      93.83419573      55.68541083      98.72616591
H      96.16989746      57.49387891      96.98950743
C      92.96870108      66.01843431      88.25141297
O      94.33686293      68.01398530      88.39314244
N      92.83453052      64.75987658      86.05366127
H      91.76116597      63.18384484      86.00452839
C      94.23103826      65.46852395      83.69339310
H      96.04706525      66.37370286      84.05244110
C      94.86409658      62.91739343      82.38381277
H      93.11609974      61.82702135      82.34979770
C      95.69935561      63.54289284      79.77032128
H      97.12987842      64.98097456      80.13125899
H      94.17434647      64.42539503      78.70451563
H      96.61776259      61.93284602      78.87648072
C      96.95224415      61.29411853      83.74063625
H      96.61398314      61.41128156      85.76831259
H      98.89488280      61.82324189      83.30221975
C      96.71224891      58.46141878      82.82222927
H      94.77905889      58.17795984      82.17405315
H      96.82941194      57.07246994      84.33778978
H      97.99159362      57.89261116      81.30855849
C      92.70035995      67.37336808      82.15137642
O      93.83419573      68.82467788      80.67361046
N      90.15111915      67.54344344      82.44239429
H      89.25349915      66.21118639      83.47418484
C      88.67335317      69.25364576      80.82289884
H      89.61632660      69.38214715      78.99742321
C      86.09198703      67.92894761      80.54699878
H      84.67658202      68.57334428      81.90004282
H      86.26395212      65.91260964      80.92494405
C      84.97137933      68.16327367      77.86925661
O      85.94458838      69.53143552      76.25354060
O      83.34243524      66.58535220      77.36469967
C      88.28406955      71.93327767      81.88114556
O      88.32942298      73.81733480      80.43172549
N      88.04974349      72.10146331      84.41148909
H      88.12344282      70.41393771      85.29966047
C      87.77384345      74.36913489      85.92704960
H      88.09887637      76.00374815      84.71573503
C      85.15279305      74.37480406      87.13647445
H      85.13767524      75.63147206      88.76919797
H      84.73138408      72.45484213      87.76008413
C      83.01362287      75.00408293      85.21462279
H      81.30720001      75.31021859      86.32767159
H      82.82465024      73.41482310      83.91827054
C      83.48794417      77.63458195      84.04677193
O      84.84665739      79.32021783      84.97840700
O      82.36166729      77.93126899      81.97941133
C      89.74860745      74.60157122      88.05677115
O      90.82386172      76.70483661      88.21361844
N      90.20025203      72.63247640      89.55910357
H      89.08720324      71.08479055      89.49296315
C      91.95202833      72.73830108      91.75307582
H      93.57530323      73.91938002      91.28820316
H      92.51705649      70.76920626      91.96094571
C      90.64622744      73.71339986      94.23617619
O      88.44469629      74.65826301      94.17003578
N      91.78951186      73.60568546      96.49250942
H      93.42034567      72.63058668      96.31298541
C      90.77850829      74.29732529      99.03041185
H      88.72248606      74.41259859      99.09088309
C      91.67990774      72.16571400     100.80297513
H      93.72837106      71.96918247     100.68581210
H      90.89756104      70.36858428     100.16613738
C      91.15078437      72.76475725     103.63189542
H      91.49660429      74.73007261     104.14401125
C      88.28029010      72.30366403     104.04763521
H      87.20881528      73.97229236     103.49016595
H      87.83053524      71.84635026     106.00539167
H      87.52628930      70.72196310     102.96482203
C      92.67579350      71.05266521     105.23249361
H      94.70346984      71.23218921     104.91124014
H      91.91423380      69.15349026     104.99816755
H      92.39044483      71.49675089     107.22237542
C      91.58542142      77.06199488      99.76362567
O      93.85498272      77.51552920      99.83354553
N      89.74482799      78.62668827     100.48361139
H      87.92880101      78.25063273     100.03952571
C      90.08875818      80.92081601     101.91035476
H      92.07675026      80.90758793     102.45270620
C      89.69002593      83.18848759     100.12456339
H      89.18168955      84.96860978     101.02596284
H      88.19147296      82.58377517      98.84710841
C      92.10320643      83.99351100      98.84143923
H      93.00460588      82.33055184      98.02885692
H      93.32207990      84.80609331     100.28896959
C      91.66478993      85.76418455      96.60967245
H      93.42412512      86.19504215      95.62512505
H      90.71614732      87.33265739      97.54697671
N      90.31174589      84.68515083      94.50829678
H      89.10610050      83.23195129      94.78419684
C      90.66323498      85.16703104      92.03464505
N      92.22225919      86.72983470      90.88002226
H      92.07297081      86.90179979      88.98462677
H      93.51672171      87.76351499      91.83055461
N      89.42546425      83.76296439      90.47940028
H      89.52561974      83.84989180      88.57455617
H      88.01572842      82.72550464      91.24284972
C      88.47871136      81.05876603     104.26873319
O      86.53607271      79.96272477     104.38589622
N      89.49538412      82.04520317     106.22459992
H      91.07330559      83.03353003     105.79941150
C      88.57886686      81.91481205     108.80029690
H      86.89323099      80.77341736     109.11966064
C      90.70480896      80.97939753     110.42735124
H      90.33442260      81.16270098     112.44557896
H      92.14667014      82.36645664     109.93224296
C      91.59109060      78.27708890     109.96436830
H      92.27328180      78.28464781     108.02172966
C      93.59986967      77.56466208     111.89566860
H      94.88488356      79.15014246     111.62543774
H      94.62032188      75.88469539     111.27961781
H      92.86098668      77.51363947     113.81563053
C      89.38766972      76.50641535     110.14200258
H      89.82230677      74.54487943     110.59364716
H      88.19714214      76.56877631     108.46203589
H      88.38611477      76.96561884     111.88244051
C      87.35621393      84.53964190     109.75838814
O      85.77640274      84.52263437     111.58575348
N      87.86832976      86.70715798     108.46770507
H      89.10043132      86.62589975     107.01072607
C      86.32820282      89.05041861     108.85509896
H      85.07342455      88.77262884     110.46514577
C      88.30107709      91.28029566     109.39556069
H      89.29885258      91.38045116     107.59654124
H      89.68057730      90.53196404     110.73159718
C      87.25038926      93.92780223     110.47459441
H      85.99561099      93.54796724     112.06385423
H      86.04852333      94.90101128     109.11588119
C      89.25727860      95.90634568     111.30607398
H      89.95080816      95.10321199     113.06918864
H      88.35965861      97.75638774     111.43268565
C      91.61187759      96.00650117     109.43524494
H      91.37188235      96.83609102     107.56441589
H      92.32997359      94.08275978     109.30107437
N      93.47892719      97.45592125     110.87899583
H      92.68713186      99.04329135     111.58008430
H      94.96803152      98.22126041     109.96058885
H      93.98726357      96.51105810     112.45691731
C      84.70492792      89.72316118     106.63467053
O      85.09988072      88.67814253     104.52195652
N      82.85866531      91.39178951     107.05230006
H      82.79819407      92.36688829     108.69258249
C      81.19192670      92.29129924     105.05863879
H      80.13556969      90.77573874     104.14968043
C      79.20204489      94.18291528     106.27184309
H      80.30375533      95.55296685     107.34520763
C      77.81876523      95.59643056     104.31408663
H      77.09877951      94.34732147     102.84198982
H      79.14913256      96.90223144     103.43914335
H      76.35800679      96.88711363     104.97549084
C      77.59010835      92.64278833     107.99149404
H      78.67481125      91.77918341     109.51461344
H      76.69815753      91.12722783     106.91623977
C      75.34511349      94.08653924     109.09320447
H      74.62323804      93.23049322     110.82041433
H      73.72750776      94.31897557     107.84031592
H      75.82321425      96.03862652     109.54673879
C      82.61111116      93.75583713     102.93080697
O      84.39690253      95.02195376     103.70937421
N      81.81364666      93.40056858     100.56486963
H      80.47572043      92.12500332     100.08865859
C      83.12511672      94.27551187      98.22916790
H      83.95470657      96.11421557      98.65057687
C      85.32664787      92.35743966      97.53752807
H      86.56252888      91.83587520      99.10222146
H      86.39434324      93.29852336      96.05031347
C      84.62555941      89.89512627      96.36400803
C      84.24761415      89.56064472      93.73350901
H      84.50839638      91.09510248      92.41259030
C      83.53140788      87.12289777      92.76029994
H      83.56353322      86.75251141      90.75152087
C      83.28574346      85.03852965      94.42703855
O      82.68670021      82.74062245      93.54075692
H      82.75095091      82.86912384      91.73417856
C      83.60699693      85.35033449      97.08399375
H      83.49361335      83.85367125      98.46727341
C      84.43469705      87.69170539      97.97783429
H      84.77862724      87.98272324      99.96771610
C      81.21082396      94.45503587      96.14291004
O      79.12645584      93.37033296      96.40369229
N      81.68514527      95.89878677      94.03586522
H      83.39156813      96.68302319      93.69760421
C      79.67825592      96.34098273      92.13291082
H      77.81876523      95.58131275      92.59211430
C      79.53652645      99.15100575      91.67370732
H      78.93937294      99.83130723      89.82366525
H      81.50373154      99.76138735      91.62835388
C      78.05876047     100.55318268      93.80153915
H      78.82976881     100.07697165      95.65158120
H      76.02163551     100.24893674      93.81476724
C      78.70882633     103.49359682      93.63524324
H      79.12078666     104.07752225      91.70394294
H      80.50784578     103.69390781      94.62357010
C      76.78319521     105.13954844      94.84466808
H      77.48050422     107.04628229      95.19804690
H      76.28808692     104.42334217      96.71171768
N      74.43237568     105.29639572      93.53886719
H      73.42137210     106.78550006      94.17192551
H      73.21350221     103.87532154      93.90358437
H      74.81410039     105.54017042      91.68504567
C      80.24517382      95.05785856      89.65736935
O      82.37111592      94.83865031      88.85990483
N      78.38946258      94.15645911      88.23062597
H      76.60556094      94.37944681      88.86935347
C      78.62378864      92.48216160      85.94972632
H      80.25084300      92.94703427      84.77620627
C      79.17747845      89.75717625      86.70750657
H      77.61467479      89.05797752      87.85268072
H      80.77807664      89.79875023      88.00763828
C      80.02785529      87.86744994      84.57778502
O      80.45304371      88.45893428      82.34979770
O      80.26785053      85.69804413      85.35068308
C      76.24840267      92.74105410      84.16015549
O      74.30576402      93.63111519      84.98785562
N      76.44493420      91.97382522      81.75075444
H      78.13434953      91.17258126      81.36714000
C      74.89913808      92.16279785      79.49064178
H      76.02541496      91.55430598      77.87492579
C      72.61067951      90.34299141      79.57756919
H      71.48818208      90.91179903      77.94673538
C      73.62357282      87.55186565      79.53410548
H      74.61756886      87.48005605      77.73319630
H      72.08722532      86.18181407      79.49064178
H      74.86134355      87.11533887      81.12147558
O      71.25574575      90.60188391      81.88492501
H      72.40658907      91.12911756      83.18316699
C      74.30198456      95.00494622      79.01254103
O      75.44904844      96.16523818      77.42139146
N      72.41414798      95.98949363      80.31645217
H      71.49763071      94.83298113      81.52398729
C      71.23495876      98.47259401      79.88748431
H      72.06265888      99.55918664      78.34546764
C      68.33044941      98.09842820      79.32623559
H      67.41582188      99.94091135      79.21474174
H      67.75786234      96.99482803      80.96840776
C      68.02242403      96.58097797      76.92628317
H      68.69138714      94.63833932      77.09068937
H      69.17893653      97.39167056      75.42773021
C      65.25208525      96.53940399      75.83213163
O      64.29588374      98.57463923      75.04222603
O      64.34312689      94.48716121      75.42584048
C      71.97384175     100.31507716      82.02287503
O      70.60190044     102.12543497      82.46129154
N      74.19238044      99.77839489      83.27009440
H      75.25440663      98.23259877      82.90915668
C      74.91236616     100.68357379      85.82311465
H      74.91425589     102.73959602      85.68894409
H      76.87579180     100.32830525      86.32956130
C      73.25885564      99.84075586      88.10968349
O      73.09067000     101.12388003      90.02397625
N      72.06265888      97.76772609      87.95850538
H      72.38013290      96.71703826      86.39759145
C      70.36190520      96.70947936      89.88791595
H      69.29420983      98.17779670      90.85734555
C      68.32289051      94.80841469      88.92415553
H      67.22306979      94.09409814      90.51341537
H      69.27531257      93.13033772      88.20228008
C      66.73929986      95.81563881      86.71695521
C      65.35790992      94.17535637      85.10690838
H      65.59412571      92.14956976      85.21462279
C      63.48708087      95.11077090      83.47418484
H      62.32867864      93.84843372      82.36302577
C      62.94472942      97.67512950      83.37213963
O      60.92272227      98.28551110      81.93405791
H      60.24242079      99.88610929      82.45373263
C      64.12958782      99.37399346      84.95384055
H      63.82534188     101.39222116      84.94439191
C      66.06088811      98.45936592      86.64892506
H      67.18905472      99.76138735      87.74307658
C      71.95683421      95.30541271      91.92882038
O      73.85411943      94.12244404      91.45638879
N      71.12346491      95.51328260      94.33633169
H      69.31877628      96.07453132      94.61223173
C      72.49918566      94.66668521      96.52274503
H      74.43237568      95.32430997      96.24495527
C      71.44282865      95.61154837      98.95860226
H      72.31777193      94.73093591     100.60077442
H      69.42271122      95.19958803      98.95482281
C      71.89258351      98.45936592      99.41024685
C      69.91404006     100.22437030      99.71449279
H      68.01108567      99.57997363      99.34788588
C      70.46961960     102.83597206     100.42125042
H      68.90870567     104.12854486     100.67069430
C      73.09633918     103.64099547     100.50061892
O      73.75396393     106.09008078     101.09021354
H      72.51997265     107.39399193     101.35477522
C      75.07677235     101.89110891      99.90157568
H      77.07421306     102.29551034      99.86378117
C      74.40402978      99.42312634      99.50284344
H      75.87801631      98.06630285      99.11544955
C      72.46139113      91.71682244      96.72683548
O      70.58678263      90.48094143      97.03108142
N      74.71016545      90.60188391      96.78163754
H      76.23517458      91.74705806      96.70982795
C      75.21850183      87.79941979      96.89124166
H      73.43648991      86.77140868      96.79108618
C      76.85878426      87.15124367      94.56876804
H      78.84866607      87.66713895      94.67081325
C      76.70571643      84.28263912      93.82799531
H      77.97183306      83.93681921      92.23873549
H      74.73473189      83.72705959      93.62012542
H      77.54286519      83.12423689      95.31143047
O      75.98006153      88.46649318      92.34078071
H      76.45627256      90.21071057      92.50140744
C      76.66792191      87.11533887      99.30064271
O      77.94348717      88.72538569     100.37778671
N      76.68681917      84.67759192      99.94881885
H      75.51896831      83.43226228      99.09277282
C      78.36300641      83.61178628     101.98405408
H      79.83321348      85.04419883     102.14657055
C      76.78130549      83.60044792     104.46148528
H      75.95171563      85.44293108     104.85832781
C      74.62323804      81.72017024     104.11755510
H      73.48562280      81.85812026     105.82775740
H      75.56621147      79.90225353     103.88889821
H      73.46105635      82.17370456     102.47916238
C      78.18348241      82.98817660     106.87844524
H      79.52518809      81.43293184     106.74805412
H      77.01941100      82.61590052     108.53573522
C      79.90880253      85.25962763     107.74960907
H      80.65335470      84.70971727     109.59020249
H      78.92803458      87.06998544     107.72882207
H      81.58498977      85.36356257     106.55530203
C      79.51196001      80.93593382     101.29430398
O      78.61811946      79.72650898      99.56709412
N      81.41491441      79.98540149     102.55286170
H      82.08387752      80.70160776     104.18936469
C      82.13678986      77.28120313     102.21082125
H      80.40769028      76.25130229     102.64545829
H      83.51440034      76.68215989     103.61866735
C      83.19314687      76.68404962      99.69181606
O      84.66146421      78.05788065      98.55420082
N      82.40135154      74.37291434      98.92269746
H      81.42436304      73.28065253     100.14724010
C      82.52418375      73.58678819      96.22983747
H      84.24383470      74.51653354      95.58733052
C      82.80197352      70.57834390      96.12401279
H      80.95382119      69.70718007      96.38479501
C      83.48038527      69.93016778      93.43493224
H      81.83065419      70.49708567      92.34267044
H      83.98305246      67.96863186      93.06643562
H      85.14523415      70.77487544      92.56565813
C      84.61989023      69.32734508      97.94003978
H      83.94903739      69.56356087      99.87322980
H      86.50961655      70.13803767      97.80964866
C      84.92980535      66.48141726      97.73028016
H      83.02685095      65.72552673      97.96460622
H      85.99372126      65.74820345      99.33276806
H      85.93136029      65.97875006      96.00118058
C      80.16769504      74.35212735      94.69537969
O      78.38568313      72.97640659      94.35711869
N      80.19604093      76.77853593      93.94515834
H      81.86466927      77.70261210      94.01318849
C      78.42347765      77.80465732      92.08755738
H      78.43103656      76.41948794      90.56443798
H      79.05653597      79.70194254      91.60000799
C      75.59644709      78.01441694      92.87368353
O      73.89002423      77.92559981      91.27497507
N      74.99740385      78.22417656      95.33410718
H      76.40902940      78.56432730      96.57376765
C      72.45950141      78.23929437      96.32243404
H      71.30487863      77.09600996      95.05631741
C      72.20060890      77.12435585      98.93403582
H      73.40058511      78.03142448     100.34188192
H      72.85823366      75.18360693      98.73372482
C      69.49452082      77.01664145      99.88267842
N      67.85423838      75.03431855      99.63134482
H      68.23029392      73.39025666      98.73561455
C      65.68294285      75.49541177     100.85399775
H      64.07100630      74.24819240     100.96360187
N      65.85301822      77.83111349     101.74972802
H      64.34879607      78.80621227     102.40546305
C      68.18683021      78.85723488     101.20548684
H      68.89925703      80.62601871     101.93492120
C      71.22551013      80.95861054      96.13346141
O      72.08155615      82.56487791      97.58288151
N      69.32444546      81.33277635      94.59522420
H      68.63469535      79.85501037      93.60311789
C      67.91659935      83.79508974      94.44782555
H      69.43027013      85.13679542      94.05665221
C      65.90971001      83.59099929      92.29542727
H      64.51131254      82.11134359      92.62612938
H      66.65048272      82.96549988      90.47751057
C      64.47351801      86.04953323      91.49796278
H      63.54566239      85.52229959      89.73673784
C      62.37592180      86.85266691      93.35934319
H      61.72018677      88.73861377      92.86423489
H      63.10346643      86.79219567      95.28497431
H      60.88681747      85.42970300      93.39902745
C      66.34623679      88.20949040      91.01608257
H      65.46562432      89.79686051      90.03909405
H      67.94683497      87.51218139      89.92004130
H      67.16259855      88.53074388      92.88124244
C      66.76197657      84.40169188      97.01596360
O      65.57144900      82.55542927      97.96271649
N      67.13992184      86.71282716      98.13657131
H      68.22084529      87.99973078      97.23517186
C      65.79443670      87.51218139     100.43825795
H      65.01964891      85.83977361     101.35666495
C      67.69550137      88.89735078     102.25428494
H      66.57300394      89.82898585     103.70748448
H      68.51753232      90.38834484     101.09210327
C      69.51341809      87.13423613     103.57898309
H      70.43938398      86.06276131     102.08231985
C      71.43715947      88.64790691     105.11155113
H      72.52564183      89.91024408     103.90023657
H      72.66548158      87.32509849     106.10365744
H      70.55087783      89.76284543     106.59687602
C      68.10179253      85.50529205     105.51028338
H      67.05866361      86.55786960     106.93891647
H      69.48507219      84.25807268     106.39089585
H      66.89992660      84.34877954     104.30085854
C      63.69495077      89.35277482      99.64457291
O      61.46885317      88.86333571     100.13212230
N      64.27887620      91.56375461      98.63356934
H      66.12702853      91.86989027      98.26885216
C      62.29088412      93.53473915      98.07798979
H      60.46351877      92.75806164      97.52807943
C      61.75420185      95.18258050     100.46282441