 %block lattice_cart
   139.898   0.000   0.000
   0.000 144.87   0.000
   0.000   0.000   168.12
 %endblock lattice_cart

 %block positions_abs
N      92.41217669      41.77513544      85.27036971
H      92.04745951      41.32916003      87.09017614
H      94.30568245      41.79781216      85.03037446
H      91.79612591      40.45610648      84.03448869
C      91.31802515      44.29036117      84.62408330
H      92.31202119      45.63206685      85.83161842
C      91.51833614      44.86294824      81.81217055
H      91.19708267      43.02991372      80.93155809
H      93.50632822      45.22577569      81.41154858
C      90.07647496      47.09849447      80.66510669
H      88.09793151      46.85471977      81.18100197
H      90.38827980      46.71488003      78.66577624
S      91.29156898      50.12205657      81.66666162
C      90.11049004      51.81336162      78.92844820
H      90.78512233      53.75789000      78.89254340
H      88.05257808      51.80013354      79.03238315
H      90.68307711      50.90629299      77.16911300
C      88.47965623      44.14485224      85.23068545
O      87.46109374      42.14363208      84.81683539
N      87.35337935      46.16685940      86.08673147
H      88.19808701      47.82792883      86.49869182
C      84.61894537      46.30858887      86.12263627
H      83.71376647      45.19742980      84.64298057
C      83.68353085      44.92152976      88.48479417
H      84.73799813      43.16597401      88.70211270
H      81.76923809      44.38295776      87.94244271
C      83.65518495      46.55236356      90.76191438
O      81.68042095      47.50856508      91.49323846
N      85.89073118      47.02101569      91.87307344
H      85.64506676      47.44053493      93.71744632
H      87.47054238      46.44653889      90.96600481
C      83.45676369      48.98822078      85.82972870
O      84.79657964      50.88361627      85.41965809
N      81.08893662      49.31703316      86.18121779
H      79.96077001      47.80903156      86.47979455
C      79.83037889      51.80769244      86.26814520
H      79.88329123      52.56736242      84.35574217
C      76.95988462      51.51478486      86.75569458
H      76.31548795      49.91607640      85.62941771
C      76.37973865      50.50378128      89.43910596
H      74.35773149      50.32236756      89.78303615
H      77.08082711      51.86249450      90.81860617
H      77.28302782      48.69720293      89.86051492
C      75.23267477      53.68608040      85.96200953
H      75.65786319      55.35470873      87.09395560
H      73.24090324      53.40073172      86.40231576
C      75.35361726      54.58747985      83.29938516
H      73.93632252      56.06902528      83.11419198
H      74.82449389      52.86404945      82.30349939
H      77.21499768      55.15817719      82.62664259
C      80.96799413      53.76166945      88.08606191
O      81.09460580      55.91406772      87.25836179
N      82.02057169      53.15695703      90.32727733
H      82.10560937      51.29368688      90.72978903
C      83.18842255      54.82558536      92.23023172
H      82.16041144      56.59436919      92.47778586
C      83.05803144      53.60482216      94.79648005
H      84.04446857      54.90495387      96.05125832
H      84.03501994      51.79446436      94.88340747
C      80.48044474      53.56135846      96.12495764
C      79.63573708      55.59281425      97.52335512
H      80.93775851      57.10081584      97.97122025
C      77.22633603      55.58336561      98.58727103
H      76.78036062      57.36726725      99.47544240
C      75.64463511      53.49332831      98.62128610
H      73.77758551      53.52923311      99.44709650
C      76.56682155      51.35415813      97.17942493
H      75.39141178      49.69875788      96.96777558
C      78.89496437      51.43919581      95.86984459
H      79.47322062      49.82725926      94.76057525
C      85.90017981      55.56824780      91.49701791
O      86.76945391      57.57891660      92.43054270
N      87.05669231      54.16229143      89.79059505
H      85.92663598      52.87538781      88.94588738
C      89.60782284      54.66306890      88.80982710
H      90.67362848      55.78556633      90.17043004
C      91.20842102      52.24043977      88.55849349
H      92.84681374      52.74499669      87.41520908
H      90.04812907      50.95353615      87.44733442
C      91.68652178      51.01400739      91.20033087
H      89.97442974      50.94030806      92.34361530
H      93.18129529      52.19886579      91.97511866
C      92.77878359      48.40240562      90.96411509
O      91.35770940      46.53913548      90.44821981
O      95.09747778      48.09249051      91.42331859
C      89.32436389      56.33358696      86.37774932
O      90.66229012      58.21386464      86.16609998
N      87.48377046      55.66840330      84.66187784
H      86.34993467      54.27000583      85.29871561
C      86.51812031      57.25388367      82.54538436
H      88.08470343      57.48443028      81.23202457
C      84.17108023      55.85737593      81.50414517
H      82.69898344      56.34303559      82.85907893
H      84.54335632      53.83158932      81.52493215
C      83.41141026      56.52444932      78.81884407
H      84.79846937      55.61927041      77.59430142
H      83.34149038      58.56157428      78.51648786
S      80.21777279      55.45675395      78.29727962
C      80.30658992      55.69863892      74.84474963
H      81.78246617      54.60070793      73.91878375
H      80.04013851      57.69985908      74.44412765
H      78.63607186      54.69519425      74.17956598
C      86.02112229      60.09792178      83.17844267
O      86.88472722      61.83080080      82.02948908
N      84.46587754      60.51555129      85.12675050
H      83.72132537      59.06046203      86.11318765
C      83.79124525      63.05912291      85.86941294
H      83.28101914      64.01910387      84.11952639
C      81.21554828      63.09502771      87.32261249
H      80.86972837      65.01876909      87.97456806
H      81.66530314      61.80812409      88.86462915
C      78.76268353      62.33724746      85.75791910
H      79.41274938      60.66106022      84.74691552
C      76.61028526      61.45096582      87.44355497
H      77.12618054      59.81824228      88.58683938
H      75.08905557      60.69507529      86.27948356
H      75.89218926      62.93440097      88.67943597
C      78.03324917      64.51610190      83.95700991
H      76.25123726      64.06067785      83.02726458
H      79.60361174      64.81278893      82.65687822
H      77.75734913      66.20740695      85.10218406
C      86.07403463      64.52555052      87.33206111
O      86.11182916      66.89715705      87.29237686
N      87.91462806      63.03833592      88.38652839
H      87.78612667      61.14294043      88.22023248
C      90.26922705      64.14193608      89.26525113
H      89.60971256      65.89560210      90.11940742
C      91.51833614      62.20118716      91.07560894
H      92.32902873      60.78578215      89.81705121
H      90.11804894      61.57568775      92.45132969
C      93.81057416      63.66761478      92.23779063
H      93.17751584      65.22096981      93.43209766
H      94.88393870      64.71263343      90.82427534
C      95.42062098      61.81190354      93.74012304
H      94.23009340      60.43807251      94.71144237
H      96.70563487      62.82101739      94.99112186
N      97.23097878      60.36248346      92.09795088
H      98.31757141      61.44529664      90.96222536
C      97.76577133      57.97008995      92.19243719
N      96.64138417      56.44319109      93.79681483
H      97.69963091      54.87849770      94.07649432
H      95.43951824      57.18018435      95.08371845
N      99.26243457      56.98365281      90.56727256
H      99.28511129      55.07502924      90.50680132
H      99.59124695      57.97008995      88.96667437
C      92.02667252      65.00176156      87.02781518
O      93.48176178      66.75164811      87.29804605
N      91.66006561      64.00965523      84.76014360
H      90.34670582      62.63582421      84.60518605
C      92.75421715      64.81467865      82.39798572
H      94.69685580      65.45151642      82.63987067
C      93.28711997      62.87392973      80.26448471
H      91.45975462      62.10670085      79.70512572
C      94.82346746      64.01910387      77.98736450
H      94.38505096      63.09124826      76.19968341
H      96.84358489      64.24587103      78.30483852
H      94.18662969      65.94851444      77.63776512
C      94.84803390      60.73286982      81.34351843
H      93.90883992      59.89572106      82.97435223
H      96.65650198      61.57001857      81.86130343
C      95.31668603      58.32724822      79.74292024
H      93.61782207      57.25577340      80.19645456
H      96.84547462      57.23876586      80.58951763
H      95.59636552      58.59558936      77.72091309
C      91.54479231      67.28077149      81.26226020
O      92.81468839      69.15537998      80.89187384
N      89.02956658      67.17305709      80.89943275
H      88.14706440      65.54600274      81.36997460
C      87.36282798      69.11191629      79.88275999
H      88.25099934      69.76954105      78.14421179
C      84.66996798      67.84579966      79.27048866
H      83.23566571      69.31222727      79.07962631
H      84.05769666      66.91038513      80.99958824
C      84.83626390      66.00331650      77.08785478
O      86.10049080      66.35858505      75.16222365
O      83.10905405      64.33657790      76.79683692
C      86.86016078      71.54399405      81.42666639
O      86.65796006      73.60757519      80.24558745
N      86.90929366      71.34935223      83.89653867
H      87.45920402      69.65048828      84.57495042
C      86.98677244      73.55088339      85.63886633
H      87.04535396      75.32344668      84.59384768
C      84.38461931      73.72473822      87.05805079
H      84.45831863      75.19305556      88.49802224
H      83.94620280      71.94461603      87.99346532
C      82.25489775      74.34834790      85.29115670
H      80.65240984      73.77198137      86.44577947
H      82.33615598      73.25797582      83.54315985
C      82.08482238      77.12435586      84.78282032
O      80.13651456      78.02197585      83.83606743
O      83.86116512      78.66259307      85.30816423
C      89.02200768      73.36946966      87.60796115
O      90.62260587      74.85857401      87.69866802
N      88.74421791      71.52509679      89.39375252
H      87.31936427      70.26275961      89.26714086
C      90.22576334      71.43438993      91.74835150
H      91.98887799      72.41704760      91.33072200
H      90.60937778      69.46529510      92.21511391
C      89.02767686      72.75908807      94.11806831
O      87.99777602      74.79432331      93.77602784
N      89.45475501      71.89926260      96.39707824
H      90.75866616      70.51031375      96.50668236
C      88.23588153      72.78176479      98.74789778
H      86.26111754      72.98585522      98.19798742
C      88.68185694      70.52165211     100.71510287
H      90.66040039      70.38370210     101.27068239
H      88.47587678      68.71696349      99.74189381
C      87.07558958      70.43283497     103.11505529
H      87.17007589      72.17138318     104.21676572
C      84.29769190      70.20795754     102.39317983
H      83.80258360      68.72263266     101.05336388
H      83.49266849      71.88225506     101.50122900
H      83.18464310      70.06244861     104.11849996
C      87.75589105      68.29177506     105.08415010
H      88.08281370      66.47574808     104.16763284
H      86.14773396      68.18406067     106.36349481
H      89.56057968      68.82845733     105.91940912
C      89.00877960      75.49919123      99.49811912
O      91.21031075      76.16437489      99.90252054
N      87.09637657      77.21884217      99.67386366
H      85.34649000      76.69916743      99.11639440
C      87.42707867      79.78131104     100.74533848
H      89.42073993      80.22539674     101.02312825
C      86.43308263      81.83166410      98.97655466
H      86.93386010      83.65524999      99.79291642
H      84.38839876      81.63513256      98.82726627
C      87.85982600      81.62379420      96.35550425
H      87.89951025      79.73028844      95.54859113
H      89.78545711      82.25307306      96.72778035
C      87.10204575      83.77430274      94.39774779
H      87.54424170      85.58844000      95.26513217
H      85.13862011      83.54753558      93.80815319
N      88.64028296      83.46627736      92.05826662
H      90.23710170      84.51318574      92.05826662
C      88.12627741      82.34944910      89.88697108
N      86.09482162      80.88302149      89.53359227
H      85.52790373      80.17437412      87.85173585
H      85.15373792      80.37279539      91.11340347
N      89.67774271      82.54220120      88.06338519
H      89.60026393      81.47828527      86.47979455
H      91.28967926      83.53619724      88.29393180
C      86.24033055      80.08744670     103.40796285
O      84.01612268      79.88902545     103.90118143
N      87.83336983      80.57310638     105.17107750
H      89.67963244      80.53909129     104.68730758
C      87.12661219      80.71861530     107.96409299
H      85.65073594      79.36557125     108.44597321
C      89.32814334      79.83044394     109.65161860
H      89.18263442      80.75263037     111.48654285
H      91.11204498      80.30287551     108.73699107
C      89.59648448      76.94861131     110.28467692
H      87.76533968      76.22295640     110.89127906
C      90.34859555      75.28565215     107.94330601
H      89.65884545      73.35057241     108.09637384
H      92.40839723      75.23651926     107.89795258
H      89.62483037      75.96595362     106.13861739
C      91.87360469      76.50263589     112.10259362
H      92.15517391      74.46173147     112.05724019
H      91.43896763      77.13002503     114.01499666
H      93.48176178      77.52497783     111.32024694
C      86.33859632      83.43982118     108.73510133
O      85.81514213      83.89902469     110.90261742
N      86.38772920      85.18592831     106.93986133
H      86.64095253      84.65680493     105.12383435
C      85.79624486      87.94681844     107.36127031
H      85.16885573      88.22649793     109.30201923
C      88.12249795      89.37734127     106.96253806
H      88.64595214      89.17325082     104.98210488
H      89.60026393      88.52885414     108.12283000
C      87.87683353      92.29318897     107.61071417
H      87.57636705      92.24216635     109.64972887
H      86.41040591      93.28907474     106.56380580
C      90.47709694      93.59710012     107.17229768
H      91.30479707      93.07742538     105.36005015
H      91.81691290      92.99805688     108.61982804
C      90.18418936      96.49216083     107.21765110
H      89.65884545      97.19324930     109.08281098
H      88.79713025      96.70947936     105.70964950
N      92.51611163      97.55796648     106.60349006
H      92.43485340      99.04896053     105.41296248
H      93.68396249      96.23326833     105.87594542
H      93.34570148      98.19291452     108.20030879
C      83.55880891      88.80286446     105.56414058
O      83.19598146      87.69548485     103.54402315
N      82.24166967      90.83243053     106.20853726
H      82.75945468      91.84154438     107.74299502
C      80.26501595      91.84721355     104.44731233
H      78.87984656      90.38456539     104.02023418
C      78.80803696      94.22070981     105.49422071
H      80.13462483      95.32808943     106.61860787
C      77.52491279      95.87044088     103.46654438
H      76.27769342      97.24805136     104.35282602
H      76.60839553      94.85565784     101.92641743
H      78.97055342      96.93813625     102.45554079
C      76.93342846      93.00372606     107.30646824
H      77.83293818      92.25161499     109.00155274
H      75.96777831      91.43903267     106.37861262
C      74.78291991      94.74794345     108.11338137
H      75.62951730      96.49027111     108.81258012
H      73.40908888      93.75205768     109.28123224
H      73.48845739      95.07486610     106.54490853
C      81.47633051      92.61633217     101.96421195
O      83.42274861      93.95236866     102.03413183
N      80.55225434      91.97760468      99.76268081
H      78.87795683      91.06108740      99.80803424
C      81.37806474      92.98104935      97.32682358
H      82.40418613      94.75361263      97.54036265
C      83.28101914      91.07053605      96.09094257
H      84.83437417      90.86077642      97.42886881
H      84.03501994      91.84910329      94.34105601
C      82.15096281      88.43814729      95.38796439
C      81.68420041      88.06020202      92.74045782
H      82.21521350      89.47560703      91.37040624
C      80.58060024      85.70749277      91.97889811
H      80.13084538      85.61489618      89.99090603
C      79.89651931      83.85556098      93.76091003
O      78.88740546      81.62757365      92.99368115
H      78.34883346      81.73528806      91.26458157
C      80.49367283      84.24295488      96.27991521
H      79.77746656      82.90691836      97.64618734
C      81.47255106      86.57487715      97.15107904
H      82.13017582      86.94715322      99.04647453
C      79.05181165      93.64245356      95.66008497
O      76.87295721      93.25128021      96.31015082
N      79.56770694      94.65534686      93.39997231
H      81.39507228      95.05029966      93.01824759
C      77.64774500      95.06163801      91.44977475
H      75.75990841      94.63455986      92.15653239
C      77.85372517      97.78851309      90.52002941
H      77.01657641      97.92457337      88.64353117
H      79.74345148      98.60676457      90.48790406
C      76.08683107      99.25494070      92.36440229
H      77.19421069      99.61209898      94.06704569
H      74.23678901      98.39322551      92.63085370
C      75.77691595     101.93457262      91.20600006
H      74.75079456     101.79662260      89.42587786
H      77.54947923     102.93045839      90.87529796
C      74.39741574     103.29517556      93.30548598
H      75.60117140     103.30651392      94.97411432
H      72.64752918     102.29551034      93.71933605
N      73.65853275     105.85764443      92.68376603
H      72.56438122     106.67211649      94.01980253
H      72.47367436     105.96913829      91.19277197
H      75.13251928     107.05384120      92.47400641
C      78.12584576      93.18513979      89.27658949
O      80.30092075      92.92246783      88.37519004
N      76.32493658      91.62044640      88.42621264
H      74.58071920      91.76028615      89.18777235
C      76.71233048      89.88000847      86.31727808
H      78.52079856      88.89735079      86.37396988
C      74.38796711      88.01484860      86.44577947
H      72.68910316      89.17703027      86.35318288
H      74.10828762      86.78652648      88.07472355
C      74.47111507      86.04953323      84.24802777
O      75.84116665      84.27130077      84.66565729
O      73.24846214      86.30086683      82.22035143
C      76.96933326      91.31620047      83.72457359
O      76.62918252      93.63867409      83.60930028
N      77.50412580      89.98205369      81.64965409
H      78.26001633      88.25295411      81.93878222
C      77.03925313      90.97982917      79.08151603
H      78.67575612      92.17791567      78.72624748
C      76.94287709      88.80097474      77.07651641
H      76.70099212      89.54930635      75.17356201
C      79.18787195      86.95660186      76.81006501
H      79.24645346      85.63568317      78.38987621
H      80.87917700      88.13390136      76.86108762
H      78.98756096      85.93803938      75.03183254
O      74.85661924      87.25139917      77.46768976
H      74.52591713      87.13423614      79.24781194
C      74.46922534      92.29885814      78.68089406
O      74.33505477      93.91457415      77.02171436
N      72.43587983      91.56753407      80.07551208
H      72.61918328      89.92158245      81.02415469
C      70.04159659      92.73160547      79.78638395
H      69.69388695      93.17380142      77.80406104
C      67.90809558      90.89857095      80.72557793
H      66.20923163      92.06453208      80.77660054
H      68.31438674      90.22393866      82.62664259
C      67.65865171      88.51184661      78.99647834
H      66.21679053      87.25706834      79.76370723
H      69.46334034      87.55564510      79.25537085
C      66.93677626      89.30175221      76.23369848
O      68.10462712      88.44948565      74.37798724
O      65.23602258      90.83432025      75.95968816
C      69.80538080      95.20903667      81.31139308
O      67.97045655      96.60743414      80.97691152
N      71.66298177      95.76839566      82.91388099
H      73.12374021      94.54007355      82.92899880
C      71.81227015      98.01905970      84.41810313
H      70.93543714      99.38344209      83.15009678
H      73.74923962      98.48015291      84.94911623
C      70.16631853      98.14756109      86.81049666
O      70.22112059     100.17334770      88.04637766
N      68.76603133      96.19547381      87.51347484
H      69.03815192      94.53818383      86.60640621
C      67.56983457      96.07075187      89.97956767
H      66.80071596      97.96236791      90.24979855
C      65.26814793      94.24716598      89.71500600
H      64.39131492      93.90701524      91.54804051
H      65.92577268      92.43302872      88.99313054
C      63.10063184      95.19958804      88.04259820
C      62.28049062      93.73882959      86.04704723
H      62.89654140      91.79619095      85.91665610
C      60.30194717      94.28496050      84.60140659
H      59.77282381      93.06986647      83.04805157
C      59.19834701      96.76617115      84.87541691
O      56.86453501      97.24238218      83.77370647
H      55.98770200      98.50093990      84.74124633
C      60.07895947      98.44424811      86.78781993
H      59.43456280     100.37176895      86.95411585
C      62.00081113      97.64867334      88.33550579
H      62.88520304      98.90345161      89.67910119
C      69.48790678      95.12210925      91.91842687
O      71.37196392      93.92402277      91.33828089
N      69.06082864      95.77217511      94.39396834
H      67.42432565      96.67357456      94.77758278
C      70.57827886      94.85565784      96.62006594
H      72.45666682      95.14856543      95.82638089
C      70.12096510      96.65467729      98.83293546
H      70.79370766      95.62477646     100.48266653
H      68.12163466      96.81152457      99.30536703
C      71.43999406      99.05840917      99.04458480
C      69.96222809     101.22592525      99.37528690
H      67.92699285     101.30340402      99.52457528
C      71.27369815     103.59942150      99.54914172
H      70.27781238     105.38143340      99.54347254
C      73.93821225     103.61264958      99.54536228
O      75.27235903     105.78583484      99.66819448
H      74.27458353     107.29950562      99.73433490
C      75.38763233     101.32608075      99.34127183
H      77.41908812     101.51694310      99.35827937
C      74.08183145      99.02817355      98.95954711
H      75.12685010      97.30663287      98.62695529
C      70.31749663      92.03429647      97.20021192
O      68.15942918      91.07809495      97.42508936
N      72.47745381      90.66424489      97.48556060
H      74.02513966      91.75650670      97.71610720
C      72.85728880      87.88067803      97.12651260
H      70.98268030      87.02652174      97.14163041
C      74.08561090      87.17203066      94.68120674
H      76.13974340      87.05108818      94.80403896
C      73.31271284      84.62656932      93.66831344
H      71.28314678      84.56987753      93.31682434
H      74.02702939      83.09400128      94.84561293
H      74.27647326      84.20138089      91.89763988
O      73.17098337      88.70459870      92.71967083
H      73.59995124      90.40535238      93.18454350
C      74.40119520      87.24195054      99.43764788
O      76.01880092      88.60444320     100.43542336
N      74.01947048      85.04419882     100.34660623
H      72.42076202      84.21271925      99.71732736
C      75.73345225      83.67036780     102.02657293
H      77.43987511      84.78719605     102.32137023
C      74.56560139      83.54375613     104.74588908
H      73.89474854      85.34088586     105.49611043
C      72.31493735      81.64458120     104.66841031
H      71.01858510      82.20205046     103.16985734
H      71.09984333      81.66347846     106.33325920
H      73.09728404      79.73973707     104.64195414
C      76.47422496      82.65369505     106.77734488
H      77.11295246      80.77341737     106.23499342
H      75.54070016      82.18126347     108.55179789
C      78.65685885      84.44326587     107.30835796
H      79.97588782      84.88357210     105.78523856
H      80.11194811      83.58344039     108.48376773
H      78.01057245      86.17236544     108.21542659
C      76.53091675      81.10978865     100.95698784
O      75.10606311      80.08366725      99.42064034
N      78.56237254      80.06665972     101.95098387
H      79.45054390      81.10411946     103.28513065
C      79.07448837      77.40214561     101.75445233
H      77.47766963      76.35523725     102.52924013
H      80.65240984      77.13758394     103.04891485
C      80.01179262      76.56877632      99.18631428
O      81.68231068      77.61001552      98.02980178
N      79.00645822      74.42015750      98.26034838
H      77.84049709      73.20317375      99.15796839
C      78.84394176      74.05355060      95.50701714
H      80.19509607      75.28754188      94.56215399
C      79.56014803      71.28510155      94.72089099
H      78.19765536      69.82812255      95.24623492
C      79.84360698      71.20006385      91.71433644
H      78.03513890      71.54777351      90.79026027
H      80.58626942      69.37458825      91.11718292
H      81.24389418      72.61357915      91.18332334
C      82.03757923      70.61613843      95.99834598
H      81.44987434      70.08134588      97.89941065
H      83.19031228      72.32067156      95.93409529
C      83.58337535      68.34846685      95.07993899
H      84.59248920      67.83068185      96.79958995
H      84.87594815      68.63003607      93.49823807
H      82.26623611      66.77243510      94.94009926
C      76.21722218      74.55054861      94.49790329
O      74.55993221      72.91593536      94.52246973
N      75.91297625      76.81255101      93.48500999
H      77.54192033      77.80276760      93.58138604
C      73.90608690      77.64403058      91.82772002
H      73.38263271      76.24563312      90.41042527
H      74.60717536      79.29565139      90.81482671
C      71.26235979      78.03331421      93.17698461
O      69.24413209      78.26386082      91.96755977
N      71.35117693      78.47551017      95.71299731
H      73.02736417      78.90447804      96.51802072
C      69.07783617      78.80810200      97.23233727
H      67.48857634      77.81788540      96.37440152
C      69.44066362      77.79331896      99.88362328
H      70.33639390      79.39013769     100.82470699
H      70.78614876      76.23996393      99.97621987
C      66.97646051      77.18671682     101.26123376
N      65.56672468      75.11746651     100.83604535
H      66.27915150      73.70773067      99.76457053
C      63.36141408      75.24974735     102.05113937
H      61.79672069      73.94205673     102.08704417
N      63.34062709      77.50419084     103.32859436
H      61.83640494      78.30921424     104.18653009
C      65.57428359      78.77975611     102.69931550
H      65.99947201      80.70160777     103.24355666
C      68.09328876      81.50285171      97.30036742
O      69.23279373      83.09778073      98.50601281
N      65.90309597      81.96205521      96.16842135
H      65.10941091      80.73373310      94.94387871
C      64.84484923      84.43003778      96.33282754
H      66.32828439      85.70371332      95.68465141
C      62.48269134      84.31287475      94.70199374
H      61.03138153      83.10722936      95.52780413
H      62.90976949      83.40013694      92.90486401
C      61.34696583      87.04352927      94.31837929
H      60.76304039      87.98461298      96.05503777
C      62.94567429      88.72538568      92.49668313
H      64.55572111      89.28663441      93.65130590
H      62.18222486      90.56408939      91.97322894
H      63.46723875      87.54808619      90.88852604
C      58.80717366      86.72227580      92.87084893
H      57.41633509      85.62434480      93.92342650
H      59.15488330      85.64324207      91.14930827
H      57.86231050      88.51562606      92.51747012
C      64.02470801      85.18214885      99.14474029
O      62.51670641      83.78564110     100.31259116
N      64.91287938      87.33643685     100.20676649
H      66.41521180      88.25295411      99.46788349
C      63.93022170      88.34366098     102.64262371
H      63.36897298      86.96982995     104.06936706
C      65.96356721      90.02173794     103.87850471
H      65.13208763      90.71337777     105.63406045
H      66.10718641      91.70359436     102.69742576
C      68.43721895      88.47783154     104.39439999
H      69.15720468      87.40824645     102.78813263
C      70.42521103      90.53385377     104.86494185
H      70.46300556      91.76784506     103.21521078
H      72.31682707      89.76851462     105.14273162
H      69.67498969      91.39745870     106.57703388
C      68.11785521      86.67125319     106.59404143
H      67.24480165      87.65202114     108.17952179
H      69.78837327      85.78875100     107.41985182
H      66.88386392      85.22183311     105.80413583
C      61.54538709      89.87622902     102.23822227
O      59.79927998      89.58521115     103.63473002
N      61.47357749      91.65068202     100.42408502
H      62.84362907      91.64879229      99.09560741
C      59.35897374      93.44025283      99.88173356
H      57.58641046      92.46326433     100.25967883
C      59.51771075      95.82697717     101.49367011