 %block lattice_cart
   139.898   0.000   0.000
   0.000 144.87   0.000
   0.000   0.000   168.12
 %endblock lattice_cart

 %block positions_abs
N      91.51928100      42.79558764      87.87630229
H      90.56496922      42.22678002      89.42965732
H      93.35609498      43.03180343      88.32983660
H      91.32841865      41.29703468      86.70656170
C      90.73693431      45.11806128      86.58939867
H      91.80462968      46.65440878      87.45111388
C      91.39833852      45.01790579      83.75669894
H      90.59142538      43.38518225      82.79104878
H      93.43168403      44.78357973      83.52426260
C      90.69536033      47.45187328      82.38097817
H      88.68280181      47.83170827      82.60018643
H      91.29062412      47.23644448      80.42133198
S      92.48682088      50.00678325      83.71890440
C      90.82953090      52.46720691      82.03326853
H      91.26794740      52.48043500      80.01882029
H      91.67423856      54.19441676      82.76837206
H      88.83964909      52.45019938      82.56428163
C      87.95336745      45.55647779      87.23568507
O      86.61544122      43.61194941      87.26970015
N      87.12944678      47.86005416      87.94244271
H      88.28784901      49.37183521      87.84417694
C      84.63878750      48.41752343      88.87785723
H      83.45581883      46.99455951      87.97267833
C      84.62933887      47.96965829      91.83338919
H      85.41546501      46.09882924      92.18865773
H      82.65079542      47.82036991      92.38707901
C      85.82931507      50.06158532      93.43020792
O      86.41513023      52.06847466      92.51935984
N      85.98805208      49.83481816      95.79803499
H      86.14489937      51.31825332      96.99045230
H      85.29641225      48.12650557      96.29314329
C      83.36511196      50.96298477      88.01992150
O      84.54241146      52.41051512      86.76514323
N      81.04830750      51.35226839      88.70778187
H      80.14879778      49.96898873      89.66587312
C      79.68392510      53.64639613      88.13519479
H      79.78786005      53.95820098      86.10373902
C      76.69626780      53.48765912      88.84006271
H      75.65880806      51.90217875      88.03125986
C      76.22572595      53.52545365      91.65764465
H      77.18948637      51.96453972      92.59305918
H      74.22450579      53.21553853      92.03747963
H      76.54886915      55.36037790      92.53447765
C      75.03141892      55.52478409      87.55693855
H      75.45282789      57.41828985      88.25046811
H      73.08311109      55.25644295      88.16543042
C      75.19582511      55.65139575      84.64487030
H      77.11578705      55.91406771      83.95134075
H      74.31521265      57.45986383      84.20078462
H      74.38135307      53.97709824      83.76614756
C      80.75539992      56.05201773      89.34839909
O      80.23194574      58.13260640      88.32794688
N      82.43725634      55.81769167      91.27591993
H      83.00417424      54.02623112      91.61796039
C      83.64668118      57.84914745      92.67998658
H      82.38434401      59.47809154      92.67431741
C      84.16635592      57.32758299      95.53536303
H      84.70492792      59.14360998      96.34416590
H      85.45514926      55.75911015      95.88496241
C      81.88545626      56.56980274      97.17942493
C      81.27129521      58.01166392      99.17119647
H      82.40891045      59.62737991      99.67764311
C      79.39857643      57.24065558     100.93620085
H      78.97149828      58.40094754     102.55758601
C      78.17592351      54.92952030     100.40896721
H      76.58477395      54.36638186     101.55603107
C      78.75795921      53.41584952      98.27357646
H      77.98506115      51.55824856      97.93342573
C      80.62878826      54.26811609      96.75423652
H      81.34877399      53.03790426      95.29347807
C      86.10899457      58.60503798      91.43087748
O      86.49449874      60.86137120      90.93010001
N      87.63589343      56.84759251      90.52569858
H      87.08220362      55.03345525      90.73545820
C      90.07175065      57.30679600      89.29359702
H      91.19046862      58.67684758      90.34995403
C      91.53061936      54.75188603      89.22934634
H      90.61032265      53.44419542      87.93110436
H      91.43235359      53.84292767      91.07371921
C      94.29717868      54.97109428      88.36574140
H      95.20991649      56.40917600      89.52225391
H      94.20458209      55.64194712      86.42121303
C      95.65400218      52.48232472      88.63408254
O      95.20046786      51.09904506      90.45199926
O      97.51538259      52.01178287      87.27536932
C      89.87521911      58.30457150      86.56672195
O      91.54762690      59.68785116      85.84862595
N      87.77573318      57.94930295      85.23635463
H      86.47182202      56.69830413      85.84862595
C      86.92724606      59.20219149      82.98002142
H      88.34832025      58.96408598      81.50792462
C      84.54241146      57.82458101      81.99736373
H      82.87756257      58.16284202      83.16332486
H      84.93358480      55.80446358      82.08240141
C      83.69959352      58.27244615      79.27426811
H      85.26239718      57.51088644      78.17066794
H      83.24227975      60.21130534      78.74703447
S      80.80831226      56.50555205      78.67900432
C      81.12011710      55.31313474      75.53072030
H      83.10432973      54.88983605      75.17356201
H      80.27162999      56.66995823      74.23625777
H      80.08454708      53.53868173      75.38710109
C      86.50583709      62.15394399      83.54127013
O      87.33542695      63.89816138      82.19389527
N      85.35499377      62.61881667      85.74469102
H      84.75595053      61.18640412      86.85585008
C      84.82776013      65.27766159      86.54026580
H      84.57453680      66.58535220      84.96990322
C      82.28607824      65.06601224      88.05960574
H      82.30308577      66.55889603      89.48067993
H      82.24072481      63.37470719      89.23123606
C      79.89935390      65.64615822      86.40609523
H      78.28930709      65.34002256      87.65331459
C      79.80675732      68.45996070      85.72012457
H      81.28074384      69.11191628      84.43889013
H      79.94848679      69.43883893      87.52670292
H      77.93025909      68.72074293      84.91132171
C      79.36834081      63.96430180      84.11763665
H      80.68736978      64.45941010      82.61341451
H      77.42570216      64.22697376      83.48646806
H      79.37589972      61.93851520      84.48802302
C      86.88378236      66.60424946      88.04826739
O      87.00283512      68.90026693      88.01992150
N      88.69225044      65.10947595      88.89297504
H      88.34832025      63.23864690      88.74179695
C      91.20747616      66.12425898      89.57327652
H      90.71236787      67.61147359      90.90931302
C      93.02161342      64.28933473      90.85451097
H      94.88299384      65.16616774      90.93010001
H      93.03106205      62.46763856      89.89264026
C      92.35076058      63.91894837      93.54170178
H      90.35898905      63.40683254      93.46233327
H      92.65122706      65.71229864      94.51302111
C      93.77372449      61.63804871      94.74734717
H      92.61343254      59.96186147      94.46010877
H      93.64522311      61.94796383      96.77880296
N      96.40233380      61.06924109      94.06515597
H      97.41144765      62.49409473      93.29603736
C      97.53050040      59.04345448      94.58483071
N      96.39666462      57.20097133      95.67520279
H      97.13176815      55.49832792      96.13062683
H      94.72425683      57.60348303      96.49912345
N      99.80573089      58.52944893      94.05948678
H     100.39343577      56.81168771      94.64341222
H     100.83941118      59.57446758      92.84061331
C      92.63232980      67.47163384      87.35284810
O      94.13655195      69.12514436      87.87819201
N      92.04840437      66.91605430      84.97935186
H      90.83708980      65.47230340      84.67321620
C      93.01027506      68.31067232      82.76270289
H      94.47481296      69.62403211      83.37119476
C      94.26883279      66.46251999      80.64620941
H      93.25216003      64.69751561      80.34574294
C      94.54662256      67.63604003      77.97035697
H      95.91289468      69.16293889      78.15366041
H      92.72114694      68.38626137      77.38265208
H      95.28550554      66.24898091      76.63621019
C      96.91822908      65.44395751      81.37375406
H      97.06373801      64.57090395      83.23324475
H      98.25237586      67.00865089      81.47013010
C      97.88198950      63.31234622      79.86386272
H      99.71502402      62.76432559      80.63109160
H      98.34308272      63.85469768      77.93445217
H      96.57429889      61.71930694      79.85441410
C      91.07141587      70.01898491      81.58918285
O      91.70636391      72.22429552      81.06005949
N      88.73571414      69.26687384      81.16588415
H      88.22548804      67.45462630      81.48902735
C      87.05385773      70.92227409      79.75236888
H      87.94013937      71.71028996      78.06673301
C      84.88256219      69.14971081      78.84341051
H      83.08165302      70.06055889      78.43145018
H      84.33076211      67.81745375      80.31172786
C      85.45703899      67.78910786      76.42645057
O      87.08598307      68.41082782      74.94490513
O      83.90179424      66.13559734      75.69701620
C      86.11844320      73.17293813      81.30761362
O      85.27751499      75.00030347      80.08496070
N      86.56630834      73.20884293      83.81339073
H      87.47148724      71.67249543      84.49558192
C      86.11088430      75.48218368      85.35540739
H      86.01261853      77.08278187      84.06094487
C      83.58432021      75.28376242      86.76514323
H      83.78085175      75.43683025      88.80982710
H      82.57142691      73.59245737      86.16798970
C      81.66057883      77.41915315      85.98090680
H      79.83888266      77.44560932      86.93899805
H      81.13712464      77.35868191      83.99102500
C      82.86622422      79.98729121      86.47979455
O      82.79252489      81.09278110      88.52069897
O      83.96037575      81.02286123      84.68455456
C      88.20470105      76.04721185      87.20922891
O      89.01539364      78.15047723      87.51914403
N      89.24782997      74.01953551      88.29960098
H      88.50894699      72.31878183      87.84795639
C      91.13944601      73.87024714      90.20633484
H      92.75327229      74.98140621      89.57327652
H      91.74793789      71.90493177      90.29704170
C      90.15489861      74.70550617      92.74990646
O      87.84565305      74.83400755      92.99935032
N      91.80840913      75.07778225      94.72656018
H      93.65467174      74.68093972      94.45821904
C      91.14322547      75.82800360      97.47233252
H      89.09665187      75.71084056      97.68776131
C      92.12210370      73.57356010      99.13529166
H      94.12899304      73.20128402      98.86128135
H      91.15078437      71.84257080      98.58538130
C      91.91801326      73.90426221     101.91129961
H      92.82697161      75.62013370     102.59349081
C      88.95870185      74.14236772     102.32892914
H      87.71337221      72.84601547     101.31981529
H      88.45225520      76.10768309     101.99066812
H      88.83209019      73.61891354     104.31881094
C      93.08397439      71.63092145     103.28702037
H      91.98037422      70.04355135     102.58026273
H      92.77027982      71.87469615     105.30713780
H      95.02661304      71.30399880     102.67096960
C      91.95769751      78.38858275      98.37562168
O      94.18568483      79.11801711      98.16208262
N      90.20970067      79.73595761      99.65496641
H      88.45414492      79.03675888      99.39418417
C      90.32497397      82.17937373     101.08548923
H      92.26005372      82.53275255     101.69965028
C      89.67868757      84.42247887      99.17686564
H      89.16090256      85.97961335     100.42219528
H      88.14234008      83.64013217      98.05247848
C      92.04651464      85.24262009      97.52335512
H      92.96870109      83.48706434      96.96021667
H      93.17279153      86.74117305      98.37751141
C      91.18668917      86.84888745      95.20277121
H      92.89311203      87.61800606      94.34483546
H      90.12844244      88.49483907      95.84338843
N      89.70136429      85.14813377      93.52658396
H      89.70703347      83.31509925      94.05759707
C      88.89256143      85.55064548      91.27025076
N      89.26861696      87.60288825      90.11940742
H      88.63555865      87.81264787      88.33172633
H      90.14922943      89.00506518      91.06805003
N      87.90234484      83.74217739      89.98712658
H      87.39400846      84.18626308      88.20133522
H      87.35432421      82.00362919      90.55971365
C      88.72059633      82.21338881     103.47221355
O      86.48316038      81.64080173     103.27190257
N      89.83742458      82.65369504     105.78145911
H      91.73093035      82.89180055     105.83437144
C      88.63744838      82.47417104     108.32692045
H      86.92913579      81.33466607     108.16251426
C      90.63866854      81.26852565     110.12782963
H      89.60687797      81.12679618     111.90417236
H      92.14478041      82.59700325     110.58514339
C      91.65912075      78.72117458     109.21131236
H      92.82697161      79.14825273     107.56914020
C      93.19924770      77.79142923     111.51488875
H      94.14033140      76.00374814     111.10670785
H      91.96336669      77.78953951     113.15895063
H      94.63921915      79.25029795     111.70575110
C      89.45003069      76.77664620     108.74077052
H      90.27017191      74.89258907     108.56502596
H      88.28406956      77.32466684     107.13450314
H      88.26895174      76.78609484     110.42640639
C      87.72093111      85.07821390     109.32280621
O      86.83653920      85.52418931     111.35426201
N      87.64912151      87.06242653     107.66551624
H      88.56752850      86.78085731     106.01767489
C      86.60599259      89.61922623     108.11149166
H      85.33987596      89.44915086     109.72531792
C      88.81319292      91.62611557     108.34770744
H      88.27273120      93.50639325     108.99021439
H      89.65034168      92.02862728     106.50711401
C      91.07708505      90.56786884     110.02578440
H      92.18257494      89.04474943     109.18674592
H      90.42512947      89.69670501     111.77567097
C      92.81563325      92.63144997     111.01978045
H      91.96903587      93.96181730     112.34825804
H      93.42223540      93.94103031     109.55146311
C      95.40266858      91.73949915     112.08936554
H      96.35509064      90.53385376     110.71742424
H      94.82819178      90.68503187     113.76177333
N      96.91822908      93.76528576     112.93596293
H      96.04517552      94.64022904     114.39105219
H      97.41711683      95.04840993     111.61504423
H      98.51126836      93.05852812     113.71453017
C      85.05830674      90.46771334     105.77578994
O      85.64790135      89.50206320     103.62528138
N      82.93047491      91.86800054     106.26711878
H      82.92291601      93.04718976     107.76945119
C      81.07476367      92.38011637     104.18653011
H      80.74973075      90.44503663     103.56103069
C      78.70504687      93.88811797     105.12194462
H      79.29086203      95.59454083     106.11783039
C      76.87768153      94.60621397     102.88261894
H      77.76396317      95.97815527     101.62973039
H      75.08811071      95.50005451     103.37583752
H      76.48650818      92.93758563     101.74122425
C      77.01185210      92.31208622     106.97387642
H      78.33843997      91.77729368     108.45353212
H      76.11234237      90.76251065     105.96098310
C      74.98984494      93.76150631     108.31936154
H      75.65124915      94.63078041     110.06546866
H      73.47617417      92.42546980     108.73132188
H      74.15647564      95.14289624     107.03623738
C      82.57709609      93.68213780     102.01901402
O      84.17013537      95.30163325     102.44042298
N      82.06498026      92.87333494      99.67953284
H      80.52674304      91.74138888      99.64362804
C      83.28007428      93.75772685      97.29280851
H      84.26273196      95.50005451      97.77657844
C      85.17924922      91.79430121      96.31770973
H      86.62488985      91.65446147      97.77657844
H      86.11088430      92.60310408      94.66797866
C      84.00572918      89.19970699      95.51079659
C      83.26873592      88.76506993      93.02769622
H      83.37456059      90.31464551      91.70110836
C      82.30497550      86.38212505      92.29259268
H      81.94970695      85.93425992      90.33483623
C      82.46371251      84.34877954      94.02925117
O      82.08009807      81.92615041      93.29981681
H      82.59032417      81.75229559      91.56693778
C      83.25361811      84.74562207      96.49912345
H      83.21582358      83.11667798      97.72744557
C      83.99250110      87.22683272      97.30414687
H      84.64823613      87.54997592      99.20899099
C      81.27318493      94.28873995      95.24245547
O      79.27952367      93.22860349      95.45221509
N      81.92136106      95.80619018      93.42075930
H      83.53329760      96.82475266      93.43398737
C      80.48705879      96.21437106      91.11718293
H      78.52741260      95.70414496      91.49134874
C      80.66658279      98.99415847      90.21578346
H      79.68014565      99.15856466      88.41487430
H      82.66591323      99.47036950      90.08350262
C      79.23983942     100.74026558      92.20566528
H      79.97683268     100.67412516      94.12940667
H      77.29720077     100.09964836      92.45510914
C      79.30975929     103.46714065      91.29859665
H      79.97116350     103.47847901      89.34650937
H      80.48705879     104.43090107      92.68565575
C      76.78130549     104.93167854      91.54804051
H      75.73817656     104.37042983      93.23556611
H      75.55298338     104.30617913      90.01736220
N      77.39546654     107.71902485      91.34961925
H      75.86100877     108.84530174      91.21733842
H      78.58599412     107.96657900      89.87752245
H      78.31576325     108.02893997      92.99179143
C      81.09933011      94.47393313      89.00257917
O      83.28952291      93.56497477      88.72289968
N      79.25684696      93.85410290      87.49835703
H      77.43326107      94.36432900      87.72890365
C      79.32865656      92.10043688      85.34217931
H      81.29019247      91.78485258      84.79226895
C      78.05309130      89.47371730      85.64075607
H      76.04998140      89.81953722      85.98090680
H      78.85811471      88.43625756      87.22812616
C      78.40458039      87.88067802      83.16710432
O      80.55130948      87.06242653      82.67577547
O      76.63201711      87.57643208      81.67233081
C      78.22127694      93.38545077      82.96868305
O      76.13501909      94.47771258      83.15387623
N      79.49306275      93.14545553      80.77849026
H      81.26184658      92.48405132      81.06572866
C      78.91480650      94.03173717      78.21413165
H      80.70626704      94.58164753      77.35619590
C      77.71860974      91.98705330      76.52849578
H      77.10444869      92.61633216      74.66711537
C      79.45904767      89.73260981      76.09385873
H      81.02941024      90.60566336      75.08285516
H      78.59544275      88.12445271      75.13954695
H      80.26785054      88.96160147      77.82295830
O      75.44526898      91.00439562      77.66611102
H      76.04809168      89.91969271      78.99080917
C      77.21594254      96.40712314      77.71902336
O      78.33088106      98.49338099      77.21446643
N      74.63079694      96.39200533      78.16121931
H      73.87301669      94.78762769      78.86419750
C      73.13602343      98.63322074      78.01571039
H      74.02608452      99.88610929      76.64565881
C      70.42804562      98.07197203      76.98769927
H      69.35846053      99.78217434      76.56818003
H      69.30932765      96.89845199      78.25948508
C      70.71339430      96.51672727      74.57262904
H      71.40503413      94.62889068      75.02805309
H      72.14769657      97.51639249      73.48414669
C      68.10935144      96.39767451      73.28572543
O      66.85079371      94.35299064      73.32540968
O      67.25330542      98.16456862      71.97047591
C      73.18137686     100.22059084      80.51392857
O      71.39936495     101.73804107      80.99580879
N      74.93693261      99.76516680      82.24113843
H      76.37879378      98.61432348      81.74791987
C      75.30353951     101.13710811      84.55416343
H      75.02386002     103.16289471      84.30471956
H      77.19137610     100.64577926      85.21556764
C      73.50263033     100.27350318      86.58750894
O      72.68059939     101.91945480      87.96322971
N      72.96783779      97.77150554      86.65175964
H      73.78419956      96.78695813      85.23257519
C      71.04598613      96.70192045      88.30904961
H      69.69672154      98.00961106      89.15564700
C      69.39436533      94.71392837      86.93143914
H      68.12635897      93.94858921      88.36574140
H      70.61701826      93.15679389      86.36641097
C      67.68416302      95.52462096      84.88864499
C      66.85835262      93.70292479      83.10096390
H      67.75786234      91.88500808      82.88175564
C      65.01209001      94.32653447      81.42288694
H      64.70028517      93.01128496      79.89220862
C      63.71573776      96.64900811      81.58729313
O      61.89026214      97.40489864      79.94890041
H      61.36302850      99.07541670      80.41755253
C      64.33745772      98.41401249      83.46379135
H      63.53243431     100.26972373      83.73591194
C      66.31600117      97.85276377      85.07950736
H      66.72229232      99.34942701      86.40420549
C      72.39714044      95.36966340      90.59372873
O      74.14324756      93.94858921      90.17798895
N      71.66392663      96.01783952      92.87651812
H      70.16726339      97.19702874      92.97667362
C      72.72595282      95.05029965      95.27080136
H      74.78008532      95.12588870      95.16686641
C      71.69983143      96.55641152      97.47422223
H      72.04376162      95.55296685      99.24111633
H      69.67782428      96.24271695      97.23989617
C      72.23651371      99.41367771      97.49878867
C      70.40914836     101.22970469      97.99011752
H      68.52698095     100.66278680      98.54002787
C      71.10645737     103.76004823      97.65752568
H      69.72695716     105.22080667      98.01279424
C      73.57443993     104.55751273      97.54414211
O      74.03175370     107.09163572      97.59327500
H      72.75996789     107.97791736      98.53435870
C      75.47739433     102.69991177      97.27391124
H      77.48995286     102.98903989      97.42886881
C      74.79709286     100.10342781      96.95076804
H      76.27296911      98.70503034      96.79014131
C      72.25541097      92.16657730      95.68843087
O      70.15403531      91.15746345      95.46733289
N      74.43804486      90.86455587      96.22700288
H      76.16147526      91.68658681      96.21944397
C      74.85378465      88.22082876      96.22700288
H      73.03208848      87.26840669      96.34227617
C      75.98762044      87.36478274      93.66075453
H      77.91703100      88.06587120      93.50957643
C      76.17659307      84.50562682      92.98045307
H      77.79986797      84.26941104      91.73512342
H      74.56276680      83.76296438      91.93543442
H      76.25596157      83.26407664      94.62262523
O      74.52497227      88.18681368      91.61040148
H      74.70260654      89.96126669      91.28158910
C      76.49406709      87.44793069      98.45499019
O      77.69593302      88.98427819      99.69276092
N      76.50162599      85.03097074      99.14474029
H      75.57188065      83.68170615      98.16397234
C      78.33655024      83.93492948     100.94942893
H      80.03730393      85.09711116     101.03824607
C      77.24050898      83.70627259     103.72732661
H      76.30887391      85.51474068     104.05235953
C      75.14291277      81.65591954     103.84448964
H      74.18482153      81.47261609     105.65673717
H      76.13690882      79.86823845     103.58748686
H      73.94671602      81.98851138     102.20042774
C      78.97905719      83.21494375     105.96665229
H      79.90313336      81.39324759     105.71153924
H      77.97561252      83.18092868     107.76567173
C      81.08610203      85.24262009     106.08948449
H      80.31509369      87.08888269     106.57892362
H      82.37867483      85.35978312     104.48888632
H      82.20104055      84.75318097     107.75055392
C      79.13968393      81.30443045     100.08960346
O      77.94348717      80.28208852      98.48522582
N      81.13901437      80.37657483     101.39540433
H      82.07442889      81.51041062     102.61427781
C      81.93269942      77.69883265     101.58059751
H      80.31698342      76.60846056     102.24767091
H      83.47093664      77.58922852     102.94686963
C      82.89268038      76.61601947      99.13151221
O      84.80697314      77.57977989      98.09405247
N      81.66624801      74.69227808      98.07515520
H      80.20548957      74.10835265      99.15796839
C      82.22938645      73.44127926      95.73756375
H      84.02651617      74.14236772      95.01190886
C      82.73205365      70.61235897      96.24401040
H      80.79886363      69.90371160      96.19865698
C      84.11533331      69.44261838      94.02169226
H      84.02840590      67.38848588      94.14830392
H      86.09765621      70.00197737      94.01413335
H      83.53140788      70.05677944      92.14330430
C      83.80352847      69.81678419      98.83104572
H      82.91724683      70.73330146     100.45243090
H      85.65357053      70.72007337      98.75923613
C      84.11911276      66.96140773      99.23544717
H      84.94681289      66.71763304     101.10816593
H      85.31719924      66.18284049      97.75012227
H      82.33332140      65.93906580      99.14663003
C      80.28863752      73.99307935      93.58705521
O      79.42881205      72.30177430      92.17920910
N      79.62345386      76.44216465      93.57760658
H      80.32643205      77.55521345      94.96088624
C      77.73939673      77.59867715      91.76913849
H      77.25940625      76.19650023      90.33861567
H      78.34221942      79.34289454      90.85262123
C      74.98795522      78.11646216      92.75746535
O      73.43271046      78.78353555      91.12285209
N      74.35489690      77.79709841      95.13663078
H      75.76463273      77.85756966      96.41975496
C      71.76786158      78.25252246      95.93409529
H      70.72662238      76.91459623      94.76624444
C      71.40692385      77.38702780      98.81403819
H      72.67115076      78.68526978      99.79291642
H      71.84156091      75.39714600      99.11639440
C      68.73296112      77.71772991      99.74189381
N      66.80733001      75.92815909      99.44142733
H      66.85268344      74.30110473      98.44365183
C      64.58690159      76.93160376     100.37306240
H      62.75008761      76.04154267     100.31070143
N      65.10090715      79.41848359     100.80958917
H      63.85746723      80.75640982     101.36138926
C      67.63314041      79.95705559     100.48644598
H      68.57800356      81.76363394     100.58471174
C      70.74174019      80.87546258      95.54859113
O      71.58644785      82.46472241      97.02635710
N      68.94461047      81.18726742      93.88563196
H      68.00730622      79.83611311      92.91431264
C      67.87691510      83.71761095      93.42642847
H      69.46806466      84.99695567      93.13919007
C      66.18938950      83.76674384      90.98490208
H      64.68894681      82.41181007      91.38552405
H      67.48007258      83.39068830      89.42398815
C      65.02909755      86.24228531      90.04570810
H      64.40737759      86.04575377      88.09362082
C      62.65938075      86.92825596      91.62929876
H      63.20929111      87.55186564      93.51524561
H      61.58034703      85.22750228      92.05826662
H      61.72963540      88.55153086      90.76380409
C      66.62969573      88.53074387      90.23090128
H      68.39658984      88.24539520      89.20855934
H      67.07000197      88.95026311      92.19621664
H      65.55633119      90.07842972      89.39753197
C      66.20828677      84.58121588      95.63173908
O      64.37903170      83.28864308      96.27991521
N      66.68449780      86.80164430      96.89029680
H      68.25675009      87.76540471      96.39707824
C      65.33901266      87.55186564      99.20332182
H      64.61902694      86.02307705     100.38251103
C      67.09267868      89.05986724     100.86061179
H      65.86246685      89.95181806     102.24956062
H      67.89392264      90.69637023      99.90252054
C      69.03909678      87.53863756     102.44231271
H      70.05954899      86.26874147     101.18375499
C      71.00063270      89.38678989     103.62906083
H      72.57666444      88.51373633     104.62683634
H      70.04254146      90.53763322     105.04257613
H      71.83211227      90.45448526     102.07759554
C      67.78998769      85.98717225     104.45865069
H      68.95027965      84.58688506     105.43185974
H      66.24419157      84.90624880     103.63473002
H      66.83189645      87.15880257     105.85326871
C      62.96551641      89.02396244      98.61183747
O      61.12303326      88.69892951      99.91196919
N      63.20362193      91.01573397      96.92053243
H      64.68894681      91.09888193      95.72622540
C      61.25720383      92.84309932      96.38196042
H      59.42605903      91.94169987      96.10983984
C      60.86225103      94.66668521      98.65719090