 %block lattice_cart
   139.898   0.000   0.000
   0.000 144.87   0.000
   0.000   0.000   168.12
 %endblock lattice_cart

 %block positions_abs
N      93.36743334      44.29414061      86.60829594
H      95.21936512      44.48689270      87.02214600
H      93.09909221      42.55748213      85.86374376
H      92.56240992      44.06548373      88.32227771
C      92.38855510      46.29725051      85.05305118
H      93.23704223      47.94509185      85.95067117
C      93.36932307      46.39551627      82.29405076
H      92.43768800      45.04247223      81.04872113
H      95.39699939      46.05725526      82.42633161
C      92.95547301      48.96365433      81.40209995
H      90.91645831      49.26034137      81.43989446
H      93.40900731      48.91074200      79.39332088
S      94.57307873      51.50344650      83.06883855
C      92.71358804      53.95253180      81.95578975
H      90.75205213      53.92985508      82.59073779
H      92.64366817      53.68419066      79.91488533
H      93.55829569      55.79690468      82.30916858
C      89.55963482      46.49189232      85.12675051
O      88.48060109      44.65129889      84.51069972
N      88.41446068      48.48744330      86.14909244
H      89.56719373      49.80269282      86.91632132
C      85.66490889      48.83326322      86.70467197
H      84.58398544      47.71832469      85.35351766
C      85.26806637      47.74478086      89.35595799
H      85.94080892      45.79647303      89.38241417
H      83.29141264      47.20998832      89.56571761
C      86.23749596      49.24144410      91.63874737
O      87.28818379      51.26345126      91.43465694
N      85.74616711      48.45720768      94.03492035
H      86.40001242      49.41718865      95.54859113
H      85.35310405      46.59582726      94.19932653
C      84.85043684      51.69808831      86.53648634
O      86.45481449      53.36860637      86.02248078
N      82.47316115      52.28768292      87.03348435
H      81.21082397      50.85716010      86.96923367
C      81.31475891      54.88794633      86.74057677
H      81.72105007      55.56824780      84.83951210
C      78.46694136      54.61204628      86.92199050
H      77.84900086      53.08136797      85.68988895
C      77.46727614      53.89206056      89.51469501
H      77.73939673      55.42840805      90.85829041
H      78.29119682      52.09682056      90.09295126
H      75.42448200      53.65017559      89.40698061
C      77.31798776      57.13105146      85.75791910
H      77.93214882      57.39561314      83.80772153
H      78.03419404      58.71086266      86.86907817
C      74.37001471      57.08947748      85.69555813
H      73.80876600      57.77733786      87.55504882
H      73.55743240      55.26022241      85.20800874
H      73.97695165      58.52377975      84.27070448
C      82.47316115      57.01766788      88.39786675
O      82.38245428      59.18329423      87.76480844
N      83.57676131      56.39783765      90.51058077
H      83.21393385      54.58559012      90.98490207
C      84.70681765      58.06079680      92.47778587
H      83.40101677      59.65005663      92.59494890
C      85.21515403      56.73798839      94.97600404
H      86.13545074      58.19307765      96.10795011
H      86.65701520      55.33392174      94.54325673
C      82.95882081      55.58903479      96.29692275
C      82.04419327      57.00255007      98.39451895
H      82.99094616      58.59936880      99.23733689
C      79.90502309      56.22209310      99.75512190
H      79.38912781      57.21986860     101.45776530
C      78.56709686      54.02245167      98.99734165
H      76.73784179      53.55190982      99.76834998
C      79.43070178      52.77712203      96.78825158
H      78.41213930      51.11038343      96.19487752
C      81.59821787      53.48387967      95.44276645
H      82.13490014      52.49177336      93.74012303
C      87.15212350      59.02077777      91.29103774
O      87.59809891      61.33758223      91.52914325
N      88.66201481      57.36915697      89.97956767
H      88.10265584      55.54557108      90.00980329
C      91.16968163      57.94741323      88.91565177
H      92.20525166      59.19085314      90.19121703
C      92.81752299      55.54746081      88.62841337
H      94.60898353      56.05768691      87.75158036
H      91.77250432      54.12449689      87.56638718
C      93.58097241      54.24732911      91.04159386
H      94.57118899      52.50689117      90.56160338
H      91.83486530      53.75788999      92.01858237
C      95.28361581      55.98398759      92.68187631
O      96.92956743      57.56568851      91.88441180
O      94.88488356      55.85737592      94.98734241
C      90.71236787      59.23998602      86.33239590
O      92.23548727      60.88782737      85.66910196
N      88.70736826      58.60881744      84.88864498
H      87.67368795      57.07435967      85.36107657
C      87.85888113      59.78989638      82.46412613
H      89.46703823      59.75777103      81.17722251
C      85.34743486      58.67117840      81.61374928
H      84.10021550      58.84125377      83.24458309
H      85.62144518      56.67940687      81.16588416
C      84.00950864      59.97131011      79.35741608
H      85.24349992      59.92595668      77.70957472
H      83.62400447      61.95552274      79.75992777
S      81.04263833      58.20063655      78.55617211
C      81.54719525      57.59970358      75.10742160
H      83.50495172      56.98743226      74.93167705
H      81.09366094      59.27778055      74.00382142
H      80.40580056      55.95186224      74.62743110
C      87.54518656      62.64338311      82.97057279
O      88.49571890      64.14004635      81.51737325
N      86.49638846      63.33502294      85.16643475
H      85.72726986      61.98197890      86.27192466
C      85.88789660      65.98630896      85.85429514
H      85.68947532      66.99920227      84.07417295
C      83.46715718      66.04866993      87.52292347
H      83.63534283      67.48675165      88.98935108
H      83.17613934      64.34035734      88.63408254
C      81.06531505      66.78944264      86.18310752
H      79.51196001      66.73653031      87.53615156
C      81.13901437      69.55033279      85.29682587
H      79.28897231      69.95662395      84.48802301
H      82.49961731      69.66938555      83.75480921
H      81.54341580      70.71629392      86.94466721
C      80.29808615      65.13215267      84.00236335
H      78.91858594      65.98819869      82.73435699
H      79.68392511      63.26321334      84.61463468
H      82.05931108      64.83924509      82.97624196
C      88.34832026      67.35258109      86.84073228
O      88.14234009      69.68450336      87.27347959
N      90.49882880      66.08457473      87.37741455
H      90.39111440      64.19106896      87.17710356
C      92.94980383      67.20896189      88.07661327
H      92.67390378      68.52421140      89.63752722
C      94.74693354      65.06223279      88.94021821
H      95.81273918      64.19862787      87.40387071
H      93.83797520      63.56934901      90.03059029
C      96.80673523      66.10725145      90.67876641
H      95.92801249      67.33179410      92.08283307
H      97.70057578      67.51509755      89.47123129
C      98.95157460      64.67483890      91.94299331
H      99.97391652      66.03544185      93.10328528
H     100.10808710      63.94540454      90.40286638
N      97.90844567      62.49409474      93.32438326
H      98.32796491      60.74987735      92.67431740
C      97.07696610      62.52622008      95.62795963
N      96.57996808      64.66350054      96.94131941
H      95.93368168      64.57657313      98.73655942
H      97.20546748      66.38693094      96.41408578
N      96.66689548      60.45130059      96.71077281
H      95.70880424      60.64216295      98.35105524
H      96.47603313      58.88849693      95.63173907
C      93.91923343      68.98530462      85.95256090
O      94.96992126      70.90904601      86.63475211
N      93.71325326      68.46374016      83.47323999
H      92.79106681      66.89337759      82.90443237
C      94.49182050      70.26275961      81.57028559
H      95.66156109      71.79721737      82.29405076
C      96.00927072      68.91160529      79.51993253
H      96.37965708      70.16638357      77.93067271
C      98.39221560      67.77587978      80.56495118
H      97.97458608      66.30378298      81.94445140
H      99.58463291      69.18372588      81.47957872
H      99.36731439      66.89526732      78.97947081
C      94.38599583      66.73842003      78.39932484
H      92.48304143      67.36958862      77.93634189
H      94.13655195      65.25687460      79.80717094
C      95.53872888      65.64615823      75.89165802
H      95.55762613      67.32045574      74.69168181
H      94.25560470      64.17973061      75.22080517
H      97.48136752      65.01498964      76.14866079
C      92.33564277      71.70651051      80.51959776
O      92.76461065      73.52253750      79.07206740
N      89.99805133      70.85613367      80.91077110
H      89.71837182      69.34813207      82.04271716
C      87.61132699      72.00508727      79.78638394
H      88.02895650      72.95939906      78.00815148
C      85.60632738      70.04733081      79.18167152
H      83.80352846      70.94495081      79.61441885
H      85.80285890      68.31256205      80.27204361
C      85.66868834      68.86247241      76.57195949
O      83.82998464      67.62848113      75.85953267
O      87.59620918      69.26687384      75.30584285
C      86.51528573      74.05166087      81.56461640
O      84.75784025      75.42171244      80.91455056
N      87.47526670      74.15937527      83.87764141
H      88.93224568      72.98207577      84.23668942
C      86.59087478      76.11524200      85.74469101
H      85.90490413      77.68749429      84.60518604
C      84.58398544      74.82077947      87.56071800
H      85.23405128      73.12191552      88.52636815
H      83.22338249      73.92315948      86.30027055
C      83.48227500      76.76152840      89.44666485
H      84.90523891      77.59867715      90.67876641
H      82.21615837      75.79965770      90.75435547
C      82.05931108      78.86857324      87.99157560
O      82.49772759      81.10978864      88.70778187
O      80.53997112      78.39803139      86.22846094
C      88.84153882      76.91648596      87.38119400
O      89.44814096      79.13502465      87.66276321
N      90.18702396      75.00786238      88.48101472
H      89.60120879      73.27498335      87.93110436
C      92.27328181      75.47840423      90.39341773
H      92.89311204      77.41726343      90.07405399
H      93.75104777      74.07055813      90.11373825
C      91.22070425      75.50486040      93.09572637
O      89.12121831      74.37858352      93.49256890
N      92.27706126      77.05632570      94.81159786
H      93.78884231      77.98418132      94.11050939
C      91.33408783      77.22262162      97.33816194
H      89.29318341      77.03742844      97.14729958
C      92.55674075      74.98707539      99.04269507
H      94.60331435      75.06266444      98.83482518
H      91.81407831      73.26364499      98.19420795
C      91.71959200      75.25541653     101.78846741
H      92.02005848      77.19616545     102.40829763
C      88.93035596      74.67716028     102.11161060
H      88.21981887      74.69038836     104.04480063
H      88.77728813      72.74963944     101.40485297
H      87.69636468      75.98107143     101.09871730
C      93.34097716      73.59623682     103.48733137
H      95.28550555      74.26519994     103.36449916
H      93.25404976      71.64225982     102.83537578
H      92.78161819      73.87969577     105.44886727
C      91.97281531      79.81343639      98.27924565
O      94.13466222      80.70538721      98.65341145
N      90.05663284      81.34978389      98.91230395
H      88.35965860      80.51641458      98.65530118
C      90.20025204      83.86311988     100.26156855
H      92.15233932      83.94815757     100.92108303
C      89.88844719      85.98528253      98.27735592
H      89.49727384      87.84855268      99.06159234
H      88.36343806      85.59221946      96.95076805
C      92.23737701      86.38779424      96.62762484
H      92.64744762      84.67192274      95.56181921
H      93.79073203      86.77140868      97.92208738
C      91.98037422      88.70459870      94.89096636
H      93.92868205      89.20348644      94.44688068
H      91.17724054      90.15401878      96.11361928
N      90.54607196      88.38334522      92.48912422
H      90.95614256      86.77518813      91.54426107
C      89.40845671      90.24850509      91.13796991
N      89.40845671      92.56153010      92.02236183
H      88.24816476      93.86544126      91.24757403
H      90.00749996      92.91112947      93.79870456
N      88.56752851      89.70804337      88.92321066
H      87.68691605      91.01573398      87.84984612
H      88.46359356      87.94492872      88.19944548
C      88.48060109      84.15791719     102.58782163
O      86.27906993      84.02752607     102.37239283
N      89.58042181      84.55098026     104.82147814
H      91.48148647      84.72861453     104.78179388
C      88.28029011      84.27130077     107.29512988
H      86.71370699      82.98439715     106.93797161
C      89.89411638      82.80676287     109.31713704
H      88.66012510      82.66503340     110.96119893
H      91.42668442      84.07476923     109.85192959
C      90.70102952      80.17815357     108.43841430
H      91.16590218      80.23295564     106.43341469
C      92.84208943      79.28809248     110.10704263
H      93.45625047      77.33978465     109.84248095
H      92.36209894      79.60178705     112.08369636
H      94.47670268      80.49940705     109.78200972
C      88.51839562      78.12213134     108.85037463
H      87.72471057      78.28086835     110.74577014
H      89.36499301      76.24563311     108.76344723
H      87.05574746      78.28464781     107.40851346
C      87.04062964      86.79597512     108.17952179
O      85.33987597      86.58243605     109.71586928
N      87.81919688      88.97860901     107.45197717
H      89.29129368      89.00317545     106.23688315
C      86.34143091      91.21982442     107.61638335
H      85.06775537      91.09699221     109.22831991
C      88.00250034      93.51206244     108.04157177
H      89.18168955      93.69347616     106.36160509
H      89.35932382      93.05285894     109.51933775
C      86.70425836      95.94980938     108.70108626
H      85.91057331      95.52462096     110.55490778
H      85.28318418      96.41090260     107.28379152
C      88.62611001      98.10409738     108.70486571
H      89.40278754      97.88299940     106.80947022
H      90.23237739      97.52773085     109.86137822
C      87.61888590     100.69491215     109.34170348
H      87.15401322     100.92545876     111.33536473
H      85.94647811     101.12576975     108.22109577
N      89.68246702     102.72258849     109.09603906
H      89.18357929     104.47625450     109.66106722
H      90.35331987     103.02683442     107.33481414
H      91.12810766     102.19346512     110.22609540
C      84.59721351      91.51651145     105.41674192
O      85.23405128      90.92502711     103.27001284
N      82.46938170      92.89223221     105.92318857
H      82.05175217      93.39300968     107.71842858
C      80.61933964      93.48749599     103.94275540
H      79.79163951      91.69792518     103.34182243
C      78.38568313      95.05785856     104.88383911
H      79.16236065      96.57908824     106.03279271
C      76.56398696      96.19358407     103.06592240
H      77.28775215      97.51261304     101.65807630
H      75.42826145      97.55040757     104.12038967
H      75.16747922      95.01061540     102.12294897
C      76.76807741      93.57820286     106.77734487
H      77.84333168      92.20815128     107.88094503
H      75.56432175      92.23271772     105.78334883
C      75.17503813      95.09187363     108.57636433
H      73.81821464      96.28618066     107.58992719
H      76.46383146      96.11799502     109.81224534
H      74.07521740      93.76339604     109.69886175
C      82.04041381      94.88211401     101.82059276
O      83.23850031      96.81152458     102.08515444
N      81.49617263      94.14512075      99.51701637
H      80.31509370      92.65034724      99.39040472
C      82.51095567      94.93313662      97.00934956
H      83.59376884      96.67924374      97.13029205
C      84.39879225      93.03018223      96.05314805
H      85.96726510      92.94136509      97.38540509
H      85.37200130      93.73127069      94.37885053
C      83.71849079      90.36377840      95.37662603
C      83.24416948      89.83843448      92.81793660
H      83.17802905      91.43903267      91.55181997
C      82.70937693      87.39879781      92.07716389
H      82.45237416      86.85455664      90.12696632
C      82.75095092      85.40702628      94.04247924
O      82.74150228      83.01085332      93.27147091
H      82.70181802      82.54976010      91.51591516
C      82.93803382      86.05142295      96.57849196
H      83.27818455      84.63979740      98.01090450
C      83.53896679      88.54019251      97.20777082
H      84.00194974      88.79152611      99.17875537
C      80.21493820      95.46603944      95.25568354
O      77.96805362      94.85943730      95.69410004
N      80.66091360      96.51672727      93.03525513
H      82.53363239      96.62444167      92.67242767
C      78.89212979      96.64711839      90.96411509
H      77.04208773      96.05563405      91.64819601
C      78.73906195      99.46470032      90.24979853
H      77.83388304      99.65934213      88.40920512
H      80.61178073     100.17901687      89.77547723
C      77.34822339     101.08230605      92.16409130
H      77.77908099     100.47381417      94.08405323
H      75.37534912     100.68735325      91.72189533
C      77.89246457     103.93957223      91.96944948
H      77.93781800     104.40444490      89.96444987
H      79.73683744     104.27783324      92.81982632
C      75.77786081     105.58552385      92.87084893
H      75.25062718     104.63877097      94.62073550
H      74.24529277     105.59308276      91.49512818
N      76.54319997     108.16877972      93.12974145
H      78.34788861     108.15177218      93.74957167
H      75.39991556     109.24214427      94.21822380
H      76.48272873     109.02860519      91.42709804
C      79.55542371      94.78951742      88.84951134
O      81.81742611      94.67424412      88.24101946
N      77.74506590      93.52340079      87.65520432
H      75.92525947      93.51584189      88.22779139
C      78.04931185      92.10421633      85.35351766
H      79.77085252      91.01951343      85.67477114
C      75.81565535      90.23905646      85.01147719
H      74.22072633      91.53918817      84.91321143
H      75.60778544      89.03530080      86.67065691
C      76.09344512      88.62145074      82.58884807
O      74.53064145      89.18647891      80.92399918
O      77.69404330      86.92825596      82.43766996
C      78.45371328      93.96937620      83.14253788
O      78.08332692      96.27484231      83.57339547
N      79.25306750      93.01506442      80.94478618
H      79.85211075      91.20659633      80.83329233
C      79.45715795      94.63267014      78.67522487
H      80.35477794      96.38633616      79.28182702
C      81.25617740      93.46103983      76.70990950
H      81.40546578      94.66857494      75.04884008
C      83.99439083      92.90546029      77.54516854
H      85.23405128      94.54763246      77.61319869
H      84.91657727      91.34643608      76.56251085
H      83.89612505      92.08342934      79.43111540
O      80.14312860      91.27084703      75.91433473
H      80.99539516      90.97038055      74.34208243
C      76.89468906      95.42446547      77.48280757
O      76.75673904      97.01561502      75.87276076
N      74.88024082      94.72904618      78.77160092
H      75.20149430      93.28340555      79.97535658
C      72.34800756      95.54729768      78.63932008
H      72.19116028      96.39956424      76.77227047
C      70.48662714      93.20970623      78.70923995
H      70.24663190      92.82987124      80.71801901
H      71.52597661      91.57131351      78.01382066
C      68.02431376      93.43647338      77.33351919
H      66.93205195      95.11644008      77.81161995
H      66.77709438      91.93981014      77.99870286
C      68.33800833      93.44025284      74.50837836
O      68.39658984      95.55107713      73.28950488
O      68.35690558      91.37478198      73.37643230
C      71.78486911      97.58820209      80.61975324
O      69.68349345      98.55385224      80.63109160
N      73.51963788      98.16834807      82.35074255
H      75.18448675      97.25183081      82.51514875
C      73.34956250     100.22059085      84.21590242
H      72.65036377     101.92890343      83.30505433
H      75.15047169     100.92545876      84.92832925
C      71.59778622      99.84831476      86.66498773
O      71.15370053     101.72859245      88.01803177
N      70.53953947      97.58253291      87.02781518
H      70.91559502      96.33342382      85.63508689
C      69.12791393      96.87955473      89.28036895
H      68.15470487      98.65589746      89.66020393
C      67.35346091      94.74038454      88.69833324
H      66.16482307      94.38322627      90.34239512
H      68.54965767      93.07364593      88.53203733
C      65.74908328      94.67046467      86.36263152
C      65.22562909      92.39712391      85.01525666
H      66.27064774      90.88912231      85.90720748
C      63.71573777      92.29507869      82.75892343
H      63.58345692      90.48661061      81.81972946
C      62.59890951      94.56275027      81.99736374
O      61.16271752      94.44936669      79.90165724
H      61.01153941      96.16523818      79.33662908
C      63.17905549      96.84553965      83.22190638
H      62.70284446      98.63322074      82.36019119
C      64.74752833      96.91545953      85.36485602
H      65.38058664      98.52928580      86.44388975
C      70.87591077      96.23893751      91.51591516
O      72.93949190      95.21659557      91.18521306
N      70.15781477      96.76239170      93.95366212
H      68.52698095      97.75260828      94.05759706
C      71.55810196      95.75894702      96.25156931
H      73.54798376      96.27862176      96.12117819
C      70.58867237      97.05529927      98.68175734
H      71.41826221      96.05563405     100.28046581
H      68.61957754      96.56774988      99.03513616
C      70.84756487      99.86910175      98.76112586
C      68.73296113     101.25049169      99.46977322
H      66.92638276     100.30562853      99.50756775
C      69.02019953     103.84886537      99.87039520
H      67.32511501     104.90522238     100.29180417
C      71.35212180     105.07718747      99.99133769
O      71.44093893     107.49225770     100.60171929
H      69.65703729     107.78138583     100.75289738
C      73.43837964     103.53328107      99.49244993
H      75.26196554     104.42334217      99.70409928
C      73.34578305     101.00293754      98.80836901
H      75.03519837      99.85776340      98.75167722
C      71.59400676      93.01317469      96.41786522
O      69.65703729      91.64123339      96.58794060
N      73.84656053      91.86611082      96.50290290
H      75.34889295      93.01506442      96.25156931
C      74.35489691      89.14868438      96.46699811
H      72.65414323      88.05453284      96.85817146
C      75.34511349      88.46460345      93.78169702
H      77.29153160      89.10711040      93.59083467
C      75.54731420      85.69804413      93.53225314
H      73.80498654      84.76829879      94.11806830
H      77.10633842      85.04986801      94.71522182
H      75.84400124      85.26151735      91.53859189
O      73.69727214      89.44537141      91.82583028
H      73.55176323      91.21226551      92.21700363
C      76.33533008      88.41169112      98.35672442
O      78.01340705      89.94992834      98.61939637
N      76.27863828      86.16291681      99.59827461
H      74.82543875      84.96294060      99.29780813
C      78.28174818      85.24828927     101.33493309
H      80.00706830      86.36511752     101.20076253
C      77.50129122      85.84166333     104.13361776
H      76.71894453      87.74839718     104.12038967
C      75.44337925      84.02185689     105.00856105
H      76.03108414      82.04898262     105.06903229
H      73.91270095      84.26563159     103.64795810
H      74.62512777      84.62656931     106.80002158
C      79.81242650      85.63379344     105.89106324
H      81.32798700      86.82810047     105.16918779
H      80.55508894      83.71761096     106.03090298
C      79.04708734      86.38779424     108.50266500
H      78.05876048      84.81554194     109.39839527
H      77.88679538      88.08665819     108.57825404
H      80.75728965      86.91691760     109.51933775
C      78.85811470      82.51385530     100.91352412
O      77.18948638      81.13435509     100.18786922
N      81.07854313      81.73150860     101.86027701
H      82.52796320      82.94660262     102.12294897
C      82.12356178      79.14825273     101.89429209
H      80.59477319      78.14669779     102.84293469
H      83.79407983      79.01030271     103.09237857
C      82.83409887      77.98607105      99.43764787
O      84.22871689      79.09156094      97.76712982
N      81.73427815      75.85257004      98.94820875
H      80.36800604      75.32533640     100.17086169
C      81.88545627      74.53921025      96.47644675
H      83.62589420      75.19872474      95.59772401
C      82.38812345      71.72729750      96.83927420
H      80.68736978      70.81833914      97.56303938
C      82.92858519      70.37047401      94.26168750
H      81.28452330      70.32512058      93.02391676
H      83.34432498      68.44106344      94.85506156
H      84.36855664      71.46084609      93.27147091
C      84.61422106      71.19817413      98.66286009
H      84.01517782      71.89548314     100.50723297
H      86.20915007      72.39248116      98.14318535
C      85.60254792      68.62058744      99.13718139
H      87.11621870      68.54688812     100.53179941
H      86.25450349      67.60580441      97.46477361
H      83.98305247      67.53399481      99.79291643
C      79.52140865      75.31399804      94.91553280
O      77.98695087      73.84190124      94.02358199
N      79.24928805      77.75741417      94.77002389
H      80.54564031      78.87424242      95.61662127
C      77.43515079      78.87802187      92.94454826
H      77.54853438      77.68560457      91.26836103
H      78.16836460      80.64869542      92.19621665
C      74.70827572      79.08967122      93.97444911
O      73.11145698      79.64147130      92.35873310
N      74.09978385      78.89691913      96.42542414
H      75.48873270      78.92526503      97.73500447
C      71.49952045      79.11990684      97.25312426
H      70.26930861      78.02197585      96.02102269
C      71.47117454      77.95961488      99.90441028
H      72.68815829      79.04620751     101.16107827
H      72.09667395      76.00752760      99.71543764
C      68.84067552      77.79520869     101.09871730
N      67.15126020      75.81288579     100.67163915
H      67.57077944      74.14236773      99.84960820
C      64.88547834      76.46862082     101.52012627
H      63.43416855      75.03620827     101.59004615
N      65.11980442      78.62290882     102.85805249
H      63.66093570      79.56210279     103.65551701
C      67.52731574      79.60934595     102.42908463
H      67.89581237      81.58033050     102.81836825
C      70.43371480      81.85056136      97.17186602
O      71.65258827      83.57588148      98.16019289
N      68.43438436      82.24740388      95.63929798
H      67.87691510      80.90758793      94.40152724
C      67.19472391      84.77207824      95.32938286
H      68.54020904      86.17614489      94.65286085
C      65.15948866      84.43948641      93.21666885
H      64.15037482      82.70471765      93.68154153
H      66.24797102      84.32421310      91.47245147
C      63.54566240      86.82810047      92.83305440
H      62.77465406      87.17581011      94.71333209
C      64.73241051      89.32253920      92.03936936
H      63.59857473      90.98549836      92.47967558
H      65.19728320      89.49072484      90.03814920
H      66.50497380      89.74961735      92.99368114
C      61.47641208      86.27630038      90.85829041
H      59.96463103      87.65958005      91.06805003
H      60.69595512      84.41491997      91.26458157
H      62.31167112      86.44259630      88.98368190
C      66.14781552      85.48639479      97.93153600
O      64.92705233      83.93681921      99.28269031
N      66.32167035      87.87122939      98.77246421
H      67.32322530      89.11088985      97.72177638
C      65.07445098      88.96916038     101.08737894
H      64.29966319      87.42336426     102.20609692
C      67.00575127      90.32409415     102.73711001
H      66.11380046      91.70737381     103.97299102
H      67.94494525      91.69792518     101.52201600
C      68.97862554      88.50617743     103.93519649
H      70.39214083      87.89579583     102.56703465
C      70.60945936      90.07276055     105.75311321
H      71.24629712      91.69225600     104.64762332
H      72.25541097      88.93892476     106.24255233
H      69.54176399      90.75306202     107.37827784
C      67.98840896      86.31220518     105.42619056
H      67.04921498      84.86089538     104.30369312
H      66.96228756      86.76951895     107.15151069
H      69.71939826      85.28230434     105.85137898
C      62.61024787      90.36755785     100.60171929
O      60.59202017      89.54174745     101.33682282
N      62.72741090      92.43869789      99.20899098
H      64.49241528      93.01317469      98.76679504
C      60.63926333      93.82953646      98.07137574
H      59.25220421      92.51617667      97.30036741
C      59.26732203      95.59076138     100.00078631