 %block lattice_cart
   139.898   0.000   0.000
   0.000 144.87   0.000
   0.000   0.000   168.12
 %endblock lattice_cart

 %block positions_abs
N      91.80273995      41.58616280      84.47290520
H      91.27172686      40.37862769      83.09151527
H      91.20369671      40.99467847      86.18499724
H      93.70947380      41.65419295      84.51447918
C      90.79929528      44.08060154      83.93811266
H      91.33408782      45.48277846      85.34784849
C      91.47581730      44.67586533      81.23391430
H      90.57819730      43.44943295      79.84307574
H      93.44869157      44.17508785      80.90888138
C      91.33786728      47.40085067      80.28149224
H      89.38766972      48.03579871      80.10196824
H      92.30162770      47.48210890      78.46357553
S      92.97059081      49.45498317      82.40932407
C      92.02005848      52.47854527      81.17155333
H      90.00749995      52.75255559      81.51737325
H      92.33186332      52.69586380      79.14576673
H      93.08397439      53.82780986      82.30727885
C      87.94391882      43.97288714      84.13086474
O      86.72126589      42.10772727      83.68677906
N      86.83087002      46.12339568      84.78282032
H      87.82108661      47.75045004      84.67510592
C      84.11155386      46.37283956      85.76925745
H      82.84165777      45.12939964      84.72612853
C      84.09076687      45.11428183      88.47912499
H      84.73327381      43.16597400      88.30338044
H      82.14056931      45.01790579      89.13108056
C      85.75183630      46.50323067      90.34995404
O      85.24161019      48.62161387      91.07560894
N      87.97604417      45.45065311      90.58994928
H      89.33664711      46.32748612      91.60095286
H      88.24060585      43.79714259      89.67721147
C      83.03252013      49.05436119      85.63130743
O      84.38367444      50.91574161      85.32139232
N      80.50595605      49.47199071      86.03570886
H      79.36645108      47.96965829      86.33806507
C      79.31353875      52.08170275      85.81650061
H      79.72738881      52.96420494      84.00047362
C      76.24651294      52.04012877      85.88075131
H      75.71361012      50.87983681      84.26314558
C      75.32999568      50.91385189      88.41865374
H      75.05787509      52.41807403      89.80193341
H      76.42981639      49.33215096      89.14997783
H      73.44971800      50.16363054      88.03692903
C      74.88968945      54.62338464      85.50658550
H      75.68526423      55.89894990      86.91443160
H      72.85445421      54.30024144      85.49146769
C      75.38668747      55.65139575      82.82695358
H      74.19993934      57.28600901      82.42255215
H      75.13535387      54.17362978      81.41343830
H      77.35389256      56.20886501      82.57939944
C      80.32076287      53.98276742      87.79126461
O      80.59288346      56.22587255      87.34717892
N      80.98216708      53.03979399      90.07027454
H      81.04641778      51.15195740      90.34428486
C      82.01584737      54.60637710      92.07149471
H      80.79130472      56.21453419      92.47589614
C      81.96293504      52.95286658      94.55081563
H      82.18970220      54.23221129      96.14763436
H      83.58620994      51.69997803      94.35428409
C      79.75573470      51.14628822      94.83049512
C      77.25184734      52.07603357      95.06860064
H      76.87012262      54.07725373      94.92876089
C      75.17692785      50.48110456      95.03836502
H      73.31365770      51.30880469      95.11395407
C      75.62101353      47.83548772      94.84561293
H      74.15269619      46.41819299      94.77380333
C      77.93214881      46.91519101      94.58672043
H      78.13623925      44.93475783      94.13885529
C      80.12234161      48.51012002      94.64152249
H      81.95159668      47.66541235      94.31837929
C      84.59343407      55.48132038      91.41009050
O      85.26050745      57.62804948      91.66331382
N      86.11844320      53.75222081      90.32349787
H      85.58365065      51.92674519      90.14586359
C      88.62988947      54.46086818      89.51280528
H      89.60309852      55.66273411      90.87529795
C      90.20214176      52.14595344      89.18399290
H      91.60809814      52.33681580      87.68732966
H      89.01539364      50.64551075      88.42243320
C      91.30385220      51.32014304      91.81071248
H      89.90356501      50.67952582      93.17698460
H      92.19769275      52.94341795      92.71022220
C      93.16712235      49.03168448      91.62362957
O      92.79673599      47.19676023      93.06927020
O      94.72236710      48.87672692      89.89830945
C      88.54296206      55.94808278      86.91443160
O      90.38166576      57.25010421      86.26058629
N      86.45292476      55.83280948      85.47446015
H      85.23027183      54.53078805      86.14531299
C      85.87466851      57.23498640      83.23513447
H      87.46014888      57.13483091      81.92177468
C      83.52195925      56.09548144      81.82917809
H      81.71349116      56.16351158      82.80994605
H      83.71093188      54.05268729      81.63075683
C      83.34810443      56.93074047      79.05883932
H      84.99783550      56.43185272      77.93067271
H      83.59565857      58.97542434      79.11175165
S      80.37367521      55.88194236      77.63209595
C      80.91413693      57.07435967      74.41767149
H      80.97271845      59.13227162      74.32129545
H      79.49306275      56.12760678      73.26493844
H      82.75095091      56.31468969      73.87720977
C      85.33798623      60.02800189      83.67922015
O      86.55308025      61.68151242      82.65498849
N      83.68447571      60.72342118      85.41209918
H      82.67725158      59.35336960      86.27948356
C      83.14968316      63.28400033      86.52136853
H      82.95882080      64.40082858      84.79793813
C      80.40958001      63.25187498      87.66276322
H      80.11100325      64.95829784      88.77581202
H      80.18092312      61.62104118      88.89864423
C      78.33655024      63.10825578      85.65965333
H      78.68614961      61.44151718      84.50125110
C      75.73628684      62.59613995      86.91821105
H      74.27552840      62.77188450      85.47634987
H      75.30542924      63.82257233      88.51691951
H      75.67203614      60.65161158      87.59284335
C      77.70538165      65.60269452      84.31227847
H      79.22283188      66.21118639      83.05938992
H      77.28019323      67.03888651      85.72390402
H      76.01029715      65.49309039      83.14820706
C      85.14523415      64.27799637      88.16920987
O      85.34743486      66.60424946      88.04637766
N      86.82898029      62.64905229      89.13297029
H      86.54174189      60.82546640      88.64353118
C      89.17413065      63.38793528      90.37074103
H      88.59209494      64.69184643      91.85606591
C      90.52906441      61.05979246      91.56882751
H      91.48715566      59.94296421      90.12507660
H      89.02862172      60.11681903      92.61573589
C      92.40934210      61.93473574      93.64752645
H      91.39833852      63.16872703      94.94954788
H      93.72459161      63.29911814      92.83683386
C      93.83608546      59.80879364      94.99301159
H      92.57374829      58.22898244      95.37851575
H      94.45780542      60.78767187      96.69565499
N      96.03194744      58.82991541      93.67587235
H      96.32863447      58.89038665      91.79181521
C      97.98214499      57.82458101      94.87017938
N      97.72325249      57.31246518      97.28524960
H      99.30495341      56.86837950      98.25467920
H      96.16989746      57.79245567      98.28302510
N     100.05139531      57.19152270      93.77980729
H     101.13420848      56.00666430      94.80970813
H     100.56162141      57.79245567      92.04125909
C      90.92968639      64.72775123      88.42999210
O      92.06352218      66.62503645      89.09706549
N      91.04306997      64.06634702      85.97712735
H      89.91868282      62.57157351      85.60107181
C      92.58508664      65.14727048      83.99480445
H      94.23103826      66.05244938      84.84707101
C      93.20113742      63.11770442      82.00870209
H      91.48337620      62.10481111      81.49091708
C      93.91167452      64.34224707      79.52182226
H      92.15611877      64.68239780      78.50137005
H      95.10787127      63.09124825      78.40499401
H      94.98692879      66.09969254      79.55583734
C      95.23070348      61.35647949      83.11419198
H      94.72425683      60.83491503      85.04171282
H      97.10153253      62.21441524      83.11797144
C      95.46880900      58.86204076      81.58540340
H      96.55729135      59.13605107      79.86008327
H      93.57341350      58.36693246      80.95045535
H      96.24359679      57.35025971      82.75136453
C      90.86543570      67.32045574      82.89687346
O      91.95769751      69.33490398      82.26192542
N      88.43335793      66.96518719      82.43200078
H      87.84376332      65.18506500      82.79104878
C      86.98771730      68.62814634      80.73880601
H      88.08186884      69.15349026      79.07584685
C      84.47438131      67.35636054      79.87331136
H      83.26873592      68.93806146      79.33473936
H      83.38778868      66.48330698      81.38887186
C      84.64067722      65.76332125      77.54894799
O      86.15434800      66.49275561      75.86709157
O      83.43503184      63.76588054      77.46768976
C      86.15812745      71.13959261      81.98602537
O      86.36221789      73.15215114      80.84652041
N      85.64412190      71.08101110      84.44833876
H      85.45136981      69.41616222      85.35918684
C      85.11499853      73.36191076      85.94122255
H      85.52695886      75.07211307      84.86596828
C      82.29741660      73.77765055      86.95978503
H      82.15757685      75.34045421      88.29393181
H      81.52451853      72.15059619      87.95756052
C      80.26974026      74.05166086      84.75447442
H      78.44048519      74.02898415      85.70122731
H      80.52674304      72.62491750      83.28993653
C      80.40202110      76.59145303      83.36552558
O      81.36767125      78.49062797      84.22157160
O      79.37778944      76.45161328      81.23769375
C      87.03685019      73.60946490      88.25235783
O      87.73604892      75.76942208      88.64164145
N      87.80218935      71.45139746      89.47690048
H      87.26361735      69.68261363      89.00068945
C      89.67679785      71.74619476      91.50457681
H      91.20369671      72.97262714      90.86395959
H      90.53284387      69.93961641      91.99023648
C      88.58075659      72.74774971      94.01791281
O      86.47182202      73.63025189      93.94043403
N      89.90923418      72.43783459      96.21188506
H      91.76305570      71.98052082      96.18164944
C      88.70736825      72.66460175      98.72711078
H      86.71559672      73.02553947      98.34916552
C      88.94736349      70.19472946     100.13117743
H      90.93346585      69.67505472     100.30881171
H      88.10832501      68.56767510      99.18442455
C      87.80029962      70.10213287     102.82781688
H      86.04096442      71.16415906     102.97143608
C      87.55841465      67.33368382     104.00511637
H      86.37922543      66.28677544     102.68041823
H      86.65134602      67.53588453     105.84382008
H      89.34609574      66.33779805     104.22810408
C      89.32530875      71.60446529     104.89895692
H      89.24216080      73.63592107     104.57392399
H      91.35676454      71.27943236     104.83470622
H      88.65256619      71.28699127     106.82080858
C      89.83553486      75.00219320      99.67953284
O      91.95580778      74.80377193     100.66785970
N      88.55996960      77.26986477      99.61339242
H      86.85543646      77.02231063      98.79325120
C      89.37066218      79.67170692     100.70943368
H      91.41912551      79.51674936     100.85683234
C      88.50705726      81.75040586      98.95387794
H      88.93035595      83.60422737      99.74756299
H      86.50205764      81.51796952      98.54380733
C      90.20025204      81.75796477      96.55581525
H      90.32119452      79.88902544      95.69787950
H      92.08808862      82.44015597      97.01690847
C      89.13633612      83.55131504      94.55270536
H      89.05696762      85.24639954      95.72055622
H      87.19558720      83.14313415      93.98956691
N      90.77472884      83.91036304      92.32282831
H      92.23926673      85.10844952      92.57227218
C      89.91112391      83.60422737      90.06838482
N      87.77951263      82.61590051      89.40698061
H      87.13133650      82.56676763      87.61174061
H      86.90456935      81.68048599      90.82049589
N      91.31519056      84.35444872      88.21267358
H      90.68780143      84.19571171      86.41554385
H      93.13688673      84.85900565      88.47345581
C      88.37099697      79.92681997     103.31158682
O      86.26017267      79.15392191     103.92385814
N      89.86954993      81.20805441     104.94997953
H      91.24149123      82.24740388     104.12416913
C      89.55774509      81.43671129     107.66740597
H      88.11210446      80.04587273     108.13038891
C      91.97848450      80.44271525     108.97887603
H      91.76494542      80.75452009     111.00277291
H      93.61309776      81.43671129     108.21731633
C      92.57563801      77.59111825     108.68407872
H      93.01216479      77.14703256     106.72254281
C      94.89244247      76.92404486     110.32247144
H      96.35698036      78.13346970     109.52122748
H      95.50660352      74.99841374     109.92562891
H      94.32552458      77.34167437     112.25755118
C      90.55363086      75.69194330     109.57980900
H      88.78295730      76.06043993     108.59526159
H      90.07364037      76.09445501     111.54134491
H      91.18101999      73.77009164     109.17729729
C      88.80185456      84.13713019     108.42329649
O      88.38800450      84.73239398     110.70230643
N      88.45981410      85.80764826     106.49577565
H      88.95681212      85.28797352     104.72888155
C      87.50172286      88.38712467     106.89639763
H      86.91212825      88.51373634     108.86549245
C      89.72404101      90.12945233     106.77356542
H      90.06230202      90.64912707     104.80825006
H      91.38511043      89.20726589     107.56725047
C      89.34609574      92.61255271     108.19841906
H      88.57319768      92.27051225     110.07869674
H      87.72849002      93.53284942     107.31780660
C      91.85565229      94.14890020     108.51967254
H      92.83453052      94.29251940     106.71309418
H      93.36932306      93.48749599     109.75177409
C      91.17913027      96.89845199     109.40784390
H      90.54040277      96.87388554     111.36560036
H      89.50294303      97.51072331     108.37983279
N      93.16523262      98.71447897     108.71431435
H      94.83386096      98.55196251     109.62894188
H      92.45847498     100.40956348     109.23776853
H      93.63199502      98.86565708     106.86994146
C      85.46837735      89.04852888     104.92541309
O      85.80852808      88.26996164     102.80891962
N      83.57109213      90.55086130     105.65295772
H      83.63156337      91.40690732     107.35749085
C      81.66624801      91.81508820     103.93708623
H      80.30186561      90.45259553     103.21143132
C      80.32076287      94.01095018     105.50933852
H      81.71727062      95.45848054     105.95531393
C      78.17214405      95.11077089     103.91440951
H      76.62823766      93.74827822     103.88606362
H      79.00551336      95.70981414     102.12672842
H      77.66380768      96.84553965     104.89706719
C      79.43448123      93.01317469     108.14739645
H      80.94815201      92.80152534     109.52689666
H      78.47261054      91.25761894     107.67307515
C      77.66758713      94.92368799     109.48154323
H      75.99895879      95.26194900     108.32503073
H      78.65780372      96.71514853     109.70831039
H      77.13657403      94.09031869     111.28812158
C      83.07598384      92.96026235     101.54847217
O      84.71248682      94.55708108     101.76201124
N      82.22938645      91.98705330      99.41686089
H      80.74028211      90.79652572      99.53024446
C      83.17802906      92.70892875      96.91675297
H      84.32887238      94.39456462      97.21344000
C      84.88067247      90.67558324      95.68654114
H      86.47371175      90.55275103      96.98478312
H      85.70837259      91.56564433      94.02358199
C      83.69203461      88.00539996      95.02891639
C      83.49172363      87.40824644      92.44188106
H      84.14934838      88.78396720      91.08505757
C      82.51851457      85.04230910      91.73890288
H      82.17269466      84.67948165      89.76224915
C      81.82120556      83.22628211      93.47745108
O      80.79508418      81.10978864      92.87273866
H      80.45493344      80.95294136      91.09639593
C      82.01395765      83.89713495      96.06826586
H      81.30342055      82.61779024      97.49122977
C      83.02496123      86.21960859      96.82415638
H      83.00984342      86.76762922      98.79136148
C      80.95949037      93.44214256      95.19899175
O      78.77118730      92.72404656      95.68276169
N      81.41869386      94.79329687      93.19399214
H      83.21015440      95.29596407      92.77069344
C      79.51384974      95.45092163      91.18710279
H      77.64302069      95.22226475      92.01669264
C      79.65368948      98.24960630      90.45010953
H      78.32710161      98.62377211      88.91943122
H      81.44515003      98.73904542      89.55626898
C      79.20204489     100.15634015      92.62329479
H      80.52296359      99.90311682      94.18420872
H      77.30098022      99.85965312      93.35083942
C      79.46660658     102.87376659      91.42142886
H      77.86222894     103.10998238      90.15153277
H      81.15602190     103.23470431      90.29893143
C      79.55731344     104.87876621      93.60973193
H      81.43003222     104.56885109      94.41097588
H      78.22694612     104.51026958      95.13852051
N      79.20582435     107.44501454      92.65353041
H      77.39924599     107.90421803      92.23590090
H      80.09777517     107.56973648      90.96978427
H      79.93147925     108.72624898      93.86673470
C      79.57054153      93.90134605      88.75124558
O      81.48861373      93.06608702      87.70433720
N      77.25562679      93.57631313      87.77425707
H      75.70605122      94.10165704      88.75502503
C      76.58666368      92.50483831      85.19100120
H      77.76774262      90.86644560      84.76959223
C      73.77475092      91.72438134      85.36107657
H      72.59556170      93.38734050      85.65776360
H      73.50074061      90.42613936      86.93521859
C      72.98484532      90.28440989      83.00836731
O      73.23995838      87.92981090      82.96679333
O      72.17037328      91.62800530      81.25281157
C      77.21405281      94.56463999      83.21056803
O      77.95104608      96.71892799      83.92866402
N      76.86445345      93.97882483      80.72179847
H      76.01596633      92.32909376      80.26637443
C      77.31042886      95.75138811      78.63932007
H      79.18125791      96.57719851      78.87931532
C      77.30664940      94.43991805      76.03905667
H      76.86067399      95.76461620      74.52727562
C      79.86344910      93.22482403      75.28505587
H      79.63479222      92.37444719      73.42178572
H      80.42091837      91.66202037      76.50392934
H      81.34310481      94.62889068      75.57796345
O      75.63424162      92.41980062      76.05984366
H      74.74040107      92.52373557      74.48381191
C      75.38479774      97.90000693      78.52404677
O      75.93848755      99.72548255      77.18045136
N      73.23050975      97.24994108      79.68055927
H      72.84122613      95.39800929      79.92811342
C      71.15181080      99.04329135      79.94512096
H      71.31621699     100.31318743      78.33318441
C      68.72162276      97.39733973      79.55205788
H      66.98307455      98.45369674      79.88275999
H      68.84067552      95.91957376      80.98069098
C      68.65737207      96.41846150      76.74014513
H      70.28064697      95.19391885      76.40188412
H      68.83500634      98.06819257      75.51938193
C      66.20450731      94.98037978      75.93701145
O      64.46595911      96.22948887      75.00159692
O      66.29143472      92.67491368      75.63843469
C      71.32377590     100.27350318      82.56617135
O      69.92159897     101.98937467      83.11986116
N      72.94894052      99.41178798      84.19889489
H      74.12812974      97.97181653      83.77937565
C      73.36657004     100.62121282      86.64042128
H      72.64280486     102.55062339      86.61207539
H      75.38290802     100.52861623      87.05805080
C      72.09667396      99.39478045      88.99124082
O      72.66170213     100.11665590      91.18332334
N      70.52064221      97.59954045      88.60951610
H      70.13324832      97.23293354      86.77837130
C      69.19216461      96.20303270      90.61451572
H      67.97518087      97.50505413      91.65008574
C      67.40826298      94.37755708      89.34650936
H      66.31978062      93.57064395      90.89797467
H      68.53076041      92.87333494      88.49802225
C      65.78498807      95.41312710      87.30182549
C      65.47885241      93.83520563      85.13430941
H      66.33111898      91.98894303      84.97746213
C      63.86313641      94.55897081      83.10663308
H      63.83479052      93.67835835      81.26414992
C      62.58001225      96.98159994      83.38820230
O      60.89626610      97.70725485      81.54760887
H      60.39926808      99.34942701      82.13531375
C      63.10913561      98.66912554      85.22312655
H      62.37403208     100.57207994      85.30060533
C      64.62091666      97.81874870      87.35473783
H      65.10090715      98.92990777      88.99502027
C      71.17070806      95.15234487      92.52502902
O      73.05476520      94.14134130      91.78047685
N      70.65292305      95.53029014      94.97222460
H      68.83689607      95.96114774      95.36906712
C      72.41792743      94.53440437      96.93753996
H      74.25474141      94.83865031      96.05692750
C      72.24218288      96.19547380      99.36961773
H      73.24562756      95.21659557     100.87950905
H      70.28631615      96.38633616      99.98755823
C      73.21350221      98.84675982      98.99167247
C      71.57321977     100.91601013      99.21088072
H      69.60979413     100.55885185      99.63795886
C      72.51052402     103.57863450      99.21088072
H      71.06677312     105.01482650      99.36205882
C      75.18637648     103.94146195      98.82726628
O      76.27863829     106.26393559      98.94820876
H      75.08055181     107.51682414      99.48489103
C      76.70004726     101.80607122      98.56270459
H      78.72205441     102.06307400      98.66097036
C      75.81943479      99.28895577      98.49467444
H      77.19137610      97.77906445      98.48900527
C      72.35178701      91.54863679      97.27958043
O      70.27686752      90.45448526      97.38918455
N      74.50229555      90.23716673      97.54414211
H      76.12934991      91.23494223      97.54036266
C      74.78953395      87.55186564      97.45910443
H      72.93382271      86.73739360      97.83515996
C      75.58132928      87.01896282      94.57349235
H      77.58254944      87.49706358      94.54892590
C      75.36590048      84.29586720      93.77224839
H      73.36279059      83.81965617      93.82327100
H      76.44115475      83.20927457      95.15174860
H      76.09533484      84.22027815      91.84472755
O      74.16592427      88.50806716      92.93320991
H      74.57599488      90.23149755      93.32816271
C      76.84555618      86.69770935      99.38473554
O      78.45749273      88.27185137     100.00834522
N      76.57154587      84.36767680     100.33715760
H      74.88591000      83.53430750     100.01590413
C      78.40269066      83.01274304     102.02468320
H      80.22438683      83.95760619     101.84704892
C      77.47672477      83.21494375     104.75911717
H      77.30664940      85.24639954     105.05202475
C      74.90291753      81.89213533     105.17296723
H      75.22039155      79.87768709     104.87250075
H      73.44026937      82.54787037     103.87850471
H      74.45694212      81.74095723     107.17796685
C      79.40046616      82.44204569     106.77356542
H      79.93714843      80.47295087     106.48821675
H      78.44237492      82.87290329     108.54612870
C      81.96860422      83.94059866     106.65451266
H      81.80608775      85.99473116     106.59026197
H      83.05330712      83.34533487     105.00478159
H      82.99850506      83.45115954     108.37038416
C      78.64268591      80.37468511     101.13840156
O      77.13468431      79.36368153      99.56803899
N      80.66847251      79.14447328     102.02279347
H      81.78341104      80.42948717     102.89017785
C      81.40924523      76.51019480     101.51256737
H      79.96171487      75.21384254     102.19475857
H      83.27251537      76.21539749     102.34026749
C      81.71349116      75.83367278      98.71577242
O      83.44259074      76.56877631      97.54603184
N      80.00706830      74.26519994      97.76901954
H      78.44237492      73.96662318      98.81781764
C      79.84644157      73.30143952      95.18009449
H      81.35066371      74.20283897      94.09917104
C      80.16580531      70.27598769      95.16497668
H      78.37245504      69.80355611      96.06448641
C      80.30753479      69.23663822      92.40975572
H      80.67225197      67.21274134      92.51747012
H      81.92891996      70.04922053      91.43654667
H      78.58977357      69.31033754      91.27780966
C      82.42591798      69.37080878      96.85061255
H      82.59977281      70.35157674      98.65341146
H      84.13612030      69.87725544      95.81882199
C      82.77740708      66.52677068      97.24367563
H      83.33109689      65.62348151      95.47678152
H      81.22783150      65.38348626      97.97688944
H      84.44981487      66.21118639      98.40207786
C      77.27830351      74.31244309      93.95933129
O      75.27519362      72.95561960      94.30893066
N      77.31798776      76.59145303      92.80281879
H      78.96771883      77.52875728      92.99557087
C      75.22417101      78.03142448      91.62551930
H      74.54953871      76.99396473      89.97767795
H      75.87801631      79.73406789      90.66931778
C      72.81099050      78.56621702      93.28469900
O      70.94016145      79.50919045      92.23779062
N      72.82610831      77.94827652      95.72433567
H      74.47205993      77.60434633      96.62573512
C      70.53387030      78.29409643      97.30603659
H      68.96917691      77.19805517      96.53124881
C      70.95527926      76.99585446      99.84015958
H      72.29887467      78.04087311     100.99667208
H      71.65636773      75.09290006      99.47544240
C      68.48351725      76.88247088     101.10438648
N      66.80355056      74.93416305     100.94942893
H      66.93583140      73.37891829      99.84771848
C      64.83634546      75.45194806     102.52357094
H      63.14504041      74.35023762     102.81836825
N      65.08767906      77.79142924     103.50622863
H      63.65904597      78.72873349     104.35471574
C      67.21362116      78.81188144     102.40829764
H      67.96195278      80.70538721     102.55002711
C      69.86679691      81.10222974      97.63295925
O      71.17637724      82.56676763      98.97277520
N      67.81455413      81.84300245      96.45943921
H      67.06055333      80.77341736      95.07049037
C      66.80733001      84.48106038      96.40463714
H      68.21895556      85.87945786      95.85661651
C      64.48485637      84.56798779      94.69065538
H      62.98063422      83.36234241      95.42008973
H      65.07256125      84.12201238      92.76691399
C      63.30755688      87.24950943      94.61317660
H      62.84646366      87.89201638      96.51613100
C      65.00831056      89.36600290      93.54548123
H      65.96829152      90.28252016      95.12151298
H      63.90848984      90.83998943      92.61762561
H      66.27631691      88.68570143      92.07149471
C      61.00020105      87.23817107      92.97478388
H      59.59613440      85.93048047      93.72311550
H      61.27232164      86.57487714      91.04348359
H      60.07045570      89.06364669      92.75746536
C      65.94939426      85.23884064      99.24489579
O      64.91382424      83.66469862     100.72644122
N      66.57300394      87.61422661      99.91007945
H      67.72951645      88.53452333      98.70065461
C      65.56955927      88.71026787     102.13239760
H      64.63792420      87.50273276     103.51756698
C      67.75408289      89.93292080     103.43252930
H      66.90748550      90.57731747     105.19753368
H      68.43249464      91.53918816     102.33648804
C      69.74585442      88.10933490     104.33203903
H      70.56788537      87.34588547     102.60293945
C      71.63936019      89.58143170     105.83437144
H      73.24373783      88.40224248     106.36349481
H      70.66426141      89.94803861     107.61071418
H      72.17226301      91.33320799     104.89517747
C      68.73296112      85.81142771     105.84948926
H      70.34678739      84.63790767     106.35782563
H      67.43471914      84.75318097     104.64951305
H      67.85234866      86.52007508     107.57102993
C      63.34913085      90.50361814     101.45209612
O      61.30633671      90.25606400     102.54057848
N      63.88959258      92.47271296     100.00834522
H      65.61302298      92.58987599      99.19576291
C      62.03199161      94.51361738      99.33749238
H      60.26698724      93.53284942      98.91986287
C      61.42538947      96.28051148     101.59949478