 %block lattice_cart
   139.898   0.000   0.000
   0.000 144.87   0.000
   0.000   0.000   168.12
 %endblock lattice_cart

 %block positions_abs
N      93.35042580      45.67458568      85.14281318
H      92.87799422      44.12312037      84.13558905
H      92.88555313      45.38545756      86.97206825
H      95.16267333      46.26418030      85.05210631
C      91.98037422      47.78729970      84.01086712
H      92.66445515      49.56553215      84.79699326
C      92.57185856      48.18225250      81.15549066
H      91.90100572      46.56464677      80.07078775
H      94.56929927      48.28807717      80.66605154
C      91.12810766      50.47260078      80.02732405
H      89.09287242      50.19481103      80.15393571
H      91.60242896      50.63700698      78.02799361
S      91.97281532      53.21081421      81.69028320
C      90.32875343      55.57675157      79.67583495
H      90.63299936      57.52883885      80.25598093
H      88.32375381      55.10620970      79.61914316
H      91.17724054      55.29329261      77.82012371
C      89.16090256      47.50006130      84.63825625
O      88.14045036      45.35900138      84.52298295
N      87.79840989      49.56553215      85.19194606
H      88.66390454      51.26439611      85.25808648
C      85.06964510      49.59765751      85.82878383
H      84.08887714      48.18603196      84.69305832
C      84.51406556      48.61311009      88.53865136
H      85.41735474      46.78763448      88.85234593
H      82.47694060      48.35421760      88.69171919
C      85.21893348      50.17969322      90.88002226
O      85.95970619      52.33209149      90.58900441
N      84.69358956      49.39923624      93.16281165
H      85.40979583      50.43480627      94.59900365
H      83.96037575      47.66068804      93.45193978
C      83.81864628      52.22248735      85.15604126
O      85.23783074      53.95914584      84.40959937
N      81.30720001      52.25083326      85.58689886
H      80.42847727      50.56897684      85.78343040
C      79.79919841      54.55251990      85.32233718
H      80.28296835      55.17423985      83.41938278
C      76.90035825      53.97615338      85.31855772
H      76.47328010      52.61932988      83.82945339
C      76.20871842      53.12577653      87.99441018
H      77.17625829      51.40612558      88.58589452
H      74.32088183      52.30563532      87.99252046
H      76.13879854      54.76605898      89.23785010
C      75.56054229      56.30429620      84.30188497
H      76.49595681      57.09231207      82.64648472
H      75.61156490      57.84820259      85.66626737
C      72.82043914      56.25138386      83.68583419
H      72.44249387      55.38777893      81.85468939
H      72.26296987      58.23181704      83.60268623
H      71.61101430      55.28573370      85.04454741
C      80.49461769      56.79562504      87.08356210
O      80.65146498      58.89133152      86.11602223
N      81.23728013      56.35153935      89.44383027
H      81.08043285      54.64133704      90.27908930
C      82.33899057      58.21669922      91.12757641
H      81.08610203      59.77761315      91.61323607
C      82.70181803      56.84664765      93.73161927
H      83.84699217      58.09575674      94.90135986
H      83.98305247      55.26683645      93.41036580
C      80.48894851      55.80162900      95.27174622
C      79.13212502      57.14522441      97.20493623
H      79.50251138      59.12943703      97.51107190
C      77.13090486      56.02272697      98.57498781
H      76.16525471      56.94869286     100.11700448
C      76.38068351      53.54151633      98.05909253
H      75.12212579      52.48326959      99.26851737
C      77.78286043      52.23382572      96.16369704
H      77.42759189      50.23449528      95.95771687
C      79.71038127      53.32986698      94.68593106
H      80.48516906      52.23949490      93.14202466
C      84.91468754      59.35620419      90.15247763
O      85.37578076      61.66733946      90.15625709
N      86.68725082      57.87654849      89.13391515
H      86.33576173      56.00571944      88.99218568
C      88.83964909      58.65511573      87.73362795
H      89.78451225      60.02705703      88.94683225
C      90.74260349      56.41201059      87.52386833
H      90.06797119      55.33486660      85.90437288
H      90.39111439      55.33297687      89.24351928
C      93.54884706      57.12821686      86.95506071
H      93.71325325      58.48504036      85.41304404
H      94.61087325      55.44447072      86.42215789
C      94.79417670      58.17134578      89.57422138
O      93.95135877      60.12154335      90.49451810
O      96.51382765      57.06396616      90.70049826
C      88.29729764      59.95902689      85.22596114
O      89.12877722      62.13788132      84.88770013
N      86.69103027      58.77038904      83.64426021
H      86.30930556      56.96381068      84.12803015
C      85.69136505      59.69635493      81.23674889
H      87.07086526      59.66611931      79.70796030
C      83.47471609      58.11087455      80.46196110
H      81.96482476      58.45291501      81.82067432
H      83.90935314      56.10020574      80.57156523
C      82.69425912      58.55118078      77.63115108
H      84.29674703      58.07685948      76.42739542
H      82.32009331      60.49570916      77.06423319
S      80.07131900      56.52728389      76.83935576
C      79.87100801      57.06585589      73.47942237
H      78.53497151      55.92824065      72.40416810
H      81.70971171      56.70302845      72.62715581
H      79.44204014      59.03306099      73.04289560
C      84.87689301      62.54228276      81.57312017
O      85.58365065      64.09941724      80.04811104
N      83.53518733      63.18101025      83.59701705
H      82.87378312      61.70135455      84.60613090
C      82.50528649      65.70379487      84.09968425
H      82.21615836      66.73180598      82.33845933
C      79.68014565      65.47135854      84.95384055
H      79.03007980      67.33273895      85.55099406
H      79.62345386      64.18823436      86.56577709
C      77.55042410      64.37153783      83.22096152
H      78.34410915      62.72369647      82.27231891
C      75.16369976      63.42667467      84.41715827
H      75.56432174      62.19079366      86.01775646
H      74.06198932      62.24181626      83.13970329
H      74.20182907      65.07640574      85.18249743
C      76.98539593      66.12142438      81.09690914
H      75.12968469      65.72647158      80.28999601
H      78.45560300      66.05906341      79.65693769
H      77.18570692      68.02815824      81.85090994
C      84.21926826      67.25714991      85.78720985
O      83.80352847      69.52104202      85.67004682
N      86.12600211      66.32740456      87.07033402
H      86.11088430      64.41878098      87.02687031
C      88.28029010      67.67099996      88.00574854
H      87.61510644      69.49458585      88.70116783
C      89.76183553      66.39354497      90.06932968
H      91.48337620      67.51793213      90.20161052
H      90.17001642      64.43767825      89.57611111
C      88.53162370      66.55795117      92.73951296
H      86.92535634      65.26726810      92.75652049
H      87.94202909      68.52137681      92.94738285
C      90.14167052      65.66977979      95.02041262
H      89.00783473      65.85875243      96.73061493
H      91.65534130      67.05494918      95.22072360
N      91.04118025      63.12809791      94.56498857
H      92.26761262      63.03928078      93.10423013
C      90.03206639      61.06640651      95.46638803
N      88.63555865      60.85475716      97.47138764
H      88.13100172      59.16912129      98.21027063
H      88.46170383      62.44401699      98.51451657
N      90.52906442      58.94424385      94.37979540
H      89.82041705      57.33986622      95.13190647
H      91.49660429      58.93290549      92.73384378
C      90.02072804      68.41744185      85.79854821
O      91.73659953      70.01992977      86.04799208
N      89.60876770      67.58407256      83.38725743
H      88.40312231      66.10441685      83.31166838
C      90.90134050      68.36830898      81.05533516
H      92.55107157      69.58907217      81.23485916
C      91.85376256      66.07418123      79.52087740
H      90.37599658      64.67011457      79.22419037
C      92.87988395      67.15699441      77.04722565
H      93.61687721      65.52994005      76.01921454
H      94.39166500      68.44956720      77.58201820
H      91.37944126      67.81461916      75.79811656
C      93.81907793      64.64554813      80.97785638
H      93.01972370      63.71958224      82.63325663
H      95.24204184      66.00426135      81.58823798
C      95.10598155      62.48937041      79.53977466
H      93.76427586      61.04750924      78.93884169
H      96.49115093      61.46891821      80.66983099
H      96.07919060      63.42667467      77.98264018
C      89.09098269      70.06528321      79.57567946
O      89.70514374      72.18177667      78.98041567
N      86.69669945      69.49836530      79.12214514
H      86.17702472      67.80894998      79.84402060
C      84.89390055      71.01581554      77.83146207
H      85.88411714      71.88508964      76.24787142
C      82.69614885      69.15632485      77.04722565
H      80.91980611      70.17110788      76.80912014
H      82.40513100      67.95067945      78.69317727
C      83.45959828      67.38376157      74.86270203
O      85.44381091      67.77871436      73.67217446
O      81.91002270      65.80206064      74.36948347
C      83.76195449      73.15120627      79.35836093
O      83.73738805      75.31116345      78.49097656
N      82.83409887      72.82428361      81.68839348
H      83.34054552      71.20667789      82.56900594
C      81.94592750      74.91054146      83.24363823
H      81.06153559      76.30326976      82.00586750
C      79.95982515      74.08095162      85.17115907
H      80.69681841      72.83184252      86.63191751
H      78.56520713      72.92065967      84.19039112
C      78.45560300      76.22012181      86.49963667
H      79.67636620      77.40686992      87.65614917
H      77.27830351      75.27525864      87.89992387
C      76.97216785      77.90197822      84.62124872
O      74.79709286      77.27458909      84.02787465
O      77.69215357      80.08083267      83.87480682
C      84.15690729      76.16154029      84.66660215
O      84.41768952      78.39330707      84.97840699
N      85.66112943      74.56283183      85.80043793
H      85.44381091      72.67688496      85.62280366
C      87.57920164      75.26203057      87.55032450
H      88.63555865      76.88341574      86.84167713
H      88.74516278      73.56883579      87.67126698
C      86.46426312      75.82516901      90.27153039
O      84.23060661      75.78359502      90.76096951
N      88.18391406      76.26358550      92.08377793
H      90.00183077      76.41854306      91.52441894
C      87.43747217      77.06105002      94.66136462
H      85.39278830      77.28214800      94.79931464
C      88.11966337      74.74802501      96.28652925
H      90.17757532      74.73668665      96.39991282
H      87.66423932      73.14742682      95.07332495
C      87.01039402      74.38708728      98.91891800
H      84.95626152      74.51369895      98.87356457
C      87.79463044      71.60163069      99.58788111
H      86.83275975      70.35252160      98.26129324
H      86.98015840      71.00258745     101.38312111
H      89.81474787      71.20856763      99.68614688
C      87.97037499      76.45066841     100.82565185
H      87.43369271      75.82705873     102.71537816
H      86.94425360      78.16842963     100.33621273
H      89.97537461      76.91554109     100.85588747
C      88.87933334      79.37407502      95.56087434
O      91.07519532      79.30037569      96.27897034
N      87.47904615      81.42442807      96.13157169
H      85.63089381      81.22033762      95.70638327
C      88.38800450      83.71477637      97.64713219
H      90.44780618      83.66375376      97.66602945
C      87.24849954      86.09772125      96.46605325
H      87.87777840      87.63784818      97.67925754
H      85.22082320      85.81804175      96.24495527
C      88.06297158      86.59093981      93.79964942
H      87.42991326      85.17553480      92.44093620
H      90.11710408      86.56448364      93.65980967
C      87.14834404      89.19687239      92.85667599
H      87.06330636      90.60471850      94.35900841
H      85.21326430      89.02490730      92.16881561
N      88.61666139      90.26078831      90.66837292
H      90.30985616      91.02612747      91.10489970
C      87.75116673      91.03746582      88.52920273
N      85.48349516      90.34960544      87.72606905
H      85.14334442      90.60093905      85.86468863
H      84.69925874      88.86050112      88.62935823
N      89.25727861      92.28279547      87.17993814
H      88.54674151      93.11049560      85.61335503
H      90.85598707      92.81947774      88.07566842
C      87.56597356      83.52202427     100.44770659
O      85.35310404      83.16864546     101.09588271
N      89.35932383      83.89807982     102.05586368
H      91.14511519      84.07949355     101.40201837
C      89.14767448      83.44076605     104.81486410
H      88.11021473      81.67009250     104.99438810
C      91.80273995      83.42564823     106.17546704
H      91.54762690      83.78658597     108.18613584
H      92.99893671      84.89963477     105.37044363
C      93.08775384      80.83483347     106.08098073
H      91.64211321      79.38352366     106.29074035
C      94.33875266      80.43232176     103.54307829
H      95.85809262      81.72489456     103.03474191
H      92.84208942      80.23767994     102.13901164
H      95.32707952      78.62952286     103.66402077
C      95.01338496      80.30759982     108.20125365
H      94.29150950      80.54759506     110.11554640
H      96.41556188      81.78536580     107.91023580
H      95.97714538      78.49346255     108.04440636
C      87.28629406      85.38151496     106.09420881
O      85.65357053      84.80703818     107.75338851
N      87.64723179      87.74556259     105.20225799
H      88.88500252      87.94587357     103.76228654
C      86.42268914      90.16630199     105.96381769
H      85.85766097      89.87906360     107.92346388
C      88.27651065      92.37917151     105.78996287
H      90.05096366      91.91807828     106.72915685
H      87.50361259      94.08559437     106.64600889
C      88.87555389      93.26545314     103.10466178
H      87.16157213      93.55080182     102.00295134
H      89.85821157      91.70453921     102.18814452
C      90.54229250      95.66162612     103.25206044
H      92.43768799      95.02289862     103.74149955
H      89.83931431      97.13372291     104.51250789
C      90.98826791      96.51200295     100.55731071
H      89.25538888      97.38505652      99.87134006
H      91.23015288      94.84337462      99.37623177
N      93.13310727      98.32047103     100.06031269
H      92.77405927     100.05901925     100.76140115
H      93.67167927      98.12204977      98.24050625
H      94.67512395      97.88583399     101.09966216
C      83.92258122      90.36472326     104.63345037
O      83.79407984      89.79024646     102.36388907
N      82.03663436      91.54202276     105.75027862
H      82.07442889      91.59493509     107.65890220
C      80.00895803      92.71554280     104.52762570
H      78.99039555      91.16029803     103.63945433
C      78.00773787      94.16685259     106.25861500
H      78.90535786      95.89595218     106.92568839
C      75.57943955      94.67896842     104.80541546
H      76.01029715      96.11893989     103.39567963
H      74.08844549      95.57280898     105.91090536
H      74.87268191      92.92719213     103.98716397
C      77.06287471      92.74577842     108.65478796
H      78.69181879      92.09760228     109.73382169
H      75.80620671      91.22265900     108.06330363
C      75.54164503      94.11016080     110.58041908
H      73.70483105      94.70353488     109.86043335
H      76.56776641      95.84115012     111.02261503
H      75.43771008      93.04813463     112.34164400
C      80.98594653      94.42007593     102.41302195
O      82.25017344      96.25122072     102.96482204
N      80.09399571      93.75678199     100.07732023
H      78.81843045      92.35082562      99.89401678
C      80.56264784      95.05880341      97.65847055
H      81.29208220      96.94475028      98.04964390
C      82.67536186      93.45064632      96.22983746
H      84.11722304      92.80624966      97.55453560
H      83.36700169      94.72432186      94.76718929
C      81.65113020      91.22454873      94.92403657
C      80.83098898      91.37383710      92.42014921
H      81.22405205      93.00278119      91.25796753
C      79.81998540      89.22899775      91.23529081
H      79.66313812      89.15529842      89.20194530
C      79.35322300      87.01990768      92.58455540
O      78.68803934      84.78436145      91.61512580
H      78.61434001      85.02435669      89.81799608
C      80.37745466      86.85172205      95.04119961
H      80.08076763      85.27569030      96.30353678
C      81.46404729      88.97199496      96.31487514
H      82.13112068      88.82648604      98.23483707
C      78.19104132      95.48399183      96.11645388
O      76.21438759      94.48243690      96.77218891
N      78.21182831      97.05057496      94.13035152
H      79.84455184      98.01811482      93.96216588
C      76.13312936      97.72898670      92.58644512
H      74.38135307      97.24332703      93.55398500
C      76.04809168     100.63160631      92.25763275
H      74.68181955     101.05490500      90.77419759
H      77.79419879     101.31190779      91.40158673
C      75.49062242     102.12071065      94.65380571
H      76.86445345     101.40639411      96.01251893
H      73.61223446     101.73898594      95.40591678
C      75.94415673     105.01955082      94.65002626
H      77.64302069     105.24253851      93.50674184
H      76.48083900     105.56190227      96.56242929
C      73.56121185     106.46519145      93.76941380
H      72.04187189     105.95118589      95.06198659
H      72.81476996     105.83024341      91.95905599
N      74.13379892     109.22041241      93.62390487
H      75.22417101     109.37159051      92.06677039
H      75.09944907     109.97063375      95.08844276
H      72.57477472     110.32023313      93.58044117
C      76.01785606      96.24744127      90.16003654
O      77.81687551      95.97154122      88.82211031
N      73.73317695      95.55769116      89.40981519
H      72.23840343      95.67863365      90.58900441
C      73.07933164      94.94164038      86.81144151
H      74.06009960      93.24277643      86.18783183
C      70.19182983      94.13472726      86.66971204
H      68.98996390      95.80902477      86.66971204
H      69.96884213      92.99522228      88.36857599
C      69.60223522      92.60026948      84.36991512
O      68.06777746      93.40340317      82.75230939
O      70.89480802      90.48566575      84.16204522
C      73.57632966      97.18474552      85.03509878
O      73.74073585      99.31635680      85.88736535
N      73.47428444      96.91451466      82.52554223
H      72.99429396      95.17596645      81.90193255
C      73.39680566      99.01022113      80.66983099
H      74.71961408     100.38405216      81.45217769
C      74.08844549      98.04835044      78.01665525
H      73.71805913      99.59603630      76.70707492
C      76.76996713      97.36804897      77.61603327
H      77.34822338      95.90729054      78.94829032
H      77.85089058      99.11604581      77.76154220
H      76.79075412      96.62349681      75.69607134
O      72.81854941      95.83359121      77.35714077
H      72.18171164      96.12838851      75.68473298
C      71.08000120     100.51444328      80.71518443
O      71.31999644     102.68573881      80.14259735
N      68.86713169      99.35793078      81.48430304
H      68.84445497      97.53056543      82.03421339
C      66.52765051     100.62215769      82.01153668
H      66.25175047     102.07724694      80.57912413
C      64.30722210      98.75132863      81.59201744
H      62.53465881      99.56013149      82.25909082
H      64.60957831      96.91451466      82.47829908
C      63.58723637      98.29401486      78.84246565
H      65.11980441      97.37749761      77.81823399
H      63.03165683      99.96831237      77.78043946
C      61.25342437      96.47798787      78.61002931
O      59.16149735      97.40584349      78.13570801
O      61.70506896      94.06480738      78.76309715
C      66.64859300     101.88260514      84.63069735
O      64.84201464     103.08069162      85.47351528
N      68.74618921     101.86181815      86.03287427
H      70.16159421     101.02655911      85.05777549
C      69.28098175     103.39249645      88.42526778
H      68.15659460     105.11592685      88.51786437
H      71.25574575     103.98209107      88.48006985
C      68.60068028     102.11504147      90.91781679
O      69.44727767     103.05801490      92.86234517
N      67.20984171     100.03823225      90.79120513
H      66.47473818      99.66217672      89.06966446
C      66.11191072      98.88927865      93.10234041
H      65.49019077     100.40861861      94.34578032
C      63.89337203      97.23954758      92.22550740
H      62.83323557      96.89183795      93.95838643
H      64.63414475      95.44052813      91.55465456
C      62.10569094      98.43763406      90.36790643
C      61.54066277      96.90128658      88.21172871
H      62.45151086      95.08525959      88.02086635
C      59.70195907      97.74221479      86.46562160
H      59.23141722      96.71987284      84.76297819
C      58.53977739     100.16295419      86.81711069
O      56.93162030     101.24576737      85.09368029
H      56.37982021     102.91061624      85.55477351
C      59.20307132     101.48387288      89.02431102
H      58.36025339     103.32446631      89.27375490
C      60.79422088     100.57113508      90.77797704
H      61.01531886     101.58969756      92.53164306
C      68.03376239      97.21309141      94.61979064
O      69.49263110      95.92429807      93.39335826
N      68.02998293      97.18285579      97.10667047
H      66.72985123      98.26944842      97.98728293
C      70.08033598      96.06980699      98.60522343
H      71.85856844      96.60648926      97.71327261
C      70.06899762      97.02789823     101.34910604
H      71.87368625      96.41751663     102.12956301
H      68.51753232      96.04902001     102.29018974
C      70.10679215      99.93618704     101.70815404
C      67.96762196     101.25332628     102.52073635
H      66.12702854     100.46342067     102.91946860
C      68.48729670     103.92161982     102.81175420
H      66.82811700     104.99687409     103.32198031
C      70.74929910     105.04789670     102.20515206
O      70.88346967     107.59524778     102.73049597
H      69.44916739     108.15271705     103.69047694
C      72.72217337     103.73642664     101.01651421
H      74.54575926     104.61325965     100.73683471
C      72.43115552     101.07002282     100.93903543
H      73.99017972     100.01366581     100.14724010
C      69.95183459      93.14451066      98.48428095
O      67.86368702      92.05413859      98.63167960
N      72.13824794      91.96343171      98.42758916
H      73.72183859      93.02734763      98.45593505
C      72.60690006      89.23844637      97.86823017
H      70.92315392      88.20287636      98.44459669
C      73.09255973      89.04002512      94.99017699
H      74.74229080      90.15118419      94.45160500
C      73.30042962      86.33204731      93.91870218
H      71.40314440      85.53458280      93.98295287
H      74.68748873      85.25112386      94.99206672
H      74.04498179      86.43409252      92.00062997
O      71.19527451      90.27590613      93.51241102
H      71.02897859      91.92752692      94.24562483
C      74.87079219      88.17830991      99.32520916
O      76.62445820      89.58615602      99.92614212
N      74.94260179      85.75757051      99.86756061
H      73.54798377      84.52357923      99.44615164
C      77.26696515      84.74467721     100.98438886
H      78.88268115      85.87284381     100.38156617
C      77.10255896      85.05648204     103.82275778
H      76.33344035      86.95943644     103.98905370
C      75.19393539      83.17620437     105.06997715
H      76.13690882      81.43009724     105.61799778
H      73.43082074      82.94565775     104.03062768
H      74.38135307      84.03225038     106.75750275
C      79.72738881      84.90719366     105.30430321
H      81.10688902      86.15819249     104.42747020
H      80.71949512      83.10817422     105.14745593
C      79.59510797      85.66308419     108.00283239
H      80.08265736      84.00768394     109.12532982
H      77.67136658      86.32826785     108.31274750
H      81.02185133      87.05770220     108.52250712
C      77.79608852      82.02347131     100.02440789
O      76.35044789      80.86695880      98.69970975
N      79.98061214      80.97467321     100.66124566
H      81.12767601      82.13874461     101.64579307
C      80.81965062      78.38952762     100.23605724
H      79.67447647      77.06105002     101.31698069
H      82.75662009      77.99646454     100.81620322
C      80.42091837      77.62418845      97.32209926
O      81.30720001      78.92998934      95.62134558
N      79.37400999      75.35651687      96.89313139
H      78.59922220      74.39842563      98.35011038
C      79.09244077      74.31338795      94.34200087
H      80.29808616      75.20344904      92.93037531
C      79.48739357      71.47123957      94.21727893
H      77.75451454      70.54149424      94.82955026
C      79.93147925      70.63031138      91.45260934
H      78.70315715      71.46557040      90.02586597
H      80.23572519      68.60452476      91.22017300
H      81.73805761      71.47879848      90.94427296
C      81.70404253      70.60952439      95.93881960
H      81.40546578      71.20856763      97.88523771
H      83.44070101      71.42021696      95.18481880
C      82.25206316      67.66533078      96.27330116
H      82.66402350      67.02471356      94.35900841
H      80.61744990      66.54472309      96.84021906
H      83.70904215      67.09085398      97.60744794
C      76.47894928      75.11085245      93.14769384
O      74.83488739      73.59151250      92.77352803
N      76.25029239      77.60529120      92.86045544
H      77.86978784      78.55015434      93.20627536
C      74.17537290      78.90920234      91.60000799
H      73.77853038      77.85662480      89.87468787
H      74.74040107      80.83105400      91.12757641
C      71.91148078      79.08683663      93.42926306
O      69.77609005      78.94699687      92.48628963
N      72.17226301      79.28147843      95.85756137
H      73.86734751      79.60840108      96.67014369
C      69.90081198      79.50068669      97.59799931
H      68.46839944      78.21189333      96.86856495
C      70.63780524      78.63708175     100.30597711
H      71.66770609      80.27736420     101.00517585
H      71.79053830      76.93821780     100.14157092
C      68.22840420      78.11929674     101.60988827
N      66.52765051      76.08028205     101.22438410
H      66.65048272      74.73479692      99.87700924
C      64.37147279      76.46956567     102.53018498
H      62.70851364      75.29037646     102.53774389
N      64.68894681      78.59739751     103.81897833
H      63.21685001      79.37218529     104.75628258
C      66.90370605      79.72367438     103.25017071
H      67.56888971      81.58505480     103.76417627
C      69.01453034      82.12173707      97.71894179
O      70.34111821      83.76201952      98.69215084
N      66.62969573      82.67353716      96.93848482
H      65.44294761      81.26947051      96.41692036
C      65.51475721      85.14529918      97.24273076
H      66.92827249      86.61550625      96.96494099
C      63.18283494      85.35883825      95.50985173
H      62.02254298      83.68076129      95.79142095
H      63.68928159      85.05270259      93.53697746
C      61.41216138      87.66997353      95.80275931
H      60.80555924      87.94587357      97.75295686
C      62.62158622      90.17008144      95.01285371
H      63.40771237      90.03024170      93.11367877
H      64.40170841      90.34960544      96.03141619
H      61.27610109      91.69320086      95.34922499
C      59.01976787      87.17108579      94.28719881
H      58.07490472      88.99845113      94.17192550
H      57.97852867      85.63095884      95.17348045
H      59.41094122      86.80447888      92.29731700
C      64.54910706      85.64040748      99.99228255
O      63.85746723      83.81682158     101.38690056
N      64.75130778      88.02335236     100.94281488
H      65.75853190      89.33104296      99.98472364
C      64.18816934      88.54113736     103.59221117
H      63.70439940      86.81770696     104.61455311
C      66.68071834      89.64095808     104.77140039
H      66.04010112      90.83526511     106.32286569
H      67.63125068      90.99400212     103.54307829
C      68.72351249      87.52068515     105.55941626
H      69.14870091      86.45487952     103.84921395
C      71.14803135      88.68853601     106.52695614
H      70.63591552      90.08693349     107.94992005
H      72.10612259      89.96977046     105.22871416
H      72.59556170      87.40163239     107.23182405
C      67.78242879      85.71599652     107.60032068
H      66.90748550      86.67975694     109.19524969
H      69.33200436      84.65208062     108.44124889
H      66.25930938      84.55759430     106.83687125
C      61.83168063      90.21354516     103.90401601
O      59.94195431      89.40285257     104.98304974
N      62.08868340      92.56436469     102.94970423
H      63.74219393      92.84404417     102.03885614
C      59.89471116      94.37472250     102.50372882
H      58.41505545      93.11049560     101.82342734
C      58.94606855      95.53501445     105.09643332