 %block lattice_cart
   139.898   0.000   0.000
   0.000 144.87   0.000
   0.000   0.000   168.12
 %endblock lattice_cart

 %block positions_abs
N      93.34192203      42.07276733      83.16521459
H      92.12682802      40.93515209      82.23168979
H      93.19830284      41.59466657      85.00769775
H      95.08613942      41.49829053      82.63798095
C      92.82224729      44.87334173      82.72490836
H      93.89939130      46.13378918      83.94756129
C      93.53089467      45.67080623      80.04338672
H      92.47642739      44.38579234      78.82451325
H      95.55101210      45.36467057      79.78827367
C      92.87326991      48.37500458      79.32340100
H      90.81913741      48.52996214      79.31395237
H      93.54223303      48.65846353      77.39588016
S      94.12426873      50.96392963      81.16966361
C      92.48965546      53.52450879      79.54071952
H      90.48087639      53.22215258      79.19678934
H      93.44207753      53.80796773      77.73603090
H      92.73909934      55.19502685      80.71801902
C      90.14261538      45.34199385      83.54882903
O      88.57414255      43.70549087      83.07639746
N      89.63049956      47.54541473      84.58250933
H      91.08936827      48.76806766      84.69211345
C      87.13795054      48.23138539      85.56705674
H      85.77734761      47.38100854      84.27259421
C      86.77701282      47.08810097      88.16920987
H      87.77667804      45.29664042      88.35440305
H      84.87972760      46.30008509      88.31282907
C      87.34015127      48.81909027      90.36696157
O      85.84159829      49.60521641      91.77291795
N      89.59648447      49.82442467      90.51624995
H      90.04057017      50.70881658      92.14708376
H      90.89661618      49.26506568      89.23879496
C      86.54079703      51.14534336      85.50469577
O      88.20753563      52.59098399      85.30438478
N      84.05391721      51.75572496      85.68421977
H      82.91063279      50.25528227      85.99035543
C      82.93708896      54.22937670      85.23257518
H      83.58526507      54.76605898      83.35229750
C      79.89840905      54.31630411      85.46501152
H      79.09716509      52.98971624      84.10629830
C      79.15574659      53.70403279      88.17676878
H      79.90407821      55.01172340      89.57894570
H      79.87762206      51.79162976      88.44510991
H      77.12807027      53.90434378      88.47912499
C      78.77780134      56.81452230      84.91132171
H      79.90407821      57.81607724      83.50725506
H      78.83827258      58.10142592      86.51947880
C      76.04525709      57.02239219      83.92110512
H      75.46133165      58.94235413      83.46757080
H      74.72433840      56.39878251      85.37619438
H      75.86762282      55.72603994      82.32995556
C      84.08037338      56.28350920      86.87852680
O      84.42241384      58.40000268      86.05649585
N      84.73610840      55.86965914      89.28225867
H      84.13517544      54.30496576      90.19688620
C      86.14773396      57.71970120      90.79970890
H      85.07436942      59.47525695      90.69010477
C      86.33292714      56.73704352      93.47934081
H      87.78045750      57.89733548      94.37318136
H      87.09070739      54.83408912      93.26013256
C      83.97076924      56.51405581      95.01001912
C      83.60605207      58.27339101      96.94131941
H      84.86649952      59.83808440      97.29847769
C      81.42530790      57.92946082      98.52302034
H      80.91508180      59.13888566     100.08771373
C      79.77557683      55.96036601      97.97310998
H      78.14096357      55.79973927      99.18442455
C      80.31981801      54.14811847      96.22322342
H      79.13495961      52.53051275      95.85472678
C      82.48733409      54.37866508      94.68498620
H      82.81803620      52.92546555      93.29036818
C      88.70831311      58.35842870      89.84539711
O      89.41318103      60.53350368      90.08728208
N      90.14828456      56.75972024      88.49613252
H      89.43585775      55.10809944      87.86118448
C      92.39516914      57.65922996      87.20167000
H      93.22475900      59.15400347      88.35251332
C      94.24899067      55.49927278      86.97679257
H      95.84391967      56.08886739      85.81650061
H      93.45341588      53.95725611      85.86752322
C      95.25810451      54.26528150      89.49390802
H      97.04389588      53.29585190      89.14997783
H      93.83514059      53.10309982      90.42176363
C      95.97620052      56.25516331      91.38741378
O      97.80356586      57.74237792      91.08694730
O      94.74031951      56.25327358      93.36217778
C      91.87549442      58.97070002      84.65431893
O      93.35892956      60.62987972      83.91732567
N      89.76278040      58.35086979      83.39576120
H      88.74799737      56.81830175      83.90976676
C      89.03712549      59.57730217      81.02037523
H      90.57347298      59.30896103      79.67300037
C      86.57292238      58.34709034      80.06984289
H      85.03468516      59.11809867      81.20745813
H      86.72976967      56.29484756      80.08307098
C      85.87939282      58.86109590      77.37698290
H      87.16440671      57.79906971      76.16566833
H      86.17985931      60.84341880      76.90077187
S      82.66307864      58.09008756      76.65699717
C      83.15818694      57.07908398      73.38399120
H      81.43853599      56.37610579      72.49393010
H      84.65673990      55.66556870      73.29139461
H      83.71565619      58.73826369      72.30117802
C      88.48721513      62.33630259      81.47957872
O      89.35459952      63.95579804      80.04716618
N      87.09826630      63.04494995      83.47323998
H      86.27056617      61.72214153      84.57495042
C      86.09860108      65.62253664      83.82661880
H      85.31814411      66.44456759      82.10885758
C      83.94431307      65.65844144      85.84295678
H      84.00667404      67.31573142      87.06560970
H      84.46020836      64.34697138      87.34528920
C      81.15129758      65.37498250      84.96045459
H      79.89273986      64.63798923      86.41365413
C      79.78124600      67.87131096      84.40676478
H      80.87539754      68.95979331      83.04616184
H      79.53936105      68.86530700      86.19444587
H      77.96143957      67.33840814      83.59796192
C      81.02468592      63.61942675      82.64931931
H      79.05559111      63.27927602      82.15421102
H      81.72577438      61.71269290      82.98569059
H      81.78246617      64.53216456      80.96368344
C      88.23210209      67.28927525      84.74502579
O      87.94486369      69.59663108      84.68266482
N      90.46575859      66.20457235      85.34973821
H      90.65095177      64.34886111      84.94911623
C      92.68807673      67.61241845      86.27381438
H      92.05312869      68.91066043      87.74213172
C      94.73276060      65.81339900      87.43977551
H      95.65494704      64.91010982      85.83350815
H      93.72175703      64.26382342      88.33928524
C      96.48264717      67.21935538      89.27092031
H      95.43195934      68.14154182      90.78270136
H      97.64671857      68.56106106      88.22968111
C      98.35347622      65.40332839      90.48790406
H      99.49676064      66.49559020      91.80693302
H      99.55156270      64.62476115      89.00257917
N      97.28011167      63.29439383      91.92031660
H      97.47097403      61.51049219      91.27214048
C      95.76077172      63.23203286      93.97255938
N      95.23353807      65.21057631      95.18765340
H      94.12615845      65.28238591      96.74100843
H      95.65305731      66.90944026      94.42987314
N      94.65717154      61.25159968      94.93254034
H      94.44552219      61.37821134      96.82604611
H      94.70441471      59.47714667      94.22956216
C      93.77844880      69.53238039      84.39164697
O      94.74409895      71.56572590      84.89431417
N      93.54223303      68.84640973      81.92555413
H      92.91484388      67.08707454      81.53249106
C      94.32457971      70.53204560      79.89220862
H      95.60392443      72.05138556      80.43833952
C      95.70596964      69.07695634      77.76437679
H      95.86659638      70.37330859      76.17322723
C      98.38938101      68.37775761      78.86608723
H      98.26276936      67.15132523      80.51581830
H      99.62526202      69.95000990      79.35552635
H      99.51754763      67.28549580      77.53194045
C      94.35859479      66.75826216      76.77416020
H      92.37816161      67.16077386      76.37542795
H      94.25843930      65.26159892      78.18767548
C      95.68896211      65.68111816      74.26460366
H      94.20741668      64.59641526      73.33296859
H      97.36703908      64.60397416      74.78238867
H      96.13115807      67.25903963      73.01927402
C      92.01911361      72.14398215      78.95679409
O      92.43674313      74.31527768      78.01004121
N      89.64750709      71.21423680      78.96246327
H      89.45097555      69.41710708      79.57851405
C      87.35715880      72.37641849      77.83618639
H      87.87683354      73.21923642      76.02960804
C      85.33326191      70.31472708      77.49036648
H      83.50022739      71.23880325      77.31273220
H      85.11972284      68.96357276      79.03238315
C      85.80569349      68.62153230      75.03561199
O      84.63784263      66.54283336      74.94679486
O      87.31369509      69.26970843      73.37076311
C      86.25355864      74.52314758      79.40087978
O      85.19909134      76.23146016      78.45223717
N      86.56725320      74.36063111      81.86886234
H      87.73888351      72.95467474      82.40932407
C      85.33137220      76.06705398      83.74914002
H      85.28979822      77.99457481      83.01781594
C      82.72166015      75.04660177      84.34251409
H      83.11661296      73.28348712      85.33084095
H      81.64640589      74.61196471      82.64176040
C      81.23444554      76.87396711      86.16798970
H      82.32670735      77.69410833      87.71000638
H      79.77746656      75.71367515      87.04671244
C      80.14407347      79.06793936      84.72234907
O      81.70876684      80.82160538      84.10818802
O      77.84994572      79.34005995      84.63164221
C      87.08503821      76.47145541      86.13208490
O      87.37227660      78.60495641      87.03726381
N      88.67996722      74.62141335      86.59884730
H      88.34548566      73.05860969      85.55571838
C      90.76055589      74.73290720      88.49802225
H      92.00588552      76.35051292      88.22212221
H      92.03990060      73.13041929      88.31849825
C      89.60026394      74.91810038      91.17576443
O      88.00155548      73.31561246      91.73512342
N      90.76433535      76.51491911      92.80848797
H      92.01155470      77.66387271      91.93543441
C      89.88939206      76.91932054      95.37662603
H      87.84092874      76.71523010      95.43520754
C      91.08558881      74.67810514      96.86762009
H      93.01310966      74.53448594      96.14952409
H      90.37316200      72.87719596      96.16653163
C      90.93063125      74.72534829      99.83260067
H      92.20808625      76.24846770     100.36739322
C      88.21509454      74.91054147     100.96076728
H      88.13950549      74.69889212     103.01112033
H      87.07936903      73.30805356     100.33904733
H      87.35337935      76.65286913     100.28613499
C      92.10982048      72.47846371     100.96643646
H      93.84647895      71.91343554     100.01212467
H      90.73221000      70.94778539     100.92297276
H      92.60681849      72.69956169     102.95253882
C      90.82480659      79.49123805      96.36117344
O      92.94696923      80.19421624      95.80181445
N      89.36593787      80.86884854      97.81248325
H      87.68408145      80.02225115      98.12617781
C      89.94230440      83.19888108      99.25434442
H      91.96431155      83.29525712      99.63417941
C      89.38294541      85.46088348      97.40052291
H      89.18263441      87.23344676      98.43231348
H      87.60471295      84.88829640      96.52746935
C      91.39361421      85.96733013      95.38040548
H      91.55991012      84.34783468      94.11995803
H      93.13027268      86.68920558      96.22133369
C      90.64528259      88.20098663      93.60028329
H      92.32524928      88.97955387      92.69699412
H      89.72687559      89.59371492      94.81159786
N      89.10326591      87.63028928      91.38741378
H      88.55713501      85.82938011      91.06049113
C      88.80657889      89.13829088      89.44855458
N      89.05980220      91.57981728      89.61485050
H      88.59303981      92.32058999      87.91976600
H      89.96498112      92.61160785      90.94332810
N      88.02801163      88.26145787      87.28670768
H      87.74644242      89.42363956      85.79949307
H      87.28534919      86.50968158      87.15631657
C      88.50611240      83.22344752     101.94153524
O      86.31591959      82.35039397     102.14940513
N      89.76089067      84.19665657     103.95409376
H      91.52400531      84.81837653     103.57047932
C      89.19775223      83.73178390     106.65451266
H      87.58203622      82.45432891     106.66774075
C      91.53723340      82.25023847     107.86015805
H      91.21409021      81.99323569     109.87838575
H      93.09058844      83.54281127     107.45386689
C      92.07013622      79.66509288     106.61104896
H      92.10226157      79.57816547     104.55313700
C      94.72331197      78.77125233     107.25544563
H      95.24487643      76.98168151     106.38239207
H      94.90283596      78.44621940     109.28123224
H      96.09525326      80.25657721     106.86049283
C      90.08592359      77.69599806     107.37827784
H      89.77978794      77.35206787     109.38705691
H      90.80024015      75.84217654     106.82458803
H      88.29446305      77.95867001     106.39562016
C      88.49666377      86.28102470     107.99243889
O      88.08659316      86.20165619     110.19585977
N      88.05257809      88.25767842     106.53734963
H      88.48532540      87.97799893     104.69864593
C      86.87149914      90.72566099     106.91151544
H      85.73577363      90.77668360     108.63116639
C      88.92185219      92.79680102     107.18930521
H      89.77411876      92.99900174     105.32603507
H      90.28245514      92.21098587     108.62360748
C      87.97131984      95.38194662     107.85826832
H      86.86960941      95.22509934     109.59114735
H      86.89606557      95.98098986     106.20664753
C      90.35804418      96.90695576     108.49699582
H      91.61471219      96.80302081     106.86805174
H      91.14039087      96.03012275     110.19019060
C      89.52089543      99.60737466     109.25288634
H      88.03557054      99.49966026     110.67773998
H      88.83681451     100.63727550     107.60504500
N      91.72998549     101.08892009     110.39428104
H      91.15550869     102.76888678     111.09347977
H      93.19830284     101.63505099     109.30579868
H      92.40461778     100.24043297     111.96653333
C      84.95342693      91.17919530     104.74588909
O      85.73388390      90.49511438     102.58026273
N      82.70654235      92.25444957     105.26934328
H      82.29836146      92.87239008     107.02678875
C      80.94909687      93.28246069     103.19442378
H      79.91919603      91.65918578     102.45743052
C      78.91764108      94.93219176     104.60038016
H      79.78880492      96.20586729     105.96476256
C      77.48711827      96.27767689     102.55191684
H      78.68331502      97.73276615     101.72232699
H      75.80526185      97.17340717     103.33048408
H      76.82760379      94.82069791     101.25178513
C      76.92586956      93.37316755     105.97610092
H      77.83860736      91.74422347     106.84537502
H      75.80337212      92.39806877     104.54935755
C      75.40463987      94.61660746     107.97543136
H      73.95899924      95.95075424     107.36504976
H      76.70099212      95.70697955     109.14706167
H      74.49568152      93.18041547     109.13950277
C      82.51190053      94.75455748     101.09493785
O      84.13328571      96.39672965     101.53524408
N      81.70498740      94.38606085      98.72711078
H      80.20643442      93.25600452      98.36995251
C      82.64229165      95.70131037      96.51424127
H      83.28290886      97.54190380      97.18320438
C      84.72099060      94.06669711      95.35772876
H      86.17796958      93.62450115      96.74856733
H      85.69419964      95.28746031      94.01413336
C      83.88195210      91.65162688      94.18042927
C      83.52857329      91.66296524      91.51969462
H      83.92919527      93.25222507      90.30460060
C      82.84449237      89.25167446      90.42365336
H      82.61016629      89.07404019      88.40353593
C      82.68386562      87.00290015      91.89575016
O      82.15852172      84.71633131      91.00001989
H      81.77679699      84.84672243      89.22934633
C      83.16385611      87.23155703      94.53947727
H      83.08259788      85.61206158      95.77913773
C      83.59282398      89.52190532      95.72811512
H      83.60416235      89.62206082      97.76524009
C      80.40296597      96.10382207      94.66797866
O      78.26190605      95.38572607      95.30103698
N      80.74500642      97.28868047      92.51180094
H      82.45142929      98.07102716      92.16031184
C      78.81937532      97.47198392      90.41042528
H      76.93531818      96.87860986      90.99246098
C      78.56804172     100.16673365      89.50524637
H      77.47955937     100.27444805      87.75913926
H      80.47666530     100.83758649      89.11785248
C      77.41908812     102.06212914      91.34583980
H      78.46221705     102.04890105      93.11840308
H      75.50479537     101.36859958      91.67276245
C      77.38129360     104.60192130      90.02681084
H      76.30981877     104.45074320      88.27503454
H      79.32960143     105.14238303      89.62996831
C      76.05092627     106.59747229      91.59717340
H      77.32082234     106.79589355      93.20910995
H      74.38418766     105.87370711      92.56471327
N      75.49723646     108.78388563      90.08728208
H      77.14318807     109.58512959      89.55248953
H      74.46922534     110.08023788      91.04159387
H      74.31993696     108.60625136      88.59628802
C      79.56959667      95.76178161      88.17487905
O      81.70876684      95.92429807      87.26403097
N      77.75545940      94.24433138      87.24135425
H      76.00935229      94.32558961      88.00480368
C      78.02946972      92.71743252      84.78848950
H      79.59983229      91.38706520      84.68266482
C      75.36873506      91.49855905      84.23290996
H      74.27269381      93.09915723      83.53938040
H      74.46166643      90.95242814      85.99980406
C      75.37062479      89.27246145      82.47924394
O      74.46733561      89.43686764      80.33440458
O      76.37029001      87.38084541      83.42599682
C      78.63985132      94.45031155      82.46223640
O      78.35828210      96.82569752      82.56806108
N      79.14629797      93.29568877      80.26448470
H      79.70565695      91.47021315      80.26259498
C      79.17086441      94.73754995      77.93256243
H      80.06092551      96.55357693      78.31995633
C      80.64485094      93.39962372      75.99181351
H      80.32737692      94.72054241      74.44412766
C      83.44542533      93.46954359      76.53416496
H      83.93486445      95.44808704      76.82707254
H      84.53957687      92.63428456      75.00348665
H      83.93108500      92.32625917      78.17633713
O      79.65841380      90.86928019      75.55906618
H      81.10405443      89.80725400      75.84063540
C      76.58004963      95.53879390      77.08596504
O      76.36840029      97.54001407      75.81417924
N      74.63930072      94.29724372      77.92122407
H      74.86039870      92.59271058      78.74703447
C      71.99368388      95.03423698      77.59619115
H      71.60062081      95.37816717      75.60441961
C      70.26269457      92.85160309      78.20846247
H      70.36096034      92.67207909      80.25881552
H      70.97701111      91.10549597      77.38454180
C      67.47345853      93.03490654      77.33540892
H      66.53426455      94.78857256      77.87020146
H      66.67032484      91.51178713      78.46357553
C      66.99535778      92.48688591      74.49515027
O      64.76737045      92.32058999      73.80351044
O      68.87563545      92.26956738      72.98336922
C      71.31527213      97.40017432      79.15143590
O      69.34239786      98.76644645      78.72813721
N      73.03681280      98.06535799      81.03360331
H      74.32182669      96.76333656      81.58540340
C      72.75713330     100.46153095      82.45278777
H      71.75179891     101.82969280      81.28304719
H      74.66575689     101.13049406      82.84207139
C      71.35684611     100.35948573      85.03226419
O      71.02425428     102.26244013      86.07917257
N      70.53481516      98.18630047      85.97334789
H      70.78992822      96.61026872      84.92643952
C      69.31027251      97.85370864      88.25991673
H      68.47501347      99.60737466      88.94399766
C      67.10118244      95.93185698      87.80449269
H      66.17710628      95.84115011      89.64319639
H      67.76069693      93.97976970      87.83472831
C      65.27381710      96.62538653      85.72201429
C      64.73902456      94.83203626      83.77937564
H      65.37019315      92.89695652      83.91921539
C      62.97968936      95.45753567      81.85185481
H      62.52804477      94.03646149      80.45912651
C      62.12742280      97.97087167      81.49847598
O      60.58162667      98.55101765      79.58418323
H      60.13754099     100.26499941      79.98291548
C      62.80583454      99.79823701      83.32017215
H      62.05750292     101.68796333      83.13308925
C      64.25147517      99.11793554      85.42343754
H      64.61997180     100.61459878      86.76136377
C      71.09984332      96.79357218      90.29893142
O      72.84406071      95.58603706      89.71311627
N      70.59906586      97.26600375      92.80470852
H      69.02303411      98.28078678      93.16942569
C      72.13919279      96.37594266      94.94576843
H      74.14419242      96.69530641      94.60183824
C      71.60440026      97.86882645      97.30225714
H      71.93699208      96.71042422      98.97277520
H      69.56538556      98.14094704      97.21532973
C      72.79681756     100.48231794      97.50823731
C      71.11874060     102.54400935      97.59327499
H      69.10051289     102.23031478      97.63673870
C      72.12029553     104.92128505      97.75201200
H      70.90142207     106.55778804      97.82382160
C      74.74890484     105.21230290      97.86161613
O      75.78447485     107.57824024      97.87862367
H      74.71866922     108.92750483      97.29847769
C      76.38729756     103.17895739      97.93153600
H      78.36773073     103.56257183      98.24145112
C      75.46511111     100.73365154      97.82004215
H      76.78602980      99.21998076      98.16964152
C      71.83683659      93.42985934      95.54670140
O      69.72979176      92.36405370      95.70921786
N      73.87963074      92.18830915      96.36117344
H      75.36873506      93.35427029      96.60872758
C      74.33316505      89.43686764      96.15519327
H      72.55682232      88.44098187      96.46699811
C      75.05693023      88.89262646      93.38485449
H      76.41186400      90.28913421      92.70644275
C      76.31170850      86.36417266      92.89730510
H      74.98701035      84.88073750      93.43965656
H      78.04647725      86.27157607      94.00468472
H      77.00334833      86.27346579      90.96033563
O      72.94232648      88.83026549      91.69543917
H      73.60373069      88.01957291      90.21389374
C      76.44398935      88.50523257      98.05814767
O      77.82537928      90.20787598      98.86317108
N      76.33816467      86.09583152      98.69120598
H      74.95488500      84.96199573      98.02602232
C      78.55481364      84.98089299     100.05747810
H      80.31792829      85.94087396      99.60016434
C      78.10694849      85.37773552     102.95631827
H      77.28302783      87.25990293     103.10938610
C      76.10383861      83.61273114     104.24511161
H      76.77847089      81.67009249     104.33959793
H      74.29914998      83.60895169     103.25111557
H      75.77502623      84.30815043     106.15562492
C      80.64485094      85.10939438     104.57770345
H      82.27946420      85.75379106     103.50244917
H      81.08515716      83.11006394     104.81202951
C      80.72232972      86.39440828     107.07403191
H      82.53079779      86.24323017     108.04913068
H      79.37117539      85.66686365     108.44597321
H      80.42753241      88.39751817     106.68474828
C      78.89685409      82.18031860      99.53213419
O      77.14885725      80.94254786      98.70065461
N      80.95476604      80.91231224     100.42219528
H      82.45331902      81.98189734     100.92108303
C      81.41963872      78.18921663     100.21432539
H      79.65841380      77.20655894     100.63951381
H      82.89173553      77.57694530     101.51823654
C      82.21710323      77.37663431      97.67642295
O      83.68920003      78.74668589      96.43676249
N      81.44798461      75.15809562      96.78069268
H      80.54658516      74.04882627      98.04302986
C      81.56325793      74.47212497      94.18798818
H      83.26779106      75.31872236      93.40186203
C      81.64262643      71.46934986      94.20688544
H      80.04769742      70.78337920      95.31615479
C      81.82026070      70.26937365      91.51024599
H      83.43030751      70.92888813      90.40664582
H      80.04958715      70.73802577      90.56916229
H      82.16608061      68.23980759      91.54993024
C      84.06714528      70.67377508      95.58827537
H      84.79468992      72.11941571      96.86195091
H      85.47877084      70.08607019      94.20688544
C      83.42841780      68.45145693      97.45343525
H      82.76323414      66.82251285      96.38385015
H      82.04891758      69.20167828      98.78569230
H      84.95342693      68.12453428      98.79892038
C      79.30125553      75.60407103      92.80281879
O      77.58160459      74.13197423      92.09984060
N      79.21243838      78.05882551      92.57227218
H      80.66374819      79.01691675      93.35650860
C      77.35483742      79.43643599      91.14930827
H      77.40586004      79.34761885      89.09328604
H      77.74223131      81.42631780      91.50268709
C      74.59394728      79.36462639      91.96567003
O      72.89319359      78.85251056      90.46900679
N      74.14041296      79.45533325      94.55270536
H      75.58605359      79.66698260      95.77724801
C      71.61006943      79.68021069      95.69032060
H      70.10773701      78.63330231      94.74923689
C      71.53637011      78.50858037      98.22633331
H      72.67965453      79.56682711      99.57181844
H      72.33572433      76.62074379      98.01657369
C      68.72634708      78.40842488      99.11072522
N      67.21078658      76.27492387      99.43575815
H      67.73802022      74.44188935      99.49622939
C      64.99035815      76.96467397     100.31448088
H      63.69400590      75.52092307     100.94564947
N      64.91854856      79.51391477     100.57337339
H      63.44267231      80.62696357     101.04958442
C      67.24480164      80.42665258      99.81748286
H      67.77770446      82.38818849     100.00267604
C      70.73134669      82.46755700      95.73756375
O      71.62896670      83.90941817      97.30792632
N      68.73579571      83.04959270      94.27869504
H      68.30871756      81.71733565      92.97667361
C      67.52259141      85.65174584      93.97633883
H      69.04193138      87.00290015      93.65130590
C      65.76892539      85.52891362      91.58016586
H      64.85618759      83.69398937      91.78236658
H      67.03315231      85.26246221      89.97578823
C      63.85085319      87.66808381      91.19088224
H      62.48458107      87.55658996      92.72911946
C      64.88264376      90.29858284      91.11340347
H      63.58251205      91.39651383      89.95311151
H      66.72512692      90.43653286      90.20633484
H      65.04893967      91.08281926      93.01068868
C      62.38064611      87.03502550      88.80982709
H      61.19011855      88.65641067      88.36007223
H      61.23925142      85.35505880      89.14997783
H      63.72046208      86.87061931      87.25458233
C      66.13364257      86.20732537      96.52935908
O      64.55005192      84.69365459      97.18698384
N      66.42655016      88.34271610      97.68209213
H      67.92510313      89.36883749      97.09249752
C      65.14531571      89.01734840      99.97621987
H      64.48202177      87.34494061     100.98155427
C      66.97646051      90.04346979     102.03791128
H      65.91254459      90.48377602     103.74622387
H      67.76447638      91.83682006     101.40107351
C      69.12885879      88.18964827     102.93742101
H      70.00002262      87.48100091     101.21021116
C      71.31716185      89.38773476     104.35282601
H      72.21289212      90.91652334     103.30213818
H      72.89886277      88.12350785     104.73266100
H      70.49891036      90.38551025     105.95909338
C      68.24446687      85.95410205     104.49833494
H      66.63630978      85.03947451     103.59126631
H      67.54715785      86.49078432     106.36160509
H      69.84695478      84.76168474     105.00289187
C      63.08929348      90.94108979      99.44898623
O      61.01248426      90.73133016     100.31259116
N      63.81305866      92.84026473      97.75768118
H      65.58562194      92.98199420      97.06415163
C      61.96112687      94.69219652      97.05470299
H      60.29816772      93.51111757      96.77502350
C      61.17878018      96.59893037      99.06348206