 %block lattice_cart
   139.898   0.000   0.000
   0.000 144.87   0.000
   0.000   0.000   168.12
 %endblock lattice_cart

 %block positions_abs
N      94.69496607      47.93847780      87.19883541
H      93.97498034      47.88367574      88.96572951
H      96.43540400      48.72271422      87.14970252
H      94.82157773      46.19048096      86.44294489
C      93.12271378      49.47671502      85.45083858
H      93.32680422      51.38722833      86.19728047
C      93.95230363      49.34443418      82.76175803
H      93.64994742      47.52084830      81.85279967
H      95.95919297      49.73371780      82.51042442
C      92.68618700      51.58753932      81.28588178
H      90.65284148      51.25305777      81.29344069
H      93.33247340      51.20014543      79.36969930
S      93.39672409      54.82086104      82.11169218
C      90.79268123      56.13044137      80.20873778
H      89.05791248      55.94524819      81.30288931
H      90.67740793      54.95314189      78.52121218
H      90.65662094      58.10331565      79.63237125
C      90.43930241      48.77184711      85.69083381
O      89.80057492      46.60622076      85.78532012
N      88.90295492      50.64834535      86.24830307
H      89.62294064      52.41712916      86.29743595
C      86.07214490      50.54818984      86.38814282
H      85.35782835      49.05341634      85.16171044
C      85.48255029      49.60710614      88.98840623
H      86.26489699      47.70793120      89.13769461
H      83.47755067      49.26506568      89.32477751
C      86.28001480      51.45714821      91.02742093
O      86.19308739      53.76261430      90.62490922
N      86.84882242      50.55763847      93.24029043
H      87.00189025      51.77840167      94.70104887
H      86.89984503      48.70192723      93.68626585
C      84.63028372      52.98971624      85.56044270
O      85.76034006      54.73582336      84.51731377
N      82.15852171      53.16168133      85.89303452
H      81.22499691      51.78596058      86.83033878
C      80.59004887      55.34053577      85.45839747
H      81.18909211      55.98682218      83.59701705
C      77.71388542      54.60921169      85.25619676
H      77.59861211      53.04073886      83.92582943
C      76.64807978      53.61521566      87.72606905
H      77.76868748      52.17713392      88.68416029
H      74.81126580      52.70436756      87.53142725
H      76.28147287      55.16857068      89.02809049
C      75.89596871      56.63310858      84.32267196
H      75.57282551      58.09197728      85.74374614
H      74.00057321      55.84698243      84.16015549
C      76.57438045      58.00882933      81.95673461
H      77.76112858      59.63777341      82.38003331
H      74.84528088      58.55496023      80.97974611
H      77.45877237      56.68602092      80.64715428
C      80.93208933      57.42868335      87.42749230
O      80.37084061      59.64911177      86.82466960
N      82.15474225      57.01105383      89.50619123
H      82.58371013      55.21770357      89.99374062
C      82.81425674      59.06518633      91.23151136
H      81.20232019      60.34453105      91.18804765
C      83.29802667      58.18457387      94.03775493
H      83.61550069      59.86832003      95.18103935
H      84.92130158      56.91845724      93.95838643
C      81.02468592      56.73704352      94.87679342
C      78.56615199      57.83497450      94.71616668
H      78.19765535      59.49793366      93.59177952
C      76.33249548      56.56318871      95.38135034
H      74.52402740      57.49860322      95.22261334
C      76.53847565      53.92324104      95.95960659
H      74.82071443      52.87255321      96.28841897
C      79.06503973      52.78940525      96.19204293
H      79.14062879      50.79007481      96.60022381
C      81.28168870      54.22937670      95.59866887
H      83.06936979      53.24671902      95.62512503
C      85.02712625      60.47870162      90.15436736
O      85.04413379      62.81440335      89.83311389
N      86.99433134      59.10109113      89.47784534
H      86.91496284      57.33608676      90.19783107
C      89.36026869      59.93823990      88.48951848
H      90.13127702      61.46891821      89.63280291
C      91.00244085      57.71970120      88.49707738
H      90.52245037      56.60665240      86.83222850
H      90.66795929      56.59531405      90.19027216
C      93.77088990      58.50582736      88.58778426
H      94.52678043      59.76816452      87.14592307
H      94.84236472      56.77294833      88.28353831
C      94.66850990      59.65289122      91.04631818
O      95.06346270      62.00560049      91.01797228
O      94.57024413      58.37165678      92.98706710
C      88.97098507      61.24970996      85.91949070
O      90.30702157      62.98258898      85.16548990
N      87.05291286      60.46358381      84.45117336
H      86.05324764      58.92156713      84.96139945
C      86.53512785      61.21002570      81.71673938
H      88.21320481      61.10231131      80.52432207
C      84.37706040      59.48848503      80.80400156
H      82.67063754      59.62832478      81.94917571
H      85.11216393      57.57608200      81.03076873
C      83.71565619      59.79840015      77.93539702
H      85.47310166      59.34108638      76.96407769
H      83.13362048      61.72403127      77.49131134
S      81.16074621      57.60442790      77.15305033
C      81.25901198      56.85798601      73.80823476
H      81.28357842      58.42645884      72.47597770
H      79.62628845      55.60320773      73.72697652
H      83.05992116      55.86398997      73.69485117
C      85.94175379      64.03705626      81.76776198
O      86.74677719      65.39576949      80.15771516
N      84.42808301      64.88365366      83.61024514
H      83.35282874      63.78005348      84.73841175
C      83.70998701      67.63131571      83.63859103
H      83.07881842      68.30405828      81.79610788
C      81.14373868      67.84107533      85.15226182
H      81.33460103      68.98435975      86.85301549
H      80.82059548      65.96835656      85.94405714
C      78.91764108      68.62531175      83.41371360
H      77.37373468      68.29083019      84.73463229
C      79.04425274      71.37486354      82.56711621
H      77.56837649      72.11374654      81.33501466
H      80.70721190      71.85485402      81.45028797
H      79.00645822      72.56917058      84.24519319
C      78.47733485      67.01904439      81.07990161
H      78.39418689      65.05939820      81.70918047
H      79.87384259      67.06061836      79.56434110
H      76.61595443      67.48013762      80.32779053
C      85.73010444      69.26025979      84.83478779
O      85.98710722      71.38242245      84.06377946
N      87.27590056      68.26437404      86.61490997
H      86.88850667      66.50881829      87.25552719
C      89.56246940      69.69867630      87.50497107
H      89.07492001      71.55249781      88.26275132
C      90.83992439      67.97902536      89.57422138
H      92.79768085      68.56484052      89.84445224
H      91.05535319      66.12709358      88.70116782
C      89.22042894      67.99981234      91.96472517
H      87.45542456      66.96424233      91.70961211
H      89.02200768      69.95000991      92.60156294
C      90.82669630      66.89432245      93.96594533
H      89.98198864      67.37242321      95.78197232
H      92.66917946      67.81083972      94.07932891
N      91.10259635      64.14288095      93.89224601
H      92.78256304      63.59863977      93.16659110
C      89.75522149      62.49126014      95.12245784
N      87.59526431      63.05250885      96.15613813
H      86.74866692      61.59930933      97.05564785
H      86.99244162      64.86286666      96.21660937
N      90.59237024      60.18768377      95.59299970
H      89.67585298      59.18990828      96.93848482
H      92.21753487      59.55840490      94.81632217
C      91.29534843      70.34118324      85.24863785
O      92.85437264      72.04760610      85.56233242
N      90.95708742      69.08262552      83.18694644
H      89.92340713      67.50848351      83.48930265
C      92.12871773      69.77237562      80.75675840
H      93.71797756      70.93077786      81.36714000
C      93.24743571      67.42344583      79.65126851
H      91.88494304      66.02882781      78.98419512
C      94.57591331      68.34941172      77.20596266
H      93.28145079      68.97869058      75.73386586
H      95.47731276      66.75448271      76.26298923
H      95.96675188      69.80261124      77.65760725
C      95.10314695      66.21024153      81.53910511
H      94.26599819      65.98725382      83.40804442
H      96.89271777      67.23069374      81.57878935
C      95.83447103      63.71013361      80.59235222
H      94.18096051      62.50259851      80.36936452
H      97.04956505      62.65755606      81.87925583
H      96.79823145      63.63643430      78.77254579
C      90.62071614      71.36730463      78.89537799
O      91.25755390      73.56694606      78.21696624
N      88.42485416      70.54338397      78.22263542
H      87.88817189      69.00892620      79.22419036
C      86.76189501      71.75658825      76.24787142
H      87.75589105      71.89642801      74.44885197
C      84.51123097      69.96323799      75.69796106
H      83.00322937      71.14431694      74.94018081
H      83.88951101      69.11286114      77.46485517
C      85.13673038      67.96957672      73.54934225
O      86.77701282      68.64609875      71.96386187
O      83.89329046      65.91544423      73.51154772
C      85.86049555      74.43622016      76.97163660
O      85.72821471      76.01603137      75.23308839
N      85.49388865      74.83873187      79.46985478
H      85.99655585      73.40631932      80.62825702
C      84.76256457      77.30293498      80.60935975
H      84.93452966      78.71456054      79.12025542
C      81.95254154      76.90231300      81.42572153
H      81.95065181      75.72879296      83.12080603
H      80.92830988      75.98012657      79.89504321
C      80.34627417      79.26258117      82.13247917
H      81.38373392      80.74412661      83.11513684
H      78.98567123      78.70511190      83.57434034
C      78.79669860      80.29626147      79.73819592
O      77.00523805      78.96022496      78.99364375
O      79.33527060      82.46377754      78.87837045
C      86.25544835      78.34228445      82.77876556
O      86.56536347      80.57027179      82.92049503
N      87.58770540      76.84751094      84.29999524
H      87.18708343      74.98613052      84.43038637
C      89.42262965      77.63363709      86.07633798
H      90.45064077      79.26258117      85.35068308
H      90.91362372      76.22390126      86.25208252
C      88.41162608      77.98890563      88.77486715
O      86.17985930      78.45188859      89.09423090
N      90.10104140      77.74891039      90.71183662
H      91.92651702      77.56182750      90.18838243
C      89.32814334      77.93977275      93.37635073
H      87.27779029      78.10795839      93.51808020
C      90.06702633      75.45478266      94.61412146
H      92.04179032      75.04660177      94.18704331
H      89.23365702      73.87875091      93.58611035
C      89.48877008      75.04660177      97.36367325
H      90.41851542      76.59428761      98.35577957
C      86.70898267      74.93132846      98.13090213
H      86.63528334      74.49858113     100.14346065
H      85.72443526      73.58017415      96.92714646
H      85.75845033      76.72278900      97.78130276
C      90.59048052      72.48980207      98.32365422
H      92.61815685      72.49925070      97.95515758
H      89.85915643      70.85707853      97.30509173
H      90.14261538      72.24791710     100.31920521
C      90.57914216      80.20177514      94.64246736
O      92.87893908      80.53247726      94.40247211
N      89.07869947      81.58127536      96.20716074
H      87.24377522      81.08994651      96.38101556
C      89.84214890      83.66942294      97.94192949
H      91.82069235      83.74501199      98.51451657
C      88.99555151      86.20354591      97.01407388
H      88.60059871      87.44320638      98.60900288
H      87.14739917      86.02402192      96.12023333
C      90.71898190      87.48478037      95.07899413
H      91.49187997      85.91441780      93.99429123
H      92.38005133      88.29925241      95.98795250
C      89.64750709      89.14584978      92.96439039
H      91.12149361      89.86583552      91.72095047
H      88.84815285      90.81825758      93.86578984
N      87.93919450      87.90052015      91.40725590
H      87.70864789      86.00701439      91.46583742
C      86.25355863      88.97010524      89.95216665
N      86.34426549      91.38139601      89.32666724
H      84.93452966      92.04468995      88.22306707
H      87.66518418      92.60026948      89.96917418
N      84.47910562      87.71532697      88.80510277
H      83.16007665      88.57704216      87.72606905
H      84.51501042      85.81804175      89.00352403
C      88.54957610      83.25557287     100.45148604
O      86.29513261      82.69432416     100.49683948
N      90.16907155      82.90597351     102.38278633
H      91.98698826      83.20266053     101.88011914
C      89.31680498      81.84961649     104.86777643
H      87.77289858      80.51735944     104.57297913
C      91.33503268      80.20744432     105.90523619
H      90.77756342      79.94855182     107.87244127
H      93.06602199      81.31293422     105.74838890
C      91.40495256      77.67710080     104.46715445
H      91.33125323      78.01158236     102.43569867
C      93.85781731      76.42799170     105.11722031
H      93.98631870      76.26925470     107.16568363
H      95.45274632      77.60718092     104.55408187
H      94.08836392      74.49480168     104.44069828
C      89.35459951      75.69855734     105.08320524
H      89.70608860      74.05827491     103.88511876
H      87.51967526      76.38263828     104.44825719
H      89.29034881      75.13919836     107.06363841
C      88.52311993      83.97177914     106.74049521
O      87.25700330      83.61462087     108.71336948
N      89.42073993      86.40007746     106.16790814
H      90.62638532      86.53424802     104.69581134
C      88.90295492      88.79058124     107.50205492
H      87.92029724      88.52035037     109.29351546
C      91.31802515      90.35149517     107.94803032
H      91.97564990      90.56503426     106.00917112
H      92.70697399      89.43686764     109.16123461
C      90.57158325      92.99144284     109.06863803
H      89.67774271      92.52090098     110.86387802
H      89.19019332      93.94197517     107.87433100
C      92.92807196      94.59771020     109.35209697
H      92.40650750      96.23988236     110.48215332
H      93.67451386      94.96431711     107.46615012
C      95.10314695      93.09348805     110.66923621
H      95.40928261      91.16407750     110.01728063
H      94.71386333      92.88750789     112.68179474
N      97.55412198      94.42952456     110.40845398
H      97.86403709      95.09659794     108.64533933
H      99.00354206      93.46954360     111.19458013
H      97.35381099      96.10949125     111.29284591
C      86.85071214      90.24944996     105.80886014
O      87.18708343      90.44787122     103.44481253
N      84.95531665      91.24722544     107.11844047
H      84.82870499      90.93542061     108.99682843
C      82.81992592      92.54735716     105.87311084
H      81.59160381      91.09226790     105.08887441
C      81.24956335      94.06102793     107.77039605
H      82.53457724      95.34604183     108.73793592
C      79.03291439      95.53690418     106.59498629
H      78.29781085      94.46542937     104.99816755
H      79.71321586      97.38694625     105.99027387
H      77.33594016      95.96965151     107.67968920
C      80.02691043      92.19586806     109.75082922
H      81.48199969      90.86928018     110.35176219
H      78.44331978      91.24533573     108.83431196
C      78.95165615      93.48844085     112.10542821
H      78.70221228      91.93319610     113.43390582
H      77.17720315      94.48432662     111.77472611
H      80.27446457      94.84904380     112.91045163
C      83.53802192      94.41818620     103.69236667
O      85.38806398      95.78445833     103.88322902
N      82.19820596      94.31425126     101.57398348
H      80.64296120      93.21254081     101.47949715
C      82.22088268      96.02067412      99.46315918
H      83.30369585      97.66473600     100.06787160
C      83.83848840      94.89439723      97.29375337
H      85.73199416      94.59582047      98.04397472
H      83.84604730      95.95264396      95.52496955
C      82.78213139      92.40562768      96.23928609
C      81.40263118      92.35649480      93.97350424
H      81.03413455      94.09504300      92.97005957
C      80.59193859      90.01134445      92.90580887
H      79.59227337      90.10961020      91.12946614
C      81.15129758      87.81737220      94.19838168
O      80.09494057      85.75946024      93.12690685
H      79.41274937      86.06748563      91.47528605
C      82.59126903      87.85138726      96.42069982
H      82.99189101      86.05236781      97.29564310
C      83.23566571      90.13984582      97.56020478
H      84.36005286      90.09260267      99.26473791
C      79.64707544      97.04490578      98.69593029
O      77.77057721      96.38539130      99.98283391
N      79.36739594      98.41306762      96.58321628
H      80.97555304      98.87794030      95.67047847
C      76.88996475      99.20108350      95.50796200
H      75.55014879      98.55668682      96.93659510
C      77.12807026     101.95252502      94.80309410
H      75.48589810     102.44196412      93.66169941
H      78.81748559     102.24165313      93.66547886
C      77.12429081     103.57579992      97.07832457
H      78.85905956     103.33769439      98.16491720
H      75.68242963     102.98998475      98.42569943
C      76.90697228     106.34802842      96.38857447
H      75.27613848     106.59369283      95.15269346
H      78.71355064     106.63337708      95.44182158
C      76.85217022     107.93539852      98.91513855
H      78.72677872     107.85036084      99.76551539
H      75.36495561     107.05289633     100.03385653
N      76.46477633     110.73786264      98.58632617
H      76.30037014     111.74508676     100.19826271
H      74.95866445     111.35769287      97.59044040
H      78.05025670     111.40115658      97.75484660
C      76.31170849      97.68552299      93.03242053
O      78.06726424      97.25655513      91.51686004
N      73.94388142      96.86538178      92.69982870
H      72.83650180      96.91640438      94.25318373
C      72.85728879      96.25122072      90.27342013
H      73.82104921      94.71676297      89.29454189
C      70.08506029      95.27612194      90.57010715
H      68.85673819      96.86160232      91.04064901
H      69.82238834      94.01189505      92.17637451
C      69.14586632      93.70386966      88.33456093
O      69.06082863      94.74321912      86.15570648
O      68.43910867      91.51178714      88.78431578
C      73.12940938      98.39983955      88.42148833
O      73.22578543     100.70152619      88.95250143
N      73.09917376      97.95764358      85.99696947
H      73.20688816      96.21342619      85.23352005
C      72.85539907      99.79634728      83.89370408
H      74.26702462     101.28923108      84.03921302
C      72.96689292      98.57558409      81.30099958
H      71.06204880      97.94819496      80.84179610
C      73.57916425     100.48798711      79.15804994
H      72.35084214     102.14149765      79.07868145
H      73.36373545      99.54501369      77.34013323
H      75.48967755     101.25332628      79.22985954
O      74.52591713      96.57436393      81.20084410
H      73.60373069      95.07203150      81.61847360
C      70.37418842     101.20608311      84.12991987
O      70.38363705     103.44729852      83.44583895
N      68.36351962     100.22720489      85.22785086
H      68.69044227      98.50755394      85.99507974
C      65.91821377     101.45552699      85.82122492
H      65.18688969     102.30023465      84.08834590
C      63.96801622      99.54690342      86.80388261
H      62.31639542     100.70530564      87.21017377
H      64.48202178      98.74943891      88.63313769
C      63.30661201      97.53056544      84.83478779
H      64.81839306      96.13405769      84.77242682
H      63.01748388      98.59070191      83.09057040
C      60.84051917      96.17752139      85.36580088
O      60.91043904      93.86260667      86.02531536
O      58.88843189      97.49088119      85.51886871
C      66.29426931     103.56068210      87.82244510
O      64.37430738     104.85325491      88.07755814
N      68.52414636     103.75910337      89.15470214
H      70.03214796     102.68384909      88.69171919
C      68.98712931     105.54867418      91.27497507
H      67.61140855     107.08124222      91.25418808
H      70.82394328     106.42361746      90.95183187
C      69.28003688     104.32791099      93.89980492
O      70.24946648     105.53355638      95.64024285
N      68.12163465     102.08291612      94.34767005
H      67.28070644     101.13805297      92.91714723
C      67.46778935     101.06057420      96.85533686
H      66.85173857     102.59692168      98.07987952
C      64.98090952      99.62249246      96.69282040
H      64.22879845      99.02533895      98.51451657
H      65.45145137      97.88961344      95.68559629
C      62.87953386     100.89049882      95.29253320
C      61.76270561      99.57713904      93.28564386
H      62.09907689      97.56458052      93.34611510
C      59.90699437     100.58814261      91.57355182
H      58.95646204      99.40895339      90.20538998
C      59.15866275     103.15628068      91.94960736
O      57.10264052     104.01232669      90.60034278
H      56.61131168     105.60158653      91.32599767
C      60.28871909     104.41672813      93.93759944
H      59.74636763     106.34235924      94.34389060
C      62.26915226     103.40572454      95.43615241
H      63.04771950     104.74743023      96.75896083
C      69.55971638      99.34092324      98.17814528
O      70.75024396      97.82914220      96.94037456
N      69.88096985      99.43163012     100.60077442
H      68.67910392     100.47664876     101.65146225
C      71.73290164      97.90284152     102.03696641
H      73.54136972      98.59070191     101.32642932
C      71.97856606      98.70597521     104.85076889
H      73.30515393      97.42096131     105.75972726
H      70.18899524      98.62471697     105.86366220
C      72.82894290     101.55001330     105.20792717
C      71.33605911     103.27722316     106.64222944
H      69.46711979     102.71219500     107.23560351
C      72.16375924     105.82835368     106.82742262
H      70.94488577     107.25320733     107.63622548
C      74.62985208     106.55400859     105.89389782
O      75.46700083     108.97285826     106.06964238
H      74.44654862     109.90827280     107.24505214
C      76.16997902     104.75120969     104.71092916
H      77.76679776     105.32001730     103.57142418
C      75.22133641     102.28889630     104.29140992
H      76.48367359     101.08703037     103.22938372
C      71.26991869      95.04935479     101.55697593
O      69.11941015      94.11205053     101.53807868
N      73.49412656      93.66796485     101.06753682
H      75.19865970      94.49944444     101.29052452
C      73.92120471      91.20376174      99.93370103
H      72.33194488      89.89418140      99.92047295
C      74.10072871      91.69131113      97.02163279
H      75.73156252      92.91963324      96.76085055
C      74.57882947      89.26490254      95.70449354
H      76.53091675      88.66396957      95.96338604
H      74.30670888      89.53135396      93.68059666
H      73.27869776      87.73800368      96.17503539
O      71.90297701      92.70420443      96.00873949
H      71.63652560      94.42007593      96.53408339
C      76.23422972      89.79402592     101.02218339
O      77.78380529      91.05825282     102.18625479
N      76.22478108      87.32415362     100.95604296
H      74.85472951      86.50212267      99.91102431
C      78.36962045      85.78780613     101.89334722
H      80.07604331      86.82337616     101.38501084
C      78.14474302      85.64229721     104.80919492
H      77.46822100      87.45076529     105.53296009
C      76.25690643      83.51068593     105.40634843
H      77.11862163      81.66442331     105.11155113
H      74.40497464      83.67131267     104.51628734
H      75.87707144      83.66375376     107.42646586
C      80.72799889      85.29647728     106.14712116
H      81.89396002      86.83660423     105.43469433
H      81.65396478      83.66186402     105.29674431
C      80.84516192      85.35694854     108.93446746
H      82.75189577      85.36072798     109.70925525
H      80.08360222      83.66186402     109.82074911
H      79.56392748      86.77046381     109.71303470
C      78.66252803      83.24234479     100.36644835
O      77.00901750      82.55637413      98.86978511
N      80.83949274      82.04047886     100.76518061
H      82.45898819      83.02124681     101.01840393
C      81.24956335      79.46100243      99.77685374
H      79.59416310      78.37252007     100.34377165
H      83.00511910      78.81849548     100.63856895
C      81.44042571      79.40620037      96.82510124
O      83.19598145      80.47956491      95.62512503
N      79.62250899      77.93599330      95.85000247
H      78.51134992      77.04971165      97.12367800
C      79.07259864      78.05882551      93.13446576
H      80.24800840      79.56115793      92.35967797
C      79.49400761      75.49824636      91.72850938
H      77.86317380      74.25480644      91.93259982
C      79.56770693      76.09728959      88.90903772
H      77.98978546      77.28214800      88.31566366
H      79.82281998      74.44944825      87.70150261
H      81.15696676      77.37852403      88.63124795
C      82.08293265      74.53637566      92.65636500
H      81.87128331      74.16598930      94.67270297
H      83.50400684      75.98957520      92.32566289
C      83.07881842      72.05894446      91.38646891
H      83.51534520      72.38019795      89.40036656
H      81.54058120      70.69456206      91.24473944
H      84.71154196      71.40131971      92.45794373
C      76.36462083      78.92620989      92.98328765
O      74.50701987      77.58072476      93.35556374
N      76.15297148      81.41875889      92.53731224
H      77.79892310      82.38062958      92.47684100
C      73.77380606      82.68298579      91.72095047
H      73.32027174      81.92898499      89.85768033
H      74.25757599      84.65774980      91.39024837
C      71.38330227      82.49590290      93.40091716
O      69.35751566      82.72833923      92.40692112
N      71.63274614      82.15764189      95.85000247
H      73.34294846      81.74946101      96.59266492
C      69.59562118      81.93465418      97.81531784
H      67.84195516      81.25813215      96.96872045
C      70.53859461      79.89941893      99.85433252
H      72.10328800      80.58349986     101.00517586
H      71.24724198      78.19299607      98.94348444
C      68.55438198      79.26069145     101.66280061
N      66.92543790      77.16498497     101.71949240
H      66.73268581      75.86485326     100.33621274
C      65.29460409      77.38608294     103.56953445
H      63.87164018      76.04248753     104.14779071
N      65.83506582      79.33439078     104.95092439
H      65.12830817      79.65753397     106.69514179
C      68.18399562      80.37185052     103.91157492
H      69.27625743      81.90441855     104.70337025
C      69.21578619      84.57460183      99.12867762
O      70.96189330      85.84071846     100.00929009
N      66.88386392      85.27946975      99.06253720
H      65.59885003      84.08327300      98.31231586
C      65.79727129      87.49800844     100.23038806
H      66.82717213      89.16474705      99.59355030
C      63.07984485      87.99878591      99.15135434
H      61.70223437      86.55692475      99.67291880
H      63.07606540      88.10083113      97.09533211
C      61.94978852      90.46109931     100.31731547
H      62.20679129      90.23811159     102.34877126
C      63.09685239      92.97254557      99.41024684
H      62.09529744      94.57125403     100.23983670
H      63.02315306      93.30513740      97.38068078
H      65.07728556      93.12561340      99.95637774
C      59.12653740      90.80691921      99.96771610
H      58.58607568      92.41885577     101.13178751
H      58.30639618      89.23844637     101.01840393
H      58.76559968      90.93920006      97.94192949
C      65.84451445      87.44887556     103.08198508
O      65.30216300      85.50056774     104.07976056
N      66.34340219      89.56158957     104.18369551
H      66.75347280      91.02045829     103.02151382
C      66.26781314      90.04535952     106.93324730
H      65.56483495      88.35594420     107.87622072
C      68.87374573      90.78235277     107.92913307
H      68.57894842      91.02045829     109.95302994
H      69.43499444      92.60971813     107.16190418
C      71.01291591      88.79625042     107.77795495
H      71.50991393      88.29358323     105.84287521
C      73.41475806      90.05669787     108.91934965
H      72.79303810      91.03179665     110.62577251
H      73.91364580      91.49666932     107.53229053
H      74.89441376      88.66774903     109.26327984
C      70.16442880      86.48133569     109.23682367
H      69.39153074      86.96888508     111.08308629
H      71.53825983      84.96388545     108.99682843
H      68.59973541      85.57804651     108.24849681
C      64.20990119      92.14862491     107.40189942
O      62.73780439      91.83682006     109.24816204
N      64.09462788      94.26511838     106.13767251
H      65.37775205      94.54479786     104.75250313
C      62.05750292      96.05468919     106.53073559
H      60.28682936      95.02667807     106.76317192
C      62.61497218      97.65717711     108.77762017