 %block lattice_cart
   139.898   0.000   0.000
   0.000 144.87   0.000
   0.000   0.000   168.12
 %endblock lattice_cart

 %block positions_abs
N      97.60797918      46.94542662      87.76575330
H      99.44479316      47.28368763      87.37835941
H      97.03728184      45.30325446      86.97584770
H      97.24326200      46.82826359      89.63469263
C      96.18312554      48.99955913      86.44294488
H      96.94846470      50.79479912      87.09867991
C      96.59697561      48.86727830      83.56111226
H      95.99604264      46.97377253      83.01120190
H      98.61331358      49.08081737      83.19450535
C      95.13999662      50.75322515      82.03232367
H      93.12932782      50.36205180      82.24208329
H      95.72014260      50.72487926      80.05755967
S      95.66911999      53.83725850      83.31166838
C      93.42979430      55.59281424      81.45784687
H      93.84364437      57.61104194      81.47107495
H      91.46258921      55.29234775      81.98885996
H      93.80396011      55.10904430      79.48875205
C      93.39955868      48.59137825      87.31788817
O      92.59075582      46.37661900      87.49741217
N      91.88021873      50.60582650      87.48607381
H      92.36776812      52.40106649      87.06466484
C      89.23082244      50.57937032      87.96795402
H      88.36154833      48.90696254      87.13647444
C      88.93224568      50.53779635      90.84789692
H      89.80151978      48.78224060      91.48473469
H      86.93858442      50.49055320      91.36190248
C      90.14544997      52.78657066      92.37479578
O      90.16812669      55.01455798      91.78709090
N      91.30574193      52.04012877      94.46672281
H      92.31107633      53.19853099      95.60244832
H      91.12432820      50.23921959      95.06954550
C      87.93258046      52.99633028      86.84545659
O      89.17791010      54.81802645      86.15759621
N      85.39278830      53.17018511      86.89647920
H      84.42713815      51.89650957      87.93771840
C      84.02084699      55.36415736      85.99130029
H      84.72004573      55.79123551      84.10346371
C      81.20515479      54.67251753      85.83634274
H      80.99917462      52.83003437      84.94061246
C      80.07887790      54.73109903      88.45361368
H      78.17403378      53.95442153      88.49518766
H      79.85022102      56.66617878      89.12635625
H      81.11066847      53.72387491      89.92571048
C      79.89368472      56.81924661      84.17716303
H      80.86689378      56.83247470      82.36113605
H      80.27540944      58.77889280      84.67605078
C      77.07988224      56.40350682      83.87669655
H      76.20304924      56.79845962      85.70028244
H      76.77941576      54.41740447      83.41749306
H      76.38635269      57.48254055      82.26664973
C      84.60099297      57.76788923      87.47284572
O      84.51217583      59.80690391      86.40892981
N      85.17358004      57.73009470      89.90114404
H      85.10177044      56.12382734      90.93104488
C      85.82931507      59.94674366      91.19371683
H      84.21737853      61.21097056      90.96694968
C      86.35654872      59.25321410      94.02641658
H      86.54741107      60.99365205      95.11300921
H      88.23304694      58.42362425      94.18515359
C      84.52540392      57.38994397      95.28119485
C      81.86655900      57.69985907      95.37001199
H      81.12578628      59.58769566      95.13190647
C      80.32454232      55.75911016      96.22794773
H      78.33843997      56.12949651      96.52085531
C      81.35822262      53.36482691      96.81754234
H      80.16391559      51.97965752      97.72083152
C      83.96793466      53.06058097      96.76085055
H      84.74461217      51.32581222      97.50729245
C      85.45136981      55.04290389      96.10511552
H      87.47337697      54.78779083      95.98417304
C      88.38422505      61.17506576      90.23184614
O      88.57886686      63.46352434      89.85579060
N      90.45158564      59.77666829      89.80476799
H      90.35709932      57.91717760      90.21861806
C      92.65311679      60.44563141      88.41203970
H      93.44680184      62.16528236      89.21895284
C      94.52583557      58.30646122      88.58778425
H      94.15355948      56.93451993      87.09867991
H      94.18757456      57.36159806      90.38491397
C      97.25837982      58.94140927      88.32322256
H      97.76671619      60.48153620      87.05332648
H      98.23914777      57.23498641      87.71473069
C      98.21458133      59.46864290      91.00663393
O      98.39788478      57.74710223      92.55998896
O      98.79661703      61.70796859      91.60567717
C      92.36020921      61.24309591      85.67760573
O      93.23137304      63.26132361      84.95006110
N      90.66512471      60.06201696      84.26409044
H      89.65223141      58.76377500      85.23163032
C      89.93569035      60.85192256      81.73185719
H      91.60053923      60.45130058      80.59046249
C      87.68691604      59.11337436      80.68494881
H      86.03529524      59.25888328      81.90571201
H      88.37855587      57.18396379      80.46196110
C      87.00094539      59.77477857      78.02988334
H      88.40690176      59.06235175      76.70329547
H      86.82520084      61.77788847      77.58957711
S      84.08887714      58.11937832      77.03021812
C      84.85799575      57.38049533      73.84602928
H      86.60788231      56.29579243      73.87626490
H      85.46837735      59.01132913      72.74620857
H      83.34621470      56.26555681      73.00321135
C      89.13633612      63.72241684      81.65248868
O      90.15111915      65.13593212      80.16338435
N      87.52439958      64.47830736      83.51575882
H      87.01417347      63.35014075      84.96706863
C      86.47371175      67.07479131      83.58756842
H      86.33198227      67.67761400      81.62414279
C      83.77896202      66.86314196      84.78565491
H      83.30275099      68.50909359      85.92704960
H      83.82998463      65.36836845      86.20483937
C      81.65679937      66.46063026      82.79388337
H      79.95226624      66.04866992      83.87291710
C      81.22783150      68.90971556      81.34824274
H      80.55697866      70.44795278      82.54254977
H      79.77085251      68.52799085      79.94228637
H      82.92858518      69.58245813      80.39960013
C      82.27851933      64.28933473      80.94384131
H      80.72894376      64.15138470      79.59457673
H      82.16135630      62.48086664      81.92460927
H      84.12478194      64.56901423      80.07078776
C      88.32186408      69.04010668      84.95006110
O      88.08753802      71.17549741      84.21117811
N      89.88844719      68.30689287      86.71506547
H      89.92246227      66.51354260      87.36324160
C      92.19958248      69.71473897      87.38780804
H      91.60998787      71.57422966      88.04921225
C      93.53939843      68.21807573      89.35879258
H      95.28361582      69.27443274      89.63091317
H      94.16867729      66.32079051      88.86746374
C      92.43579826      67.99130857      91.93259982
H      90.86354597      66.67227961      91.76819363
H      91.73282008      69.81867392      92.57510677
C      94.25182525      66.95195911      93.95460698
H      93.71703270      67.46785438      95.87456891
H      96.05651388      67.88359417      93.61445624
N      94.98692879      64.23831212      94.05854192
H      96.60453451      63.44651679      93.43115279
C      93.46947856      62.46763857      94.93726466
N      91.16401246      62.67928792      95.54953599
H      90.66701444      61.34325141      96.81565262
H      90.19647258      64.31390117      95.36434281
N      94.18568483      60.18673890      95.15080373
H      92.75894146      59.01888804      95.64969148
H      95.97903510      59.65194635      94.78608656
C      93.94568959      70.26464934      85.14281318
O      94.99259797      72.28665648      85.00297343
N      94.28584032      68.62814634      83.33245537
H      93.55262652      66.89337758      83.65181912
C      95.67289944      69.14215190      81.02509954
H      97.51727232      69.89237325      81.55422291
C      96.40611325      66.57590356      79.88748430
H      94.78661780      65.31734585      80.07078776
C      96.77272015      66.48708643      76.93951126
H      95.13999662      67.41305232      76.09102414
H      96.78405851      64.58602176      76.14582620
H      98.50748891      67.29966874      76.18551046
C      98.65299783      65.24931569      81.34257356
H      98.58118823      65.72363701      83.34757318
H     100.53327552      65.80111578      80.71140498
C      98.50937863      62.35236525      80.91549542
H      99.46746987      61.30734660      82.40648948
H      99.25393080      61.75710147      79.09001980
H      96.53650436      61.76466038      80.85124472
C      94.38788555      71.09045973      79.36025066
O      95.55006723      73.06333401      78.84624511
N      91.92746189      70.74463981      78.94262115
H      91.39266934      68.91727447      79.09757870
C      90.52528496      72.29988457      77.16438869
H      91.69124610      72.34901745      75.46741446
C      88.04407431      70.95628917      76.27054814
H      87.18046939      72.41137842      75.09702810
H      86.97826867      70.42149661      77.95240456
C      88.49004972      68.78310390      74.39782936
O      89.95269789      69.00231215      72.55723594
O      86.99149676      67.01243034      74.56034583
C      89.94324926      75.04565691      78.21318679
O      90.22292875      76.89191951      76.87526056
N      89.50105330      75.31021859      80.69628717
H      89.47081768      73.88725467      81.96807297
C      88.81697237      77.78387033      81.69784211
H      89.07208543      79.24273904      80.26542957
C      85.95592674      77.71961964      82.45751209
H      85.14145470      79.18415752      83.65559857
H      85.62711436      75.90737210      83.38158826
C      84.33265183      77.62891277      80.06511858
H      82.41268990      77.28876203      80.72463306
H      84.97893823      75.94516662      79.07301226
C      84.47816076      79.92115079      78.30011420
O      84.24572442      79.67548637      75.94740494
O      84.91468754      82.05465179      79.10513761
C      90.55552058      78.72495403      83.69906228
O      89.94891844      80.69404885      84.73085284
N      92.48493115      77.32844629      84.46062198
H      92.31863523      75.51619875      83.88425546
C      94.22725881      77.99929914      86.51853394
H      94.96614180      79.91548161      86.33523048
H      95.94879948      76.88058116      86.34845857
C      93.00271616      77.80843677      89.11690762
O      90.70858841      77.87646692      89.42493301
N      94.57496845      77.61757441      91.06332572
H      96.43634887      77.31332847      90.75907978
C      93.85120327      77.28876203      93.68059666
H      91.87265982      76.72940304      93.56910281
C      95.53683914      75.01353156      94.57443721
H      97.48703670      75.54265492      94.17948441
H      95.23259321      73.42994090      93.29509249
C      95.04362058      74.26897938      97.35233489
H      95.06629729      75.92060018      98.58065699
C      92.48115170      73.14459223      97.85689181
H      92.04273519      73.25797581      99.86756061
H      92.22225919      71.20573303      97.20682596
H      91.08275422      74.41637805      97.04241977
C      96.81807358      72.42460650      98.53152411
H      98.61331358      73.36380048      98.90757964
H      97.10153253      70.78432406      97.31831981
H      96.04328580      71.71973859     100.30408739
C      94.10064715      79.81154666      95.29253321
O      96.12076457      80.24618372      96.29408815
N      92.15233932      81.39135786      95.60055860
H      90.43835755      80.74507146      95.06954550
C      92.41123182      83.64958080      97.00273552
H      94.29150950      84.46783231      96.82510125
C      90.70291924      85.76796400      95.96149632
H      90.38922467      87.12667722      97.47705683
H      88.90389979      84.91569743      95.43804213
C      92.00116121      86.88290252      93.56154390
H      92.41879073      85.46560779      92.12346218
H      93.79073203      87.75406635      94.08310837
C      90.36843768      88.93136585      92.29353755
H      91.50794264      90.54330239      91.70205321
H      89.20058682      89.61733650      93.84500285
N      88.74327305      87.90902391      90.29609684
H      88.33320244      86.04575377      90.36223726
C      87.87399894      89.29230357      88.34589928
N      88.48249082      91.63367447      88.08322732
H      88.08753802      92.59176573      86.48073941
H      89.68813621      92.38200609      89.35879258
N      86.56819806      88.43814728      86.46562160
H      86.22048842      89.69859474      85.07478303
H      85.95025756      86.63156892      86.45428324
C      92.05218382      82.89180055      99.80519964
O      89.93569035      82.33433129     100.60644360
N      93.98537384      83.19226704     101.40957728
H      95.61809738      84.03508497     100.89557173
C      93.89655670      82.50629638     104.11755509
H      92.24871536      81.29309209     104.35755033
C      96.34753173      81.11356809     105.04919016
H      96.21525089      80.92648519     107.09576376
H      97.95190937      82.31543403     104.58053804
C      96.52516601      78.41503892     103.79441189
H      96.24926596      78.74763075     101.77996364
C      99.06306844      77.09412022     104.17802633
H     100.55595223      78.21094847     103.30875223
H      98.89110335      75.29132132     103.20103783
H      99.59597126      76.78231538     106.14334170
C      94.55418146      76.49507698     104.73927505
H      94.97748016      76.31744271     106.74805412
H      94.67512395      74.69227808     103.75283791
H      92.63799898      77.20750381     104.48983117
C      93.19546824      84.76640905     105.88444919
O      93.66034092      84.80042414     108.12944405
N      91.91234408      86.72227580     104.80163601
H      91.74226871      86.76951895     102.90057134
C      91.00527545      89.00317545     106.17546704
H      90.67268361      88.52885414     108.15023104
C      93.12176892      91.15935317     106.16034923
H      93.34853607      92.00784029     104.29707909
H      94.76394108      90.13134206     106.85387879
C      92.54918184      93.51395216     107.89133854
H      91.79896050      92.84309931     109.68657853
H      91.02039326      94.59487561     107.03340279
C      94.86598630      95.12210925     108.54140439
H      95.61053847      95.95169910     106.81041508
H      96.28139131      93.99016319     109.52028262
C      94.17245675      97.28773560     110.35176220
H      93.24082167      96.48649165     112.00338299
H      92.72681612      98.55196251     109.60532030
N      96.21525089      98.91290023     111.18513150
H      97.43790381      98.01905969     112.34731318
H      95.46502954     100.41523265     112.08842068
H      97.08074554      99.56296608     109.61287921
C      88.46737301      89.77607351     105.05107989
O      87.93824964      89.12222820     102.94214532
N      86.83275975      91.28407511     106.24349719
H      87.22771255      91.68469709     108.06708308
C      84.49894775      92.50861776     105.47815803
H      83.27629483      91.20848605     104.45392637
C      82.76606872      93.39111995     107.65512275
H      83.59565857      94.97660032     108.67557496
C      80.37934439      94.36999819     106.40412393
H      80.74217184      95.55107712     104.75439286
H      79.51196001      95.69847577     107.71748372
H      79.20393462      92.70136985     106.11121635
C      81.90057407      91.30486210     109.61098948
H      83.56920240      90.57353801     110.57097045
H      80.89334994      89.70237418     108.80029689
C      80.10722380      92.48405132     111.70480624
H      79.98061214      91.02707233     113.15800577
H      78.14568789      92.90357056     111.23993356
H      81.02185133      94.12055430     112.56085226
C      85.41735474      94.43046942     103.56764473
O      86.77606796      96.22759914     104.20637223
N      84.24005524      94.35865982     101.39823892
H      83.14779344      92.79963561     101.26028890
C      84.96382042      95.76839565      99.21560503
H      86.04663360      97.45025207      99.71260305
C      86.34710008      94.24149679      97.16714171
H      88.21225995      93.69347616      97.84933291
H      86.95559196      95.52840041      95.67803738
C      85.02240194      91.98138412      95.67425792
C      83.99628055      92.42358007      93.17415001
H      83.99628055      94.33409338      92.45416429
C      82.93614409      90.37889620      91.78709090
H      82.06498026      90.76817982      89.98240227
C      82.91724683      87.99217187      92.96250066
O      82.12167205      85.83032497      91.67370732
H      81.57365142      86.35188943      90.02397625
C      83.93580931      87.47060741      95.34544554
H      83.93958876      85.54497629      96.01629839
C      84.89579028      89.56631389      96.78919645
H      85.65923971      89.21860426      98.65057687
C      82.43158716      96.73782525      98.09121788
O      80.42280809      95.73438057      98.49372958
N      82.77551735      98.71069952      96.36589775
H      84.55941899      99.37021400      96.20527102
C      80.81965062      99.60265035      94.61223173
H      79.01496199      99.21336673      95.52496954
C      80.94815201     102.62621244      94.28341936
H      79.84455184     103.32730091      92.69038007
H      82.92669546     103.13265909      94.01129877
C      80.03919365     104.13988321      96.60211354
H      81.43948085     103.88854962      98.09310760
H      78.17781323     103.55406806      97.25784857
C      80.08832654     106.90077336      95.79709013
H      78.60867083     107.24281382      94.40625157
H      81.80986721     107.42422756      94.79931464
C      79.78219087     108.94545723      97.93059114
H      81.64357129     109.18545247      98.77907825
H      78.38946258     108.07996258      99.17403105
N      78.85055580     111.33029183      96.94226428
H      80.26407108     112.12775634      95.93504015
H      78.65591399     112.63987217      98.31609531
H      77.32176721     111.33974047      95.79897986
C      80.74028211      98.26850356      92.04031422
O      82.75284064      98.35165152      90.69482909
N      78.50473588      97.17435202      91.51874976
H      77.18003774      96.95703350      92.87368353
C      77.74695563      96.57719851      88.96950896
H      78.76551812      94.90479072      88.32889174
C      75.12590524      95.45659081      89.35123368
H      73.75207421      96.87577527      89.93326938
H      75.31298814      94.11488513      90.90269898
C      74.12624002      94.19614336      86.97017852
O      74.84811547      91.97193548      86.38814282
O      72.78831379      95.43580382      85.45461802
C      77.81876523      98.71636870      87.02687031
O      78.07765774     100.93112793      87.77142248
N      77.69215357      98.22126040      84.53054185
H      77.27830351      96.43924850      83.98819040
C      77.28964187     100.19980385      82.51042443
H      78.90157841     101.47914857      82.42160729
C      77.26885488      98.83164200      79.87236649
H      76.65847328     100.22059084      78.47963820
C      79.77274224      97.78851308      79.03332801
H      80.87634241      96.71514853      80.40148986
H      80.97271845      99.43068524      78.69884645
H      79.55353399      96.67546428      77.31367707
O      75.33944431      96.88900335      79.86669731
H      76.18604170      95.44714217      80.56589605
C      74.82543875     101.63221640      82.86191352
O      74.63457640     103.83374756      82.18350177
N      72.97917615     100.56263130      84.07511781
H      73.12090562      98.73715569      84.61180009
C      70.60001072     101.77772532      84.91793575
H      70.40536891     103.47280983      83.76142325
C      68.30966243      99.93146271      84.47573979
H      66.53331969     100.71002996      85.17304880
H      68.62902617      98.24204740      85.60957558
C      67.90904045      99.32675029      81.66949622
H      66.36702378      98.00205216      81.34068384
H      69.56822015      98.36110015      80.92305432
C      67.24952596     101.52072254      79.86291786
O      67.34212255     101.17490263      77.54044422
O      66.44072310     103.42367694      80.83045773
C      70.75307855     102.75849329      87.66748753
O      68.82744744     103.58430368      88.73896235
N      73.08122137     102.82274397      88.76730825
H      74.59300242     102.11976579      87.83567318
C      73.69916187     103.92823387      91.31465932
H      72.76563707     105.76315812      91.39969700
H      75.74762519     104.13799349      91.30332096
C      72.81288023     102.45802680      93.60878706
O      73.41570292     103.29328583      95.71016272
N      71.46739510     100.39255594      93.28186441
H      71.12724436      99.82563804      91.49229359
C      70.21450655      99.12454958      95.46638803
H      69.49452082     100.58908747      96.72305603
C      67.77486988      97.96047817      94.53475296
H      66.99441291      97.06852736      96.22038883
H      68.26052954      96.59987523      93.06643561
C      65.94939426      99.78973324      93.60500761
C      65.31444622      99.72359282      91.01608256
H      66.15726416      98.40834331      89.70461250
C      63.40582264     101.44891294      90.10712420
H      62.81622803     101.34875745      88.15692665
C      62.36458345     103.26305020      91.72472993
O      60.90949418     105.17923269      90.78742568
H      60.62792496     106.50393083      91.99685052
C      63.08456917     103.26871938      94.37223649
H      62.45529031     104.75026481      95.62512504
C      64.89492698     101.59820132      95.21127498
H      65.35224075     101.79095341      97.19170815
C      72.03431299      97.31041233      96.91013893
O      73.57443993      96.12366419      95.77441342
N      72.16470410      97.39545001      99.42158520
H      71.28598137      98.81274474     100.35133055
C      74.46450103      96.22948888     100.64045867
H      76.12557046      96.85498828      99.59732975
C      74.67615037      97.13844722     103.38245155
H      76.23706431      96.10287720     104.23849757
H      72.97539669      96.40712314     104.28574073
C      75.24117854      99.81618941     103.83031669
C      73.36657004     101.45836158     104.55786132
H      71.51463825     100.72703749     105.00950591
C      73.78797901     104.12287568     104.92257850
H      72.25919042     105.23970393     105.68413820
C      76.17659307     105.24915256     104.38778595
O      76.60934039     107.85508515     104.74494422
H      75.10511825     108.62609348     105.40256898
C      78.08710637     103.62776738     103.55441665
H      80.02596557     104.22114145     103.30119332
C      77.67136658     100.95947383     103.41835635
H      79.24172915      99.81807914     102.78151859
C      74.42859623      93.25128021     100.69526074
O      72.38769181      92.17791565     100.85777720
N      76.56209724      92.27618142      99.89590651
H      78.12679062      93.36277405      99.77685375
C      76.82476919      89.68725637      98.98883788
H      75.13157442      88.60066374      99.43859274
C      77.14413294      89.52096047      96.03897510
H      78.79575374      90.48283115      95.27174622
C      77.14602267      86.79786484      94.95994138
H      77.85655976      86.99061692      93.03808972
H      75.24684772      86.06465103      94.63301872
H      78.26096119      85.31631941      95.85567165
O      75.06732372      90.66424489      94.92592630
H      75.45471762      92.39901363      95.29442293
C      79.12267639      88.58176648     100.32487438
O      80.80264308      89.95559751     101.26406836
N      79.44015041      86.07787912     100.48172166
H      77.88112620      85.05931664     100.06409215
C      81.60766649      84.72861453     101.42469509
H      83.16102152      85.91725238     100.77840869
C      81.62089457      84.77396796     104.40290376
H      81.08799175      86.64101756     105.09454359
C      79.59321824      82.95416152     105.34587719
H      77.68459466      83.70816232     105.16068401
H      79.68959428      82.43448678     107.33575900
H      79.63479222      81.19293660     104.28007155
C      84.29674703      84.17681444     105.52540119
H      85.70459314      85.22750227     104.44825719
H      84.84476766      82.26063197     105.00383673
C      84.77673752      84.59822341     108.31841668
H      86.76661933      84.16925554     108.64722906
H      83.73549832      83.34722460     109.58075386
H      84.45737377      86.60322303     108.66423660
C      82.02151655      82.30598539      99.99417227
O      80.21115875      81.23640030      98.97749952
N      84.45170459      81.54631542      99.88834760
H      85.66868834      82.52141419     100.99194777
C      85.23216156      79.13313491      98.67136385
H      83.79407983      77.85379020      99.39701876
H      87.07842417      78.55109921      99.37623177
C      85.17735950      79.13880409      95.85189220
O      86.79307549      80.31799331      94.78986601
N      83.62022501      77.43616069      94.62168037
H      82.18781247      76.90136814      95.76496479
C      83.34243525      77.12624557      91.89291557
H      85.10932935      77.55710317      90.92159625
C      83.01929205      74.34834789      91.25040862
H      81.72860897      73.58489846      92.66203418
C      82.17080493      73.99118962      88.61424042
H      83.48983390      74.75274932      87.22718130
H      80.34154986      74.88880962      88.31755339
H      82.03852409      72.02776398      88.00196909
C      85.60632737      72.96317851      91.70205321
H      86.45103503      73.85890877      93.35367401
H      86.77984741      73.18427648      90.02397625
C      85.31908897      70.15693493      92.36345742
H      84.34587992      70.27787741      94.17570496
H      87.19747692      69.36136015      92.65069582
H      84.17202510      69.11758546      91.00852366
C      81.17680889      78.85156569      90.88947090
O      81.43759112      80.16303575      88.98840623
N      79.18692708      78.95361091      92.35589852
H      78.99228527      77.67804565      93.76374462
C      77.29720077      80.75829954      91.78898062
H      76.59422258      80.25563234      89.92193103
H      78.22127694      82.59322380      91.63969224
C      75.19960456      80.80365297      93.88468710
O      72.99429396      81.26285647      93.18737809
N      75.71927930      80.40681045      96.30353678
H      77.56932136      80.09878507      96.65502588
C      73.73506667      80.05154190      98.20271173
H      72.10990204      79.28242330      97.19737733
C      74.47017021      78.20149985     100.22282916
H      75.94982591      79.10667875     101.33209850
H      75.33755458      76.52720233      99.39134958
C      72.29509522      77.66292784     101.95381846
N      70.70961484      75.60312616     101.90846503
H      70.85701350      74.13480882     100.69904019
C      69.00697144      75.80721660     103.69425639
H      67.53865409      74.44094448     104.07976056
N      69.37357834      78.02575529     104.94147576
H      68.29265489      78.74952047     106.33987323
C      71.33133480      79.29754110     103.72449202
H      72.17793219      81.13057563     104.01928932
C      72.92248436      82.73117381      99.00962486
O      74.45883185      83.93115002     100.34944082
N      70.62835661      83.52296914      98.36900764
H      69.81388457      82.37590527      97.07832457
C      69.64380920      86.08921747      98.76773990
H      71.09889846      87.53674783      98.60711316
C      67.60857396      86.55786960      96.83832933
H      66.25552992      85.00451458      96.85155742
H      68.35312613      86.41802986      94.92214685
C      66.37269296      89.11088985      97.27485611
H      65.71506820      89.15813300      99.22694339
C      67.94116580      91.43525321      96.68526150
H      67.24574651      92.99616715      97.83421510
H      67.87880483      91.89445671      94.67837216
H      69.95183459      91.14990454      97.04808895
C      64.01242479      89.43025359      95.53252845
H      62.76898488      87.80508896      95.76307506
H      64.58690159      89.45859950      93.55398500
H      62.88992736      91.07620522      96.04842373
C      68.51942205      86.32921271     101.51351223
O      66.84134508      84.75885015     102.19003425
N      69.25452558      88.35877877     102.77018023
H      70.39214082      89.57576253     101.83476570
C      68.81421935      88.90679941     105.65201286
H      68.38903093      87.17014092     106.67624452
C      71.29543000      89.71371254     106.91623976
H      70.88913884      90.07842972     108.90234211
H      72.05698970      91.43336349     106.07531155
C      73.31743716      87.55186564     106.61955273
H      73.51207897      86.99250665     104.64667846
C      75.68904368      88.77829802     107.63811521
H      77.45971723      87.72949991     107.60598986
H      75.36023130      89.41891524     109.56563605
H      76.05565058      90.59432501     106.73293631
C      72.79020351      85.31065023     108.33542422
H      72.35745619      85.89268594     110.26294506
H      74.30009484      83.92170139     108.16723858
H      71.09511901      84.25996240     107.81574948
C      66.65237245      90.81920243     106.29640953
O      65.05744344      90.05764274     107.73827070
N      66.67315944      93.02451304     105.14934566
H      67.87880483      93.35521515     103.70559475
C      64.76831532      94.99927704     105.86744165
H      62.99764176      94.01661936     106.24916637
C      65.35790993      96.52995535     108.33542422