 %block lattice_cart
   139.898   0.000   0.000
   0.000 144.87   0.000
   0.000   0.000   168.12
 %endblock lattice_cart

 %block positions_abs
N      96.52705574      46.58826835      87.37835940
H      95.82596727      46.33693476      89.13580487
H      98.42812040      46.70921085      87.50686079
H      96.01682963      45.04625169      86.37869419
C      95.48392681      48.70098238      85.89303452
H      96.27950158      50.39984633      86.73963191
C      96.23603787      48.61216523      83.12647520
H      95.38188159      46.87928620      82.41026892
H      98.26749366      48.27768368      83.15671083
C      95.40833775      51.01022793      81.64492978
H      93.35420526      51.11605261      81.51453865
H      96.09997759      50.63606213      79.74008564
S      96.36831872      54.18118869      82.70695596
C      93.84931355      55.60226288      80.97407693
H      93.73592996      54.95219701      79.02198964
H      94.18379511      57.62615975      81.15738039
H      92.06163245      54.99377099      81.79610787
C      92.65689625      48.64618032      86.02720509
O      91.36810289      46.84149169      85.56044270
N      91.60998786      50.81180666      86.93616345
H      92.71547775      52.32925690      87.27253473
C      88.86232581      50.86282927      87.62213410
H      87.73982838      49.44364481      86.63758670
C      88.47115246      50.53401690      90.51341536
H      89.16279230      48.59893716      90.67026265
H      86.48505010      50.48110456      91.06332571
C      89.86577048      52.39161787      92.15936698
O      90.63866855      54.36827159      91.26552643
N      90.18891368      51.88895066      94.65191598
H      90.99015764      53.29679676      95.65914011
H      89.25916833      50.48110456      95.54197708
C      87.64345234      53.39884198      86.47507022
O      88.98515801      55.06936005      85.49619200
N      85.12444716      53.50655638      86.71128602
H      84.19848126      52.00989314      87.44638955
C      83.58432021      55.82147113      85.98563111
H      83.94336821      56.33358696      84.02220547
C      80.72705403      55.37171626      86.36357638
H      80.23005600      53.47254132      85.73807697
C      80.05053201      55.10904430      89.16604050
H      79.95793542      56.90995348      90.16003653
H      81.44703975      54.03379003      90.23373586
H      78.21938722      54.24732910      89.54965494
C      79.14913255      57.21041996      84.61935898
H      79.82187512      57.12160282      82.67483061
H      79.41369424      59.16439697      85.22029195
C      76.35044788      56.42618355      84.78187546
H      75.74951492      57.88694198      83.45906704
H      75.66258752      56.84759252      86.67727095
H      76.11990127      54.53645724      83.99574931
C      84.38367444      58.06457625      87.61835465
O      83.93958876      60.13382656      86.68671958
N      85.47404653      57.91717760      89.91437211
H      86.21481925      56.23910063      90.44160576
C      86.32253364      60.15461355      91.28064424
H      84.85799575      61.59269528      91.11434833
C      86.67024328      59.46108400      94.07932891
H      86.88000290      61.29222879      94.99962562
H      88.28029011      58.18551874      94.22672757
C      84.43280732      58.03812008      95.34166608
C      81.90624325      58.24787970      94.50451734
H      81.48672401      59.44218673      92.90580887
C      79.98250186      56.78334181      95.73283943
H      78.03797349      56.99877061      95.15080374
C      80.74028212      55.05613196      97.51863080
H      79.28708257      53.94875234      98.42947889
C      83.19692632      54.99566073      98.44081725
H      83.64479145      53.76922835     100.00929009
C      85.19247731      56.31091024      97.22572322
H      87.08976252      56.09737116      97.94570895
C      88.89256142      61.17695550      90.18460298
O      89.14578475      63.44651680      89.60634673
N      90.74260348      59.48754017      89.75563511
H      90.40056302      57.62804947      90.01452761
C      93.05184905      60.22453343      88.59345343
H      93.79640120      61.72119668      89.79531937
C      94.87354520      58.04756871      88.42337806
H      94.27072251      56.67562742      87.01175251
H      95.13432743      57.09703638      90.23184614
C      97.64766343      58.97920379      87.85457043
H      97.42467573      60.17918000      86.19350101
H      98.81551430      57.40317204      87.22718130
C      98.73236633      60.42862387      90.12035228
O      99.49770549      62.67928791      89.83122416
O      98.31095737      59.67651281      92.31243481
C      92.44902634      61.25443428      85.82500437
O      93.69624572      63.15171950      84.93116384
N      90.44780618      60.13004711      84.57778501
H      89.63144442      58.55968455      85.29021183
C      89.62955468      61.08624863      82.12303052
H      91.18479945      60.73853898      80.81722964
C      87.54707630      59.34392097      81.34635302
H      85.86899933      59.71430733      82.48396826
H      88.07430994      57.35592888      81.45973660
C      86.70803781      59.90705941      78.56278615
H      88.10832501      58.90550446      77.43461955
H      87.14078513      61.83269052      77.97697099
S      83.64479145      58.79590033      77.44784763
C      84.43658679      57.07813912      74.67939859
H      84.09643604      58.41795508      73.15249973
H      83.05519685      55.58714507      74.35058621
H      86.44158640      56.61137672      74.64160405
C      88.98326829      63.86414631      82.32523124
O      89.89789583      65.47797259      80.88714953
N      87.31841940      64.61625738      84.10157398
H      86.69103028      63.40305309      85.43383102
C      86.31308502      67.22218996      83.92960888
H      86.23938569      67.72296744      81.93405789
C      83.50873117      67.48108247      84.96139945
H      83.40101677      69.48986154      85.40359541
H      83.18180850      65.98252951      86.33334075
C      81.32420755      66.87070087      82.89403886
H      79.52518810      66.75731729      83.89370408
C      81.17491917      68.94939981      80.92116459
H      80.05431147      67.98185994      79.48875205
H      82.97204888      69.47096428      80.05755966
H      80.14123887      70.55377746      81.69406266
C      81.91191242      64.49342517      81.43328042
H      82.30497550      62.83802492      82.59357238
H      83.46526746      64.69184644      80.09346447
H      80.30942451      64.04367031      80.21818641
C      88.24627502      69.16293889      85.12958510
O      88.00816951      71.39281594      84.63825625
N      89.99049242      68.42594564      86.80955178
H      89.88466775      66.65338234      87.50686079
C      92.28462015      69.84135063      87.62213410
H      91.56841389      71.61202420      88.39503217
C      94.00994028      68.22374491      89.36635148
H      95.88076933      69.08546012      89.42682272
H      94.02127864      66.29055489      88.65581439
C      93.27483674      68.00264694      92.13102108
H      91.74793788      66.62314672      92.10456491
H      92.60965308      69.81489448      92.84722736
C      95.41022749      66.93495157      93.85445148
H      95.04928975      67.79855649      95.68937573
H      97.11665035      67.74564415      93.03242053
N      95.42345557      64.15705388      94.02074740
H      96.64232903      63.15549894      92.94738286
C      93.84553410      62.73597970      95.40591678
N      92.23170783      63.76588055      96.88179303
H      91.28306521      62.49031529      97.93815004
H      92.44524689      65.63670959      97.18603898
N      93.88710807      60.32468892      95.18103935
H      92.68902160      59.31368534      96.26763199
H      95.18346032      59.59714429      93.98295286
C      93.90033615      70.60480006      85.23729950
O      94.96992126      72.71562436      85.19572551
N      93.81907792      69.18183615      83.09812930
H      92.85531750      67.53399481      83.09812930
C      95.20046787      69.77332049      80.80211184
H      96.96547223      70.69172749      81.34257357
C      95.94879948      67.27888176      79.30166915
H      94.33497321      66.00331650      79.22608009
C      97.23570309      67.78910787      76.79967150
H      97.23759283      65.99386786      75.78677820
H      99.15377531      68.51287304      77.00376195
H      95.93935085      68.92672310      75.67339462
C      97.73459085      65.92205827      81.12525504
H      97.19223940      65.83702059      83.11135739
H      99.58274318      66.81967826      81.29155095
C      98.08041077      63.10258660      80.27298846
H      99.39377054      62.30323238      81.64492978
H      99.03850200      62.83046601      78.46829984
H      96.19446390      62.27677620      80.37881315
C      93.53183953      71.61202420      79.26009516
O      94.52205611      73.49608133      78.44184368
N      91.03551107      71.12258508      79.03332800
H      90.51394661      69.48608210      79.86480758
C      89.29507313      72.29799485      77.09068935
H      90.45536509      72.91971480      75.50520898
C      87.37322148      70.53299046      75.90961042
H      85.80474864      71.58556803      75.09324864
H      86.70803781      69.36136015      77.47052435
C      88.50894698      68.76231691      73.80445529
O      90.63866855      69.34624234      72.80290035
O      87.29385297      66.96140773      72.96163737
C      87.99116198      74.61101985      78.10925184
O      87.79085098      76.41570848      76.69195711
N      87.21637419      74.83400755      80.55077823
H      87.46770778      73.24663745      81.58067908
C      86.10332539      76.98262637      81.81689486
H      85.28318416      78.16559505      80.34479806
C      84.01139836      76.39303177      83.71040064
H      83.67691680      78.16937450      84.70061723
H      84.44981487      74.85479455      85.00864261
C      81.35822261      75.87902621      82.65215389
H      80.27351971      75.00597265      84.17149385
H      81.64924046      74.40503969      81.24241807
C      80.24139436      78.40559029      81.44272906
O      79.15291201      79.99296039      82.83923681
O      80.61367046      78.89691914      79.14860132
C      88.07997911      78.67393142      83.18883616
O      87.57920164      80.88113175      83.40048551
N      90.23237739      77.65914840      84.05433082
H      90.54607196      75.82422415      83.63103212
C      91.88777763      78.60779100      86.03854344
H      92.03895574      80.55987828      85.39225705
H      93.54317789      77.39458672      85.87413727
C      90.90323022      78.44716426      88.70305755
O      88.63933811      78.18449231      89.13202542
N      92.70980858      78.89880885      90.42081877
H      94.55607119      78.77786638      89.94838720
C      92.09753725      78.96494927      93.09667122
H      90.07741982      78.88558077      93.49918293
C      93.35987443      76.56121740      94.25507346
H      95.21747540      76.19461050      93.44627059
H      92.12399343      75.00408293      93.71272200
C      93.23137304      76.53854069      97.18792870
H      93.92490259      78.27330944      98.05720281
C      90.51016716      75.91115156      98.04964390
H      90.43079865      76.70483660      99.94881883
H      90.09820681      73.89670331      98.18381447
H      89.08153405      76.69916742      96.79297590
C      94.92834727      74.49952600      98.24239597
H      96.86909619      75.12502541      98.53152410
H      94.96992126      72.95750933      96.87612386
H      94.21969990      73.77576082     100.03574625
C      93.08397439      81.40836540      94.51774542
O      95.28739527      81.99984973      94.13413098
N      91.50416319      82.75951971      95.89913535
H      89.60498824      82.56676764      95.93692988
C      92.23170783      84.84577757      97.53752807
H      94.28961978      84.87601319      97.51863080
C      91.30385220      87.27407587      96.39991283
H      91.35109536      88.73105487      97.85500208
H      89.32341902      86.95849159      95.92181207
C      92.89122231      88.25862328      94.28530907
H      93.34475663      86.67314291      93.04942808
H      94.67701368      88.94081449      95.04875852
C      91.50605291      90.35432977      92.88880134
H      92.80618462      91.26895731      91.57922099
H      90.77283911      91.84721355      94.10389535
N      89.51239165      89.06175697      91.34300522
H      89.40845671      87.15691284      91.42615316
C      88.05919213      90.11055507      89.69705359
N      88.34643052      92.47460270      89.08667199
H      86.94425359      93.20403704      88.01708690
H      89.56341427      93.51584189      90.12224202
N      86.33009255      88.81987200      88.38936298
H      85.22460266      89.67780774      87.09112100
H      85.92380138      87.00195528      88.79754386
C      91.06952614      84.71349672     100.11322502
O      88.82453129      84.23161651     100.60644360
N      92.73248530      85.03663993     101.93492119
H      94.10064715      86.28763874     101.47949715
C      92.59453527      84.14279937     104.59943530
H      91.15267410      82.68204094     104.76951067
C      95.06440757      83.25651774     105.75783752
H      94.59197599      82.81432177     107.71370426
H      96.56862971      84.64924602     105.97137660
C      96.48548175      80.78664545     105.03974153
H      97.37932230      80.96994890     103.19536865
C      98.53394507      80.11579260     106.99371853
H      99.92100419      78.69849786     106.43246981
H      97.70435523      79.45627812     108.75683319
H      99.59408153      81.73339832     107.70614535
C      94.54284311      78.61157045     104.85643807
H      93.39388951      78.91203694     103.17269193
H      93.27105729      78.55487867     106.47593352
H      95.61431792      76.85601472     104.94714494
C      91.33030837      86.16669626     106.41735200
O      90.18891368      85.53741740     108.30896805
N      91.50794264      88.48916990     105.63689504
H      92.63044007      88.74050349     104.11377563
C      90.58008703      90.69637022     106.85954796
H      89.93380063      90.10299616     108.72092839
C      92.81374353      92.55397120     107.01261579
H      93.31452100      93.02451304     105.07186688
H      94.43323897      91.64690257     107.90456661
C      91.97659477      95.13533734     108.32597559
H      91.04118024      94.84054004     110.13633340
H      90.85976651      96.30129847     107.04663088
C      94.32174513      96.46192521     109.36343533
H      95.93746112      96.41090259     108.08787007
H      94.90756028      95.52840041     111.10198353
C      93.37688196      99.24549206     109.97192720
H      91.33408783      99.48548732     110.08909023
H      93.99104302     100.13933262     108.22204064
N      94.74504382     100.41712238     112.04306725
H      94.29528895     102.23314937     112.41723305
H      96.58752698     100.29429018     111.55740758
H      94.46914377      99.33430920     113.58697365
C      88.26328256      91.69036628     105.61421832
O      88.08942774      91.55241625     103.34843647
N      86.47182202      92.91112947     106.94458565
H      86.31875418      92.72215683     108.83620168
C      84.15123811      93.78607275     105.63689504
H      83.06653521      92.21948964     104.85076889
C      82.28040906      95.21470584     107.46803984
H      83.33298662      96.80774512     108.23904817
C      79.86911829      96.05374432     105.94114097
H      78.66347290      97.22915409     107.12788911
H      78.76929756      94.40212352     105.38934090
H      80.31509370      97.30096369     104.36321950
C      81.71727061      93.52529053     109.70547580
H      83.39723731      93.07175620     110.80529651
H      80.95949036      91.82831629     108.82108387
C      79.72171963      94.64967767     111.50449524
H      80.29808615      96.44302794     112.33975427
H      79.42125315      93.33064871     113.05974000
H      77.91136183      95.13155788     110.64278004
C      85.07531428      95.84020526     103.72260228
O      86.69480972      97.45214180     104.09109892
N      83.73549832      95.59454084     101.62878553
H      83.01929204      93.83331590     101.49083551
C      83.92636068      97.31230206      99.48205645
H      84.73516353      99.06785779     100.19259353
C      85.44759035      96.14823064      97.32776845
H      87.45070025      96.16145873      97.80775893
H      85.25861772      97.52395139      95.80464904
C      84.54430118      93.73505015      96.04842372
C      82.97771807      93.76339603      93.89602546
H      82.64323652      95.57375384      93.01730273
C      82.07064944      91.66202037      92.63746774
H      80.90090885      91.58832105      90.96505995
C      82.97015917      89.33009811      93.66358912
O      82.36733646      87.16258202      92.39558277
H      81.49428292      87.59532934      90.86679417
C      84.31753402      89.10522067      96.01818811
H      84.58587517      87.21171490      96.73250465
C      85.14712388      91.31053128      97.16714171
H      86.20348089      91.11211001      98.90191046
C      81.42058359      98.29307001      98.46916314
O      79.47605520      97.16490339      98.76585016
N      81.38467879     100.62310256      97.25406911
H      83.19314686     101.08230604      96.84777797
C      79.22850106     101.57363489      95.69882437
H      77.42192270     100.95191494      96.46605325
C      79.20582434     104.49326204      95.39646816
H      77.91892072     105.07529775      93.89791518
H      81.07098422     105.19624022      94.88057287
C      78.67103181     105.86142390      97.89846579
H      80.39068274     105.69323825      99.01907349
H      77.30853913     104.89010457      99.09844200
C      78.64268591     108.76971269      98.02696718
H      77.35767201     109.50292649      96.59455464
H      80.55886839     109.41221963      97.62256575
C      77.76963234     109.57473610     100.64612784
H      79.01874144     109.05695108     102.20137260
H      75.88935467     108.77160242     100.89557172
N      77.43137133     112.28082417     101.00328612
H      76.91169661     112.69467423     102.79285695
H      76.18982116     112.99703044      99.74472840
H      79.00551336     113.28615858     100.60644360
C      79.42881206     100.40767376      93.03431026
O      81.35822261     100.71002997      91.76063472
N      77.63924123      98.79951666      92.10834436
H      76.21249786      98.36865907      93.30076167
C      77.69593302      97.59009181      89.62335426
H      79.40424560      96.45625603      89.43060218
C      75.27330388      95.96303746      89.58367001
H      73.71994886      97.22726436      89.09612062
H      74.89157918      94.84054004      91.26930588
C      75.68148478      93.94669948      87.58622930
O      77.16869938      92.16279785      88.11157321
O      74.72906271      94.29629886      85.53587626
C      77.45782751      99.59698117      87.52764778
O      77.37278983     101.80418149      88.06621978
N      77.31231859      98.91478996      85.12013647
H      77.34633365      97.07041709      84.63258708
C      76.80209247     100.65900735      83.18505672
H      77.74695564     102.41645282      83.69150336
C      78.00395841      99.91067573      80.50353508
H      77.59388781     101.53395063      79.30544860
C      80.77240746      99.57997362      80.84557555
H      81.79285967      99.40989826      79.06545335
H      81.19192670      97.81685898      81.82634350
H      81.51318018     101.25427115      81.78854897
O      76.87579181      97.75260828      79.50009041
H      77.93403854      97.60898909      78.03366278
C      74.01663590     101.35064718      83.06789369
O      73.43648992     103.17423308      81.81689486
N      72.24785206     100.38688676      84.63636652
H      72.66926104      98.73904541      85.49997146
C      69.73640579     101.58308351      85.21651250
H      69.20917216     102.81896452      83.65559856
C      67.57833834      99.56485582      85.47918447
H      65.83223123     100.55318268      85.94594686
H      68.06777745      98.38755633      87.09679019
C      66.87913961      97.85276377      83.26064576
H      65.77175999      96.42035123      84.23574454
H      68.38525147      96.57341906      82.67672033
C      65.63192025      98.87510572      80.97596666
O      63.64959734      97.79607198      80.24275285
O      66.41804638     100.95758410      80.17661243
C      69.98207021     103.27627829      87.53709642
O      68.07155692     104.24570789      88.55943835
N      72.17982191     103.47280983      88.58589452
H      73.54798376     102.45991652      87.72228960
C      72.96594806     104.77294154      90.89514008
H      71.84345064     106.50015138      90.91970652
H      74.98417577     105.15655598      90.73829280
C      72.49162675     103.25927076      93.34233564
O      73.25885565     104.10964759      95.32465856
N      71.13480326     101.23348415      93.16848082
H      70.23718326     100.88577451      91.52063949
C      69.97262159      99.92579355      95.37001198
H      68.91248512     101.34875745      96.41692037
C      67.91659936      98.12677410      94.66136461
H      67.24763624      97.40111918      96.46983270
H      68.90681595      96.67735402      93.58422061
C      65.67727368      98.87510572      93.09667122
C      64.62469612      97.06663763      91.43371207
H      65.29554896      95.14289625      91.31087987
C      62.60457868      97.58820209      89.90870294
H      61.86191625      96.04429570      88.79754386
C      61.41783057      99.91067573      89.97862281
O      59.43172820     100.48704226      88.51030546
H      58.80055961     102.14055278      88.90903772
C      62.49686429     101.83252739      91.53953674
H      61.79577582     103.74304070      91.39969699
C      64.55477624     101.31285266      93.11745821
H      65.21995990     102.84353096      94.29097825
C      72.03620272      98.68613308      96.78163753
O      73.83900162      97.67890895      95.78953122
N      71.76975130      98.93368722      99.30253244
H      70.09167433      99.61209897      99.90913459
C      73.68215434      97.76016719     101.06186763
H      75.61534435      98.36865907     100.69148129
C      73.06232410      98.57841869     103.82842697
H      73.91081121      97.19324930     105.09643332
H      71.06110394      98.30629810     104.22904894
C      73.79364818     101.35631636     104.51817707
C      72.12313012     103.10053374     105.59721078
H      70.16537367     102.59975628     105.88444918
C      72.87335147     105.56662658     106.21515129
H      71.51463825     106.98770077     106.76506166
C      75.40180527     106.30739931     105.70114574
O      76.24651295     108.49948183     106.54774313
H      75.05220592     109.37064566     107.59654123
C      77.11011787     104.51026957     104.84509972
H      79.09244076     104.94868609     104.63911954
C      76.28619719     102.11598634     104.11566536
H      77.73939673     100.91412041     103.34087758
C      73.72372831      94.81408387     100.64612784
O      71.73384651      93.68780698     101.02218339
N      75.93848755      93.72938097     100.12078393
H      77.38979736      94.88022428      99.65591126
C      76.21060815      91.05919769      99.27796599
H      74.56087706      89.92536189      99.76740512
C      76.15013690      90.99116754      96.39424364
H      77.70349193      91.98327384      95.47772639
C      75.96305399      88.48350072      95.15269345
H      74.36812499      87.34777521      95.78386205
H      77.80931660      87.64824169      95.53063872
H      76.21249786      89.04096997      93.18548836
O      73.83711189      91.83587519      95.70071408
H      74.01474616      93.63489465      95.57788188
C      78.74284141      89.95370779     100.36833809
O      80.43603617      91.34076690     101.30942179
N      78.91291677      87.37612110     100.53841345
H      77.28964186      86.43314766     100.19448327
C      81.09555066      86.13268118     101.47760743
H      82.80575297      87.10022106     100.86533611
C      81.05964586      85.96260582     104.41802158
H      79.99572994      87.70115402     104.72226750
C      79.49495247      83.69871369     105.48382721
H      80.29241698      81.88835588     104.91312987
H      77.54097547      83.83477398     104.84320999
H      79.47605520      83.76674383     107.54362890
C      83.64101200      86.06654076     105.59343133
H      84.68603065      87.68225677     104.85454835
H      84.65768476      84.29775693     105.31564156
C      83.63345309      86.71660662     108.45825643
H      85.35877322      87.78619170     108.80029688
H      83.45392910      85.05175773     109.65823263
H      81.94592750      87.85989104     108.77195099
C      81.49995209      83.56643286     100.29274903
O      79.71605045      82.58755462      99.04930911
N      83.77518258      82.39669226     100.54408262
H      85.10366017      83.51163078     101.33965740
C      84.55752926      79.78886995      99.62756537
H      83.25739756      78.38291358     100.38534562
H      86.53229326      79.55832335     100.17180655
C      84.74650189      79.69627336      96.92525674
O      85.63467327      81.27419484      95.50418255
N      83.72415997      77.42671205      96.09188743
H      82.80008380      76.28153792      97.30698145
C      83.30464072      76.79554348      93.45949868
H      85.03563002      77.41537370      92.53164306
C      82.89834956      73.89292385      93.08344314
H      81.13901437      73.37702857      94.02263712
C      82.56764746      73.13325387      90.32255301
H      82.27285015      71.09801864      90.22050778
H      84.29296759      73.35057240      89.22084256
H      81.04830750      73.94772591      89.19438640
C      85.02807111      72.19405989      94.26830154
H      84.45926349      70.21362672      94.27019126
H      84.91090808      72.53799009      96.29408815
C      87.71526194      72.35657636      93.24784934
H      87.65857014      71.16982823      91.56599292
H      88.84531827      71.39281594      94.67648242
H      88.27273120      74.28220747      92.77730748
C      81.18436779      78.48117935      92.06677039
O      80.77429718      78.58511429      89.80287827
N      79.81242650      79.90792271      93.59744871
H      80.26974026      79.98540148      95.44749076
C      77.73183783      81.61812502      92.76596912
H      77.25373706      81.35545306      90.78175649
H      78.18348241      83.62501436      92.87557326
C      75.23928882      81.41781403      94.24940427
O      73.21728167      81.60111749      93.06643561
N      75.41692309      81.13813453      96.66258479
H      77.08177198      81.18726743      97.59988903
C      73.31365770      80.93593382      98.39924326
H      71.85289926      80.07043918      97.23139241
C      73.74451530      79.21439315     100.65368675
H      75.21472238      80.13846931     101.76484583
H      74.51930309      77.38135863     100.12267367
C      71.31243753      78.66070335     102.20893151
N      70.26741889      76.30610436     102.50750827
H      70.79276280      74.78865412     101.47949715
C      68.34367750      76.34011942     104.08165028
H      67.13803212      74.80566167     104.68447299
N      68.20572748      78.84589653     104.76573121
H      66.86780125      79.56966169     105.92035398
C      70.17482230      80.25941180     103.74527900
H      70.42993534      82.23039635     104.20259277
C      72.45005277      83.49840271      98.99072760
O      73.85600916      84.89302072     100.15290928
N      70.15592503      84.22594734      98.32554394
H      68.92382348      83.00707386      97.52429998
C      69.02019952      86.64857647      98.74506318
H      70.42993534      88.06020202      98.22538844
C      66.73174095      86.79597512      96.99517661
H      65.78498808      84.98939676      96.70226904
H      67.62369177      86.96605048      95.14513455
C      64.89114753      89.03152135      97.31076090
H      63.91793847      89.09010287      99.12489816
C      66.37269295      91.53162925      97.11800883
H      67.79187742      91.63556420      98.60900288
H      65.12358387      93.13978635      97.42414448
H      67.28543077      91.59399022      95.27363594
C      62.87291982      88.71971650      95.32465856
H      63.77242955      89.55497553      93.67114803
H      61.08145928      89.66457967      95.71016271
H      62.21718480      86.77707786      95.13757564
C      68.26430899      86.82621074     101.49272523
O      67.20039309      84.90057963     102.30341782
N      68.90114676      88.88034325     102.82120284
H      69.65892701      90.42613936     101.99917189
C      68.22273501      89.17703027     105.43469433
H      67.85045894      87.40068754     106.41168283
C      70.84567513      90.08787836     106.66490616
H      70.63591551      90.59999418     108.64722905
H      71.35779096      91.81886766     105.67091011
C      73.08500082      88.19626231     106.48916160
H      73.59711666      87.69737457     104.55597159
C      75.43393062      89.30364194     107.57764396
H      75.18637648      90.00850985     109.49760589
H      76.17470335      90.67747296     106.23404855
H      77.12145623      88.12445272     107.59465151
C      72.71083501      85.90591403     108.16723857
H      74.55331817      85.03286046     108.46392560
H      71.38424714      84.63034876     107.24694186
H      71.82833282      86.49172918     109.93413268
C      66.15537442      91.19336825     105.94114097
O      64.95539823      90.93636548     107.88000017
N      65.76231136      93.11899936     104.31975580
H      67.01331018      93.36844324     102.90057135
C      63.38692538      94.56086054     104.45581609
H      61.76554021      93.29096445     104.50683871
C      63.38692538      96.12744365     106.76128220