 %block lattice_cart
   139.898   0.000   0.000
   0.000 144.87   0.000
   0.000   0.000   168.12
 %endblock lattice_cart

 %block positions_abs
N      94.16489785      48.19453572      84.27826339
H      96.03950635      48.54791454      84.25558668
H      93.73404024      46.95865471      82.88742483
H      93.81151902      47.58226439      86.05271640
C      92.98570863      50.54535526      83.77748592
H      93.93624095      52.01934178      84.85651965
C      93.45814021      51.40707045      81.06383894
H      92.44146745      50.02568052      79.92244424
H      95.47636790      51.25400262      80.68967313
C      92.15989823      53.77678724      80.21346209
H      90.12088353      53.73710300      80.51203885
H      92.53217431      53.82969959      78.18956521
S      93.23326277      56.75499591      81.54193969
C      96.68201329      56.47909587      80.88620466
H      97.22058528      57.34648026      79.09852357
H      97.52483123      54.63283327      81.24147321
H      97.44924217      57.55246042      82.46790559
C      90.20970067      50.53212716      84.51447918
O      89.00405528      48.52145837      83.97023800
N      89.12121831      52.50689116      85.72768348
H      90.37977603      53.82214067      86.30405000
C      86.58898505      52.51445007      86.54215552
H      85.52884859      51.10093478      85.48201906
C      86.23560624      51.62438898      89.17832372
H      86.73071452      49.67230170      89.60918132
H      84.23249635      51.98154725      89.50146692
C      87.35810367      53.65395503      91.01135825
O      87.07086527      55.95564169      90.76758355
N      88.61855112      52.74121722      92.98801197
H      89.21381490      54.00922359      94.28625395
H      88.75650114      50.85149091      93.21099968
C      85.14523414      55.07313949      85.93744310
O      86.46048366      56.92885073      85.40076082
N      82.71315638      55.25077377      86.20956369
H      81.73427815      53.66151394      86.60829594
C      81.33176646      57.61482138      85.47446015
H      81.71727061      58.01733309      83.49213725
C      78.42536739      57.24065557      85.51981358
H      78.00395841      55.57769642      84.37841889
C      77.36334120      56.73231920      88.07850301
H      75.32243677      56.78901099      87.80827215
H      77.81687551      58.29701259      89.33895046
H      77.80553715      54.94841756      89.01013808
C      76.91736579      59.44785591      84.25180723
H      77.21216309      61.11837397      85.42343754
H      74.97283741      58.78267225      84.36330108
C      77.56554191      59.90705940      81.53627051
H      76.20871841      61.24309591      80.75203409
H      77.55987272      58.24787971      80.31739704
H      79.46093741      60.70641364      81.42477666
C      82.09521589      60.00154572      86.88608571
O      81.72105007      62.06512686      85.76169855
N      83.20070577      59.64060799      89.07438878
H      83.74494695      57.82647074      89.29548675
C      84.23249635      61.75899119      90.39341774
H      83.04574822      63.42195034      90.13641496
C      84.44414568      61.41884045      93.28091955
H      84.69169984      63.27644143      94.13129639
H      86.36221790      60.79334104      93.69665934
C      82.35032893      59.99209709      94.61317660
C      79.71605046      60.26988685      94.16531146
H      79.03385926      61.63993844      92.81415715
C      77.90758238      58.74298799      95.51457605
H      75.91203139      58.81668733      95.09127736
C      78.90346813      56.91562265      97.14163041
H      77.63735150      55.59848342      98.04869904
C      81.56231307      56.57547191      97.55548047
H      82.08576724      55.26589158      99.02946699
C      83.27062564      58.14583448      96.33093782
H      85.26806637      57.81513238      96.59172005
C      86.75906043      62.70196463      89.28225867
O      86.93858442      64.95640812      88.72100996
N      88.49382918      61.00688012      88.63219282
H      88.39556340      59.12282298      88.92887985
C      90.93724529      61.80623436      87.56638718
H      91.66667965      63.42006063      88.61707501
C      92.86476613      59.68596143      87.87441257
H      92.08430918      58.33291739      86.53081716
H      92.71169830      58.94329898      89.78870532
C      95.63321519      60.02611217      86.99946928
H      95.79006248      60.82357667      85.10407379
H      96.42123105      58.12693722      86.89175488
C      97.22625447      61.76088092      88.72289968
O      95.98470428      62.99298247      90.30082115
O      99.62431715      61.69474050      88.62274419
C      90.68402198      62.54133789      84.78848950
O      92.01627902      64.19862786      83.92677430
N      88.89256142      61.39049456      83.48835779
H      88.03840514      59.91272858      84.34251409
C      88.02895650      62.08780357      80.97124235
H      89.71459237      61.98008918      79.79016340
C      85.96726509      60.34169646      80.11141687
H      84.52540391      59.99398681      81.53816024
H      86.98582758      58.58803045      79.75047915
C      84.60099297      61.12026369      77.61130896
H      85.97860346      61.39805347      76.10519709
H      83.37834005      62.68495708      78.15177069
S      82.39379264      58.58614071      76.48503208
C      82.57520637      58.28945368      72.91155962
H      81.49428292      56.69830412      72.17456636
H      84.59154434      58.10426050      72.55062190
H      82.02907545      60.11492931      72.12354375
C      87.16157212      64.87892933      81.00336769
O      87.94391881      66.34913640      79.55205788
N      85.62711436      65.64048904      82.84396112
H      84.75784025      64.37248268      83.97401746
C      84.75217108      68.32012095      83.14820706
H      84.39879225      68.93806145      81.21312731
C      82.14812822      68.36736412      84.54471480
H      82.36733646      69.02309914      86.48357400
H      81.35444316      66.46818916      84.62219358
C      79.97872241      69.90749105      83.20111940
H      78.68048043      70.20606781      84.77337169
C      80.65902389      72.46240103      82.12397540
H      78.82032019      73.12947441      81.48146845
H      82.06875971      72.16004482      80.65187860
H      81.36011235      73.82867315      83.49402697
C      78.58221467      68.26153943      81.13564854
H      79.95982514      68.14815585      79.60874967
H      76.94004250      69.29710945      80.44967788
H      77.98695087      66.33023914      81.53438079
C      86.87244399      70.07945614      84.14220310
O      86.90456934      72.31122292      83.50347561
N      88.76972922      69.01931968      85.56327729
H      88.48249082      67.19951324      86.06594449
C      90.97126038      70.52543155      86.30782945
H      90.30229726      72.32445101      87.05238162
C      92.33942222      69.36702932      88.59061884
H      94.20269236      70.17394246      88.93832848
H      92.79106681      67.39037560      88.22212221
C      90.99015764      69.51442798      91.16064663
H      89.30830122      68.33334903      91.04726305
H      90.51961579      71.47974334      91.56315833
C      92.45091608      68.42405589      93.49634835
H      91.32841864      68.89081829      95.15741778
H      94.11765468      69.61647320      93.71555660
N      92.84964833      65.64048904      93.57004767
H      94.21025127      64.96963619      92.40975572
C      91.76683515      63.96619152      95.11395407
N      90.38355548      64.58791148      97.03769546
H      89.80340951      63.25754416      98.27924565
H      90.26072328      66.42283573      97.54414211
N      92.08997835      61.57757747      94.54892590
H      91.33219809      60.22453343      95.65819525
H      93.36176416      61.12782260      93.19777159
C      92.70224967      71.08479054      84.07228323
O      93.63199503      73.29766006      83.92110512
N      93.10665110      69.23285876      82.48680285
H      92.45658525      67.47163383      82.83640222
C      94.75449245      69.72040816      80.24369772
H      96.53650437      70.68794802      80.61030462
C      95.21936512      67.12959337      79.05128041
H      93.46191966      66.06945692      78.87175641
C      96.08674951      67.32612491      76.25448547
H      97.93490184      68.23319354      76.18645532
H      94.71669793      68.35791547      75.11309078
H      96.05840360      65.47608286      75.34741684
C      97.20168803      65.65182739      80.63865051
H      96.88988319      65.43072942      82.66254740
H      99.03094309      66.56645493      80.39298609
C      97.59664083      62.91361398      79.45379212
H      95.79951110      61.92906656      79.24214277
H      98.84763965      62.01221451      80.82006424
H      98.47347383      62.88148863      77.58863225
C      93.23893194      71.58556803      78.53727485
O      94.39355473      73.16537922      77.20501780
N      90.71992678      71.41549265      78.34074332
H      89.69758484      70.03032326      79.16088454
C      89.37066219      72.93105316      76.39621494
H      90.41190138      72.85735382      74.62365166
C      86.85543646      71.63659063      75.73859019
H      85.73671849      72.96128877      74.62932084
H      85.79907945      71.00542204      77.39021098
C      87.20125638      69.33868343      73.97547554
O      88.88689225      69.50119989      72.28039103
O      85.70837260      67.59068659      73.96224745
C      88.78484703      75.81855496      77.02549380
O      88.33887161      77.26041613      75.29261478
N      88.57130796      76.43649546      79.46890993
H      88.73760387      75.03620826      80.75392382
C      87.82864552      78.97061845      80.47424433
H      87.88344757      80.46728169      79.06072904
C      84.92035671      78.90636775      81.27170883
H      84.23249635      80.51263512      82.36208091
H      84.65957449      77.19805517      82.39420626
C      83.09299137      78.69093895      79.14576673
H      81.17302943      78.69849786      79.88653944
H      83.35377361      76.96372910      78.05350492
C      83.20070577      80.87735230      77.31840138
O      82.37489537      80.79798379      75.05639899
O      84.08887714      82.92014645      78.14421178
C      89.40467725      79.93059941      82.69467274
O      90.02072803      82.16425592      82.84207140
N      90.23615684      78.20527929      84.42755177
H      89.79396088      76.35523723      84.25747640
C      91.71770227      78.89313968      86.48546373
H      92.29217906      80.87168312      86.50625072
H      93.42601486      77.79709841      86.12452600
C      90.67646307      78.23362519      89.06682987
O      88.68280180      77.09412022      89.42209842
N      92.07675027      79.15014245      90.90931303
H      93.61498749      80.14035904      90.37074103
C      91.46447894      79.07833285      93.51713534
H      89.45758960      78.70983622      93.80248401
C      92.53595376      76.64058590      94.79648005
H      94.19324374      76.07933719      93.70799770
H      91.08086450      75.18738637      94.66797866
C      93.26160867      76.78042565      97.62351062
H      94.38410609      78.36401630      98.31137099
C      91.01472408      76.79743319      99.50756775
H      89.66168003      78.28275807      99.05214371
H      91.76872488      76.87491197     101.42186051
H      90.09442737      74.96817812      99.27135196
C      94.86598631      74.50141573      98.48144636
H      96.73114617      74.69038835      97.63106952
H      93.97403549      72.73074216      97.91830792
H      95.02283359      74.44283420     100.53557886
C      92.28084071      81.39702703      94.99490131
O      94.36520884      82.37968472      94.52813892
N      90.78795693      82.27197032      96.87517900
H      89.28562451      81.20805440      97.38162565
C      91.37755154      84.30531583      98.62317584
H      93.40711759      84.49428846      98.91986287
C      90.23615684      86.79597511      97.69154076
H      89.90734446      87.99217187      99.33560266
H      88.45981410      86.84132854      96.65219129
C      92.00116121      88.13579108      95.90574940
H      92.58319692      86.70148879      94.54892590
H      93.66034092      88.31720479      97.11517424
C      91.31141110      90.59243527      94.52813892
H      93.07263603      91.49761418      93.95744157
H      90.32686370      91.72816079      95.93598502
N      89.74293826      90.21449001      92.17353993
H      89.65412113      88.55531031      91.23245623
C      88.69225044      92.09476769      90.77703218
N      88.73571415      94.43991805      91.37418570
H      87.77573317      95.56430520      90.16854031
H      89.35176492      95.09376335      93.05604212
N      87.45258997      91.67524845      88.63219282
H      86.57008778      93.19269868      87.88386120
H      87.04440909      89.99717148      87.81772078
C      90.17190615      83.74595684     101.21210088
O      88.20470106      82.60078269     101.48800093
N      91.40778715      84.81743167     103.05647377
H      93.01216479      85.65458042     102.44987162
C      90.98637819      84.51885490     105.77390020
H      89.60309853      83.01463276     106.02523380
C      93.46380938      83.98973153     107.27056344
H      92.79295654      83.83099452     109.21320209
H      94.69402121      85.63190370     107.09859835
C      94.89811166      81.39513731     106.77923460
H      95.94124057      80.89624956     108.48376774
C      93.19357852      79.09723011     106.35404618
H      94.11576496      77.26230586     106.19719890
H      92.27895098      79.41281440     104.53612947
H      91.68368720      79.00085407     107.75244365
C      96.81240440      81.59544830     104.68163840
H      97.71947303      83.44171090     104.77612471
H      95.82785699      81.49718253     102.87694977
H      98.18434570      80.06288026     104.83659595
C      89.69191566      86.86967445     106.92285380
O      88.55996960      86.69770934     108.98643494
N      89.86010131      88.99561654     105.53768441
H      90.58386648      89.02963161     103.77079031
C      88.69980935      91.47871691     106.22365507
H      88.23871612      91.39934841     108.23054441
C      90.54040277      93.65379190     105.84382008
H      89.80907870      95.39800929     106.65829212
H      91.02228299      93.75961657     103.84259991
C      93.11232029      93.19836786     107.15340041
H      93.99860193      91.68280736     106.07436669
H      92.78917709      92.59743489     109.09792879
C      94.98881851      95.32808941     107.09670862
H      94.12521359      96.97404103     107.98487999
H      95.34219734      95.52084150     105.07659119
C      97.61175864      94.57030916     108.17952180
H      99.05550953      95.90823539     107.57102993
H      98.20891216      92.74294382     107.44063881
N      97.78939292      94.26228378     111.03678799
H      97.08641472      95.67768879     112.10448335
H      99.62053771      94.07520087     111.54134491
H      96.95035443      92.63711914     111.58102916
C      86.45670422      91.81508820     104.48321713
O      86.24883432      90.90235039     102.36861339
N      84.59910325      93.37411241     105.52067688
H      85.00728413      94.24716596     107.16662850
C      82.19915083      93.96181729     104.11472050
H      81.57176169      92.15712866     103.34749162
C      80.14312860      95.11455034     105.84004063
H      80.92169584      96.76239168     106.79813187
C      77.54475491      96.16712791     104.38684109
H      76.44871366      94.65156740     103.52701562
H      77.87734675      97.69024730     103.03757650
H      76.31454308      97.08931434     105.75689267
C      79.19259626      93.26450828     107.79590736
H      80.85366569      92.69192121     108.87305136
H      78.40835985      91.58643131     106.89261818
C      77.52963711      94.43991805     109.81791451
H      78.41591874      96.19736353     110.42640639
H      77.37090009      93.03774112     111.31835721
H      75.63613134      94.96148252     109.19808428
C      82.64323652      95.63233535     101.93208661
O      84.08320797      97.51072330     102.12294897
N      81.53396717      94.94069552      99.78724724
H      80.29619644      93.49127544      99.68709175
C      81.80608775      96.55830124      97.49311950
H      82.42969744      98.48204263      97.88429285
C      83.56353323      95.21470583      95.69221032
H      85.29074307      95.20525720      96.81848721
H      83.73360859      96.62444166      94.19743681
C      82.83598860      92.63900887      94.68876565
C      81.94403777      92.33665266      92.23212145
H      81.53774662      93.95425838      91.05860140
C      81.85711037      89.88945708      91.12663155
H      81.33932535      89.62867485      89.16887509
C      82.08009807      87.75028690      92.69132494
O      81.99883984      85.41269545      91.70677753
H      81.55097471      85.48072560      89.95122179
C      82.81898105      88.05264311      95.31048561
H      83.26684619      86.38590450      96.39896797
C      83.11566809      90.52251540      96.24778986
H      83.81108737      90.80597435      98.14507508
C      79.28330313      96.75105333      96.11739874
O      77.62601316      95.33375859      96.48211592
N      79.08866131      98.60865429      94.44121151
H      80.55508894      99.80674077      94.20688544
C      76.97594729      98.98282010      92.71211193
H      75.20149430      98.37432823      93.56248877
C      76.56587669     101.74371025      92.02803100
H      75.25818609     101.94024178      90.45010953
H      78.26285092     102.65644805      91.29670692
C      75.90636220     103.50115572      94.06893542
H      77.40302544     103.49548654      95.48245070
H      74.09789413     102.96258372      94.89285609
C      75.44337925     106.33385546      93.00124005
H      73.86734752     106.33007601      91.67276246
H      77.16869938     106.93478844      92.04881799
C      74.95582988     107.98547626      95.26135272
H      76.30131500     109.54450047      95.28402944
H      74.91803534     107.14454806      97.13974068
N      72.47461922     109.24592371      94.98734241
H      70.88724912     108.19523588      94.82860540
H      72.61067952     110.45912800      93.51902506
H      72.14769656     110.25503756      96.57471251
C      77.12901514      97.32553013      90.33861568
O      79.10944831      97.02695337      89.13108057
N      74.96716822      96.41279232      89.52603336
H      73.36845977      97.04963008      90.34995404
C      74.67237092      95.11455034      86.99946928
H      76.28430747      93.88244878      86.64986992
C      72.26108014      93.37222268      87.05994053
H      70.55843674      94.38322626      87.62307897
H      72.40280963      91.97004576      88.56227295
C      71.89636297      91.99650192      84.67699565
O      70.20505791      92.75806163      83.16521460
O      73.29098099      90.07087081      84.12897502
C      74.27363868      97.18191093      84.98691076
O      74.06198933      99.49493594      85.55382866
N      74.32844074      96.62822112      82.52459738
H      74.48906748      94.79518659      82.02381990
C      73.95994411      98.37621796      80.26070525
H      75.55109365      99.68579829      80.25125662
C      74.07710714      97.06852736      77.68311856
H      73.65191871      98.30440837      76.09007928
C      76.70004726      96.06319295      77.43745414
H      77.38979736      94.97660032      79.04372151
H      78.02474541      97.58442263      77.01604517
H      76.62256848      94.61188314      75.97858543
O      72.25352125      95.08431472      77.57918361
H      70.84567513      95.75705729      76.65888690
C      71.38424714      99.76516680      80.37408883
O      71.22928959     101.97614658      79.83173738
N      69.46995438      98.58975703      81.53816024
H      69.64569894      96.71892798      81.87453152
C      66.91882387      99.86910174      82.16932883
H      66.37080324     101.17868208      80.67455531
C      64.75319751      97.78095417      82.24869733
H      63.07134109      98.65778718      83.05183102
H      65.10090715      96.40145396      83.73780167
C      64.27887621      96.36554916      79.84496546
H      65.94750454      95.18069076      79.63142639
H      64.27887621      97.73182128      78.30294879
C      61.94128476      94.75550234      79.90354698
O      61.61247238      93.02640277      81.50603489
O      60.44651124      95.06541746      78.13854260
C      67.02842799     101.53395062      84.53148672
O      65.12925304     102.62054326      85.33839986
N      69.26397422     101.99504385      85.64831497
H      70.80599088     100.98215054      85.16076558
C      69.66648592     103.53139134      87.95000162
H      68.58367275     105.28505737      87.94244271
H      71.64124992     104.05484553      88.20700440
C      69.02964816     102.31251787      90.52191913
O      70.03876200     103.09864401      92.38707900
N      67.45739586     100.29240044      90.62018490
H      66.90937523      99.59698115      88.92887985
C      66.62591629      98.89589270      92.86329003
H      65.51853666      99.86910174      94.29948203
C      65.10279687      96.70947935      91.80693302
H      64.36769333      95.72304221      93.45855382
H      66.29899364      95.41501682      90.73923766
C      62.97496505      97.44269316      90.12507661
C      62.38348071      95.70414495      88.25046810
H      63.61558227      94.14890019      87.77047762
C      60.12336803      96.07453132      86.92199051
H      59.52999398      94.89345236      85.36863548
C      58.59268972      98.24393711      87.41142962
O      56.60847710      98.69180225      85.75791910
H      55.59369407      99.91823463      86.62719320
C      59.17283571      99.82374831      89.42020869
H      58.01821293     101.48103829      89.70177791
C      61.48208126      99.55918663      90.65608970
H      62.23041287     100.97270191      91.92598578
C      68.93894128      97.61276854      94.25223887
O      70.73796074      96.80396566      93.05226267
N      69.03909678      97.38600137      96.77502350
H      67.32322530      97.76961581      97.52146540
C      71.20094368      96.42224095      98.38696005
H      73.04720629      96.81908347      97.56870855
C      71.04031695      97.76772608     100.96832619
H      72.04376163      96.63389030     102.36294421
H      69.15248037      97.69969594     101.79224686
C      72.05509997     100.47381416     101.05903305
C      70.70583540     102.34275349     102.23066337
H      68.92949266     101.80418149     103.08292993
C      71.80754584     104.72380864     102.47065861
H      70.85323404     106.11464721     103.61961221
C      74.20371880     105.23214502     101.42752968
O      75.26385526     107.56217756     101.80169549
H      74.16403454     108.53916607     102.86372168
C      75.58132928     103.28194746     100.30503225
H      77.42948162     103.82996809      99.63984859
C      74.53820036     100.89333340     100.16141305
H      75.60967518      99.33430920      99.39418417
C      71.38991631      93.59332066      98.75734640
O      69.35846054      92.48216159      98.89718615
N      73.71238995      92.57475817      98.77435394
H      75.17314839      93.80308028      98.77624367
C      74.52875173      89.92158243      98.12995727
H      72.93949190      88.68003224      98.54947651
C      75.20149430      89.75150706      95.32371369
H      76.81343083      90.94959355      94.86639993
C      76.09533483      87.19848681      94.38262999
H      74.59300242      85.80008934      94.54892590
H      77.75073509      86.52196479      95.40308220
H      76.72839315      87.36856218      92.43054271
O      72.95649944      90.36755784      93.97633883
H      72.66737130      92.15712866      93.93665458
C      76.90602742      89.22427342      99.84015958
O      78.25529202      90.93258601     100.54691722
N      77.22350145      86.75818058     100.46943844
H      75.84967041      85.46560779     100.19164868
C      79.64424085      85.68859550     101.40296324
H      81.27696439      86.73361414     100.70565423
C      79.38156890      85.84733250     104.33959793
H      78.65213454      87.74650745     104.66085141
C      77.65057960      83.81020754     105.27123300
H      78.85244553      82.13779975     105.25044602
H      75.93281838      83.51918969     104.16952256
H      76.88146098      84.11445347     107.15529014
C      82.02529601      85.75662564     105.54335359
H      83.31975854      86.95849157     104.48321713
H      82.67914132      83.80453836     105.43941865
C      82.11411315      86.52952370     108.29101565
H      81.42058359      88.45704454     108.50833418
H      84.10021550      86.56164905     108.83336710
H      81.08988149      85.37112147     109.65161860
C      79.97683269      82.94093343     100.22944320
O      78.17970296      81.90347369      99.12395331
N      82.29174742      81.90725314     100.50345352
H      83.67691680      82.91258754     101.34816118
C      82.76039955      79.28998219     100.11416990
H      81.23539041      78.09189571     100.80958918
H      84.41579979      78.94605201     101.29335912
C      83.53896679      78.89124994      97.48934005
O      84.99027660      80.29909605      96.33849672
N      82.52607348      76.85979416      96.45565975
H      80.98216709      76.13035980      97.30603660
C      82.72638446      76.11902145      93.62673946
H      84.62177997      76.58200439      92.96722498
C      82.29174742      73.25797581      93.12974144
H      80.25651218      72.99341413      92.95588662
C      83.48605445      72.42460650      90.67876642
H      82.62811870      73.36191075      89.05738124
H      83.05897631      70.43661442      90.35373349
H      85.53073832      72.66082229      90.74490684
C      83.24227975      71.40037484      95.15930750
H      82.98716670      69.46529509      94.49790329
H      81.99128093      71.56856048      96.78636186
C      86.02395688      71.67060570      96.07960422
H      87.34865504      71.35691113      94.53569782
H      86.55874944      70.25709043      97.47611196
H      86.34332063      73.56600119      96.82415639
C      80.77996637      77.50608055      91.94866250
O      81.22972122      78.15236695      89.77547724
N      78.68048043      78.25819163      93.07871883
H      78.34410915      77.49474220      94.79648005
C      76.81910002      80.01563710      91.82394056
H      76.27485884      79.44871920      89.91909644
H      77.27074461      82.00173945      91.51024599
C      74.33033047      80.10067478      93.32627298
O      72.42548633      80.03642410      91.96567004
N      74.22639552      80.51074540      95.72811512
H      75.87801631      80.99073588      96.55770498
C      71.86234789      80.42570772      97.24934481
H      70.50930386      79.25218767      96.23456178
C      72.12879931      78.56810674      99.59449516
H      73.64624954      78.93471365     100.93431112
H      72.15714521      76.62735782      98.90285533
C      69.99151885      78.51330468     101.28202076
N      67.86557674      76.95994965     101.16296800
H      67.81455414      75.36691037     100.11605962
C      66.32356008      77.62891277     103.05836349
H      64.43194404      76.95239075     103.42874985
N      67.29487940      79.58288977     104.35282602
H      66.53520941      80.61657007     105.76634130
C      69.56444070      80.14602822     103.17930598
H      70.86835186      81.60111748     103.77079031
C      70.66048197      83.04297865      97.68209213
O      71.71116979      84.49428846      99.11828413
N      68.69516660      83.64958080      96.35550426
H      68.04510074      82.56865735      94.92498144
C      67.23440816      85.98717225      96.84116392
H      68.33800833      87.67658757      96.42353441
C      64.76075642      85.71316193      95.32749315
H      63.59857472      84.13901991      95.97377954
H      65.44105788      85.41836463      93.40375176
C      63.00331095      88.09610681      94.77380334
H      61.87703406      87.66524921      93.10328528
C      61.32334425      88.81420282      97.03958519
H      60.44462152      87.05108816      97.63862843
H      59.96841048      90.22015919      96.38573988
H      62.50442320      89.54363718      98.56270459
C      64.53020980      90.26929207      94.05192788
H      63.51164732      91.45604020      92.71211193
H      66.29521418      89.77229405      93.11084418
H      64.90815507      91.13856618      95.87929323
C      66.51442242      86.22149831      99.58126708
O      65.23885716      84.47161174     100.61116792
N      67.33834311      88.13579108     101.05903305
H      68.51186315      89.42836386     100.28991444
C      66.47851762      88.58365620     103.62717111
H      66.08923401      86.86967445     104.70431511
C      68.64036454      90.06520163     104.99155351
H      68.03943157      90.73038529     106.84726475
H      69.21106187      91.64312311     103.80102593
C      70.88913884      88.30586643     105.45264673
H      71.48440264      87.75028690     103.56103069
C      73.06799329      89.82331666     106.66207157
H      72.62579733      90.52062567     108.54990816
H      73.75207421      91.39745868     105.52256660
H      74.67237092      88.55908976     106.93608189
C      70.23151409      85.93614965     107.03812711
H      69.19216461      86.44070656     108.74266024
H      72.00218764      84.94404332     107.39150593
H      68.84634471      84.73806315     106.09137422
C      63.95195355      90.08409889     103.62150193
O      62.09624232      89.51529127     104.88761856
N      63.96707136      92.19303346     102.20231747
H      65.40326336      92.56153009     100.99856181
C      61.81656282      94.05252416     102.08326471
H      60.17628038      92.82798150     101.85082838
C      61.60491347      95.54540794     104.61549797