 %block lattice_cart
   139.898   0.000   0.000
   0.000 144.87   0.000
   0.000   0.000   168.12
 %endblock lattice_cart

 %block positions_abs
N      91.57597279      43.06014932      84.31322333
H      90.30418699      41.80159160      83.64803966
H      91.72526117      42.61606364      86.16326539
H      93.30129292      42.65952736      83.60268623
C      90.90889940      45.79269358      83.83890202
H      91.95391806      47.04180267      85.10312893
C      91.56652415      46.38228819      81.10635777
H      90.28528972      45.27868803      79.92716855
H      93.58097241      45.96276895      81.04777626
C      91.50038373      49.13561943      80.26353984
H      89.57853207      49.88017160      80.27298847
H      92.41312154      49.36805577      78.43239504
S      92.87232504      51.09715533      82.66160253
C      93.83419574      53.74844135      80.81533992
H      94.85275821      53.04924262      79.16749858
H      94.97748015      55.14305937      81.81122569
H      92.15422904      54.62149491      80.00086788
C      87.99494143      46.19520529      84.37369457
O      86.33576172      44.70988040      83.56867116
N      87.34676530      48.09815968      85.85712972
H      88.73949359      49.19042149      86.57711545
C      84.80697313      48.69720292      86.93805318
H      83.39156812      47.66163290      85.85901945
C      84.58587515      47.72588359      89.70461250
H      85.67246779      45.98733539      89.89169540
H      82.62244951      47.41218902      90.24696395
C      85.74994656      49.47765989      91.73039911
O      85.61577600      51.73210338      91.77008336
N      87.17857965      48.40996452      93.41981443
H      88.09320719      49.60238183      94.59711392
H      87.53951739      46.54291492      93.24029043
C      84.31942374      51.51856430      86.67349149
O      85.88978632      53.12861112      86.04610236
N      81.92325078      52.01745205      87.29143200
H      80.74595128      50.53212717      87.52575806
C      80.84610678      54.56858258      86.93616345
H      81.26562602      55.14683882      85.00675288
C      77.90002347      54.29268253      87.07978265
H      77.38412818      52.59948775      86.02531537
C      77.29720076      54.03190031      89.81421662
H      78.36678586      52.59192885      90.82899965
H      75.37912857      53.27978923      89.85201115
H      77.42570216      55.81013276      90.84789692
C      76.57154586      56.65673015      85.97429276
H      77.08933088      58.26677697      87.14781280
H      74.54009007      56.51122122      86.28609760
C      76.96082949      57.23309667      83.22852042
H      78.78252566      58.19496737      83.22474097
H      75.58132928      58.55590509      82.45940181
H      77.16303020      55.44163613      82.23074493
C      81.85711037      56.70964248      88.59534315
O      81.93647886      58.95463735      87.76386357
N      82.91724683      56.12949651      90.76285923
H      83.14212425      54.30780034      91.28820315
C      84.51595528      57.90394952      92.28975809
H      83.50117226      59.67462307      92.57132731
C      85.12444715      56.70964248      94.96372083
H      86.23938569      58.20063655      95.84433329
H      86.41890968      55.15250801      94.57821666
C      82.93236463      55.86115537      96.36211830
C      82.33143166      57.22175831      98.58065699
H      83.45392910      58.79967979      99.22694339
C      80.17714366      56.55090548      99.87700924
H      79.76329361      57.49387890     101.63823416
C      78.45938245      54.68574561      99.03041185
H      76.81532055      54.35315377     100.19070381
C      79.20960379      52.98688165      97.23517186
H      78.09466528      51.35793757      96.71549712
C      81.45648839      53.73899272      95.82543603
H      81.93647886      52.43508156      94.33255224
C      86.97259949      58.64472223      90.94427296
O      87.66045987      60.79901022      90.95750104
N      88.39745314      56.99688088      89.74807620
H      87.81541742      55.18085390      89.83689334
C      90.44780618      57.55623987      88.07755814
H      91.79329132      58.72787020      89.10745898
C      91.96147695      55.22053815      87.52575806
H      93.63766419      55.73265398      86.44483461
H      90.90700968      54.18874759      86.08767633
C      92.64177843      53.62938860      89.93704883
H      90.95803229      53.26089196      91.06332572
H      93.97970466      54.54212640      91.20694492
C      93.40711759      51.00644847      88.94116307
O      92.02761738      49.11672216      89.04131856
O      95.63132545      50.71543062      87.99818964
C      89.72404101      59.08691819      85.69839271
O      91.03362133      60.80089995      84.88203095
N      87.41101599      58.55590509      84.92738438
H      86.40757132      57.21419941      85.84201191
C      86.43213776      59.83336008      82.69372788
H      87.99305170      59.85225734      81.35013247
C      84.30808538      58.18929819      81.57123045
H      82.60733171      58.33858658      82.72207377
H      84.89956972      56.22209309      81.43328043
C      83.77329284      58.99999078      78.79144304
H      85.39656774      58.45385987      77.64437917
H      83.69203462      61.03900547      78.50231491
S      80.91413693      57.66395428      77.64815862
C      81.86844871      56.84948223      74.40160882
H      80.56642730      55.59470397      73.41517168
H      83.65801953      55.83658894      74.50176431
H      82.30875496      58.46708795      73.20919151
C      85.61199655      62.48842555      83.31355811
O      86.11655347      64.03989085      81.59957634
N      84.33832101      63.03833591      85.36769061
H      84.09076687      61.69474050      86.70183739
C      84.09265659      65.61214315      86.04988181
H      83.83565382      66.67983852      84.30944387
C      81.67947609      66.33212887      87.62591355
H      82.11033369      68.13870722      88.52164383
H      81.23161096      65.02821771      89.15470214
C      79.24928804      66.68739743      86.05744071
H      77.86600838      66.87825978      87.57489094
C      79.36645108      69.24041766      84.52865213
H      77.51829875      69.56734033      83.68016501
H      80.75917938      69.30655809      83.01498135
H      79.65746893      70.74275008      85.90815233
C      78.59733248      64.48397654      84.30944387
H      79.10566886      62.67928791      85.16171044
H      79.78408060      64.86948071      82.66916143
H      76.61123012      64.40460803      83.77087187
C      86.44914531      66.87070087      86.98907579
O      86.82898030      69.14593136      86.57522572
N      88.25761338      65.55167191      88.26464105
H      87.99305170      63.69596067      88.61613014
C      90.73126512      66.70818442      88.91848635
H      90.26828219      68.45051208      89.91815157
C      92.20714137      64.90538550      90.76096951
H      92.34131195      63.12337359      89.73673785
H      90.91078913      64.45941009      92.29920673
C      94.67701367      65.91638908      91.79653953
H      94.14978002      67.58312770      92.88313216
H      95.95824810      66.58157274      90.32822218
C      96.29083994      64.14571553      93.61067679
H      94.94535480      63.12526332      94.79175573
H      97.44924217      65.30222803      94.86167561
N      97.80640045      62.08024466      92.50329717
H      99.49014658      62.46196938      91.69260458
C      97.53239013      59.68974088      92.77730748
N      95.71258368      58.66739894      94.09633645
H      95.74470903      56.77578290      94.35144950
H      94.42756980      59.75210185      95.00151535
N      99.08385544      58.16851121      91.80598816
H      99.18401092      56.36193284      92.41825948
H     100.58618785      58.83558460      90.83655856
C      92.34698112      67.38659616      86.60168189
O      93.97781493      69.00798133      86.81144151
N      92.06163245      66.30567271      84.36424594
H      90.90511994      64.79011220      84.28298771
C      93.55262651      66.96518718      82.08712573
H      95.35542541      67.91760926      82.38003331
C      93.67356900      64.97530538      80.11992064
H      91.85376256      64.01910387      80.01031651
C      94.31040677      65.95229388      77.39493529
H      96.12076458      66.92928238      77.32312570
H      92.80240517      67.03321733      76.50109475
H      94.59764516      64.40838748      76.06456797
C      95.53872886      62.94384959      80.99108447
H      95.45369118      63.05723318      83.04710670
H      97.40577846      63.64493805      80.47329946
C      95.38377131      60.21697452      80.15582544
H      95.93368166      60.03367108      78.17917171
H      93.63010529      59.30990589      80.73786114
H      96.93901607      59.37604631      81.21407217
C      92.18824412      69.25931493      80.98163584
O      93.44491211      71.13770288      80.41849740
N      89.77128416      69.33301425      80.63392620
H      88.73949359      67.83824075      81.22163108
C      88.54674150      71.44761800      79.28088216
H      89.41034644      71.91627012      77.47052435
C      85.88222741      70.56322608      78.60058068
H      84.61422106      72.17327291      78.40782860
H      85.16035196      69.47096429      80.19173024
C      85.71971095      68.97585598      76.17984128
O      87.29763242      69.27632246      74.49231568
O      83.83754354      67.62092222      76.00220700
C      88.31619489      73.99496908      80.67738990
O      89.09854160      75.90548238      79.59646645
N      87.68691603      73.81166563      83.15104164
H      87.30330159      72.05044069      83.77654105
C      87.16535157      76.07366801      84.82344943
H      87.09354197      77.75552443      83.63859103
C      84.52351419      75.86201868      86.02342564
H      84.10777440      77.20561407      87.52764779
H      84.38367444      74.09890402      87.07789292
C      82.41835908      76.04721184      84.04110274
H      80.50973551      76.01886595      84.81211107
H      82.47127141      74.58834314      82.58790320
C      82.63378787      78.47928961      82.45562236
O      83.06464547      80.60712145      83.41749305
O      82.46371250      78.38480329      80.02921378
C      89.23838134      76.50830507      86.76230863
O      90.23993628      78.58889374      86.91726619
N      90.05096366      74.51086435      88.18338282
H      89.37444164      72.73830107      87.98307183
C      91.86510091      74.70739590      90.23562559
H      93.39199977      75.70706112      89.27753435
H      92.75894146      72.91971480      90.73262361
C      90.67646307      75.82044469      92.63179856
O      88.58642577      76.80688183      92.56187868
N      92.03706600      75.73162756      94.71238723
H      93.82852655      75.07778226      94.64813653
C      91.21881451      76.44972355      97.23328213
H      89.19302791      76.13413925      97.43359312
C      92.56807911      74.68282946      99.12678789
H      94.55796091      74.78865412      98.60522343
H      91.59487006      72.93105316      98.65624604
C      92.10887561      75.36502065     101.90279585
H      92.92901682      77.20372435     102.34121235
C      89.40278753      75.30643914     102.67002473
H      88.31241544      73.80221699     101.77996364
H      88.63366892      77.13380448     102.10877602
H      89.16090256      75.13258432     104.70903942
C      93.56585459      73.47340461     103.48449677
H      95.55195696      73.30899842     102.96293231
H      92.84208942      71.58178858     103.11222069
H      93.25404976      73.77576082     105.49894502
C      91.85754202      79.12935547      97.56020478
O      94.10820605      79.90414325      97.44115202
N      90.01316912      80.75452010      98.18192474
H      88.18958323      80.18382275      98.18381446
C      90.31174588      83.16770059      99.48961535
H      92.33375305      83.27919445      99.85622225
C      89.64845195      85.49962286      97.74350823
H      88.78673675      87.03974981      98.80742415
H      87.97037499      85.02152211      96.64935670
C      91.76305569      86.24228530      95.78953123
H      92.38477565      84.44137613      95.00907426
H      93.35420526      87.18525874      96.69659986
C      91.16401246      88.18492396      93.69571447
H      92.97814972      88.69703979      92.86612462
H      90.39489384      89.88945709      94.55742967
N      89.53317864      87.19659710      91.56221346
H      88.90012033      85.39757764      91.66425868
C      89.00783473      88.60066374      89.61579536
N      89.65223141      90.89668122      89.20194530
H      89.24405051      92.15523894      87.82622454
H      90.56307949      91.73760943      90.65325511
N      87.55463520      87.66524922      87.90370332
H      87.01417348      89.01451380      86.66593259
H      86.82520084      85.90213458      87.92071086
C      88.92468677      83.23384101     102.02940751
O      86.92157689      82.10945386     102.53018498
N      90.17568560      84.54153163     103.71882283
H      91.82919612      85.44104135     103.40701799
C      89.36310327      84.48295011     106.40790338
H      87.77951262      83.19793621     106.71970822
C      91.48148647      83.58533012     108.18991529
H      90.84464870      83.92926030     110.11743613
H      93.05373876      84.90246935     108.02928855
C      92.22792836      80.73940228     107.88944881
H      92.99137780      80.19138166     106.05641428
C      94.48993076      80.22728645     109.64878401
H      95.13621717      78.28086835     109.45414219
H      93.85498272      80.50129676     111.58764320
H      95.92990221      81.66725790     109.34831752
C      90.27584108      78.68338006     108.66423660
H      88.59020521      78.76652801     107.48504738
H      89.75238690      79.12557601     110.60498552
H      91.09031312      76.79743319     108.51305849
C      88.52028534      87.12289777     107.23749323
O      87.38267010      87.28919369     109.27839765
N      89.18357927      89.12789738     105.79941151
H      90.81252335      88.98238846     104.81675382
C      87.49038451      91.28974428     105.71437382
H      86.83275975      91.80941902     107.59465150
C      89.07964434      93.57253368     104.67313462
H      90.49504934      93.68969671     106.16790814
H      87.91368320      95.26950790     104.69959079
C      90.23426710      93.21348568     101.99539244
H      88.56374905      92.92435756     100.82565185
H      91.53250908      91.61288749     102.01051025
C      91.81974748      95.50572370     101.08832381
H      93.66412037      95.71170387     101.98216435
H      90.62921990      97.16112394     101.39256974
C      92.32241468      95.38100175      98.15168912
H      90.73882403      94.67235439      97.03864032
H      93.74537860      93.93536113      97.79642057
N      93.23326277      97.82630760      97.21816432
H      94.67512394      98.46692482      98.29341859
H      91.87643927      99.13966740      96.94037455
H      94.17056701      97.54095893      95.57977160
C      85.16791087      90.90612984     104.00228178
O      85.32286841      89.17514055     102.50561854
N      83.27818454      92.53129447     104.16857770
H      83.27062564      93.71237342     105.66902039
C      81.33743563      92.96404180     102.20893151
H      80.74595128      91.00061616     101.99539244
C      79.08866131      94.41157216     103.17080220
H      79.62345386      96.36743889     103.53173993
C      77.17247883      94.77817907     101.07509572
H      77.93592827      95.59643055      99.34599615
H      75.79297862      96.11421556     101.81775816
H      76.16714444      93.01695414     100.71982718
C      77.92458991      93.32686926     105.66146148
H      79.44392987      93.39489941     107.04852060
H      77.48050423      91.35021554     105.28918540
C      75.75329437      94.91045990     106.84065070
H      74.12435028      94.74416399     105.59154161
H      76.48461846      96.82853212     107.00694662
H      75.08244153      94.07709060     108.59998590
C      82.47694060      93.97315565      99.72205168
O      84.17013536      95.67768879      99.84866335
N      81.55853361      93.07931510      97.63201438
H      80.09210598      91.86044164      97.73405960
C      82.29363714      93.69347616      95.04686878
H      83.22716193      95.51139287      94.78230710
C      84.41957924      91.76028614      94.34200087
H      85.85388152      91.37100252      95.76874424
H      85.46270817      92.72593629      92.85289654
C      83.46715718      89.07876450      93.64280213
C      82.83787832      88.72160623      91.04064900
H      82.72071529      90.29196880      89.74618648
C      82.06875970      86.40102231      90.09767557
H      81.42814248      86.31031545      88.16259583
C      82.20670972      84.23161651      91.66803814
O      81.99506038      81.93748876      90.67593182
H      82.06120080      82.19638127      88.88069183
C      83.11566809      84.58877478      94.19460222
H      83.23850029      83.05998619      95.54386680
C      83.74116749      86.94904295      95.15269346
H      84.54241146      87.14179504      97.01974306
C      79.85211075      93.97693510      93.43304251
O      77.73750699      93.85599262      94.51774542
N      79.91825116      94.39834407      90.93293460
H      81.57932059      94.87833455      90.12791119
C      77.70538165      94.31519611      89.21328366
H      76.00462798      94.07331115      90.35278862
C      77.50318093      97.04396091      88.07188896
H      75.96872318      96.97971021      86.69994766
H      79.22094215      97.57686374      87.06844429
C      76.90413770      99.28139687      89.89925431
H      78.25151256      99.62532705      91.42048399
H      75.02386001      99.06029888      90.71183662
C      76.83799727     101.90811645      88.38369380
H      75.84022179     101.70969517      86.59223326
H      78.77118730     102.43912953      87.90748277
C      75.58699845     103.93579277      89.97862281
H      76.48461846     103.62020848      91.80409843
H      73.54987349     103.63343656      89.92571048
N      76.30509445     106.52282809      89.18493776
H      75.18070729     107.77571665      90.08633721
H      76.13690881     106.73258771      87.29710118
H      78.03608375     107.04250283      89.79720909
C      77.94537690      92.24594581      87.18749705
O      80.07509845      91.57887241      86.18405238
N      75.70983066      91.33887717      86.38814282
H      74.16025508      91.91146425      87.34434433
C      75.46038680      89.88945709      83.98819040
H      76.90035825      88.44003700      83.72362872
C      72.95083024      88.41358084      84.22062674
H      71.31054780      89.55497553      84.72140421
H      73.31932688      86.91502787      85.58500914
C      72.29320549      86.96982993      81.76776198
O      70.93260254      87.93548008      80.13125900
O      73.16247960      84.83632893      81.38414754
C      75.51518885      91.65257175      81.69406266
O      75.31109842      93.90134606      82.10791272
N      75.56999092      90.75684146      79.27899243
H      75.86100877      88.90301996      78.93317251
C      75.73628683      92.43113899      77.03966675
H      77.11956649      93.87300015      77.53666477
C      76.46572119      91.06486686      74.55656637
H      76.17092389      92.20059237      72.86337160
C      79.25306750      90.25795372      74.64538351
H      79.43259151      88.21515958      74.83435614
H      80.31509370      91.10266139      76.19873854
H      80.16769504      90.70770858      72.85581269
O      75.09000044      88.89357132      74.18429029
H      73.82010436      89.27529605      72.94840928
C      73.14358233      93.78229330      76.62014751
O      72.99240423      95.91201485      75.66205627
N      71.13480326      92.75806164      77.74264494
H      71.26897383      90.98171890      78.42294641
C      68.68760768      94.15834883      78.02232443
H      68.24730145      94.87266537      76.14015702
C      66.46528954      92.37066774      78.49286628
H      64.78532286      93.53473915      78.73097180
H      66.79032247      91.31620046      80.23330422
C      66.11946962      90.20693112      76.46518995
H      64.90248589      88.70081925      77.16627841
H      67.92793771      89.22616315      76.34613719
C      65.51664693      91.06675658      73.79689639
O      67.19850335      92.04374508      72.46841880
O      63.26409316      91.04785933      73.17139699
C      68.64603371      96.49027111      79.92905828
O      66.71473341      97.70914457      80.25031175
N      70.71150456      96.93057733      81.13092422
H      72.30643357      95.93091211      80.80589129
C      70.98551489      98.85053926      83.09812931
H      69.91970925     100.39633539      82.24964219
H      72.99618369      99.27950714      82.99230463
C      70.17482229      98.08331039      85.72673861
O      70.76252718      99.33430920      87.61079574
N      68.96539746      95.85343334      85.91571124
H      68.68571796      94.94636470      84.26031099
C      67.86368701      94.80841469      88.21361844
H      66.52009161      96.25405532      88.79943359
C      66.20639703      92.42169035      87.82622454
H      65.35790993      92.05886290      89.66681797
H      67.52353627      90.84943805      87.62402383
C      64.11447001      92.51428694      85.87980644
C      63.69873022      90.32976333      84.41526855
H      64.94972903      88.71971650      84.53621103
C      61.68995114      90.31464551      82.70884569
H      61.49719906      88.60633293      81.60902497
C      60.14226530      92.45570543      82.43861482
O      58.05789718      92.31964514      80.94762076
H      57.34924980      93.98071455      80.79266321
C      60.86414076      94.77817907      83.58378897
H      59.60936247      96.38066697      83.44394922
C      62.77276432      94.70447973      85.44705911
H      63.05622328      96.23515805      86.76608808
C      69.91781951      94.39834407      90.34900917
O      71.86045817      93.02829250      90.00318926
N      69.55688179      95.44903190      92.64313691
H      67.95817332      96.39956424      93.06832533
C      71.12157518      94.72715645      94.82199135
H      73.00941177      95.13344761      94.09633645
C      70.82110869      96.27673203      97.19926706
H      71.51274853      95.26383872      98.85655703
H      68.79154263      96.58475741      97.36745270
C      71.81510474      98.90345161      96.78352727
C      70.10490243     100.90656150      96.73061493
H      68.15470486     100.63822036      97.26918693
C      70.98362515     103.30084473      96.10700525
H      69.54932288     104.74270592      95.94637851
C      73.49696116     103.71847426      95.70071409
O      74.34355855     106.08063214      95.39646815
H      72.95649943     107.25226245      95.33599691
C      75.19393539     101.74559998      95.94448878
H      77.21027335     102.05551510      95.93692988
C      74.40025034      99.33430920      96.54920120
H      75.78730945      97.84142542      96.44337653
C      71.04787586      91.90579506      95.49662365
O      69.00508170      90.80786408      95.59866887
N      73.20216385      90.74928257      95.72905998
H      74.71016545      91.80941902      95.23773114
C      74.02230507      88.08854791      95.54008735
H      72.42359661      86.79219566      95.61567640
C      74.94260178      87.30053204      92.79620475
H      76.38635268      88.66869390      92.26897110
C      75.74951491      84.58877478      92.35400879
H      74.12435028      83.35856295      92.65069582
H      77.06854388      84.01429798      93.82988504
H      76.65469383      84.52641381      90.50207700
O      72.91114599      87.68603622      91.20505519
H      72.12690957      89.28663439      91.55087511
C      76.02352523      87.70115402      97.76051577
O      77.12712540      89.55119609      98.65246659
N      76.41847803      85.49584341      98.73561455
H      75.65691832      83.92737057      97.96271649
C      78.41024956      84.84010838     100.42502987
H      79.99384022      86.00795924      99.81842772
C      77.78852961      85.42214408     103.23316317
H      76.71516507      87.18147928     103.25961934
C      76.20682869      83.27919445     104.37833732
H      74.46072158      82.81054233     103.39001046
H      75.62479298      83.70249315     106.30774788
H      77.29342131      81.52930788     104.40290376
C      80.20926901      85.94181882     104.69770107
H      81.31475891      87.31753958     103.63567488
H      81.27885412      84.19571172     104.93958603
C      79.80297785      87.05864707     107.32820009
H      78.07576800      88.18114450     107.34520763
H      81.31097945      88.23594656     108.09164952
H      79.41558396      85.43726189     108.53951466
C      79.30597983      82.06410042     100.07165105
O      77.88112620      80.46728169      99.09277282
N      81.35066370      81.24962838     101.21115602
H      82.44103580      82.40425117     102.26940275
C      82.19915083      78.67582115     101.25650945
H      80.66847251      77.39458672     101.76106637
H      83.69770379      78.38480329     102.63978911
C      83.04196877      77.64025113      98.72049674
O      84.63500805      78.76274856      97.39012941
N      81.95348641      75.55777274      97.81153838
H      80.64957524      74.57322532      98.79608579
C      82.23316589      74.65637329      95.17159072
H      83.82053601      75.69950221      94.37790567
C      83.21204413      71.87091670      95.06954550
H      82.19537138      70.67094049      96.39991282
C      82.90590847      70.68794802      92.43715675
H      83.70526269      68.79255253      92.56376841
H      83.63723254      71.95217492      90.98584694
H      80.89712940      70.51220347      92.01952723
C      86.04474387      71.75375367      95.83866411
H      86.43024804      72.76475724      97.59421985
H      87.27117624      72.82333875      94.57632693
C      87.02929128      69.11758545      96.43959708
H      89.05885735      69.33301425      96.72116630
H      86.90834879      67.83635101      94.83332971
H      86.06931031      68.09902297      97.95137813
C      79.71227100      75.04565691      93.72595009
O      78.00395840      73.55088338      93.68248639
N      79.20771407      77.42104287      92.92092668
H      80.76673827      78.50196632      92.70738761
C      76.92681441      78.17126423      91.68882513
H      76.68681917      77.12813531      89.92948993
H      77.36712064      80.07799807      91.04631818
C      74.37001470      77.91048199      93.14391439
O      72.39525072      77.26797505      92.14613889
N      74.33599964      78.14291834      95.62323531
H      75.90825193      78.60023209      96.60400327
C      71.99840818      78.17315396      97.10100129
H      70.66804086      76.84089690      96.26763198
C      72.42737605      77.59111825      99.87889897
H      73.74073584      78.96683900     100.67258402
H      73.17759741      75.68627412     100.11511476
C      70.05199008      77.81599567     101.43225400
N      68.25486036      75.90737210     101.79508145
H      68.24352200      74.21606705     100.91257926
C      66.39347994      76.94105239     103.05930835
H      64.60201939      75.97540224     103.18969947
N      66.80355056      79.41092468     103.60921871
H      65.43916816      80.62034952     104.17802633
C      69.11657555      80.01185766     102.53963362
H      69.98395994      81.84678191     102.34310208
C      70.81354978      80.89813929      96.76274028
O      71.92659858      82.77841697      97.41658558
N      68.55343712      81.06254549      95.57977160
H      67.77486988      79.40903497      95.02986125
C      67.15126019      83.42470337      95.27363594
H      68.55154740      84.67003302      94.41758992
C      64.93839069      82.92203618      93.42737333
H      63.92360765      81.32332772      94.23806592
H      65.66215585      82.17937373      91.64914087
C      63.02598766      85.06876526      92.99084656
H      62.16616218      85.65835988      94.76718929
C      64.33178854      87.27596560      91.81543679
H      65.64703804      86.72227580      90.33011191
H      65.41460172      88.31342534      93.22706235
H      62.89559653      88.60255347      91.16915039
C      60.89626610      83.99540072      91.40158673
H      60.07423515      82.31165457      92.25574302
H      61.80144500      83.42659310      89.64036180
H      59.51298643      85.52040985      91.34300521
C      66.01364495      84.21082952      97.85689181
O      64.60201939      82.72172518      99.08710364
N      66.58812176      86.52196480      98.68270221
H      67.58967670      87.58399099      97.45249038
C      65.63947914      87.54241701     101.07320600
H      65.30499758      86.10622501     102.50939799
C      67.60479451      89.49828374     101.95948764
H      66.67126971      90.67936269     103.36733374
H      67.97329114      90.65857571     100.29652848
C      70.16726338      88.56286923     102.87978435
H      71.04976557      87.50462248     101.34721631
C      71.87179653      90.58676610     103.80575025
H      73.43460018      89.62867486     104.74116477
H      70.73985046      91.84910328     104.97549083
H      72.72595281      91.74327861     102.32609454
C      69.67971400      86.71660662     105.01895454
H      71.42393139      85.79442017     105.61421833
H      68.51375287      85.20671529     104.24038730
H      68.74807893      87.55942454     106.65167807
C      63.13937123      88.72916514     100.58187716
O      61.35357987      88.47216235     101.99350271
N      63.02031847      90.36755784      98.66758440
H      64.64737282      90.54519212      97.68492672
C      60.82067704      91.70926354      97.72083152
H      59.26165283      90.37700648      97.53563834
C      60.18194955      94.02795771      99.35733450