 %block lattice_cart
   139.898   0.000   0.000
   0.000 144.87   0.000
   0.000   0.000   168.12
 %endblock lattice_cart

 %block positions_abs
N      93.14633536      45.24750753      85.02942960
H      92.87043532      43.63935044      84.03732328
H      92.61721199      45.05664517      86.85490522
H      94.98692879      45.70482130      84.81211107
C      91.55896526      47.36022155      84.09401507
H      91.84620366      49.06475468      85.21651250
C      92.33942222      47.98194151      81.41438316
H      91.99738176      46.36244606      80.18795079
H      94.33119376      48.48838816      81.27265369
C      90.79929528      50.26473089      80.48274809
H      88.76783949      49.92646988      80.52243234
H      91.12621793      50.73149329      78.50420464
S      91.23960151      52.93302445      82.42916619
C      94.31418622      53.80229855      81.50697975
H      95.62565628      52.53051274      82.46129154
H      94.97181098      55.64478171      82.14570725
H      94.61465270      53.69269443      79.47174451
C      88.74327305      46.78196530      84.43794526
O      87.84187360      44.97538694      83.18694644
N      87.45258998      48.16335523      86.10279414
H      88.42957848      49.44647940      87.12324635
C      84.77484779      47.88367574      86.51853393
H      83.98494219      46.69881734      85.02942960
C      84.40446143      46.39268168      88.98840622
H      85.77073356      44.85633419      88.87313292
H      82.45048443      45.75206446      89.13958433
C      84.83720876      47.76462298      91.47906551
O      85.61577600      49.89245481      91.56788264
N      84.64823613      46.64023583      93.64847131
H      84.67847175      47.71171064      95.22828251
H      83.90557369      44.88468008      93.51808020
C      83.40668594      50.41590900      86.38814282
O      84.68414093      52.36988601      86.30121541
N      80.89523967      50.55196929      86.46940105
H      80.00895803      48.86444370      86.35979692
C      79.51762919      53.06152584      86.37302501
H      79.94092788      53.80040883      84.49841651
C      76.62634793      52.81019224      86.29554623
H      76.09911429      51.36266188      84.93116383
C      75.64369025      52.10154487      88.90903772
H      73.58577829      52.10721405      88.91848635
H      76.27485884      53.44514028      90.33767081
H      76.12557046      50.17969321      89.47028643
C      75.23550936      55.23660082      85.64548038
H      75.04275728      56.32886263      87.37835941
H      73.31554743      54.76038979      85.06722413
C      76.17092389      56.75972023      83.31733756
H      77.97183307      57.70080394      83.65937802
H      75.06921345      58.49637871      83.22663070
H      76.25029239      55.52950840      81.66760649
C      80.50028687      55.10998916      88.11724239
O      80.52296359      57.23593126      87.31032926
N      81.55097470      54.41456988      90.29609683
H      81.67947609      52.56074836      90.73451334
C      82.80008380      56.17390507      92.04598340
H      81.81364666      57.97859370      92.11779300
C      82.96826944      55.07975354      94.65191598
H      83.88856615      53.25238819      94.41003102
H      80.98216708      54.85109666      95.15080373
C      84.28162922      56.52161472      96.83077042
C      86.72315562      55.95469682      97.34666571
H      87.77762290      54.66212402      96.17125594
C      87.95147772      57.25104907      99.33465779
H      89.87143966      56.73515379      99.79197156
C      86.60599259      59.00282536     100.88990254
H      87.50928177      60.13855088     102.32420482
C      84.10021550      59.55273572     100.33621273
H      83.12322699      61.07963458     101.27351699
C      82.92858518      58.31685471      98.34066175
H      80.96704927      58.63432873      97.87389935
C      85.29074308      57.02239219      91.05576681
O      85.76695411      59.29006376      91.09167161
N      87.01228375      55.38966865      90.30176601
H      86.41890968      53.58120057      90.15247763
C      89.51995056      56.01516806      89.35501313
H      90.34765069      57.11498878      90.88758117
C      90.88055351      53.48293480      89.03753911
H      92.40367292      53.76828348      87.68449507
H      89.60120880      52.08453733      88.22873625
C      91.79707077      52.26784079      91.57544155
H      90.12655271      51.99383047      92.74896159
H      92.87421477      53.77206293      92.48439990
C      93.39766896      49.98127195      91.17481957
O      93.46380938      48.95137111      89.05265692
O      94.05907317      48.76050875      93.12312740
C      89.47081768      57.57230255      86.90403810
O      91.13944601      59.07652469      86.61679970
N      87.58298109      57.08286343      85.27887347
H      86.19781171      55.99060162      86.01019756
C      86.83653920      58.60220339      82.95262038
H      88.44091684      58.69479998      81.66193731
C      84.51217583      57.25293880      81.78854897
H      82.83787832      57.49860322      82.96584847
H      84.82209095      55.22526247      81.60335579
C      83.64857091      58.33197252      79.20340338
H      84.91846699      57.40033745      77.87681550
H      84.18336346      60.31807488      79.09001980
S      80.38123411      57.62143543      78.46263066
C      80.14312860      58.87810343      75.22175003
H      80.72705403      57.55340528      73.75910187
H      81.33554590      60.54862149      75.06679248
H      78.20048995      59.03684044      74.55656637
C      86.17513499      61.23837159      83.62725267
O      87.53762766      63.02794241      82.86191352
N      84.25328333      61.63710385      85.24674813
H      83.19314687      60.17823513      85.86657836
C      83.59943803      64.37153782      85.82689410
H      83.54841542      65.65844144      84.22062674
C      80.93870338      64.44145769      87.05143675
H      80.72894376      66.12142439      88.22495679
H      80.85177597      62.86920540      88.38180408
C      78.81465100      64.28083096      85.17115907
H      79.43826068      63.24904039      83.49875129
C      76.49973627      62.92778692      86.29743596
H      75.74951492      63.82540692      87.99063073
H      76.95327058      60.95869210      86.69994766
H      74.99740385      63.02038351      84.88958985
C      77.90569264      66.86408683      84.25275208
H      77.07610279      68.07351167      85.70028244
H      76.50540545      66.53149500      82.77687583
H      79.56109289      67.61052872      83.28332249
C      85.64601162      65.60174965      87.45583818
O      86.01261853      67.88642877      87.18182787
N      87.35999339      64.32051522      88.85234593
H      87.07653444      62.43834780      88.95628088
C      89.57475263      65.40143867      90.31121464
H      89.03618063      67.08329509      91.37324083
C      90.74827267      63.47769727      92.24251494
H      91.15078437      61.77127441      91.15970176
H      89.17602038      62.98447871      93.47839594
C      92.99704698      64.14477066      93.93948916
H      92.27139208      65.45813046      95.35111472
H      94.42568007      65.06128792      92.77163830
C      94.03261700      61.88843744      95.44938049
H      92.39800374      60.93790511      96.26763198
H      95.30629253      62.54606220      96.92903619
N      95.54439805      60.10642553      93.86390011
H      95.82974672      60.45980435      92.01007860
C      96.11509540      57.68379640      94.28908853
N      95.68801725      56.72192571      96.48495051
H      96.10186731      54.86999392      96.67014369
H      95.04551030      57.77828271      97.94003977
N      97.20735721      56.23626604      92.66770336
H      97.62498672      54.38811371      92.89069106
H      97.33018942      56.52917362      90.78553595
C      91.62699540      66.55795116      88.44794450
O      93.09531275      67.97335617      89.32288778
N      91.61376732      65.99103327      86.02342564
H      90.22859793      64.75515226      85.57745023
C      93.07830521      67.08707453      83.98252122
H      93.81529847      68.79349740      84.86502341
C      95.20046786      65.25970919      83.06789369
H      96.42690024      66.26504359      81.75075445
C      96.94468525      64.61342279      85.33178581
H      96.08297005      63.61942675      86.91726619
H      98.13710255      66.16488809      85.97429276
H      98.49426082      63.57785277      84.45684253
C      94.23859717      62.80495471      81.66382704
H      92.97248054      63.53249934      80.21062750
H      92.97814972      61.83930456      82.97529710
C      96.23036870      61.12876747      80.34290834
H      95.54250832      59.50360284      79.27899243
H      97.61553809      60.36720776      81.66193731
H      97.21869556      62.41567109      79.07301226
C      91.43991250      68.44389802      81.85279967
O      92.44335717      70.19378459      80.62825702
N      88.99460665      67.91099520      81.65626813
H      88.02328732      66.54472308      82.56522649
C      87.26928653      69.18467075      79.80055689
H      88.29162846      69.88386948      78.15460527
C      85.32286842      67.05305946      79.05222527
H      84.03974426      66.70534982      80.62636729
H      86.35465899      65.30695235      78.69695672
C      83.78463120      67.52738077      76.70329546
O      81.49428291      67.82028834      77.12470443
O      84.90145946      67.39132047      74.50365404
C      85.87088905      71.56572589      80.92494405
O      84.71437655      72.95845420      79.48686232
N      86.02395689      72.12886434      83.38536771
H      86.97259949      70.84196073      84.42660691
C      84.85799575      74.16598930      84.84045697
H      84.70114847      75.72501352      83.50064101
C      82.28040906      73.20411861      85.70406189
H      82.49205841      71.49013684      86.83033878
H      81.13334519      72.54460413      84.12614042
C      80.55508894      74.97101272      87.22718130
H      81.11066847      75.26958948      89.18871721
H      78.73906195      74.07150298      87.59567793
C      80.32454233      77.60907065      86.18027292
O      80.24328409      77.87174261      83.80110750
O      80.17147449      79.38919283      87.63914164
C      86.54930080      74.93510792      87.11001827
O      86.57197752      77.20844866      87.77331221
N      87.97604417      73.14742682      88.33456092
H      87.54518657      71.38809162      87.72984850
C      89.63522387      73.20978779      90.46995165
H      90.19836231      75.17699289      90.70427772
H      91.30196248      72.14398216      89.89925431
C      88.42579903      72.30649861      93.08155342
O      86.44347613      71.07817650      93.18359864
N      89.48782522      73.11341175      95.17348045
H      91.18857890      73.97323722      95.08088386
C      88.57508741      72.60507537      97.71894179
H      86.51906518      72.50680961      97.63579383
C      89.81474787      70.18433597      98.82821114
H      91.83108585      70.60007576      98.76773989
H      89.56341427      68.75003369      97.37123215
C      89.14200530      69.15254540     101.41146701
H      90.13411162      70.04827567     102.97805012
C      86.40946105      69.62875643     102.14468082
H      85.63467326      71.52982109     101.96893627
H      85.96726510      69.04294128     104.06842220
H      85.18869785      68.37586788     101.05430873
C      89.76561498      66.37464771     101.52485059
H      88.59398467      65.46946881     100.09243804
H      89.51806084      65.79072228     103.48449677
H      91.69691528      66.12709356     100.85777720
C      89.22326353      74.91054148      99.35544478
O      90.99582681      74.87652639     100.88612309
N      88.00816951      77.10262399      98.76585017
H      87.01984265      77.07049864      97.13312663
C      88.46926273      79.49312778     100.08487913
H      90.47426235      79.66887232     100.52329564
C      87.95147772      81.74568154      98.21405008
H      87.53573794      83.40297152      99.36489341
H      86.32442337      81.11451295      97.11989855
C      90.19836231      82.10283982      96.48495051
H      90.57819730      80.30571009      95.55142571
H      91.94257970      82.59983784      97.46004929
C      89.61254715      84.17775932      94.61601118
H      91.39833852      84.90530394      93.89602546
H      88.40123259      85.64229721      95.41347569
N      88.20659078      83.26880095      92.40125195
H      86.97259949      81.84772677      92.72628487
C      88.57697713      83.91508735      90.01641734
N      89.93191090      85.79725476      89.37957957
H      89.85821157      86.34149594      87.55410395
H      90.80496446      86.86306040      90.70049826
N      87.57542219      82.59794812      88.24385406
H      87.78329208      83.14407901      86.42593734
H      87.11810842      80.78570057      88.62557877
C      86.88945154      79.86729360     102.45648566
O      84.49705802      79.88997030     102.32798427
N      88.11777364      80.04492787     104.63345037
H      89.96592597      80.51357999     104.49739008
C      87.01606320      80.03547923     107.25261104
H      85.26239718      78.95266605     107.31497201
C      88.85665663      78.66164821     109.04218186
H      87.94769827      78.71078109     110.89033419
H      90.54607195      79.82949906     109.16123462
C      89.74860745      76.05004643     108.42046190
H      91.33786728      76.18421700     107.11655075
C      90.89189187      75.09762437     110.93568762
H      89.48782522      75.27336892     112.43046114
H      92.58130719      76.24657798     111.20591849
H      91.60620841      73.17388299     110.76372253
C      87.49038450      74.35118248     107.67402001
H      86.62488985      75.17888260     105.99783277
H      86.29229802      74.23968863     109.34453807
H      88.26139284      72.56728084     106.99371854
C      86.33576173      82.67542689     108.23904818
O      85.89545550      83.07415914     110.47837386
N      86.32253364      84.55948402     106.52317668
H      86.87622345      84.01902230     104.77895930
C      85.73671849      87.24100566     106.98804936
H      84.72571491      87.35249952     108.78139963
C      88.10454556      88.89073673     107.43969394
H      89.55585536      88.57704216     106.01295058
H      88.97948884      88.13673593     109.14611681
C      87.40534682      91.71776730     107.55307752
H      86.23182678      91.79335635     109.24438257
H      86.38867406      92.31492081     105.86555193
C      89.78073280      93.19931272     108.00094266
H      90.85220761      93.27301205     106.24349719
H      90.99960627      92.42074548     109.46548055
C      88.79240593      95.92051862     108.83053251
H      88.22737777      96.05846865     110.80718623
H      87.11432897      96.34003786     107.70992481
N      90.87866378      97.78189903     108.43935916
H      90.15111915      99.54690342     108.48471260
H      91.57408307      97.87260591     106.66490616
H      92.43957772      97.78567849     109.53917988
C      84.00006000      88.15185374     104.77517984
O      84.26651141      87.29769745     102.72671652
N      82.28229879      89.95654237     105.29485458
H      82.24450426      90.71432262     107.04663087
C      80.33399096      90.69353563     103.41079745
H      79.05842570      89.23466692     102.71915762
C      78.52174342      92.67396881     104.60132502
H      79.53085727      94.37094304     105.18902991
C      76.89846852      93.77567926     102.57364869
H      75.91014166      92.32059000     101.50217387
H      78.16458515      94.81502872     101.32642932
H      75.38668747      95.01911917     103.21804536
C      76.91736578      91.67808304     106.76128220
H      78.27418928      90.67652810     107.94425087
H      75.70416149      90.13417666     106.14145197
C      75.22984019      93.46765386     108.30896805
H      76.23139513      94.96620684     109.30674354
H      74.12246057      92.39428932     109.67712990
H      73.78986873      94.35015605     107.13166856
C      81.80797748      91.69698031     101.06186764
O      83.55786405      93.28057096     101.38690056
N      81.10877875      90.85038292      98.82443168
H      79.41180452      89.99244717      98.99072760
C      82.08576725      91.69887003      96.40369228
H      83.19881605      93.37127782      96.85533687
C      83.77140312      89.61261218      95.19615716
H      85.22082320      89.33482241      96.63612861
H      84.77862724      90.52912944      93.65036104
C      82.63189815      87.09171728      94.38924403
C      82.69803857      86.36795211      91.77386281
H      83.08543247      87.69076053      90.26775094
C      81.83632338      83.96233051      91.07277435
H      82.01206792      83.21588861      89.17926858
C      81.17302944      82.32015834      92.96439039
O      80.67792115      79.83705797      92.40692112
H      80.40769028      79.52903258      90.64191675
C      80.83287870      83.22344752      95.36434280
H      80.24895327      81.78725553      96.69093068
C      81.70026308      85.53647254      96.18259430
H      81.70026308      85.96921986      98.17625556
C      79.95037652      92.34137698      94.64624681
O      77.96238443      92.89128734      95.57788188
N      80.21304847      92.27145712      92.17259506
H      81.94214805      92.00311597      91.40914563
C      78.25907147      92.42263521      90.31121464
H      76.45627256      91.90673993      91.16159148
C      78.10978309      95.24588632      89.49863233
H      77.24995761      95.35738018      87.62969301
H      80.05431146      95.90162136      89.32666723
C      76.49784654      97.17907634      91.14080450
H      77.23295008      97.50221955      93.03619999
H      74.60056132      96.37405293      91.21639355
C      76.10478347      99.82658290      90.05988104
H      75.66069778      99.89272333      88.04921225
H      77.95671526     100.72798237      90.08066803
C      73.90892149     101.22875984      91.33922576
H      74.59867160     101.94685584      93.14202466
H      72.24029316     100.04201170      91.56599292
N      72.99240423     103.45485744      89.93515911
H      72.41414798     102.90872652      88.19850063
H      74.19804962     104.90427751      89.63280290
H      71.49763072     104.32602127      90.74207224
C      78.54064069      90.82392676      87.88102661
O      80.62122936      90.55180616      86.84734631
N      76.31454309      90.20220679      86.88703056
H      74.75929833      90.35905408      87.98118210
C      75.98195126      88.78113261      84.43038636
H      77.27452406      87.18620361      84.24141373
C      73.34011387      87.57359750      84.26409044
H      72.03620272      89.11939362      83.87480682
H      73.02075013      86.90085493      86.18594210
C      72.97539669      85.33994100      82.26853946
O      72.22328562      85.84827737      80.05566994
O      73.94104684      83.30848520      82.99041491
C      76.68114999      90.49889382      82.14570725
O      76.78130549      92.81191884      82.44050455
N      77.24806789      89.43875736      79.89693293
H      77.59955698      87.57548722      79.68717331
C      77.20082473      90.99022267      77.47619353
H      78.58032494      92.51145235      77.64248944
C      77.83010359      89.41797037      75.09324865
H      76.81532056      90.22488351      73.49076073
C      80.57209647      89.31592516      74.98742397
H      81.00484380      88.40507708      76.78455370
H      81.51695963      91.09793706      74.57546364
H      81.20515479      87.92697631      73.60603404
O      76.77185686      86.91975220      75.38048704
H      74.98228604      87.21643922      75.30867744
C      74.67992983      92.26578793      76.98864414
O      74.58166406      93.89473201      75.37103841
N      72.69004802      91.52501521      78.23397378
H      72.65036377      89.78079783      79.00498211
C      70.23340381      92.95553803      78.26798885
H      70.04821064      93.88339365      76.43873378
C      67.95628361      91.15840832      78.69884645
H      67.84290003      90.44598149      80.62825702
H      68.41170765      89.39151420      77.74075521
C      65.28610033      92.07114612      77.92972784
H      64.92138315      93.69820047      79.13915268
H      63.94061518      90.63495413      78.53444026
C      65.09145851      92.39617904      75.13482262
O      64.92894204      90.59338014      73.66461555
O      64.99697219      94.64117390      74.37704237
C      70.06143872      95.20053289      79.99897815
O      68.26997816      96.69152696      80.12370009
N      72.16659383      95.75233298      81.37847836
H      73.65380844      94.58637185      81.11580640
C      72.23462398      98.04079154      82.98285600
H      71.50329990      99.67162536      81.96429352
H      74.23962360      98.46786969      83.19261562
C      70.76441691      97.85748810      85.56422215
O      70.87969021      99.61682328      87.14403334
N      69.51530781      95.69753091      86.02342564
H      69.61735304      94.21031630      84.83100834
C      68.38714121      95.09470823      88.53676164
H      67.53676437      96.66318107      89.56477275
C      66.19883814      93.23710725      88.10212458
H      65.67349422      92.56058523      89.97484336
H      66.89425741      91.61572208      87.04009840
C      63.58534664      93.99299779      86.97773743
C      62.67827801      92.68530717      84.88203095
H      63.48141170      90.97321514      84.11102261
C      60.57501262      93.66040595      83.37780880
H      59.99486665      92.74199896      81.65059895
C      59.38826450      95.84870903      84.22818564
O      57.28499912      96.84837425      83.09246013
H      56.59335929      98.19196965      84.09401507
C      60.32178930      97.21498114      86.32011267
H      59.15015899      98.63038615      87.21017376
C      62.37214235      96.29090497      87.63914164
H      63.16960685      97.40395377      89.15470214
C      70.41670727      93.99677723      90.40003178
O      72.06076916      92.44342220      89.61957481
N      70.05576954      94.26511837      92.90769860
H      68.56477548      95.33659318      93.42926306
C      71.47117455      93.36182919      95.13946537
H      73.51396869      93.61505252      95.07143523
C      70.79654226      94.74132940      97.55264588
H      71.32566562      93.61127307      99.19292831
H      68.74807893      94.93219175      97.64713219
C      71.95683421      97.35104143      97.61878630
C      70.28631615      99.39572531      97.56398423
H      68.26619872      99.10470745      97.61689657
C      71.31432726     101.84670034      97.55453560
H      69.97262158     103.36226085      97.83232537
C      73.92781876     102.20007915      97.58288150
O      74.99551412     104.48475827      97.83610482
H      73.77097147     105.80756669      97.63579383
C      75.56621147     100.14216720      97.53563834
H      77.57876999     100.44452341      97.38257051
C      74.62701749      97.67985382      97.65658082
H      75.81187589      96.02445356      97.53185889
C      71.17070807      90.45731985      95.63079421
O      69.10523720      89.47844162      95.89913535
N      73.32877551      89.14207033      95.71583190
H      74.93882233      90.00189581      95.15080373
C      73.45727690      86.33582677      95.88779699
H      71.64502937      85.58560542      96.51896558
C      73.88624478      84.96766492      93.33855620
H      73.98073109      82.94187830      93.69571447
C      71.78297939      85.58371568      91.62268471
H      70.00663666      85.39474305      92.65069582
H      71.76786158      84.00579421      90.29798656
H      72.11557122      87.38273513      90.67782155
O      76.13312936      85.71599653      92.11401355
H      76.50351572      84.69176486      90.66081401
C      75.28653197      85.49678828      98.15546857
O      76.70004726      86.93487000      99.32709888
N      75.03330865      83.00045981      98.77151935
H      73.58955775      81.89119048      98.19326310
C      76.72083425      81.86662404     100.67825320
H      78.55764822      82.80203855     100.63856894
C      75.51329913      82.04992748     103.29930359
H      75.12212579      84.03980929     103.66402077
C      72.94327135      80.56838206     103.25772961
H      73.10011863      78.51991874     103.11411041
H      71.55243278      81.26380133     101.90468557
H      72.14391712      80.77814168     105.14367647
C      77.04586717      80.88585607     105.48760666
H      77.59955698      78.93943798     105.10966140
H      76.05565058      81.02002665     107.28851584
C      79.46471685      82.62062482     105.72193273
H      80.66658279      82.32204807     104.07598111
H      80.62122936      82.05181720     107.32820009
H      79.05653597      84.63885253     105.77484506
C      77.38412818      79.14352841      99.90535513
O      75.70227176      77.91709603      98.78663716
N      79.59132852      78.08150223     100.69148128
H      80.92169584      79.18510240     101.50028414
C      80.30942451      75.43588539     100.79730595
H      78.76929757      74.44566879     101.74216911
H      82.12356178      75.05416067     101.69492595
C      80.74595129      74.56850101      98.11767404
O      82.28796796      75.54926896      96.70226903
N      79.17558873      72.81294526      97.42603421
H      78.36678586      71.98335542      98.94348444
C      78.98472637      71.63753549      95.09411194
H      80.53808140      72.30460888      93.91303300
C      79.32109765      68.76704122      95.27930512
H      77.60144671      67.93367192      96.05031346
C      79.61589496      67.71257395      92.69226980
H      81.27696439      68.62720149      91.88535666
H      77.90947210      68.16043908      91.63024361
H      80.16580531      65.73025104      92.78108693
C      81.48861373      67.82973698      97.08210402
H      81.23539041      68.54783297      98.99639678
H      83.38022977      68.41933158      96.52463476
C      82.08009807      64.96113243      97.49784381
H      83.44637019      64.82507214      99.03230158
H      82.94559272      64.37531727      95.72339080
H      80.42658755      63.75926649      97.76240550
C      76.53186162      72.59562673      93.67114803
O      74.60812023      71.21045735      93.63524323
N      76.58666368      74.94455654      92.80943283
H      77.97561252      76.16343001      93.29131304
C      74.81410040      76.05382589      90.96317022
H      74.98984494      74.81038598      89.33233641
H      75.29976006      78.01158236      90.54365098
C      72.10612259      76.03870808      91.94393818
O      70.36001548      75.49635663      90.42270850
N      71.77353076      76.63964104      94.36845704
H      73.32121661      77.12719043      95.37379144
C      69.56444070      76.86073902      95.74039834
H      68.05643910      75.73257241      94.90324958
C      69.77609005      75.70044707      98.42191998
H      71.18582588      76.55082391      99.65969071
H      70.44316343      73.76347760      98.19326310
C      67.22873897      75.83650736      99.80897909
N      65.51475721      73.90520707      99.76929484
H      65.69428121      72.24413764      98.84521867
C      63.56266993      74.72912774     101.12422861
H      61.72018677      73.85040502     101.15068478
N      63.88392340      77.21789731     101.73461021
H      62.72741090      78.21378307     102.87789463
C      66.24419157      77.95300083     100.97305050
H      66.92260331      79.84272714     101.33965741
C      68.50997342      79.59517300      95.91236344
O      69.95939350      81.18821228      96.88557249
N      66.14970525      80.20933405      95.12623729
H      65.08956878      78.77314205      94.44593582
C      65.19350374      82.77747211      94.95238247
H      66.67126971      83.90185926      94.06043165
C      62.91071435      82.92676049      93.21761371
H      61.60113401      81.75890963      94.29664744
H      63.53054458      82.04425830      91.46394769
C      61.77498884      85.65174583      92.82266091
H      61.30255726      86.47566650      94.65191598
C      63.55133156      87.45832419      91.46394769
H      65.34468184      87.55470023      92.47117182
H      62.55922526      89.26301281      91.46205797
H      64.00675561      86.83282478      89.55343439
C      59.40905149      85.41364032      91.10300997
H      59.80400429      84.41775455      89.34556450
H      58.75142674      87.35627897      90.92348597
H      57.87081427      84.39696756      92.02330668
C      64.48485636      83.82438049      97.46571846
O      63.32834387      82.48834399      98.91891800
N      65.29554896      86.05992671      98.20082200
H      66.37458267      87.09738646      97.01596360
C      64.60012966      87.06148167     100.63101004
H      64.06533712      85.47789101     101.83098625
C      66.90559578      88.40129762     101.91791366
H      66.15537443      89.94709374     103.05363917
H      67.99218841      89.40285256     100.48172166
C      68.58556247      86.75723572     103.65646187
H      69.11468584      85.13018138     102.50939799
C      70.92504364      88.26523732     104.34054279
H      70.45261207      90.00378553     105.33831828
H      72.02108491      88.76601479     102.67002473
H      72.27619796      87.19376250     105.46681967
C      67.37613762      85.86906436     106.10176772
H      65.76798054      84.60294773     105.88255946
H      66.88291906      87.40730158     107.38111243
H      68.72918166      84.59916827     106.99560826
C      62.15482383      88.56003463     100.47983193
O      60.28399478      87.91374823     101.63634444
N      62.31923001      90.59338014      98.98316869
H      63.81400353      90.72944043      97.80397947
C      60.50131330      92.73444005      98.86033648
H      58.57568219      92.19775778      99.36678314
C      61.03988530      94.82258763     100.83699021