 %block lattice_cart
   139.898   0.000   0.000
   0.000 144.87   0.000
   0.000   0.000   168.12
 %endblock lattice_cart

 %block positions_abs
N      90.08025441      42.10205809      84.63353194
H      90.11049003      42.19087522      86.53837606
H      91.85281769      42.27024373      83.94756129
H      89.48310090      40.38807632      84.04204760
C      88.51178157      44.20721320      83.75480920
H      89.22042895      45.93442305      84.62975249
C      88.93696999      44.87428659      81.01092660
H      87.70297872      43.58738297      79.97913603
H      90.92496207      44.55681257      80.57817927
C      88.17163084      47.54069042      80.36841965
H      86.26111754      47.68053016      81.12242045
H      88.20375619      47.65974317      78.31239742
S      90.27867567      49.78568528      81.75358904
C      88.71587202      52.59570830      81.06572866
H      88.82358641      53.00388919      79.04939068
H      89.51333652      54.15851196      82.14476238
H      86.72221075      52.23477058      81.43422529
C      85.76789897      43.94076179      84.55983261
O      84.39973711      42.09260946      83.77559619
N      84.80791801      45.98166621      85.80327253
H      86.05324764      47.25723147      86.48357400
C      82.07348402      46.47677450      86.12263627
H      81.02090648      45.29758528      84.80171758
C      81.48766887      45.44498393      88.88352642
H      81.91663675      43.43431514      88.76258393
H      79.55258912      45.84749564      89.46367240
C      83.17330474      46.60905534      90.98112262
O      84.60382756      48.40618507      90.62396435
N      83.09582596      45.67931000      93.21666885
H      84.03690966      46.63551151      94.57538207
H      81.85805522      44.29792006      93.66075454
C      81.23822499      49.28112835      85.77303691
O      82.71977043      51.02723546      85.21934710
N      78.90819246      50.01812161      86.33995480
H      77.60239157      48.66129812      86.64609046
C      77.87640189      52.68452544      86.32105754
H      78.30914921      53.61616051      84.53715590
C      74.90386240      52.61838502      86.64231101
H      74.12340542      51.37683483      85.19478065
C      74.35395203      51.48643896      89.26336141
H      74.97000281      52.72420969      90.79026027
H      75.28369739      49.67041197      89.54682035
H      72.36029078      50.97621285      89.17076482
C      73.42042724      55.18085390      86.85207063
H      74.19710475      56.28256434      88.40920511
H      71.39275090      54.86904906      87.03348436
C      73.99868349      56.59625891      84.48991274
H      73.35806627      58.53700783      84.73935661
H      72.87807578      55.78367659      82.96490360
H      76.02447009      56.75688564      84.16865927
C      79.12173153      54.63850245      88.23724002
O      79.15952605      56.85137196      87.67977076
N      80.05147687      53.68608039      90.37263075
H      80.39351733      51.80958216      90.46522734
C      81.51223531      55.35470872      92.10928923
H      80.45965775      57.04034459      92.65164069
C      82.20954432      53.83347904      94.56593344
H      83.82148086      54.78968055      95.42008973
H      82.73677796      51.92296574      94.01035390
C      80.15352209      53.54624064      96.61439676
C      80.40863515      54.92007167      98.96332657
H      82.12450663      55.92162661      99.43197870
C      78.47355540      55.07124977     100.69620560
H      78.69465339      56.32224859     102.29302433
C      76.17375847      53.97898796     100.11228017
H      74.47678425      54.41362502     101.16107827
C      75.81660020      52.75255559      97.76901954
H      73.93821225      52.08359247      97.33249276
C      77.79325392      52.48232472      96.05503777
H      77.64585528      51.43352662      94.30893066
C      84.07092474      56.36193285      91.06427058
O      84.59437893      58.58992017      91.19466170
N      85.48632975      54.60637710      89.71689572
H      84.86460980      52.80168847      89.67343202
C      87.85793627      55.17140527      88.53014760
H      89.15806797      56.31468969      89.64508612
C      89.14106043      52.67507681      88.02937012
H      90.86260111      52.75444531      86.90120351
H      87.88061298      51.51856430      86.88041653
C      89.89128178      51.16896494      90.42554309
H      88.17163084      50.56614224      91.38363433
H      91.01188949      52.30280072      91.72756452
C      91.70919850      48.96176460      90.03059029
O      90.91173399      46.71299029      90.22145265
O      94.02789269      49.32081260      89.38430389
C      87.29857728      56.66617878      86.08295202
O      88.74421792      58.24976943      85.30627451
N      85.25011395      56.06335609      84.67888537
H      84.44320082      54.39283803      85.13241969
C      84.17674941      57.58458577      82.55861245
H      85.37861534      57.46742274      80.88998411
C      81.54247094      56.47342670      81.88209043
H      80.14218374      57.04601377      83.27859817
H      81.57459628      54.41929420      82.04838634
C      80.74122697      57.15750762      79.12686946
H      82.29458200      56.78901099      77.82673776
H      80.18375771      59.13794080      79.23647359
S      77.72144432      55.70052864      78.52404677
C      77.24523329      55.66462384      75.11120105
H      78.08616151      54.01111331      74.21358105
H      78.11450740      57.41073095      74.44790711
H      75.29125630      55.91973689      74.51593726
C      84.12194736      60.42106497      83.24836255
O      85.23499614      61.94985355      81.94823085
N      82.85961018      61.07868972      85.42343754
H      81.87506276      59.75399158      86.37774933
C      82.51001081      63.62226134      86.23790958
H      82.03191004      64.37248269      84.38030861
C      80.16675018      63.77154972      87.99535505
H      80.62595368      64.97908483      89.59973269
H      79.63195763      61.91016930      88.69833324
C      77.81782037      64.97341565      86.90876242
H      76.27958316      64.84869372      88.27125509
C      78.34127455      67.67761401      86.32105754
H      79.42408774      68.48074769      87.88008174
H      76.52524758      68.64515388      86.39475686
H      79.47511034      68.15949422      84.67321619
C      76.90319283      63.79611616      84.56361207
H      78.28836222      63.91138947      83.04238238
H      75.21377752      64.83168618      84.00047362
H      76.25690643      61.89127204      84.99824912
C      84.98366254      65.01876908      87.12041177
O      85.29357766      67.18628517      86.41365413
N      86.73354911      63.59391544      88.24857838
H      86.06647573      61.82324189      88.49991198
C      89.42451938      64.14760525      89.10084494
H      89.31491525      65.53655409      90.62018490
C      90.70575382      61.71174804      90.14019442
H      91.52211560      60.48531566      88.70211269
H      89.35270979      60.78578214      91.38930351
C      92.91862334      62.70385435      91.86551454
H      92.18163007      64.07768538      93.21099967
H      94.39260986      63.73375519      90.86018014
C      94.22631394      60.76877461      93.39241340
H      93.16617748      59.82391145      94.88340746
H      95.90817036      61.54167267      94.29948203
N      95.15416956      58.64661196      91.81638165
H      96.05178957      59.14927916      90.21011429
C      94.89716678      56.25232872      92.32660776
N      94.45497084      55.42084914      94.58861016
H      94.20363724      53.53868173      94.77947251
H      94.36615370      56.61893562      96.07204531
N      95.41684152      54.67440725      90.51058077
H      94.87826953      52.84704190      90.60695681
H      96.51855197      55.22431760      89.05171206
C      90.97787442      65.53466437      87.25647206
O      92.53500890      67.10880639      87.76102899
N      90.41851543      64.99420264      84.84707101
H      89.30168717      63.48809077      84.49180247
C      91.46164436      65.91449936      82.50570011
H      93.32869394      66.74975839      82.74947481
C      91.97753963      63.50320858      80.86730740
H      90.30324212      62.30701183      80.98636016
C      92.57469314      64.49342517      78.13854260
H      94.14883517      65.82190277      78.17444740
H      90.78512234      65.14727047      77.35619591
H      93.32680422      62.94762905      77.00470681
C      94.25843929      61.94607410      81.80650137
H      94.46441946      62.01788370      83.85685442
H      95.93651625      62.82101738      80.99580879
C      94.17718106      59.25888328      80.76715190
H      94.54189824      59.45541482      78.75081393
H      92.37627188      58.35181465      81.18667114
H      95.56801963      58.12504750      81.77815548
C      89.83458999      67.94217569      81.19611978
O      90.67173876      69.86402735      80.20968264
N      87.48754991      67.21652079      80.96368344
H      86.76000529      65.50631847      81.39454104
C      85.58648525      68.85113405      79.74669969
H      86.37261138      69.50875880      77.95901860
C      82.99378075      67.53966399      79.40087978
H      81.55191956      69.00609161      79.29505510
H      82.63662246      66.33968778      81.03738277
C      82.58182041      66.08457473      77.05761915
O      83.66841303      66.80456045      74.96002294
O      81.31948322      64.05878812      77.24092260
C      85.21231943      71.28699127      81.14509717
O      85.47499139      73.28254225      79.95267986
N      84.79657965      71.30399880      83.65087426
H      84.80602827      69.65615746      84.61652440
C      84.54713577      73.70017177      85.09273543
H      84.56036385      75.25919598      83.74536057
C      81.92419564      73.83245261      86.40798495
H      81.98466690      75.33289530      87.81961050
H      81.76356892      72.07878659      87.47568031
C      79.65085490      74.12347046      84.72801825
H      77.88962997      74.05544031      85.79760335
H      79.72833367      72.52665173      83.42977628
C      79.69431859      76.55176877      83.19356049
O      80.48800365      78.45094372      84.29905038
O      79.12173153      76.51208452      80.85596904
C      86.60315801      74.03087387      87.18844191
O      87.12472246      76.17004406      87.96889888
N      87.64250748      72.10146331      88.28448318
H      86.93197037      70.40070962      87.78559543
C      89.30357690      72.38114280      90.45010953
H      90.72276136      73.82489370      90.06649509
H      90.11237976      70.48952676      90.59183900
C      87.98076848      72.88381000      93.03525513
O      85.72821472      72.72318326      93.24690447
N      89.53601323      73.68694368      94.90419445
H      91.28589980      74.20283897      94.34672519
C      88.67807749      74.49385682      97.44965579
H      86.74299774      73.92126975      97.86350586
C      90.52056064      73.32033678      99.42064034
H      92.47831711      73.93260810      99.23355743
H      90.60370861      71.28510154      99.12395331
C      89.58325640      73.63025189     102.20042774
H      88.90673437      75.57289054     102.30058324
C      87.34959990      72.05799960     102.88261894
H      86.52945868      72.41137842     104.73833018
H      87.70675816      70.04355135     102.65018261
H      85.84915721      72.57956406     101.56925916
C      91.70919850      73.18616621     104.10338214
H      92.26666776      71.22840975     103.80291566
H      90.99866141      73.49608132     106.01200572
H      93.29656861      74.46740065     103.81614374
C      89.10893509      77.33978465      97.82949078
O      91.22353883      78.25819163      97.62729007
N      87.18141425      78.88936022      98.51357171
H      85.47877084      78.02953475      98.60049912
C      87.35148961      81.57088186      99.08048960
H      89.32058444      82.13779975      99.31292594
C      86.22899219      82.96738961      96.85061255
H      85.40318179      84.76640906      97.41564072
H      84.75689539      81.75985449      96.06259668
C      88.09037260      83.36234241      94.76813416
H      89.00500014      81.59166885      94.24845942
H      89.29034881      84.93270497      95.34828013
C      86.75433610      84.45838367      92.40408654
H      88.06202672      85.24262009      91.01891715
H      85.46365303      85.93237019      93.04470376
N      85.35593864      82.53086283      91.17576443
H      85.36916672      80.83955778      92.06204608
C      83.94809254      82.39480253      89.16320591
N      83.25078353      84.27885967      87.86874339
H      82.50245190      83.84989179      86.16421025
H      83.33204176      86.13835036      88.28637290
N      83.35282875      80.08366725      88.43566128
H      82.37395051      79.78886995      86.82561446
H      83.62305961      78.54165058      89.52792309
C      85.92852570      81.85434081     101.53713381
O      83.74967126      81.35167361     101.78279823
N      87.30424647      82.56109845     103.48733136
H      89.14106043      82.91258754     103.10560665
C      86.41985454      82.51952447     106.08570504
H      85.09326667      80.96427971     106.34459755
C      88.41162608      81.71828051     107.97921081
H      87.66329447      81.86945862     109.89350357
H      90.00655509      82.94282316     107.55024294
C      89.07303029      78.95550064     107.56725047
H      89.81569273      78.88936022     105.64917827
C      91.24810528      78.09756490     109.31335759
H      91.98320882      76.25697147     108.75777805
H      90.63205450      77.61001551     111.21631198
H      92.70319453      79.55643361     109.36249047
C      87.02645670      77.06199488     107.88094504
H      85.54302154      77.17726818     106.45231195
H      86.30458125      77.54576481     109.74799464
H      87.71431707      75.12124595     107.94519574
C      84.90996322      84.87790291     107.01356066
O      83.13739994      84.58877478     108.59526159
N      85.28601875      87.11344914     106.07247696
H      86.51056141      87.08132379     104.60982879
C      83.87250348      89.51529128     106.40506879
H      82.77646222      89.56442416     108.14739645
C      85.71687636      91.77351422     106.64884349
H      86.96409572      91.62611557     108.28156702
H      84.68319607      93.51206243     107.05135519
C      87.83525955      92.27996088     104.60793907
H      87.28156974      92.43680816     102.62939562
H      89.24121593      90.77384900     104.57770345
C      89.34515089      94.74038454     105.56414058
H      89.94041466      94.68558247     107.53701485
H      88.13383631      96.39956424     105.69831115
C      91.57502793      95.31108188     103.85960745
H      91.14606005      94.94636470     101.87917427
H      93.07925008      93.99961182     104.36038492
N      92.27989584      98.08331038     104.09582324
H      93.85970704      98.31385699     103.04891486
H      92.74098907      98.48582209     105.90240159
H      90.83803467      99.21903590     103.57236905
C      81.92041620      89.97449477     104.42652534
O      82.22466213      89.05419806     102.33459831
N      79.87384259      91.35966416     104.77612471
H      79.49967678      91.65635119     106.62427704
C      77.98411628      92.27051224     102.99789225
H      76.68398458      90.69259077     102.75978673
C      76.32115713      94.46448449     103.95598349
H      77.48711826      96.06130323     104.53423974
C      74.46922534      95.52840041     101.96043250
H      75.31204328      95.94980938     100.12928771
H      73.53759027      97.27072807     102.54057848
H      73.29192585      93.89378715     101.53146463
C      74.98134118      93.48182681     106.31247220
H      76.39107700      93.15301443     107.77701009
H      73.87396155      91.80186012     105.87027624
C      73.24090324      95.18824967     107.93763683
H      72.38107776      94.21882007     109.53823502
H      71.64975369      95.90823540     106.84726475
H      74.31048834      96.78317868     108.68407872
C      79.23322537      93.19647814     100.60738846
O      80.97933249      94.87077565     100.58282202
N      78.48111431      92.04752454      98.45499019
H      77.07515792      90.75873119      98.51168198
C      79.32015279      92.91301919      95.93598502
H      80.17241935      94.78573797      96.00023571
C      81.35349830      90.97604972      94.96655542
H      82.71221152      90.74928256      96.49723373
H      82.53646697      91.61855667      93.40942094
C      80.41430432      88.30586644      94.30137176
C      79.42786718      87.78808143      91.90897824
H      79.54125077      89.24317069      90.48034515
C      78.42820198      85.37679065      91.32505281
H      77.70065733      84.95727141      89.46367240
C      78.75512463      83.48328489      93.09950582
O      78.22222181      81.08333247      92.42109408
H      77.77813611      80.84711668      90.67687669
C      79.68486996      83.93115003      95.56937811
H      79.91730631      82.49684775      96.99990093
C      80.56359270      86.40480177      96.13062683
H      81.22877636      86.85833608      98.00712506
C      76.97122298      93.21537540      94.28814367
O      74.83961171      92.47082323      95.00812940
N      77.36239632      93.99772209      91.93921387
H      79.04803220      94.71959755      91.40253159
C      75.25157204      94.26228378      90.08728208
H      73.56215671      93.90890496      91.21544869
C      74.84528088      97.22159518      89.64508612
H      73.44310395      97.37088356      88.14275370
H      76.56304209      98.06441312      88.88352642
C      73.66420193      98.90345160      91.86929399
H      74.94921583      99.09620369      93.46611273
H      71.94833045      97.93402200      92.47400641
C      72.90264224     101.61142941      91.30237610
H      72.23556884     102.46369598      93.05415239
H      71.26991870     101.63032667      90.04759783
C      74.76213293     103.14210772      89.64697585
H      75.19110080     101.97047741      88.00669341
H      76.32871603     103.42367694      90.95088700
N      73.59617178     105.60064166      89.18966208
H      71.78770370     105.54583959      88.57550103
H      74.69032333     106.70046237      88.08039273
H      73.35806627     106.37353972      90.91876166
C      75.32527136      92.42169035      87.83661804
O      77.26413056      91.41446622      87.09017615
N      73.07082787      91.84532382      86.85207063
H      71.59873107      92.87522466      87.49646730
C      72.69666206      90.17858522      84.66187783
H      74.36718013      88.98427819      84.50125110
C      70.32127608      88.60066374      85.20989846
H      68.53548473      89.60788787      85.42721699
H      70.86173781      87.53107865      86.88230625
C      69.65609242      86.97360939      82.90821182
O      68.08950931      87.74083827      81.33218007
O      70.82016383      84.96860977      82.51703847
C      72.89886277      91.65257174      82.17688773
O      72.95177512      94.00906045      82.15988020
N      73.03114362      90.29385852      80.06795317
H      72.93287785      88.38901440      80.16054976
C      73.21822653      91.35021553      77.51304319
H      74.53158631      92.92435755      77.70579528
C      74.35584177      89.57576252      75.56473536
H      74.45788698      90.53385376      73.74303920
C      77.14885725      88.63467882      76.19590395
H      78.24300880      90.27307153      76.79872665
H      77.97088820      87.76729444      74.51782699
H      76.83894215      87.45359987      77.85508365
O      72.61540383      87.47627659      75.38710109
H      71.44755296      88.02051777      74.10775638
C      70.89953234      92.70514930      76.65321772
O      71.08283579      94.13189266      74.84285991
N      68.81327448      92.45003624      78.04216656
H      68.88508408      91.02707233      79.31206264
C      66.57772826      94.08464951      77.75114871
H      66.55883099      95.26194900      76.05984366
C      64.34407175      92.16090812      77.53383018
H      62.56394957      93.19836786      77.56217608
H      64.23824708      91.00250589      79.23269414
C      64.44044780      90.23716673      75.26048943
H      63.14031609      88.72349596      75.76693608
H      66.29804877      89.35466454      75.12064968
C      63.46534902      91.25950867      72.74337398
O      64.63131015      93.04152058      71.77583411
O      61.60963778      90.23338728      71.64166354
C      66.33773301      96.05185460      79.93567233
O      64.24391626      97.23104382      80.03204837
N      68.39186552      96.57341906      81.49091708
H      70.02458906      95.67012988      81.09596428
C      68.54682307      98.17779670      83.69622769
H      67.90809558     100.11665590      83.42410710
H      70.56694050      98.17968643      84.10062912
C      67.23535301      97.22537464      86.07161366
O      67.22779411      98.71069952      87.81394132
N      66.15631930      95.05596883      86.17743834
H      66.12608367      93.86733098      84.68455455
C      64.97524035      94.18480500      88.66053871
H      63.93967032      95.81374908      89.38052444
C      63.15921336      92.00973001      88.05204684
H      62.19923239      91.44281212      89.78492587
H      64.26659298      90.34866058      87.53993101
C      61.17500073      92.53885338      86.05082667
C      60.90288014      90.99116753      83.76047838
H      61.88364809      89.20348644      83.66788179
C      59.28527441      91.73949915      81.75358904
H      59.00559492      90.66046543      80.04149700
C      58.20057152      94.18102555      81.84996508
O      56.48092057      94.67424411      79.99992302
H      55.94045884      96.38633615      80.26637443
C      58.49536882      95.79296209      83.96078937
H      57.76404473      97.69591649      84.04393733
C      60.00337041      94.80652496      85.97334790
H      60.27360128      95.99705253      87.60985088
C      66.92732763      93.59143094      90.76380410
O      68.93610670      92.60688353      90.08728208
N      66.45867551      94.04307553      93.26013256
H      64.90909992      95.05407910      93.72689496
C      68.16887782      93.32120007      95.24812464
H      69.96411782      93.87866934      94.40908616
C      67.57361402      94.70636946      97.65374624
H      68.95500397      94.20181254      99.09749714
H      65.73680006      94.18291527      98.42286485
C      67.72857158      97.48426714      97.41942017
C      65.62152674      99.00549682      97.62540034
H      63.72613125      98.25527548      97.68398186
C      66.03537680     101.59442187      97.56492910
H      64.46123479     102.89077412      97.64240788
C      68.35785044     102.81140562      97.51390649
O      68.64886831     105.41355875      97.60461335
H      67.00858587     106.18645681      97.64618733
C      70.57071996     101.24671223      97.49122977
H      72.43776955     102.06307400      97.57815718
C      70.24190759      98.58408786      97.42697908
H      71.97289689      97.50505413      97.43831744
C      68.14998055      90.59621473      95.81315281
O      66.17332683      89.50395292      95.62984935
N      70.48946172      89.52096046      96.28369466
H      71.88974892      90.80408463      96.47644674
C      71.30015431      86.85455663      96.21377479
H      69.76569656      85.61867562      96.81659748
C      72.17131814      86.10622501      93.44532574
H      73.71333481      87.32131903      92.82549551
C      72.64374972      83.24706910      92.94454826
H      71.02614400      82.13024085      93.55681959
H      74.08183145      82.32866211      94.09917104
H      73.04248197      83.07699373      90.93010001
O      69.96978699      86.71093743      91.94866250
H      69.97356644      88.52507469      91.99401593
C      73.54136973      86.18370379      98.02224287
O      74.78858909      87.96949516      98.86506080
N      73.97789650      83.80831782      98.71577242
H      73.18232173      82.28897786      97.88240312
C      75.97911666      83.14124443     100.52046105
H      77.56270732      84.29208775      99.88740274
C      75.16086517      83.98784181     103.27190256
H      74.17253831      85.79442017     103.17741625
C      73.16909365      82.12646140     104.46243014
H      72.00691195      82.99006632     105.92696803
H      74.01947048      80.50507622     105.40918302
H      71.75179890      81.50096199     103.10749638
C      77.44554429      84.77207823     104.94053090
H      78.54725472      85.98339280     103.69331153
H      78.42442252      83.04486838     105.48288235
C      76.79547844      86.08543802     107.41229292
H      78.56804171      86.83943882     108.13794782
H      76.08494135      84.73995289     108.80124176
H      75.45566247      87.61989579     107.11182643
C      76.79736816      80.31043441     100.29747335
O      75.66542211      78.90825749      98.85372244
N      78.60394651      79.36557125     101.80925440
H      79.33149115      80.54287075     103.12261419
C      79.39196238      76.72373387     101.69776055
H      77.81593065      75.58044945     102.36861339
H      80.90941262      76.62924755     103.08859911
C      80.35761253      75.83178305      99.13151221
O      81.89396002      77.02042090      97.96555108
N      79.45621309      73.53387585      98.60616830
H      78.11828686      72.80822095      99.75701162
C      79.89840904      72.20728798      96.26101794
H      81.56325792      72.98585522      95.32938287
C      80.22911114      69.41427249      96.79392076
H      78.43576087      68.69239704      97.50445786
C      80.99634002      68.03477228      94.36562245
H      80.80736739      65.99197814      94.52813891
H      83.02590609      68.22752436      94.07649433
H      80.09305086      68.63759497      92.61573589
C      82.11505801      68.83790596      98.89907588
H      81.45176407      69.66371636     100.66596998
H      83.88762128      69.66182664      98.25278948
C      82.48922382      66.04300075      99.47544240
H      83.47566095      65.08868896      97.93909491
H      80.66752765      65.13026294      99.79291642
H      83.77045825      65.82946167     101.07415086
C      77.56459704      72.90648672      94.64152249
O      76.00179338      71.38147758      94.11239913
N      77.10539356      75.34801311      93.87996279
H      78.21844234      76.72184414      94.59805879
C      75.03803296      76.08122692      92.21133445
H      75.03803296      74.76786713      90.62585408
H      75.31015355      77.93882789      91.36662679
C      72.35651132      76.20594886      93.37162641
O      70.48190282      75.75052482      92.02047210
N      72.01258114      76.54798932      95.81126308
H      73.63585604      76.82577909      96.77691323
C      69.49735541      76.57066604      96.99990093
H      68.42399087      75.03053909      96.15330354
C      69.76380682      75.70706111      99.82693150
H      70.94299605      76.88436060     101.04202551
H      70.68599327      73.89292385     100.14629524
C      67.25802974      75.40659463     101.04202551
N      65.61774730      73.37135939     100.93242139
H      65.81805829      71.77265093      99.91196918
C      63.47101821      74.18016225     102.16830240
H      61.76648506      73.06144427     102.10783116
N      63.63920384      76.49885644     102.95442854
H      62.30316734      77.51363947     103.86149717
C      66.05238435      77.31143875     102.41396682
H      66.78370843      79.19360616     102.71065385
C      68.11029630      79.07644313      96.74289815
O      68.92287862      81.07388384      97.51012704
N      65.87097062      79.04431778      95.56748839
H      65.25114038      77.38135862      94.86262047
C      64.42155053      81.40269622      95.21599929
H      65.74435895      82.88802110      94.67364784
C      62.30883652      80.96238999      93.22611748
H      60.72146641      79.89847407      93.99901555
H      62.96457155      79.50352127      91.92598578
C      61.39987816      83.27352527      91.71433643
H      63.16488253      84.26185213      91.32883227
C      60.11486427      82.40992034      89.46178267
H      61.38287062      81.23451058      88.34306469
H      59.46857788      84.09555621      88.46778663
H      58.46135374      81.29309209      89.97200877
C      59.73880873      85.08955226      93.20344077
H      58.10986465      84.08421786      93.96877993
H      59.05850726      86.59377440      91.97133921
H      60.84807808      86.13835036      94.58672043
C      63.51070246      82.30787512      97.73122501
O      62.24836527      80.86223449      98.90474505
N      64.07762034      84.60767205      98.54380733
H      65.01114515      85.80197908      97.38540510
C      63.11952910      85.84355305     100.91163440
H      62.89087222      84.29208775     102.24956063
C      65.14153626      87.68981566     102.00578593
H      64.19856283      88.52318497     103.63661974
H      65.81616855      89.28663440     100.89273714
C      67.34495714      86.14779899     103.23032859
H      68.15753946      84.88168236     101.82437221
C      69.30271361      88.21515958     104.01834446
H      68.62430185      89.52662964     105.45453646
H      70.28348156      89.23939124     102.52357094
H      70.79937685      87.21360463     105.01989940
C      66.52670566      84.54531108     105.47343372
H      65.86908089      82.69904847     104.84226513
H      65.00169651      85.49584341     106.48443730
H      68.01958944      84.14657883     106.83592639
C      60.50414789      87.22116354     100.61494737
O      58.66355446      86.63345865     101.85271810
N      60.41344102      89.08632341      98.77813339
H      61.93656043      89.04852888      97.62729007
C      58.47269211      90.84187915      98.19420796
H      56.73036444      89.74205844      98.20554632
C      58.53127362      92.96404180     100.18597950