 %block lattice_cart
   139.898   0.000   0.000
   0.000 144.87   0.000
   0.000   0.000   168.12
 %endblock lattice_cart

 %block positions_abs
N      93.33341827      45.61505931      87.30749467
H      95.09653291      45.25034213      86.67254664
H      92.18257493      44.16941868      86.82750419
H      93.25216004      45.87206208      89.19722099
C      92.40556265      47.77501648      86.09995955
H      93.26727784      49.44175508      86.94844668
C      92.84397914      47.61816919      83.19733995
H      92.29973797      45.77190658      82.46790559
H      94.87543493      47.79391374      82.89687345
C      91.54384744      49.86505379      81.96523838
H      89.51050194      49.65151472      82.21279254
H      91.97848450      49.86505379      79.95267986
S      92.77783873      52.78090149      83.22568584
C      90.35331987      54.90684359      81.86697262
H      91.15645355      56.79845962      81.72524315
H      88.57130796      54.73865794      82.88553511
H      90.11521436      54.23977019      79.93378259
C      89.61632660      47.97721719      86.69333363
O      88.16879624      46.12717514      86.31916781
N      88.73760387      50.16552026      87.66654267
H      89.99049242      51.58092527      87.91787627
C      86.19781170      50.43575114      88.75691475
H      84.86555465      49.04869202      88.01614205
C      86.18458362      49.84048734      91.66709328
H      87.03873992      47.97721719      91.87496318
H      84.33265184      49.61372018      92.54203656
C      87.57731191      51.83225887      93.34705996
O      88.01194896      53.97520851      92.63841261
N      88.26517229      51.04991218      95.66197471
H      88.70736824      52.44264048      96.88840708
H      87.94391881      49.28112835      96.29881246
C      85.01295330      53.09081659      88.15220233
O      86.44725557      54.76322439      87.59284335
N      82.62811870      53.49143858      88.68321542
H      81.72671924      52.00422398      89.47123131
C      81.26562602      55.81391222      88.17865850
H      81.60010758      56.22965200      86.19066642
C      78.44426465      55.56068889      88.63219281
H      77.68081521      53.99599550      87.53048237
C      78.00017895      55.07502922      91.51024599
H      78.81276127      53.25144334      92.01858237
H      75.97061289      54.74621686      91.62173985
H      78.32332215      56.78523155      92.61384616
C      76.94382196      57.81324265      87.88008175
H      77.58821862      59.47620181      88.91187232
H      75.07866207      57.45041520      88.67376680
C      76.61878902      58.44252151      84.99257994
H      78.39135230      58.84881268      84.02692980
H      75.18070730      59.87493406      84.63731140
H      75.73250738      56.83814388      84.05338596
C      82.40702072      58.06457625      89.49390801
O      82.44481525      60.13571629      88.43755100
N      83.09110165      57.73387415      91.85606591
H      83.10432973      55.96509032      92.57605163
C      84.35532855      59.56123949      93.47745109
H      83.00984342      61.12215344      93.52847370
C      84.73327381      58.47275713      96.19298779
H      85.40601638      59.92595667      97.48934005
H      86.31686447      57.16128708      96.11928847
C      82.41080017      57.16695626      97.24934480
C      80.04486284      58.47275713      97.55925992
H      79.85966966      60.49098484      97.31926467
C      77.97372279      57.16506653      98.41152648
H      76.15958553      58.10237078      98.40963676
C      78.03797349      54.55535450      98.84805327
H      76.37312460      53.53679200      99.44709650
C      80.28863752      53.16262620      98.40585731
H      80.37178549      51.12172178      98.37373196
C      82.45804333      54.55157503      97.58382636
H      84.17391482      53.59159408      97.03958518
C      86.85354674      60.56468417      92.37952010
O      87.26361735      62.86448110      92.57605163
N      88.46548329      59.02077777      91.20977951
H      88.07242020      57.15183844      91.20788978
C      90.61410209      59.77666829      89.71878545
H      91.40400769      61.43773772      90.64664107
C      92.64366816      57.84914745      89.65075530
H      92.39989346      56.63405343      88.00480369
H      92.51138732      56.73231920      91.37607543
C      95.33841788      59.10203601      89.39753197
H      95.52928023      60.29634303      87.73079337
H      96.65744684      57.57324741      88.99124081
C      96.09430840      60.38138071      91.93543442
O      96.87287564      59.01132913      93.66642372
O      95.81084945      62.69818517      92.19243719
C      89.87332939      60.71019309      87.02403573
O      91.06385696      62.61881667      86.32105753
N      88.04785376      59.64249772      85.68799922
H      87.12566732      58.12882695      86.39664659
C      86.97259949      60.61381705      83.31450298
H      88.12155309      60.43996223      81.61374929
C      84.61611078      59.00565995      82.72679809
H      82.96260025      59.54045251      83.83228798
H      84.88823138      56.98743226      83.03671321
C      83.78085175      59.22864766      79.93756206
H      85.14712388      58.44252151      78.61097419
H      83.79219011      61.21097056      79.38387224
S      80.55319920      58.14583448      79.43111541
C      80.16958476      58.43496262      75.98236488
H      78.17403379      58.61637633      75.50804357
H      80.90657802      56.82869524      74.92411814
H      80.99917461      60.21697452      75.36631410
C      86.43024804      63.47864214      83.56772629
O      87.53951738      64.98664374      82.23546924
N      84.81831149      64.41594639      85.22690600
H      83.96415520      63.08746879      86.30027054
C      84.03029563      67.13337284      85.38375329
H      83.25739756      67.83824075      83.60930028
C      81.85333091      67.66060647      87.28292824
H      81.84010283      69.66749581      87.74213173
H      82.13112068      66.77432484      89.12163194
C      79.33054628      67.12392420      86.16798970
H      78.04364266      66.90093649      87.75913926
C      78.25529202      69.40671359      84.80927648
H      78.33655024      71.17360769      85.86185405
H      76.24462321      69.04199641      84.54660452
H      79.14724283      69.73363624      82.98191114
C      79.00173391      64.85814235      84.30094010
H      79.86911828      65.10758622      82.45089805
H      76.98161647      64.51232244      84.10062912
H      79.86344911      63.18762429      85.14186832
C      86.24127541      68.87381077      86.05271641
O      86.36032816      70.85235422      85.10407380
N      87.98927226      68.04233118      87.63441732
H      87.64912151      66.37937204      88.50936061
C      90.16812669      69.52765607      88.37896950
H      89.76750472      71.41549266      89.10273467
C      91.70258445      68.20295793      90.50680132
H      93.47514774      69.21963068      90.76191438
H      92.08052971      66.21307611      90.12507661
C      90.10198626      68.40515865      92.88029757
H      88.34076135      67.33746328      92.94832772
H      89.61821633      70.35535619      93.33383188
C      91.57786251      67.89682226      95.23489656
H      90.49504934      68.28988534      96.94131942
H      93.25404975      69.07979094      95.05348283
N      92.38099621      65.14727047      95.22166848
H      93.74726832      64.40271830      94.11428886
C      91.45125085      63.33124349      96.76746460
N      89.42735397      63.72808602      98.16019288
H      89.23649162      62.39582896      99.51512665
H      88.51083671      65.40238353      98.12050863
N      92.67957295      61.25443427      97.07737972
H      91.78195296      59.91650805      98.10161138
H      94.35576019      61.02766711      96.19109808
C      91.98226394      69.71851842      86.11318765
O      93.41089704      71.65170844      85.82216980
N      92.05785300      67.77776950      84.42377232
H      91.11298984      66.13370761      84.63164221
C      93.42034567      67.89304281      82.12019595
H      95.30251308      68.59035182      82.58884807
C      93.98726357      65.16049856      81.14131772
H      92.23548727      64.10414155      81.38887186
C      94.53150475      65.09057868      78.35397141
H      92.84586888      65.60647398      77.28816577
H      95.17401169      63.25943390      77.66044185
H      95.91667413      66.60802891      78.20846248
C      95.93935085      63.71674765      82.82695359
H      95.27794664      63.57312846      84.77148196
H      97.74026002      64.70507451      82.67955493
C      96.57807834      61.01632876      81.97468702
H      97.93490184      61.05412329      80.42700117
H      94.86787602      59.93729503      81.58729313
H      97.27538735      60.05445806      83.65843316
C      92.20525165      69.78654857      80.18889566
O      93.50538335      71.04321658      78.84718997
N      89.65601086      69.86780681      80.12464496
H      88.72248605      68.51287305      81.08840538
C      88.19525241      71.37769814      78.24058783
H      89.23649162      71.15848988      76.47558345
C      85.58743010      70.09457396      77.76437680
H      84.72004573      71.24730702      76.29416972
H      84.32131347      69.99819792      79.38576197
C      85.91813221      67.39604479      76.55117250
O      87.66045987      66.91983375      75.03939145
O      84.16824564      65.90127127      76.98769928
C      87.71148249      74.21606705      79.03805232
O      88.00816951      75.89414401      77.46391031
N      87.06519608      74.75463905      81.40776912
H      86.50961655      73.23907854      82.42822133
C      86.10521511      77.29065177      82.22224117
H      86.53985216      78.65314444      80.74447518
C      83.26306675      77.13569421      82.54349464
H      82.73016392      76.54798933      84.44455931
H      82.47694060      75.73540700      81.25470129
C      82.14812821      79.71517062      81.91610550
H      82.26907070      80.14602822      79.90543670
H      83.18747769      81.14947290      82.96679334
C      79.45904767      79.82288503      82.57184054
O      77.86789812      78.54165058      81.37564377
O      78.68803933      81.22128249      84.34440381
C      87.44692079      78.32811152      84.54660452
O      87.06708581      80.50318650      85.19289093
N      89.07208542      76.72373388      85.64831496
H      89.10232104      75.03998773      84.74880524
C      90.91645830      77.52119837      87.62307896
H      91.95769750      79.20305479      87.04104327
H      92.25816399      75.96784335      87.45300360
C      89.63333414      77.83867240      90.21767320
O      87.41668517      77.19994490      90.46144789
N      90.95614256      78.66259306      92.04314881
H      92.78917709      79.15959109      91.84094809
C      90.04529447      78.74763076      94.60750741
H      87.99872088      78.50574579      94.63207386
C      90.84842817      76.34011942      96.01157407
H      92.88555313      76.25130230      95.70732814
H      89.98860268      74.67716028      95.15363833
C      90.37221713      76.01508650      98.84238408
H      91.53250908      77.35679219      99.88740273
C      87.68502631      76.57633522      99.65874586
H      86.69291999      76.04721186      97.93342573
H      87.32030914      78.57377594     100.00834522
H      87.15968240      75.80910633     101.49744956
C      90.96559120      73.35246213      99.90630000
H      89.31774985      72.12036058      99.81181369
H      91.33408782      73.28821144     101.93208660
H      92.49060033      72.38303253      98.91608342
C      90.68969115      81.26096675      95.92653638
O      92.89689148      81.71261134      96.55770498
N      88.73571415      82.72739436      96.65030157
H      86.97259949      82.15480729      96.19298779
C      88.68280180      84.75696043      98.40018812
H      90.59709456      85.50340232      98.56270460
C      87.26928652      86.96416077      97.15485849
H      86.94047414      88.35499933      98.63640391
H      85.37200130      86.36322780      96.62951458
C      88.46170383      88.31342534      95.08560818
H      88.49382918      87.04352927      93.46422301
H      90.44591646      88.63278910      95.53158358
C      87.26739679      90.79274627      93.84027854
H      88.62044083      91.66957928      92.56093383
H      86.71559672      92.18736429      95.25190409
N      84.81453204      90.00850985      92.57605163
H      83.89234561      88.40413222      93.04092431
C      84.17202510      91.03085178      90.41231501
N      84.63500805      93.32497953      89.92287588
H      84.52351419      93.84843371      88.08984137
H      84.84665739      94.50983792      91.40442132
N      83.03063040      89.59088034      88.61518528
H      82.42402825      90.49983870      87.04860217
H      82.58465499      87.78052252      89.01769698
C      87.61132699      83.99729045     100.99100290
O      85.50428214      83.17714923     101.21210089
N      89.14011557      84.58688505     102.77679427
H      90.73882403      85.46749752     102.21743528
C      88.66012509      83.90658359     105.30146863
H      87.42991326      82.25685252     105.38083714
C      91.16401246      83.25840747     106.70553527
H      90.60465346      82.94282317     108.66329174
H      92.22603864      85.01774266     106.84159558
C      92.65311679      81.00396396     105.71153924
H      93.45247102      81.67481681     103.93708623
C      94.90189111      80.40114128     107.51622786
H      95.89399742      82.19638128     107.69764159
H      96.37965707      79.21439315     106.70742501
H      94.24615607      80.09689533     109.44374870
C      90.97692955      78.62668826     105.35816041
H      89.72404101      78.18449231     106.93419216
H      92.12588314      76.93349350     105.11060627
H      89.81096841      78.82321981     103.67252454
C      87.08787279      85.90402429     106.74521953
O      85.81419726      85.37868038     108.58392323
N      87.53573793      88.23783630     106.03090299
H      88.61288193      88.31531508     104.45865069
C      86.27906993      90.63211954     106.79813186
H      86.02962607      90.62834009     108.84281573
C      88.00250034      92.72593629     105.81547418
H      87.04440909      94.52873519     106.08192560
H      88.09698665      92.47838214     103.77268004
C      90.66323499      93.03207196     107.14395179
H      91.89722627      91.39178951     106.97198668
H      90.60843292      93.21915485     109.19619456
C      92.16178794      95.42824492     106.50522428
H      91.06196723      97.13655750     106.84915448
H      92.39422429      95.32997914     104.46243015
C      94.77527944      95.75705729     107.81102516
H      94.37276773      95.14856543     109.73665629
H      95.30440280      97.74126992     107.66740597
N      97.08830445      94.47582286     106.81702913
H      98.71157935      94.79518660     107.76567174
H      97.26782844      95.50383396     105.21643095
H      96.84264003      92.60310408     106.54679827
C      83.56542296      90.94203465     105.69831115
O      82.96637971      89.81008859     103.81992320
N      82.03852409      92.72971575     106.63939486
H      82.66213378      93.40245830     108.31180265
C      79.71227099      93.47993709     105.31658644
H      78.66914207      91.87555945     104.55691645
C      77.97183306      94.63078042     107.39528537
H      79.05086678      95.94225047     108.55746706
C      75.71549984      96.02917788     106.10271259
H      74.91425589      94.64589822     104.80258087
H      76.41469858      97.65056307     105.04446584
H      74.30009483      96.70381018     107.43874909
C      76.80209247      92.71459794     109.29257060
H      78.19860023      91.57509296     110.28845637
H      75.70227177      91.34454636     108.22109578
C      75.20527374      93.82197756     111.49599148
H      73.66325707      94.96526196     110.74954959
H      76.53564106      95.03140240     112.50510533
H      74.55520789      92.31208623     112.73754167
C      80.48894852      95.33564833     103.21332104
O      81.94214804      97.18191094     103.60260467
N      79.41747369      94.89345237     100.99856181
H      78.63890645      93.15868362     100.83415562
C      79.47983466      96.49971973      98.79703065
H      80.32454232      98.30440837      99.31292594
C      81.12389655      95.33375860      96.72967006
H      82.98716669      95.02762293      97.54792156
H      81.39601715      96.79262732      95.30103697
C      80.17336421      92.72026711      95.97566928
C      78.48772834      92.24405608      93.83649909
H      77.50129122      93.83331591      93.02391676
C      77.60900562      89.76851461      93.12974145
H      76.29942528      89.53607828      91.58016586
C      78.67103180      87.61611634      94.38640944
O      78.17025433      85.22939201      93.73445387
H      77.27452406      85.19915638      92.15653239
C      80.12612107      88.07154037      96.53124880
H      80.61178072      86.45204492      97.67453323
C      80.86311432      90.46582362      97.28147015
H      82.14812821      90.43369827      98.86695052
C      76.72650343      97.06096846      97.79736543
O      74.88024082      95.99705253      98.63262446
N      76.64335546      98.57085978      95.73567403
H      78.10033445      99.76516681      95.43142810
C      74.24718250      98.91667969      94.37507109
H      72.70894528      98.24771657      95.56937812
C      73.83144272     101.78339451      94.21444435
H      72.21194726     102.14811169      92.99557087
H      75.45471761     102.85864878      93.54359150
C      73.27208372     103.04762141      96.75990569
H      74.91236617     103.14966664      98.00523534
H      71.78675885     101.92512398      97.63862843
C      72.33100003     105.76315813      96.42542413
H      70.77008609     105.93323349      95.09505681
H      73.91270094     106.94990625      95.84716789
C      71.14047245     106.55873290      98.83860463
H      72.54453910     106.33763493     100.32770896
H      69.51152837     105.40033068      99.34127183
N      70.29198532     109.20623946      98.58916077
H      71.47684373     110.20779441      97.47611197
H      69.88380444     110.11519782     100.21810484
H      68.73107139     109.28182852      97.49311950
C      73.87490641      97.56174592      91.77102823
O      75.63613134      97.30852259      90.22145264
N      71.66203691      96.48649165      91.34961925
H      70.26363943      96.75105333      92.62140507
C      70.77386553      95.54540795      88.99879972
H      71.90203214      93.90134606      88.47723526
C      68.03565212      94.53062492      89.41264979
H      67.00197181      96.28051149      89.73768272
H      68.22840419      93.53473915      91.20600006
C      67.04921497      93.13789662      87.04293298
O      65.37113800      94.10354677      85.79004445
O      67.92604798      90.94203465      86.75947404
C      70.91748473      97.50127468      86.94844668
O      71.42771085      99.79540243      87.45678305
N      70.51875248      96.59420606      84.60329631
H      70.49229632      94.74983318      84.11385720
C      70.21639627      98.48393237      82.45656722
H      71.86990680      99.70280584      82.28838158
C      70.18049147      97.12899859      79.88087026
H      69.72506743      98.41590222      78.33885359
C      72.83555695      96.18791490      79.17222290
H      72.85634393      95.29974352      77.31462193
H      73.42515155      94.71959754      80.49125187
H      74.34166881      97.59387127      79.07395712
O      68.76508646      95.02573322      79.79583257
H      68.49863505      94.74416400      78.02326930
C      67.95628360     100.23003947      82.69467274
O      68.13958705     102.54873367      82.05027606
N      65.90782028      99.24927152      83.80016263
H      65.89081275      97.40111918      84.27259421
C      63.67227405     100.67601489      84.67510591
H      63.19417329     102.04417674      83.21245776
C      61.28365999      99.21147699      84.83762239
H      59.65849536     100.36609977      85.36107657
H      61.54822167      97.93591174      86.43444111
C      60.63170441      97.58064318      82.54538436
H      62.12647793      96.16712791      82.45845696
H      60.75831607      98.75038378      80.85407932
C      57.97852867      96.48460193      82.84396112
O      57.65349574      94.17157692      83.10663307
O      56.10392017      97.90189666      82.74758507
C      64.09368302     102.22559046      87.10718368
O      62.76331569     103.95280032      87.95945026
N      66.24986074     101.63032668      88.15031261
H      67.35913009     100.28862100      87.36796592
C      67.13047320     103.17990226      90.41609446
H      66.24041211     105.03750322      90.35751294
H      69.16570845     103.36131597      90.17609921
C      66.63158547     101.88921919      93.10328527
O      66.95283893     103.06840840      95.09127735
N      65.51475720      99.62154761      93.13163116
H      64.85713245      98.79384748      91.54426107
C      64.76642558      98.31763645      95.56748838
H      63.79510626      99.66123185      96.79014131
C      62.67260883      96.31452656      95.01568830
H      61.90726967      95.75327784      96.84305364
H      63.56833910      94.66479548      94.16720119
C      60.51265165      97.26883835      93.30170653
C      59.63014947      95.70414496      91.29481720
H      60.39737835      93.84654400      90.93765891
C      57.42294913      96.55452179      90.03625947
H      56.46674762      95.41123737      88.64353117
C      56.29478252      98.85809817      90.58805956
O      54.38426922      99.49115649      89.16320591
H      53.61893006     100.87065670      90.05515673
C      57.30389637     100.50404980      92.50802149
H      56.43840172     102.26527472      93.06927021
C      59.36936723      99.51383320      93.94610321
H      59.91549814     100.81207518      95.42197946
C      67.00197181      97.16868286      96.76935432
O      68.46461998      95.96492719      95.42764863
N      67.16637800      97.30285342      99.28080059
H      65.91915864      98.34220289     100.28235553
C      69.04665568      95.91768404     100.99289264
H      70.90047720      96.67546429     100.51668161
C      68.52698095      96.75861224     103.68764236
H      69.69672155      95.50194425     104.82903705
H      66.56355532      96.49971973     104.25267053
C      69.23940777      99.48926676     104.23755271
C      67.37613762     101.15978483     105.10493708
H      65.48641131     100.44546827     105.39973439
C      67.98273977     103.73737152     105.50933851
H      66.51631215     105.03750322     106.08192560
C      70.47150932     104.68790386     104.97076652
O      70.90614638     107.12187135     104.78179389
H      69.43782903     108.02705024     105.34682205
C      72.32911029     103.02683443     104.24700135
H      74.23773388     103.69957699     103.98432938
C      71.73195677     100.43979909     103.92763759
H      73.10767753      99.12832904     103.18119570
C      69.16003926      93.10388156     100.66408025
O      67.07378141      91.89067725     100.73588986
N      71.38613686      92.00217111     100.26912745
H      72.82799804      93.21537541      99.97621987
C      72.03809244      89.46993785      99.71543765
H      70.59623127      88.23972602     100.52235078
C      72.32911029      89.10522067      96.87517899
H      74.09789412      89.91024409      96.19487753
C      72.37446372      86.46716274      95.79803499
H      70.55465728      85.52607903      96.00401516
H      73.82388381      85.45426944      96.85439200
H      72.88091037      86.40858123      93.80059428
O      70.22206546      90.17291604      95.59961373
H      69.97073185      91.72249161      96.50857210
C      74.48528802      88.63278910     100.99100290
O      76.11423210      90.27118180     100.99478236
N      74.73662161      86.11378391     101.67130438
H      73.26452481      84.98561731     101.22154951
C      77.04019799      84.97427896     102.79002235
H      78.58977357      86.28007983     102.42152573
C      76.78886439      84.92514607     105.81547418
H      76.38446296      86.85266691     106.41262769
C      74.57788461      83.19982595     106.55057772
H      74.98039632      81.24773866     106.03279270
H      72.98106587      83.49084380     105.28257136
H      74.22072633      83.11289853     108.57825406
C      79.19259626      84.00673909     107.09481890
H      80.71760539      84.83632893     105.98932901
H      79.19259626      81.95071685     106.96442778
C      79.38156889      84.83632893     109.91429056
H      81.15791162      84.01240825     110.55301804
H      78.00206868      84.14279937     111.27678323
H      79.57621070      86.88668198     109.99554879
C      77.55987272      82.42692788     101.55981052
O      75.77975054      81.05876604     100.70376451
N      79.96738405      81.58977913     101.63728930
H      81.36767124      82.68582038     102.32703940
C      80.70059786      78.97250818     101.12517347
H      79.23983942      77.81221623     102.00011675
H      82.48260977      78.42448755     102.00011675
C      80.61744991      78.45850263      98.29625319
O      81.27885412      80.04209327      96.67864746
N      79.76140388      76.18516188      97.64618734
H      79.06031542      75.11746650      99.06537180
C      78.89024005      75.46517615      95.07049037
H      80.01651693      76.20216941      93.51146615
C      79.32676684      72.64381477      94.70766291
H      77.93025908      71.86146806      96.00401516
C      78.78441538      71.85012971      91.96567003
H      80.08265736      72.60413051      90.55593420
H      76.82854864      72.28287703      91.48567955
H      79.04330788      69.80922530      91.84661727
C      82.00639874      71.78020984      95.54670140
H      82.11033370      69.73552597      95.33316232
H      82.42024880      72.43972432      97.45532497
C      84.10021549      73.01420112      93.87429361
H      85.93702948      73.13703333      94.80025951
H      83.49550307      74.96817812      93.64941617
H      84.22493743      71.81989409      92.19810638
C      76.08966566      76.49696671      95.12718216
O      74.18293180      75.11746650      95.70543840
N      75.67203614      79.06321505      94.51680056
H      77.18003773      80.17437412      94.15775256
C      73.20594331      79.98918094      93.43209766
H      72.62579733      79.12368629      91.65575491
H      73.38546730      82.03764426      93.30548599
C      70.78709362      79.91359189      95.08749790
O      68.59690083      80.01185766      94.18420872
N      71.08756010      79.88713571      97.65752568
H      72.84689531      80.07043918      98.38129087
C      68.87469060      79.96083504      99.22977798
H      67.52731574      78.83644788      98.15074426
C      69.65514756      78.71739514     101.74689344
H      70.74551965      80.03264465     102.89962648
H      70.91181556      77.20750381     101.13084266
C      67.62747122      77.80843678     103.64228893
N      66.51820188      75.40281518     103.67441426
H      67.10968621      73.84946014     102.73899975
C      64.17872070      75.63714124     104.66652059
H      63.02598765      74.04032251     105.19942341
N      63.85746723      78.04654229     105.61894265
H      62.26064849      78.67960061     106.45042223
C      66.03254221      79.36935071     105.06903228
H      66.08545455      81.40647567     104.95942816
C      67.81077468      82.63479777      99.55859036
O      69.09011939      84.19382198     100.63573436
N      65.55633119      83.09778073      98.68742653
H      64.60957830      81.83355382      97.61595171
C      64.12202891      85.38623929      99.23355743
H      65.21240099      86.96038130      98.47388746
C      61.68050252      85.41836464      97.67264349
H      60.22541325      84.58121587      98.86695052
H      61.51609633      84.37523572      95.90385968
C      60.89626610      88.04508422      96.60116869
H      59.34102134      87.71627184      95.28969861
C      59.94573376      89.81575777      98.55514569
H      59.50164808      91.63934366      97.70476884
H      61.48775043      90.21449001      99.86094657
H      58.33568694      88.98805764      99.53969309
C      62.99008285      89.25828850      94.98356295
H      62.23608205      90.99494698      94.17287036
H      63.67794323      87.99595133      93.50768670
H      64.53965843      90.03496601      96.09850149
C      63.62692062      85.78119209     102.06436745
O      62.58757115      84.13524046     103.36449916
N      64.35446525      87.95248763     103.14907035
H      65.51097775      89.17892000     102.25522980
C      63.86313641      88.28318972     105.90996050
H      63.77998845      86.62023058     107.12127506
C      66.11946962      89.80819887     106.83025721
H      65.74152437      90.41102156     108.76344724
H      66.33678815      91.45604021     105.61327346
C      68.56855494      88.24539521     106.82836749
H      69.11468583      87.64446224     104.93675144
C      70.75307854      89.87811874     107.84881970
H      71.01197106      91.51651145     106.62805650
H      72.52375210      88.82554117     107.78645872
H      70.28820587      90.51684622     109.74988437
C      68.36446448      85.84922223     108.48565747
H      66.95661838      84.59444396     107.65606762
H      67.96384251      86.35188944     110.44152419
H      70.22773463      84.97049951     108.46487047
C      61.52743468      90.00284068     106.31625166
O      59.99675637      89.67780774     108.13227865
N      61.20996066      91.96248685     104.69675621
H      62.32678891      92.14012114     103.16040871
C      59.13882062      93.83709536     104.72699182
H      57.42861831      92.69192122     104.62872605
C      58.95551717      95.15234487     107.34048332