 %block lattice_cart
   139.898   0.000   0.000
   0.000 144.87   0.000
   0.000   0.000   168.12
 %endblock lattice_cart

 %block positions_abs
N      95.35920486      48.98538618      84.92643951
H      95.53872886      49.43136159      86.77270212
H      97.19979829      49.10443894      84.44077986
H      94.82441232      47.15802084      84.79415868
C      93.59609022      50.65023506      83.50914478
H      94.00805055      52.57586618      84.11196748
C      94.01183001      50.42157818      80.65376833
H      93.65278201      48.53185187      79.91677506
H      96.02249880      50.74850083      80.34385321
C      92.66823460      52.59665316      79.19300989
H      90.88811241      51.73304824      78.62042281
H      93.80396011      53.11254845      77.55461716
S      92.14855986      55.54840567      80.87864576
C      89.26483751      56.00382971      79.00214752
H      87.68502632      55.25360836      80.09251961
H      89.17791010      54.98715695      77.21257671
H      88.81130319      57.97292453      78.60152555
C      90.94858366      49.93591852      84.23479969
O      90.32308425      47.68714420      83.90787704
N      89.66168004      51.59698794      85.57839509
H      90.40056302      53.31474916      85.96389927
C      87.12944678      51.42124340      86.63097265
H      86.45103502      49.61655477      85.90720748
C      87.37511120      51.08487211      89.53170253
H      88.32375380      49.27829376      89.80760259
H      85.59120956      51.07542348      90.56349310
C      88.75083195      53.18246832      90.94143837
O      87.64534206      55.18557821      91.10773428
N      91.03740079      53.01050323      91.71244670
H      91.80085023      54.55629935      92.53258793
H      91.85754200      51.28896256      91.63118848
C      85.57609174      53.89489514      85.98657597
O      86.55496998      55.86965914      85.40265055
N      83.20826467      53.68891497      86.38908768
H      82.59410363      51.88989552      86.57428086
C      81.22594177      55.65612007      85.91098693
H      81.20893424      56.13611055      83.90598730
C      78.74284139      54.38244453      86.44200001
H      78.57276603      52.97270870      84.94911623
C      77.96049471      53.39978685      89.01580725
H      76.68681917      51.81997565      88.66053870
H      76.92681441      54.79629459      90.12507661
H      79.57621070      52.71570592      90.09295126
C      76.56965614      56.08319821      85.49524713
H      76.88146097      56.46492293      83.49591670
H      76.59422258      57.99560124      86.26247602
C      73.71238996      55.21203438      85.63886634
H      72.66926102      56.83341956      84.91321143
H      73.26830426      54.71692609      87.59095362
H      73.48940224      53.61899510      84.35196272
C      81.49050345      58.18457387      87.29993577
O      80.53430194      60.11209471      86.35885205
N      82.73961254      58.23748621      89.47123129
H      83.72038050      56.70302844      90.04003891
C      83.32542770      60.52972423      90.86206986
H      81.80797748      61.89788608      90.59372873
C      83.75628531      59.88154810      93.64752645
H      84.03407508      61.64466275      94.67553757
H      85.54018695      58.87621370      93.86862443
C      81.73049869      58.19780196      94.82482595
C      82.06498025      55.56163375      95.03080612
H      83.70337296      54.51094592      94.42231424
C      80.15635667      54.03473489      95.94921310
H      80.37745465      52.01272773      96.12117819
C      77.83577277      55.11565834      96.61628649
H      76.33533008      53.91568213      97.30225713
C      77.54853436      57.76883408      96.50101319
H      75.69093340      58.60220339      96.63140430
C      79.42125314      59.28628431      95.57693701
H      79.20393461      61.28750448      95.25379381
C      85.74616712      61.86198128      89.84161765
O      85.78774110      64.15232957      89.45989293
N      87.73982838      60.50704751      89.18210318
H      87.43936190      58.62299038      89.22556687
C      90.07175064      61.40655724      87.94622216
H      90.71614732      62.99770679      89.08383740
C      91.89344680      59.12754730      87.94622216
H      91.25660905      57.79529025      86.51380962
H      91.98037423      57.96725535      89.64697585
C      94.60142461      59.99115223      87.33206112
H      94.48237185      61.37632161      85.81083143
H      95.72581177      58.44724583      86.55916304
C      95.71069397      61.26860721      89.59595323
O      95.75415766      63.59108085      89.45989293
O      96.52894545      60.05351320      91.47623092
C      89.37444163      62.31362587      85.23446491
O      90.23048766      64.42445016      84.62975249
N      87.74171811      60.87932359      83.88709005
H      87.16346185      59.25604869      84.70723127
C      86.64000766      61.78072305      81.50792462
H      87.78140235      61.43490313      79.82984765
C      84.30052649      60.27650090      81.11297182
H      82.91157764      60.73570439      82.56428163
H      84.87878274      58.30362663      81.23391430
C      82.99661532      60.33130296      78.56751048
H      84.33454156      59.64722204      77.15588492
H      82.60922143      62.29661833      78.08374054
S      80.04108337      58.60787257      78.30294879
C      77.94159744      60.62043109      80.24558744
H      77.43326106      62.35897930      79.25915030
H      78.81276127      61.22514351      82.01248155
H      76.17470334      59.73981863      80.83329233
C      85.86333015      64.53783374      81.55894722
O      86.92913578      65.99292300      80.08118125
N      84.35532855      65.41844620      83.36174612
H      83.99061137      64.16555765      84.75447443
C      83.81675655      68.21713087      83.37686394
H      83.50117226      68.73491588      81.40776912
C      81.33176644      68.75948232      84.75069497
H      81.58687950      70.36008051      86.02437051
H      80.76862800      67.02849302      85.71067594
C      79.28519284      69.74591946      82.98758032
H      80.06376010      71.28415667      81.85941371
C      78.36678586      67.59352118      81.19234033
H      77.85467003      65.85875243      82.17877746
H      79.99761967      67.00581630      80.07929153
H      76.91358632      68.48925146      80.03960727
C      76.91358632      70.71912851      84.31605792
H      76.08399648      72.12319516      83.05938991
H      77.33499529      71.82083895      86.00358352
H      75.54353475      69.20734746      84.59573740
C      85.93513975      70.06150375      84.26692504
O      85.83687398      72.23279928      83.34473859
N      87.66234959      69.37175365      86.11696710
H      87.50361258      67.57462392      86.74624596
C      90.05096366      70.75314358      86.65175963
H      89.68246702      72.70523086      87.18844191
C      91.69880500      69.50592421      88.73423804
H      93.41467649      70.58873739      89.09139631
H      92.35831948      67.63698489      88.17109960
C      90.42135002      69.23947280      91.34395008
H      88.85287718      67.94501028      91.02269660
H      89.70325401      71.06872787      91.96378031
C      91.84242420      68.09996784      93.63807782
H      90.80307473      68.40043432      95.38985411
H      93.73781969      68.90121179      93.74201276
N      92.32997359      65.41844620      93.25068393
H      93.51294227      64.98002969      91.81638166
C      91.45880976      63.48903563      94.54703618
N      89.89600610      63.64021374      96.37818097
H      89.38011081      62.11142515      97.39863318
H      89.57664236      65.22947357      97.38351536
N      92.22036947      61.17979008      94.20310599
H      91.60431868      59.64533231      95.15741777
H      93.89655670      60.89444140      93.33950107
C      91.58731115      70.98746964      84.13842365
O      92.63799898      72.96979254      83.81339071
N      91.67423856      69.04105154      82.53971519
H      90.78417746      67.43100472      83.04238238
C      93.16145316      69.15443512      80.20968264
H      95.05495894      69.90465647      80.51959776
C      93.35231552      66.52771554      79.16844344
H      91.46258921      65.71702296      79.29127565
C      94.40678281      66.32740455      76.54928277
H      96.40989269      66.75448270      76.75148348
H      93.50349363      67.68044859      75.28883532
H      94.23481772      64.37153782      75.92378336
C      95.06251783      64.81373378      80.77849026
H      94.40678281      64.83074131      82.73246726
H      96.91067018      65.72458186      80.82762315
C      95.30440280      62.02449774      80.04149700
H      93.48459637      61.08908322      79.82228875
H      96.33997283      61.08530376      81.55705750
H      96.33052419      61.62009631      78.30294879
C      91.91990297      71.09518404      78.39932483
O      93.19357851      72.44444863      77.08596504
N      89.36499301      71.45423204      78.49003169
H      88.42579903      70.41299284      79.78260450
C      87.78140235      73.09829393      76.81384446
H      88.62988947      73.29671520      74.94679486
C      85.20192594      71.83217730      76.70801977
H      83.87533806      73.23624396      75.98992379
H      84.61422106      71.41454779      78.63743035
C      84.93169508      69.53615983      74.90522087
O      86.21292951      69.39065091      72.90211099
O      83.31408934      67.79572190      75.40410862
C      87.34865502      75.76469776      77.73981034
O      87.58487082      77.51269460      76.23936765
N      86.77228851      76.17287865      80.16810865
H      86.60410285      74.69133322      81.35863624
C      86.10143566      78.75802424      81.18667114
H      86.37355625      80.26791557      79.81472984
C      83.31597908      79.11896197      81.68744861
H      82.48449949      79.47800997      79.83740656
H      83.11188863      80.75924441      82.91388099
C      82.10844397      76.77192189      82.80238714
H      82.79819407      76.12752521      84.63353194
H      82.09710560      75.11841136      81.57595477
C      79.27196477      77.25758155      83.39387147
O      77.61089533      76.57728008      81.84996508
O      78.80898181      78.27803376      85.41020946
C      87.56408382      79.36084694      83.52048314
O      87.35810365      81.40742053      84.47857437
N      89.23082244      77.66387271      84.33684490
H      89.50483275      76.17287865      83.17277350
C      90.82575144      77.93599330      86.61396512
H      91.76494542      79.74257165      86.30782945
H      92.08052971      76.33350538      86.92576995
C      89.45381013      78.19488580      89.08950659
O      87.16157213      77.55426858      89.24068468
N      90.80118500      78.96589414      91.08694730
H      92.60020445      79.49501750      90.72600956
C      89.79774033      79.16242567      93.70043879
H      87.75116673      79.37974420      93.65130591
C      90.70480896      76.65853831      94.87017937
H      92.69847022      76.41098416      94.41853478
H      89.96970543      74.99935861      93.89319087
C      90.49315961      76.34295401      97.80681406
H      91.93313106      77.43899528      98.78947175
C      87.97037499      77.21978702      98.89529642
H      87.52062012      79.17376403      98.42286484
H      88.18202433      77.32561170     100.94187002
H      86.31497474      76.00091355      98.76490531
C      91.02417270      73.56127688      98.54002787
H      93.03484151      73.14742682      98.37940113
H      89.70514374      72.21390202      97.71043803
H      90.85976652      73.36663507     100.58471174
C      90.71047814      81.67198222      94.77002387
O      92.97625998      82.01402268      94.96466568
N      89.00216556      83.35572836      95.59772401
H      87.18235911      82.84172280      95.33883149
C      89.45947931      85.66686364      97.15674821
H      91.47581729      85.82749038      97.54414210
C      88.53918260      88.05358798      96.02102269
H      88.48627027      89.41419092      97.56681883
H      86.67024328      87.54714132      95.31993424
C      90.37599658      89.10994498      94.12373748
H      91.38888988      87.61328174      93.13541062
H      91.80085023      90.09071294      95.24056574
C      89.17035119      91.03368637      92.37385091
H      90.78039802      91.75178237      91.30993499
H      88.32564353      92.63428456      93.35839832
N      87.52817903      89.82237180      90.51436023
H      87.55085575      87.92319686      90.68821504
C      86.14300963      90.81069867      88.71156132
N      86.18458361      93.22387917      88.22401193
H      84.57642653      93.89662174      87.44922415
H      87.41479544      94.42952456      89.04793260
N      84.87122383      89.47466216      87.20544944
H      83.98116273      90.28913420      85.72957320
H      84.91279780      87.58115640      87.46056251
C      88.27273120      85.35316907      99.79291642
O      85.92380139      85.29836701     100.06692674
N      89.96781569      85.23600604     101.66941465
H      91.84431392      85.55348006     101.51823655
C      89.22326353      84.46310798     104.26778832
H      87.82864552      82.99479064     103.89173279
C      91.54384744      83.17620436     105.53201524
H      90.90134049      83.04014407     107.48410252
H      93.16523261      84.41586482     105.26556383
C      92.24493591      80.55326424     104.62116715
H      91.94824888      80.36618133     102.59349081
C      94.97936988      80.04681759     105.02178912
H      95.28928500      78.13063511     104.33392875
H      95.55762614      80.38696832     106.96820723
H      96.10375704      81.08994651     103.64795810
C      90.82197199      78.33472555     106.04791052
H      88.77917785      78.58605915     105.99499818
H      91.57219333      78.34795363     107.96598273
H      91.25660905      76.61318488     105.00478159
C      88.03273596      86.62117543     105.89484269
O      87.40534682      86.20165619     108.09826356
N      87.64534206      88.76223534     104.77801444
H      87.62833452      88.78302233     102.86939086
C      86.48882955      90.85794182     106.08381532
H      85.32286842      90.15307391     107.62772172
C      88.50138807      92.61916675     107.18741549
H      89.66545948      91.50422822     108.46864992
H      87.48282559      93.91929845     108.42140677
C      90.14733969      93.98921832     105.22021039
H      88.93980459      95.31013702     104.20164791
H      90.95992202      92.70420443     103.83315128
C      92.26383316      95.64083912     106.27656740
H      93.47325801      94.24244165     107.17985658
H      91.63266458      97.03545714     107.65795733
C      93.68679708      97.01844960     104.17897120
H      92.55107157      98.58314299     103.46843409
H      94.01371973      95.70320009     102.62750589
N      96.21336116      98.08047579     104.87250074
H      96.00738100      99.78878838     105.69831114
H      97.43223464      98.13527786     103.40418340
H      97.20546748      97.01089070     106.10271257
C      84.56130871      92.24500094     104.37550273
O      84.99972523      92.30547218     102.10972087
N      82.51284539      93.44119769     105.26934328
H      82.42780771      93.72843609     107.15340041
C      80.55508894      94.52968005     103.59882522
H      79.68770455      92.84026473     102.79947098
C      78.58788385      96.15484468     105.00856104
H      79.74250661      97.35671061     106.22176534
C      77.05153635      97.86126754     103.09237857
H      77.93403853      99.70941987     102.88072922
H      75.24306827      98.25999979     103.99755746
H      76.56776641      96.82947697     101.37650706
C      76.98161647      94.41251702     106.73766062
H      78.31576326      93.53190456     108.03590260
H      76.06131975      92.97821475     105.58114811
C      75.14291277      96.07925563     108.29290538
H      73.60089611      96.91451466     107.21198193
H      76.12934990      97.71953807     109.05635481
H      74.53631062      95.05313424     109.97287207
C      81.71916035      96.08492481     101.41052215
O      83.09110164      97.94063604     101.96988114
N      81.12578627      95.62572131      99.04647453
H      80.03730393      94.07047656      98.84994299
C      81.63034321      96.82758725      96.63707347
H      82.33710084      98.71542383      97.06793108
C      83.60510720      95.18352535      95.12529242
H      85.30775060      95.01722944      96.27235630
H      84.23816552      96.27956662      93.50012779
C      82.55063992      92.73066060      94.08594296
C      81.27318494      92.60782839      91.77669740
H      80.91980612      94.31236152      90.70900203
C      80.32643205      90.31181092      90.89041575
H      79.52140864      90.11716911      89.02525589
C      80.54186085      88.01957290      92.28881323
O      79.50062164      86.00134520      91.28158910
H      79.05653596      86.43409253      89.57894570
C      81.62467403      88.19909690      94.64152248
H      81.75884459      86.56637337      95.86039597
C      82.66402349      90.44976094      95.56370893
H      83.53707705      90.65763083      97.39674346
C      79.15858119      97.25088594      95.18576366
O      77.34255420      95.96776177      95.58827537
N      79.28897231      99.03856703      93.39808258
H      80.90657803     100.02500417      93.18076405
C      77.28775214      99.48643217      91.56315833
H      75.64935943      99.05935402      92.73289891
C      77.13090485     102.37771343      90.97167398
H      75.56621146     102.76510732      89.68666010
H      78.75417975     102.98809503      89.85862520
C      76.72650343     103.76666227      93.41131067
H      78.23450501     103.59280745      94.80403896
H      75.08811071     102.99565393      94.39207862
C      76.21438760     106.59558256      92.88785648
H      75.53975530     107.49509228      94.61128687
H      74.77630586     106.85636479      91.43654667
C      78.74662086     107.75398479      92.10739951
H      79.75951416     106.61636955      90.72034039
H      80.04675255     107.56123270      93.69287988
N      78.53308177     110.39582217      91.32316309
H      78.09466527     111.53343741      92.79148043
H      77.28775214     110.63203796      89.89641972
H      80.20548956     111.02699076      90.65231024
C      77.22917062      97.99165866      89.16509564
O      79.06409487      97.78189903      87.71000638
N      74.85378465      97.77622986      88.53203731
H      73.47050499      98.46409023      89.65264502
C      73.90325232      96.90506603      86.07539311
H      74.66481201      95.10415685      85.42721699
C      71.01386077      96.25500017      86.30782945
H      69.91026061      97.99165866      86.39286714
H      70.89291830      95.13817192      88.03314958
C      69.89136335      94.77723420      83.99858389
O      69.09011940      95.89217272      82.06539388
O      69.93671677      92.42074548      84.06850377
C      74.31710238      98.72487246      83.89842841
O      74.73851135     101.05112556      84.13275447
N      74.30198456      97.72709697      81.58351366
H      73.97506191      95.85437820      81.41343829
C      74.20182906      99.37304859      79.29127565
H      76.00462798     100.36704463      79.18923043
C      73.92403930      97.73843533      76.83085199
H      72.22517534      96.60082009      77.09541368
C      73.63869062      99.04612594      74.33641325
H      75.02952919     100.55601726      74.17389679
H      71.71872869      99.73398632      74.04728514
H      73.62168309      97.79323739      72.70368973
O      76.05565058      96.20397756      76.45668618
H      75.82132452      95.54635281      74.78238867
C      72.08911504     101.38938657      79.24592222
O      72.40469934     103.47375469      78.11775561
N      70.08411544     100.87349128      80.68589367
H      70.25608053      99.15950952      81.50792462
C      67.88825345     102.60826004      81.22446566
H      67.67282465     103.96130408      79.68811817
C      65.53743393     101.01900021      81.57973422
H      64.08234466     102.25488122      82.34885282
H      65.69806066      99.33147461      82.74947481
C      64.45651048      99.95130484      79.06828795
H      62.83323557      98.77400535      79.54260924
H      65.91348945      98.98754442      77.97413640
C      63.34913085     101.85803869      77.12753903
O      61.01909830     102.17551271      77.07273696
O      64.86091190     103.06935326      75.75370800
C      68.01297539     104.01043696      83.82094962
O      66.40670803     105.63371187      84.31794765
N      70.06521817     103.70619103      85.13052996
H      71.35968069     102.46275111      84.48613328
C      70.69449703     105.08380151      87.54371045
H      70.29765450     107.09636003      87.36607618
H      72.72595281     105.20852344      87.85173585
C      69.52853590     103.90650202      89.88319164
O      70.19938873     104.73987132      91.89763989
N      67.92982743     101.81646471      89.56004843
H      67.14937047     101.41584273      87.86496393
C      66.93016221     100.25744050      91.73512343
H      65.94372508     101.54623385      93.00124006
C      65.31255649      98.01811482      90.73356847
H      64.48107692      97.11671537      92.38707899
H      66.71473341      96.73499066      89.93799370
C      63.36235894      98.67762931      88.77014284
C      62.85780201      97.12616400      86.60640621
H      63.88581312      95.36304935      86.62530348
C      60.89815583      97.79134767      84.79982786
H      60.51265165      96.47231870      83.28993653
C      59.65093646     100.15350556      85.09462516
O      57.90104989     101.05490501      83.51103450
H      57.31334501     102.65928265      84.12519556
C      60.37470164     101.75599347      87.06371997
H      59.45251520     103.57202046      87.19600081
C      62.12458821     101.01333103      88.90053396
H      62.31734029     102.24543259      90.51624994
C      69.00508170      99.07447183      93.29792708
O      71.02330941      98.72676219      92.40219681
N      68.38525148      98.16362375      95.64118770
H      66.59379094      98.30913268      96.28369466
C      70.36568465      97.41151268      97.40241263
H      72.15714519      98.23921280      96.81092829
C      69.80632567      98.79290261      99.84771849
H      71.34267315      98.04646072     101.00045153
H      68.09612336      97.91984906     100.59038093
C      69.80443594     101.65961743     100.21432538
C      67.79187742     102.73298197     101.44642695
H      65.98718879     101.82213389     101.73933453
C      67.83723084     105.32946593     102.00956539
H      66.38970048     106.21196812     103.14718063
C      69.98773938     106.83746753     101.59760504
O      70.04632091     109.22041241     102.40262846
H      68.49485560     109.74386660     103.18497516
C      71.89447324     105.74331599     100.24267129
H      73.48751252     106.99053536      99.97244041
C      71.86423762     103.15628067      99.51134720
H      73.57632965     102.32480109      98.77813339
C      70.47150932      94.46542936      97.68776131
O      68.54398848      93.27868123      97.86161613
N      72.79965214      93.45064633      97.79736544
H      74.21694688      94.71487323      97.60461335
C      73.52341732      90.75967606      97.24745508
H      71.95872393      89.49355943      97.67264350
C      74.12812974      90.50456300      94.28625394
H      76.05943004      91.21887955      94.21066490
C      73.78797900      87.78524684      93.27902982
H      71.81510474      87.40541185      92.83116469
H      74.61567913      86.59471926      94.74167798
H      75.04653672      87.76823930      91.64819601
O      72.45572196      91.96343172      92.83116469
H      72.65792267      93.72087719      93.23556612
C      75.91392111      89.89985058      98.67041898
O      77.72616865      91.33793231      98.97655466
N      75.86667795      87.46966254      99.45843487
H      74.54575926      86.14118495      99.08804851
C      78.12679062      86.38873909     100.72077204
H      79.86722855      87.30903581     100.11983908
C      77.83766250      86.49267404     103.64795810
H      76.98161647      88.34460583     103.93141705
C      76.03297387      84.34972440     104.45865069
H      74.28497703      84.51224086     103.37772724
H      75.71361011      84.64830116     106.47120921
H      77.00807264      82.56393304     104.14495612
C      80.52674303      86.57015282     104.95753844
H      81.65113020      88.03847016     104.05046981
H      81.50940071      84.76924364     104.77045553
C      80.35099849      87.18809332     107.73732584
H      79.18692708      85.94276368     108.89383835
H      79.86911828      89.17608541     107.97543136
H      82.29363713      87.03124604     108.41006841
C      78.48772834      83.64107703      99.78724725
O      76.80020275      82.27480491      98.80269983
N      80.92736502      82.82282554     100.22566374
H      82.34088030      83.96610996     100.80958918
C      81.57365142      80.17531898      99.91196917
H      80.02596557      78.96400441     100.53179941
H      83.06464548      79.60462163     101.21210089
C      82.13301041      79.36840584      97.15674821
O      83.51629007      80.67231700      95.76590964
N      80.75917938      77.42954664      96.47833647
H      79.58376961      76.53948555      97.68965103
C      80.83287870      76.51113966      93.80626345
H      82.54497074      77.33695005      93.01446814
C      81.19948561      73.66521183      93.65508536
H      79.50062164      72.78081991      94.42042452
C      81.68325554      72.78837882      90.90742330
H      80.00139913      73.05860968      89.74902106
H      82.25773234      70.81172510      90.82994451
H      83.34432496      73.74835979      90.15909168
C      83.41802429      72.68444387      95.32560342
H      83.17047014      73.38742206      97.24556535
H      85.06397592      73.67088101      94.57727180
C      83.62211473      69.70434548      95.52213496
H      82.05175218      68.96168304      96.62762485
H      85.36444239      69.56450573      96.61628649
H      83.80352846      68.65176792      93.76091003
C      78.29119680      77.41631856      92.56849272
O      76.58288423      75.92910395      92.31526940
N      77.86978785      79.88430112      92.17920911
H      79.38534834      81.03136500      92.35684338
C      75.69660258      81.10317460      90.95655618
H      74.85756410      80.11295801      89.35595800
H      76.40902940      82.84928171      90.13074579
C      73.24562755      81.72867401      92.52691875
O      71.44093892      82.39196794      91.18710279
N      73.20783302      81.24868352      95.01568830
H      74.92937369      81.10317460      95.83016034
C      70.88724912      80.99546020      96.44432140
H      69.53987426      79.90886757      95.32749315
C      71.41070330      79.40053119      98.86695052
H      72.61823842      80.42476285     100.18220003
H      72.26674933      77.59584256      98.36428333
C      69.09389884      78.71456054     100.34471651
N      67.41582188      76.91932054      99.60583352
H      67.75786235      75.57194568      98.29814290
C      65.38814555      76.98357123     101.16107827
H      63.79888571      75.72312378     100.93998029
N      65.61680243      78.97912222     102.72010248
H      64.06722686      79.80682235     103.46654438
C      67.93738634      80.14697308     102.27601680
H      68.58178301      81.97622815     102.91474429
C      69.85356882      83.58060579      97.23233727
O      70.85512377      85.09049712      98.69687516
N      67.61235342      84.25334836      96.18164943
H      67.00764100      82.93809885      94.93820952
C      66.23285320      86.58716036      96.41597549
H      67.54054382      88.16130238      96.15897272
C      64.10880083      86.84605286      94.44121151
H      62.56300470      85.67442255      95.12907187
H      64.46217965      85.89741025      92.64597151
C      63.43227881      89.55214094      93.49067917
H      62.05466833      89.24978473      91.99023648
C      62.27954576      91.13195214      95.76213019
H      61.12870244      92.67585854      95.03080612
H      63.95384327      91.91618856      96.66919882
H      61.10980517      89.94709374      96.97722422
C      65.36168937      91.00534048      92.08850225
H      64.61146802      92.84593391      91.54237134
H      66.10057237      89.99622663      90.45199926
H      66.95661838      91.32848368      93.35083941
C      65.32767431      86.95754671      99.22788826
O      64.17494125      85.32860263     100.26345828
N      65.91348945      89.19309294     100.27101717
H      66.79977109      90.39117942      99.07671014
C      65.09145851      89.99811635     102.76356619
H      64.54721733      88.26145787     103.72732661
C      67.24385678      91.05069391     104.31314176
H      66.55977585      91.74044401     106.12727903
H      67.81266440      92.83081609     103.44197793
C      69.44916740      89.12695252     104.73455072
H      70.05387982      88.35594419     102.92230320
C      71.81132528      90.18330953     105.88161460
H      72.66548158      91.41730081     104.47187877
H      72.99996314      88.58271134     106.39373044
H      71.23684848      91.12439323     107.62394227
C      68.49485560      86.91219328     106.39373044
H      67.95817332      87.33360225     108.33825881
H      70.04254146      85.55725952     106.45420168
H      66.99063345      85.91063834     105.40540357
C      62.83512529      91.70642894     102.63317507
O      60.75642636      90.88250827     103.54969232
N      62.91638353      93.97221079     101.49555983
H      64.46217965      94.50322388     100.50912270
C      60.67138867      95.38761580     100.89273714
H      59.05945212      94.23299302     100.33337815
C      59.84746800      96.80302080     103.36071970