 %block lattice_cart
   139.898   0.000   0.000
   0.000 144.87   0.000
   0.000   0.000   168.12
 %endblock lattice_cart

 %block positions_abs
N      92.93468601      42.40913861      86.38341851
H      94.69024175      43.08755036      86.06783420
H      92.50949759      40.83121714      85.39887110
H      92.75894146      42.40724889      88.28448317
C      91.11676930      44.48972729      85.66343277
H      91.51550155      46.22638577      86.69900280
C      91.19235835      45.01507120      82.74758507
H      90.34198151      43.49006207      81.65721300
H      93.16523262      45.40813427      82.29971994
C      89.78640197      47.49439212      82.09751923
H      87.77384345      47.05786534      82.09185005
H      90.34954041      48.11611208      80.21724155
S      90.36843768      50.12300142      84.17054899
C      93.20869632      51.29841119      82.69278302
H      93.92112314      53.11632790      83.34473859
H      93.00271616      51.30408037      80.64242996
H      94.80740478      50.05497128      83.05938991
C      88.37099696      43.78107992      86.54971442
O      87.54707629      41.65135836      86.25869657
N      87.05574745      45.58198909      87.65142486
H      87.86644004      47.30164004      87.48890840
C      84.38745389      45.45915688      88.66053870
H      83.39156813      43.95871419      87.66087350
C      84.46115322      44.86767255      91.61796039
H      85.24727937      42.96660788      91.74835151
H      82.56386800      44.89601844      92.41731462
C      86.11844320      46.62700775      93.17509488
O      86.37544598      48.73216286      92.43999134
N      87.50739204      45.81820488      95.07993899
H      88.03273595      47.21660236      96.26479740
H      87.01606320      44.07965668      95.69410004
C      83.18747769      48.17847305      88.13708453
O      84.38367444      49.99638976      87.37552482
N      80.67414169      48.29941553      88.57361130
H      79.79163950      46.75361941      89.26336141
C      79.20582434      50.68613987      88.48668388
H      79.46471685      51.49872218      86.61207538
C      76.37123488      50.27040008      88.85329079
H      75.98951016      48.62822791      87.67221184
C      75.73817656      49.77151233      91.69921863
H      75.60400599      51.47037629      92.85573113
H      77.29720077      48.57909503      92.32660775
H      74.02608452      48.62444846      91.66898301
C      74.67992982      52.39256273      88.01803176
H      75.03330865      54.06874997      89.15942646
H      72.78075488      51.65367974      88.32794688
C      75.08811071      52.91601692      85.26659026
H      73.68782351      54.34842946      84.79037923
H      74.79520313      51.20581460      84.15354146
H      77.00807264      53.59064921      84.95856486
C      80.13745942      52.88578129      90.17987866
O      79.60266687      55.11943780      89.65075530
N      81.27885411      52.30185586      92.32660775
H      81.87033845      50.53496176      92.73667837
C      82.26907070      54.07063969      94.22767243
H      80.78563554      55.48793443      94.41853478
C      82.87756257      52.49082849      96.79581049
H      84.25706278      53.56041359      97.88807230
H      83.59754830      50.59732273      96.43109330
C      80.45304371      51.79918866      98.26412784
C      79.58943879      53.21270395     100.38440076
H      80.43414645      55.04951792     100.66785971
C      77.53530628      52.45303397     101.84326946
H      77.00429319      53.67946635     103.38717586
C      76.08777593      50.36677612     101.00801044
H      74.29442566      49.91891098     101.87161536
C      76.84366645      48.94948138      98.82915600
H      75.79108890      47.39612635      98.02602232
C      79.06409487      49.57687052      97.59894418
H      79.78030114      48.38256349      96.10795011
C      84.44603541      55.50872142      93.26580173
O      84.54619091      57.83119506      93.34894970
N      86.33954118      54.20292053      92.34550502
H      86.30741583      52.29618668      92.23968035
C      88.75461140      55.43502209      91.53670216
H      89.23271216      56.94113396      92.85762085
C      90.75583157      53.29774163      91.49890763
H      92.49060032      53.77206293      90.49168350
H      90.02450749      51.82375511      90.25924718
C      91.33408782      52.11666268      94.05948678
H      92.80807435      50.71826521      93.73256413
H      89.78262252      50.93747347      94.72844990
C      92.05218382      54.13111093      96.07015559
O      91.23015287      53.96103557      98.39451895
O      93.33719771      55.94146874      95.23111711
C      88.38233532      56.59153459      88.92510040
O      89.45192041      58.62488011      88.45077908
N      86.75528097      55.64289198      87.26214124
H      86.12789183      53.86088007      87.53993100
C      86.37544598      56.70302845      84.71667989
H      88.08375856      56.78995586      83.56583657
C      84.67280257      54.83030967      83.28615708
H      82.76228927      54.95692133      84.04582705
H      85.46648762      52.95192172      83.57150574
C      84.58776488      55.45391935      80.46668542
H      86.46048366      55.19502685      79.65032365
H      83.98872164      57.41356554      80.27015389
S      82.15568712      53.69269443      78.92466874
C      82.40135154      54.69802883      75.55906619
H      82.43347689      56.75594078      75.59686071
H      80.59477318      54.23504588      74.68601262
H      84.09832577      53.98560201      74.63121057
C      85.35688349      59.35053501      84.69967235
O      86.16379663      60.88121332      83.10663307
N      83.65612981      59.95335770      86.48546373
H      83.29330236      58.66078491      87.84228721
C      82.65646459      62.55551084      86.80293775
H      82.34088030      63.50037399      85.00202856
C      80.23572519      62.25693408      88.32038798
H      79.99006076      63.83107610      89.62429912
H      80.80453281      60.82074208      89.68666010
C      77.60900561      61.89410663      87.15253712
H      76.09344511      61.83741484      88.54526541
C      77.36334119      64.07674052      85.16265531
H      78.01718649      65.82473736      86.03570887
H      75.38668747      64.49437003      84.75258469
H      78.37056531      63.70824389      83.40709956
C      77.62412342      59.46202886      85.47446014
H      77.35389256      57.69891421      86.50436099
H      79.47983466      59.32785830      84.59006823
H      76.34855816      59.75871589      83.88331060
C      84.76350943      64.23547753      88.23535029
O      84.66524366      66.56551007      88.10306945
N      86.58898505      63.17156162      89.69988818
H      86.71559671      61.26860722      89.63941694
C      88.58453604      64.57562827      90.98301234
H      87.80029962      66.14032165      92.07149470
C      90.13222189      62.86353623      92.77636262
H      91.93124134      62.13599160      92.08472278
H      88.95870185      61.17790036      92.95021744
C      90.43268837      64.15043985      95.41442055
H      88.64689700      64.39043509      96.40841660
H      91.42479468      65.94567984      95.19710202
C      92.19391329      62.44779644      96.98856258
H      92.94602437      63.47580755      98.60616830
H      93.81718820      61.71647235      95.95110282
N      90.88622269      60.31051598      97.96555108
H      91.63833376      58.63054929      97.46666333
C      89.00027582      60.04784402      99.55292117
N      87.96848526      61.85631210     100.83226590
H      86.37922543      61.54639699     101.84137975
H      89.03996008      63.40777740     101.13840156
N      88.08186884      57.79340053      99.98188906
H      87.01984265      57.43813198     101.52768518
H      88.85098745      56.30240647      99.07104097
C      90.43079864      65.76426612      88.97612301
O      91.65534129      67.66533079      89.30682511
N      90.58008702      64.49814949      86.80293775
H      89.56908345      62.87865404      86.78593020
C      92.28273043      65.24270165      84.71290045
H      93.48648609      66.78282860      85.35918685
C      93.90033615      62.83141088      83.99102500
H      95.56140558      63.31518082      82.87419673
C      95.14377607      61.64277303      86.31160891
H      96.27005295      63.01660406      87.35473783
H      96.78405851      60.61287219      85.60674099
H      94.03450672      60.40689202      87.53048237
C      92.33942222      60.69979960      82.57939943
H      91.06574668      61.35364490      81.09785401
H      91.18857890      59.75115699      83.99669417
C      93.95135876      58.59464449      81.36052596
H      92.53784348      57.29640251      80.61597380
H      95.06251784      57.62899434      82.80049741
H      95.28928499      59.48659531      80.07362234
C      90.87488433      66.48236212      82.58506862
O      92.05407355      67.08140536      80.64998887
N      88.44091684      67.19100948      82.93655771
H      87.55085574      66.73558544      84.56172234
C      87.05952690      68.66121656      80.99391905
H      88.24816475      69.44923243      79.51048391
C      85.68569587      66.65054776      79.46702020
H      83.99439082      66.04961479      80.47613405
H      86.89323099      64.98947833      79.30072429
C      85.04507865      67.45746089      76.71746842
O      84.79185533      65.70568460      75.18301064
O      85.33231705      69.72891192      76.27905191
C      85.48160543      70.79849702      82.21468226
O      85.88222741      73.03026379      81.70445616
N      83.83565381      70.32228598      84.01748116
H      83.54274623      68.55161243      84.66943674
C      82.41457962      72.43688973      85.16643476
H      81.66624800      73.67277074      83.70000713
C      80.06376009      71.18400118      86.39286714
H      80.68359032      69.65143314      87.62496870
H      79.02441062      70.09929828      84.98124158
C      78.26474064      73.12097065      87.54182074
H      79.04330788      74.13764341      89.15564700
H      76.62067875      72.21579175      88.38841813
C      77.34444393      74.94455655      85.52170331
O      76.22005677      74.00725229      83.72457359
O      77.65246932      77.24246374      85.68233005
C      84.05486206      73.70867554      87.17521383
O      83.79030038      75.97445739      87.51914401
N      85.82742535      72.34240341      88.33739551
H      85.96348564      70.50747916      87.83094886
C      87.70770303      73.08506585      90.13452524
H      88.82642100      74.53259621      89.18210318
H      88.97381966      71.46934986      90.30460060
C      86.72504534      73.82016939      92.75179618
O      84.48571966      74.53637566      93.00690923
N      88.48249082      73.85607419      94.49223412
H      90.25883355      73.48379811      93.90641895
C      88.21225995      74.17732766      97.20777083
H      86.31875419      73.65576320      97.82571133
C      89.99049241      72.38964657      98.53246896
H      91.95580778      72.72412813      98.01279424
H      89.59742934      70.43944902      97.99956615
C      89.91301363      72.59184729     101.45776531
H      90.06608147      74.54393457     102.09649279
C      87.51306122      71.62430741     102.50089422
H      87.49605368      71.63564577     104.56069591
H      87.38267010      69.63631533     101.98121950
H      85.83876370      72.55027331     101.73933453
C      92.11832424      71.11219158     102.50467367
H      92.29028934      69.23191390     101.68453246
H      91.92746188      70.68700316     104.51345274
H      93.81340874      72.22146093     102.14373596
C      88.81319292      76.93254863      98.10539083
O      90.94858365      77.87363233      97.52713457
N      87.10299061      78.21945225      99.50378829
H      85.42113419      77.34828842      99.74000409
C      87.62455507      80.85562045     100.51290214
H      89.67112867      81.09183624     100.46754871
C      86.55874943      82.93431940      98.65530118
H      86.45103503      84.80703817      99.50945748
H      84.68414093      82.38440904      97.99956615
C      88.16501679      83.09872559      96.27235630
H      88.40501204      81.23545544      95.42575892
H      89.86199102      84.01902230      96.99234202
C      86.81764193      84.72011076      94.29759230
H      88.26706202      85.26813139      92.93887908
H      85.91624248      86.32448840      95.22355820
N      84.86933410      83.27824959      92.93509962
H      83.08921192      83.75446062      93.43398738
C      85.06019646      81.44899452      91.17009526
N      87.16346185      80.55326424      90.42554309
H      87.02173238      79.14919759      89.14241892
H      88.68658126      81.39986163      91.20411033
N      83.01173314      80.23012104      90.30649032
H      83.34999415      78.66353793      89.26903058
H      81.38845824      80.51735944      91.27214048
C      86.57764669      81.09750542     103.17930598
O      84.23060661      81.06726980     103.40985259
N      88.18391406      80.98223212     105.09548846
H      90.04340475      81.14096913     104.68919730
C      87.51873040      81.26191161     107.89984230
H      85.69514450      80.30571010     107.91307038
C      89.56341427      80.08839157     109.73098709
H      88.61477166      79.90319839     111.55079353
H      91.33408782      81.13341022     109.85381932
C      90.18513422      77.29348635     109.07525207
H      91.01661380      77.43899528     107.19686412
C      92.21659001      76.46956568     111.00655237
H      93.05184904      74.73668665     110.26955910
H      91.78951186      76.42421225     113.02100061
H      93.68868681      77.90575768     110.99710373
C      88.01383869      75.34706825     108.96942739
H      86.92346661      75.27714838     110.71553450
H      88.84720799      73.46490084     108.88627944
H      86.68725082      75.67021145     107.42741073
C      86.85732619      83.92831544     108.67840954
O      86.74205288      84.55948403     110.87049207
N      86.44347612      85.78780613     106.97009696
H      86.76850905      85.11506356     105.21265149
C      85.38144994      88.35594419     107.25733536
H      84.19092236      88.25767842     108.93352259
C      87.58487082      90.21543488     107.76945119
H      88.63555865      90.40629724     106.00633654
H      88.78106757      89.56725876     109.31902676
C      86.39434324      92.82325719     108.42329650
H      85.02996084      92.49066536     109.92940837
H      85.29830198      93.55836073     106.84159557
C      88.45414492      94.80746982     109.19808428
H      89.79963006      94.86038216     107.64094980
H      89.66356976      94.21787521     110.75899821
C      87.10677006      97.37749761     109.76689190
H      85.67813697      97.36993870     111.25221679
H      86.17135553      97.94063605     108.01889507
N      89.20436627      99.06691293     110.35648650
H      88.76594976     100.92073444     110.47742899
H      90.49693906      98.70786493     108.99777330
H      90.05852256      98.46975942     111.95519498
C      83.73171886      89.10427581     105.03123776
O      84.26840114      88.57515244     102.78435318
N      81.66057883      90.43275341     105.65484745
H      81.36200207      90.73888907     107.51622786
C      79.81998540      91.50044877     103.92196842
H      78.99417500      89.77323892     103.16040871
C      77.72049946      93.01411955     105.24288710
H      78.38946258      94.95297875     105.44130836
C      75.51707858      93.30135795     103.42119095
H      76.10478346      94.59015130     101.92641743
H      74.12057084      94.60337938     104.19408900
H      74.48150856      91.67241387     102.70309495
C      76.98917538      92.23933176     107.89606285
H      78.51607424      92.07303585     109.26800415
H      76.24084376      90.32125955     107.84126079
C      75.06543399      93.99299778     109.02233974
H      74.67804010      93.29190932     110.91962495
H      73.22484056      94.05724848     108.10204301
H      75.80998616      95.81091449     109.64216996
C      80.89523967      92.89128734     101.65240712
O      82.39190291      94.60526911     102.07570581
N      80.33777041      91.98988789      99.40363279
H      79.25873668      90.42141505      99.26946223
C      80.86878350      93.16151820      97.01879820
H      81.77018295      94.99644245      97.27958043
C      82.64701596      91.44564671      95.46355343
H      84.25706278      90.87494936      96.61628648
H      83.59565857      92.30736191      93.85161690
C      81.33365617      89.01545867      94.68120674
C      80.76862801      88.83215522      91.96755975
H      80.80264308      90.47999656      90.76758355
C      79.68014565      86.54558638      91.04348359
H      78.88457087      86.33582676      89.17643399
C      79.15102228      84.52546895      92.65919959
O      78.13245980      82.33527616      92.00157484
H      77.91136182      82.32771725      90.20255539
C      79.73305799      84.77491283      95.29914725
H      79.56487234      83.31604411      96.71455226
C      80.91035748      86.96510562      96.24023096
H      81.43192194      87.25234402      98.19231824
C      78.36300641      93.91362928      95.64685689
O      76.32399172      93.38828536      96.71266253
N      78.42536738      94.98132464      93.45288464
H      80.07509845      95.76178161      92.89919482
C      76.22383622      95.50855828      91.96000086
H      74.57221543      94.72810132      92.90675373
C      75.98195125      98.38094228      91.53859189
H      74.43804486      98.76455672      90.23090128
H      77.69593302      99.28990064      90.85073150
C      75.18637648      99.79067811      93.83838880
H      76.65658355      99.32769516      95.20466093
H      73.42326183      98.92329373      94.45254986
C      74.48528801     102.70085663      93.70988741
H      73.76530229     103.13549368      95.59016510
H      73.00941176     103.15817040      92.35117419
C      76.89279934     104.31468290      93.13541062
H      77.82254468     103.51721840      91.47812064
H      78.23261529     104.13326918      94.68876564
N      75.91959029     106.87337233      92.60439752
H      75.18637648     107.73319780      94.14263475
H      74.52497227     106.88093124      91.30048637
H      77.28775214     108.03555401      91.95622140
C      76.28052801      94.12905808      89.53737172
O      78.20615913      93.83992995      88.28637289
N      74.02986397      93.19742300      88.81927573
H      72.48406785      93.19931273      89.93988343
C      73.32121661      92.50578317      86.18499723
H      74.12057084      90.72188153      85.53115193
C      70.37891274      91.91240911      86.30593973
H      69.19972352      93.56025046      86.67443636
H      70.05576954      90.54613699      87.81583105
C      69.52853590      90.57637261      83.87197224
O      68.32666996      91.84059951      82.24491787
O      69.68727291      88.18586882      83.85685442
C      73.93726738      94.59204102      84.21401270
O      74.29820511      96.83136670      84.83195320
N      73.72750776      94.01189504      81.80461164
H      73.07177273      92.26956738      81.39076159
C      73.88246532      95.91106999      79.76937641
H      75.62290326      96.96175782      80.09629906
C      73.97884136      94.46353963      77.24281233
H      72.26485960      93.33537302      77.06706777
C      74.26985922      96.16618304      75.03183255
H      72.62201787      97.37371815      74.76916059
H      74.62890721      94.99266300      73.37832202
H      75.92148001      97.34159281      75.38899081
O      76.09722456      92.85160309      77.25793014
H      75.63235189      91.66485496      78.54861321
C      71.71494924      97.85748809      79.80150176
O      72.25352124     100.07602678      79.27426812
N      69.37357834      97.12616401      80.52715665
H      69.01642006      95.27801167      80.85029986
C      67.20984171      98.84959441      80.99391905
H      67.68227329     100.47475903      79.81850930
C      64.72296188      97.62694148      79.81661956
H      63.33401304      99.14628144      79.89976753
H      64.09557275      95.99043849      80.89943275
C      65.11791468      96.89561740      77.03872189
H      66.48418681      95.39895416      76.67589444
H      65.63569969      98.50377449      75.85953266
C      62.58568142      95.74099462      76.06740256
O      62.55922525      93.35049083      75.95779844
O      60.84146403      97.25844485      75.54205864
C      67.13614238      99.88705415      83.71512495
O      65.70184011     101.63694072      84.26125586
N      69.18838516      99.52989588      85.13430941
H      70.32600040      98.07291689      84.65809838
C      69.79120785     100.70530564      87.52103375
H      69.08067076     102.62715730      87.73457282
H      71.84534036     100.83380703      87.60796115
C      68.60634945      99.37115887      89.83783820
O      68.50997341     100.49176657      91.87307345
N      67.64069931      97.01278043      89.55059980
H      67.36479927      96.36838376      87.77614680
C      66.32167034      95.78256860      91.64441655
H      65.58845653      97.29057020      92.83872358
C      64.07289603      94.25378001      90.69577395
H      62.76709515      94.05157930      92.27369542
H      64.88925780      92.43964275      90.15531223
C      62.37970125      95.41596169      88.69833324
C      61.65782580      93.92874709      86.63286238
H      62.09435258      91.93508583      86.56483223
C      59.99297692      94.96620683      84.75447443
H      59.22385831      93.68875184      83.36174612
C      59.35046997      97.45497639      84.73179770
O      58.02010265      98.53212038      82.72301864
H      57.65160602     100.30090421      82.88553509
C      60.17628037      98.96675744      86.69711308
H      59.73786387     100.96041870      86.68766444
C      61.42161001      97.93118742      88.76258394
H      61.82412172      99.10659718      90.38018966
C      68.31344188      94.53912869      93.36217777
O      70.10679215      93.31836549      92.47967558
N      67.92226853      94.58826157      95.78669663
H      66.50308407      95.72209736      96.36873235
C      69.67404482      93.56780936      97.76524009
H      71.56377113      94.28779509      97.37028728
C      68.87658032      94.66196090     100.41463638
H      69.94994486      94.00433614     102.04358046
H      66.95472866      94.11205054     100.91163439
C      69.28476120      97.41718186     100.40707747
C      67.43660887      99.27478283     100.01401440
H      65.51475721      98.70030603      99.63795887
C      68.12824870     101.80512636      99.75512190
H      66.65237245     103.17706766      99.42819925
C      70.54142920     102.66684156      99.93653561
O      70.92315391     105.25576661      99.92330753
H      69.36790916     106.19118113      99.87984384
C      72.42926579     100.89805773     100.26723773
H      74.31143319     101.65394825     100.04047056
C      71.87935543      98.27322788     100.56203503
H      73.34578305      96.86538178     100.74344876
C      69.84223046      90.68030755      97.88429285
O      67.99974731      89.33293269      97.77279900
N      72.18549109      89.64284781      97.95043327
H      73.66325707      90.84849320      97.94665381
C      72.83366722      87.00667960      97.61973116
H      71.19716423      85.93898423      98.27546620
C      73.41003374      86.58338091      94.75112662
H      75.24117854      87.34872006      94.20688544
C      73.25318646      83.79981405      94.26924640
H      74.48339829      82.61873510      95.42386919
H      73.75207421      83.29903658      92.33605639
H      71.37857796      82.98912146      94.53002864
O      71.71494924      87.62084065      93.03525512
H      71.43526975      89.34805050      93.51524560
C      75.00118330      86.20165619      99.34127184
O      76.66225273      87.71154752     100.03102194
N      74.99740385      83.87162365     100.15952333
H      73.55743240      82.73022896      99.63984859
C      77.06098498      82.67920634     101.79791604
H      78.73717222      83.71855582     101.19509335
C      76.48461845      83.52391401     104.62872606
H      75.89691357      85.49867800     104.65518223
C      74.24907223      81.76268908     105.43752892
H      73.64247008      82.22000285     107.35182167
H      74.57032570      79.75391001     105.11060627
H      72.72595282      82.24645902     104.13928694
C      78.85433525      83.18565300     106.26144959
H      80.35855740      83.86406474     105.02556859
H      79.47416548      81.30537532     106.83025721
C      79.11511748      84.96199573     108.55935679
H      80.85366569      84.74467720     109.64028024
H      77.71483028      84.58405047     110.02200495
H      78.99984418      86.89518575     107.86204778
C      77.49751176      79.81816071     101.14407074
O      76.19738005      78.81660576      99.57748761
N      79.24739832      78.64086121     102.51601204
H      80.36611630      79.57249629     103.75000332
C      79.40802506      75.83650737     102.47632778
H      77.51451929      75.05416067     102.68608740
H      80.48705878      75.02392505     104.03157254
C      80.39257247      75.04660177      99.96677124
O      82.41457962      75.92154505      99.13340193
N      78.81276127      73.50458510      98.60049911
H      77.31042885      72.87719596      99.59449516
C      79.06409487      72.68255415      96.00212544
H      80.64390607      73.80694131      95.30292669
C      79.80108813      69.78371398      95.84716787
H      78.24395365      68.84640973      96.82226665
C      80.09210599      69.19411938      93.06549075
H      78.33655024      69.59852081      92.06960498
H      80.52296358      67.19289921      92.84439277
H      81.76262405      69.97079689      92.14897348
C      82.43536661      69.29805432      97.26257288
H      82.07253916      69.61174889      99.26568278
H      83.71093187      70.61519356      96.32715837
C      83.72227023      66.79227723      96.86384064
H      83.90746341      66.57117925      94.82482595
H      82.67158240      65.19167904      97.61973116
H      85.65923970      66.80739504      97.55925992
C      76.66792191      73.48946728      94.71522182
O      74.98228604      72.04382666      94.66041975
N      76.63390683      75.76280804      93.44532574
H      78.29875571      76.69255339      93.49823807
C      74.43615513      77.01758631      92.04125909
H      73.58955774      75.79304366      90.61829517
H      75.18448675      78.78825987      91.29670692
C      72.14580684      77.81694054      93.61351138
O      70.26552916      78.65597902      92.48723449
N      72.11368149      77.43332610      96.14196519
H      73.84845025      76.97034315      96.79014130
C      69.96884213      77.62229873      97.70476884
H      68.49107615      76.41287389      96.93753997
C      70.76819636      76.59806707     100.15763359
H      72.19116027      77.63741654     101.22721870
H      71.69416225      74.77070172      99.91763836
C      68.54020903      76.11051768     101.67886327
N      67.16070883      73.90331735     101.64106875
H      67.57455889      72.27626299     100.73588985
C      65.20862154      74.35118248     103.17930598
H      63.57778774      73.14553710     103.40607314
N      65.39381472      76.79270888     104.15629448
H      64.07478576      77.69410833     105.20320286
C      67.54999245      77.85662479     103.24733611
H      68.22462474      79.75202029     103.59126631
C      68.95783855      80.39641696      98.04114012
O      70.05576954      81.83827814      99.43764788
N      66.93394167      81.13341022      96.67675773
H      66.18372032      79.83138879      95.50134797
C      65.83034150      83.69209965      96.94509887
H      67.44227805      84.96955464      96.83360501
C      64.05966795      84.00579422      94.70955263
H      62.40615742      82.77747211      94.63585331
H      65.19350373      83.68076129      93.02013731
C      63.29621852      86.73266929      94.05570733
H      64.94972904      87.94020440      94.28625394
C      62.28521494      86.91975219      91.28725829
H      63.86880559      86.22055346      90.17043004
H      61.66349498      88.81514768      90.76569382
H      60.80366951      85.49300882      91.17765415
C      60.99453187      87.38273514      95.65441580
H      61.13248189      86.64763160      97.57437773
H      59.32023435      86.33582676      95.06671092
H      60.72241128      89.40852175      95.90385966
C      64.62658584      83.86595447      99.57937735
O      63.27543153      82.21433367     100.40707747
N      64.89870643      86.20165619     100.65085217
H      66.23852238      87.27502074      99.81937258
C      63.73463502      87.01990769     103.14340118
H      63.39826374      85.35694853     104.31125203
C      65.67916340      88.71310246     104.55124728
H      64.84201464      89.17419568     106.37672290
H      65.78120862      90.50645273     103.54591287
C      68.27375762      87.71910642     105.18241586
H      69.19783379      87.14840908     103.43063958
C      69.99907775      89.70331905     106.29735439
H      70.39592027      91.31714532     105.08037065
H      71.79809720      88.80191960     106.73955034
H      69.23751804      90.39306915     108.08125603
C      68.15848432      85.41553005     106.98521476
H      67.47440339      83.74123253     105.99877764
H      66.97362592      85.86717463     108.60848967
H      70.06143872      84.76168474     107.42741073
C      61.24586547      88.27090651     102.68230795
O      59.31267545      87.33549198     103.46843409
N      61.14948942      90.39873833     101.25745431
H      62.89937599      90.88439800     100.67352888
C      59.01598842      92.28090574     100.90029603
H      57.12815183      91.47210288     100.74911794
C      58.87425894      94.03079231     103.22087996