 %block lattice_cart
   139.898   0.000   0.000
   0.000 144.87   0.000
   0.000   0.000   168.12
 %endblock lattice_cart

 %block positions_abs
N      91.89061222      43.93414775      86.80671720
H      93.42318026      44.08343613      85.68044031
H      90.87771892      42.44126396      86.18688697
H      92.31391092      43.72816758      88.65675925
C      90.60937778      46.36433579      86.33239589
H      91.36526831      47.84021204      87.55315910
C      90.85882166      47.30352977      83.60741056
H      89.62483038      46.28307756      82.31294802
H      92.81846784      46.89156943      83.12742006
C      90.28245513      50.11922197      83.40898928
H      88.33603703      50.11733225      84.07795240
H      90.10671059      50.83731797      81.48713763
S      92.03234170      52.45303397      85.30249506
C      94.37560233      53.25805738      82.82506385
H      95.51888675      54.93424462      83.19922966
H      93.42129054      53.63978210      81.04116221
H      95.70785938      51.70092290      82.63042204
C      87.77289859      45.97694190      87.04860217
O      86.70142377      43.94548611      87.00135901
N      86.52001004      48.09532509      87.82905913
H      87.64628693      49.63545204      87.78937489
C      84.06903502      48.37122513      88.97612301
H      82.78780057      47.17880783      87.88953037
C      84.17863914      47.14479276      91.73134397
H      85.32570301      45.43459044      91.78614604
H      82.22844159      46.53063171      91.97133922
C      84.80791800      48.80397246      94.10861967
O      85.27090095      51.02062143      93.84783745
N      85.00255981      47.75139490      96.32715837
H      85.11783312      48.97026838      97.79169626
H      84.67563716      45.87678640      96.45565975
C      83.15818693      51.11888719      88.69266405
O      84.75500567      52.61555043      87.83472832
N      80.76012424      51.61021604      89.01202781
H      79.49967679      50.17780349      89.07627851
C      79.44865418      54.09709586      88.97045382
H      79.42786719      54.82653022      87.04482272
C      76.66319759      53.49427317      89.60162242
H      76.04336736      51.86910854      88.49991198
C      76.26446534      52.77239772      92.33416666
H      76.75957364      54.23882534      93.69287988
H      77.48144909      51.15479199      92.71400166
H      74.24623764      52.49838740      92.64597151
C      74.77725073      55.73548858      88.94588738
H      74.75268429      57.16412167      90.42932254
H      72.78169975      55.23471110      89.05738124
C      75.25913094      56.94491342      86.33239589
H      76.95610517      58.09953619      86.50247126
H      73.70199646      58.22425813      85.90153829
H      75.42731659      55.57108239      84.80549704
C      80.88862563      56.17768453      90.39719719
O      81.20987910      58.38110541      89.59028406
N      81.99222580      55.55407485      92.69132494
H      81.61428053      53.76450403      93.23556612
C      83.66463358      57.30018196      94.32593819
H      82.60827658      59.06707607      94.35617382
C      84.12572680      56.19847152      96.98100367
H      85.08381805      57.57797173      98.17342097
H      85.33137219      54.52984319      96.89218654
C      81.77112782      55.41234538      98.63640391
C      81.02657565      56.94302369     100.69431588
H      82.15852171      58.48693009     101.40296324
C      78.80047805      56.39500306     102.04735991
H      78.20710399      57.80284916     103.40229368
C      77.14696753      54.46748222     101.08737895
H      75.41597823      54.14622875     102.12294897
C      78.07293342      52.85932513      99.10127660
H      76.97311271      51.26628585      98.45310047
C      80.38406870      53.35443342      97.91641820
H      81.01523729      52.29618669      96.28747412
C      86.04379901      57.99938070      93.15619761
O      86.65984979      60.26138310      92.88785648
N      87.53668280      56.20792015      92.41542490
H      86.87149914      54.42023906      92.35873310
C      90.12749757      56.53484281      91.62551930
H      90.86827029      57.93890946      92.93698936
C      91.75833138      54.15000820      91.75591041
H      93.60648372      54.38433426      90.87529796
H      90.89283673      52.58531481      90.73356847
C      92.26099858      53.38655877      94.44499096
H      93.45719534      51.71037153      94.40341697
H      90.52434010      52.78184635      95.37473630
C      93.40806245      55.29896180      96.17786999
O      92.97909458      55.16479123      98.57215322
O      95.29967849      56.53673253      95.48434042
C      90.02923181      57.67623750      88.97045382
O      91.65061698      59.22014390      88.27881400
N      88.09604179      56.88255245      87.44166524
H      86.83370461      55.60698719      88.09173110
C      87.53479307      58.25449375      84.96234431
H      89.06358166      57.90111493      83.62630781
C      85.19153245      57.29262306      83.69622768
H      83.51912466      57.56852310      84.86785800
H      85.36538727      55.24038028      83.66599207
C      84.60004811      58.31118554      81.09785400
H      86.02868120      57.35120457      79.96212850
H      84.95909611      60.31618516      80.78226972
S      81.58971409      57.33986622      79.96401822
C      81.20609965      58.43212803      76.85919788
H      79.51668433      57.53639775      76.09574846
H      82.93708895      57.70836285      76.00882104
H      81.23255582      60.49003998      76.75337322
C      87.12472246      61.15333392      85.39887110
O      88.34170621      62.73881429      84.11763666
N      85.38239480      61.91678335      87.12986040
H      84.67752689      60.66389480      88.38652839
C      84.75122621      64.50570840      87.45300360
H      84.53768714      65.48647635      85.65587387
C      82.12828609      64.63232006      88.76447365
H      82.23222104      66.26504359      90.01547247
H      81.88829085      62.86542596      89.79437451
C      79.95132138      64.90066119      86.85396035
H      78.25812660      64.32429467      87.87252284
C      79.45621309      67.61430818      86.30216028
H      79.48455898      68.76893096      88.00858314
H      77.47955936      67.93556165      85.81839034
H      80.77146260      68.19067471      84.82439429
C      79.96265974      63.15833353      84.55605317
H      79.89651932      61.24404078      85.31194368
H      81.72766411      63.33974726      83.50725506
H      78.35828210      63.53438907      83.31828243
C      86.75622583      66.00993054      88.84384217
O      86.69764432      68.27571239      88.59439829
N      88.66484941      64.96869134      90.10806906
H      88.59681926      63.07896503      90.38207938
C      90.67740793      66.30472785      91.35717816
H      89.77033930      67.42911500      92.82549550
C      92.41406641      64.25248507      92.68565575
H      93.23798709      63.36998288      91.01702743
H      91.11393471      62.86164650      93.46800246
C      94.30757218      65.47513799      94.51680056
H      93.32491450      66.64676831      95.89819049
H      95.48298195      66.81306422      93.48312026
C      96.19729849      63.66666991      95.89063158
H      97.29711921      64.83830023      97.17942493
H      97.55034253      62.84652869      94.57538207
N      94.72898115      61.59930933      97.25123454
H      94.83102637      59.79840015      96.63140430
C      93.43640835      61.82418676      99.36583827
N      93.26444325      63.87265008     100.63006517
H      92.02289307      64.01815901     102.07381609
H      94.72142224      65.02727286     100.20109730
N      92.26666776      59.81729741     100.23700210
H      90.89094701      59.92123236     101.55414135
H      92.65784111      58.11654373      99.46599377
C      92.28367530      68.11319593      89.67910119
O      93.16239803      70.04638594      90.53514721
N      92.63894384      67.29683416      87.35095838
H      92.01533416      65.52427088      87.02214599
C      93.87104540      68.50814873      85.33839986
H      94.87260035      70.21646131      85.90531774
C      95.97242106      66.62598132      84.31227846
H      97.05145479      67.47635816      82.77782071
C      97.86214737      66.35575046      86.56483224
H      97.02688834      65.53560924      88.25802701
H      98.46308034      68.26248431      87.05238163
H      99.50809899      65.28805509      85.93366364
C      94.98031475      64.06351244      83.49591670
H      93.01310965      63.97658503      82.89309400
H      95.02755790      62.69346086      85.03226420
C      96.53178005      62.87487459      81.27170882
H      96.21241630      64.07863025      79.63142638
H      95.75132308      61.11553939      80.54416420
H      98.51221323      62.53472385      81.73091232
C      92.02478279      69.40387900      83.15198652
O      92.95452814      70.75503331      81.45123283
N      89.56057968      68.77460014      83.13686870
H      88.83114532      67.74280957      84.56739151
C      87.89573080      69.66277150      81.08273619
H      88.86138094      69.54749820      79.26670921
C      85.68286129      67.64265407      80.66888614
H      84.21832339      67.97902536      82.07673224
H      86.39528811      65.71702296      80.84841013
C      84.83437417      67.82406780      77.92500352
O      83.15440748      69.41521736      77.38643153
O      86.05135792      66.57117926      76.23747793
C      86.71465185      72.20067394      81.56839586
O      87.01511834      74.04315710      80.08874016
N      85.36349754      72.50114043      83.72646331
H      85.11783312      70.82306346      84.59951686
C      84.30903026      74.77637091      84.94155732
H      83.73266373      76.10673823      83.47890917
C      82.23222104      73.97323722      86.76514323
H      83.13551022      73.13986792      88.42054347
H      80.92264070      72.69011306      85.82594925
C      80.38406870      75.92532450      87.73457282
H      81.39129283      76.91743082      89.23123606
H      78.91008218      74.84818051      88.68888460
C      79.21243839      77.76780766      85.86374377
O      77.59294294      77.02136577      84.30660929
O      79.87006315      80.03358951      85.91098693
C      86.12883670      76.29382114      86.48735346
O      85.76411952      78.61629477      86.62341374
N      88.24721989      75.21667714      87.37552482
H      88.09226234      73.31561247      87.36796592
C      89.88750233      76.49602185      89.17454427
H      90.40717707      78.33850501      88.41865375
H      91.64305808      75.42643676      89.30493538
C      88.83492478      76.87963629      91.80315358
O      86.73543884      77.72623368      92.27180570
N      90.25788869      75.88375053      93.61918055
H      91.63171972      74.71400994      92.99368115
C      89.59459475      76.03114918      96.21944397
H      87.54802116      75.89697861      96.41030632
C      90.99488195      74.03181874      97.74823255
H      93.00744048      74.45700716      97.63106952
H      90.98543332      72.11374653      96.99990093
C      90.08970305      73.94867078     100.58849120
H      90.39205926      75.79304366     101.45398586
C      87.62172048      72.82428362     101.31792555
H      86.13261615      73.65198375     100.16141305
H      87.26078276      73.17766245     103.31536626
H      87.50833690      70.79282784     100.98722345
C      91.91895812      72.30838834     102.02468319
H      91.66195534      70.30527845     101.62028176
H      91.78100810      72.80349664     104.02023418
H      93.85592759      72.85640897     101.58815641
C      90.28056541      78.79392905      96.98478313
O      92.48776574      79.51769423      97.05659273
N      88.51178158      80.19232652      97.97499970
H      86.98299299      79.08116745      98.26412784
C      88.68941585      82.68676525      99.20143208
H      90.57536271      83.34627974      99.70787874
C      87.47810128      84.48200525      97.32682358
H      86.92252175      86.26968634      98.18097987
H      85.84915720      83.47478112      96.56904334
C      89.32436389      85.14340946      95.01946775
H      90.03301126      83.42564824      94.13318612
H      90.76055589      86.34338567      95.88118295
C      88.10738015      86.81770697      93.03714486
H      89.52845433      87.31281527      91.63307821
H      87.40629168      88.51846065      93.96689019
N      86.02301202      85.44198622      91.81827139
H      84.40351657      85.26813140      92.81415714
C      86.13450588      84.01335312      89.72067517
N      88.34926511      83.73178390      88.37330031
H      88.77823299      82.61117620      86.88797543
H      89.79301602      84.87317860      88.87407778
N      84.14840352      82.66219881      89.14808810
H      84.05958638      81.44143561      87.68166049
H      82.73110879      82.81148719      90.41609446
C      87.30424646      82.94187830     101.71854753
O      85.05547215      82.71889060     101.77523933
N      88.67240831      83.19132218     103.92385814
H      90.57536271      83.15919683     103.80102594
C      87.39495333      82.76802348     106.29546466
H      85.85860583      81.45844315     105.88161461
C      89.44341665      81.64552605     107.93385738
H      88.64028297      81.35828765     109.81035561
H      90.97220524      83.01557763     108.09259439
C      90.42418461      79.03581402     106.95686887
H      91.12149362      79.09061608     105.01800968
C      92.59925959      78.14953237     108.66140201
H      93.12838296      76.18799646     108.33258964
H      91.82825126      78.06638442     110.57002558
H      94.18285024      79.46667162     108.70675544
C      88.38894937      76.92687945     107.37260867
H      87.68030200      76.77192189     109.30012951
H      89.19208305      75.08250657     106.93419216
H      86.72599021      76.94199726     106.15562492
C      86.45953880      85.12640192     107.70142104
O      85.32192356      85.02246698     109.67051586
N      86.84315324      87.42241939     106.66018185
H      87.62361021      87.54714133     104.92163364
C      85.54491127      89.69009097     107.54079430
H      84.83059472      89.46710326     109.46075623
C      87.36849716      91.76501046     107.77323065
H      88.32280895      91.95020364     105.95909338
H      88.69319530      91.25289463     109.26422471
C      86.34237577      94.38417113     108.41384787
H      84.97421392      94.04968957     109.91240082
H      85.22743725      95.14006166     106.85482365
C      88.30013223      96.30224334     109.47965350
H      89.96120166      96.13027824     108.27400811
H      89.03145631      95.64839803     111.29001131
C      86.96220600      98.87794030     109.95208508
H      85.84915720      98.61715807     111.66417713
H      85.67152293      99.29934927     108.40061977
N      88.74610764     101.10214817     110.32058172
H      89.95931193     100.69963647     111.73787645
H      87.64817665     102.63093676     110.63805573
H      89.77600848     101.44040918     108.74832942
C      83.33960066      89.97732937     105.71153924
O      83.22054790      88.83971413     103.66874509
N      81.42530790      91.42108027     106.43341469
H      81.24011472      92.04468995     108.22865469
C      79.55069940      92.39239960     104.51345276
H      78.78913970      90.66330002     103.69142181
C      77.43798538      93.94008545     105.81169472
H      78.34127456      95.45753568     106.86994147
C      75.73534197      95.13061302     103.91251979
H      74.53158631      96.60459955     104.70242538
H      74.64496989      93.65284705     102.97710525
H      76.75768391      96.07736591     102.39695929
C      75.91108652      92.28279547     107.68063406
H      77.22444631      91.18486448     108.82580820
H      74.82260417      90.89384663     106.61860787
C      73.96088897      93.91551900     109.06769317
H      72.57005040      94.60148966     107.71275940
H      74.90575212      95.57280898     109.84626041
H      72.60595520      92.94797913     110.28089746
C      80.77146260      93.72465665     102.24578117
O      82.62150466      95.14006166     102.56892437
N      79.74345148      93.43552852      99.97999932
H      78.22222180      92.28468520      99.90252054
C      80.24611868      94.96998629      97.65752568
H      81.02090647      96.75955711      98.31892989
C      82.31725872      93.62450115      96.11928847
H      84.12950626      93.47710250      97.08682834
H      82.87850744      94.67518898      94.43743205
C      81.53680176      91.07903981      94.95710679
C      80.66374820      90.92030280      92.43243244
H      80.49178310      92.51712153      91.17198498
C      79.84927616      88.56003463      91.48190009
H      78.98567123      88.21988390      89.66398338
C      80.04958715      86.43598226      92.97856333
O      79.21810757      84.27413536      92.07149470
H      78.80425751      84.30815043      90.30460060
C      80.86783864      86.48511514      95.51268633
H      80.87728727      84.67286761      96.44810084
C      81.62561889      88.88884701      96.59172004
H      82.48166491      89.06837101      98.43798266
C      77.81782037      95.65217749      96.22700287
O      75.69943717      94.90573559      96.86384064
N      78.21844235      97.20553252      94.33538684
H      80.08360222      97.50977845      94.06704569
C      76.24367835      98.20141828      92.64219206
H      74.44276918      97.68552300      93.49634835
C      76.41753317     101.00010295      92.26235707
H      75.14763709     101.74843457      90.82427534
H      78.32237730     101.51599824      91.67654190
C      75.90352762     102.27188876      94.76813416
H      77.36995524     101.87126678      96.15897273
H      74.09505954     101.66717634      95.54859113
C      75.72022416     104.96285903      94.41097588
H      75.67865019     105.71874956      96.32526863
H      74.06293419     105.50898993      93.31871408
C      77.97655738     106.45196336      93.17887433
H      77.86506353     106.25354210      91.13041101
H      79.72455422     105.45040842      93.60784219
N      78.02380054     109.19962542      93.74390249
H      79.71132614     109.78355085      93.07304966
H      77.94821149     109.46040766      95.63362881
H      76.48367359     109.92905978      92.88596674
C      76.13596395      96.75388793      90.14964305
O      78.11450740      96.59515092      88.98179218
N      73.97033760      95.69753092      89.32572237
H      72.46800518      95.83170149      90.49735269
C      73.56971562      94.59393075      86.82750419
H      74.88496513      93.01978873      86.64986992
C      70.95622413      93.39773399      86.61396512
H      69.64097462      94.98510410      86.61207538
H      70.61418367      92.32059000      88.33739551
C      70.55182270      91.72910566      84.24613805
O      70.58016859      92.69475581      82.13720348
O      70.41009322      89.34238133      84.64487030
C      74.16308968      96.50444405      84.69589290
O      74.52591713      98.80991015      85.10029434
N      74.55048358      95.68808229      82.38286791
H      74.61095482      93.80402515      82.08429115
C      74.83016307      97.57969833      80.22857991
H      76.33816467      98.86660194      80.78226972
C      75.65030429      96.01689466      77.90610627
H      74.30481916      94.46920881      77.71146445
C      75.71077553      97.63639011      75.52127165
H      73.78136497      97.88205454      74.84474963
H      76.56115237      96.69908586      73.89799676
H      76.52335785      99.49210135      75.89543746
O      77.86128408      94.63550473      77.97413642
H      77.51924361      93.37883673      79.23458386
C      72.42076202      99.17462733      79.92622370
O      72.36784969     101.25143655      79.04939068
N      70.34962198      98.33558885      80.98069097
H      70.14742127      96.50822351      81.49469654
C      68.06305314      99.96642266      81.43233556
H      68.14431138     101.57457975      80.14732168
C      65.69144662      98.46597997      80.45534707
H      63.90754498      99.31824653      81.02982386
H      65.78971239      96.59893037      81.31706227
C      65.77081513      98.39606009      77.58863225
H      67.58873184      97.87827508      76.76849103
H      65.36263424     100.30846312      76.94234585
C      63.84329429      96.68018860      76.40188412
O      64.48202178      94.38417113      76.10141763
O      61.81939741      97.52300654      75.42111617
C      67.74557912     100.86782211      84.17810790
O      65.62908565     101.24387765      85.13052995
N      69.72412257     100.96797760      85.70122731
H      71.34361802     100.39916998      84.86596828
C      69.90931575     102.20574834      88.13519479
H      68.75658270     103.90650202      88.29015236
H      71.88785920     102.74809979      88.32794688
C      69.16098413     100.54656864      90.36318213
O      69.98301508     101.06435365      92.46644750
N      67.45456127      98.83069714      90.01358275
H      66.50402894      98.65117314      88.36952086
C      66.41143235      97.42096131      92.15464267
H      65.16799243      98.64172451      93.25635310
C      64.68989168      95.26100414      91.08316784
H      63.62786549      94.32747934      92.57983108
H      66.00325146      93.77001008      90.53703695
C      62.93055648      95.77311997      88.91943122
C      63.14220583      94.53912869      86.57239114
H      64.66154578      93.18797437      86.39097742
C      61.60396861      95.09470822      84.49369219
H      61.86664056      93.96087244      82.81939468
C      59.92778137      97.11293593      84.54471481
O      58.33474208      97.53812435      82.66254739
H      57.20468575      98.81746906      83.28048789
C      59.96557589      98.70786493      86.68199527
H      58.75048187     100.35003710      86.72734869
C      61.36586309      97.91984906      88.85895998
H      61.50759256      99.28423146      90.37074103
C      68.33706346      96.21531593      93.99145664
O      70.28159184      95.11360549      93.17698461
N      67.73046131      96.26444881      96.33849672
H      66.12230422      97.12805374      96.89407625
C      69.47278897      95.39328498      98.24901002
H      71.34361802      96.07358645      97.71799694
C      68.92287862      96.35515567     101.00045153
H      70.19844388      95.35926991     102.27790652
H      67.01614477      95.62572132     101.27824130
C      68.98523958      99.21431159     101.30091802
C      66.89709201     100.59192207     102.02090374
H      65.27003765      99.46753491     102.52546068
C      66.88386392     103.25265672     102.05302909
H      65.17555134     104.25043221     102.55002712
C      69.11752043     104.58302404     101.66941465
O      69.06460809     107.06423469     101.97744005
H      67.35818523     107.66516766     101.86027701
C      71.40408927     103.23942863     101.07793032
H      73.17665255     104.21641714     100.80580972
C      71.23590362     100.55034809     100.74722822
H      72.87051688      99.52422670     100.08204455
C      69.53514994      92.41885576      98.14885452
O      67.70400514      91.01856857      97.93342573
N      71.85006468      91.46076452      98.18853878
H      73.42231697      92.50200372      97.90696956
C      72.42643120      88.77546343      97.56303937
H      70.59150695      87.86650508      97.79547571
C      73.06704842      88.68664630      94.80970813
H      74.84339116      89.70709851      94.59049988
C      73.25224160      85.89552053      93.85350662
H      74.50135069      84.84105325      95.10828489
H      73.82104922      85.74812188      91.87874263
H      71.37763310      85.07537931      94.08027377
O      71.11118169      89.72221632      93.32249352
H      71.14897621      91.47966179      93.77035867
C      74.52402741      87.80225438      99.36394854
O      75.96966804      89.39718339     100.25023020
N      74.67709524      85.39096361     100.10283154
H      73.36940463      84.29303262      99.24867524
C      76.85972913      84.43287237     101.47666256
H      78.51512938      85.58938487     101.06848168
C      76.19265574      84.33649632     104.42274589
H      75.17787271      86.07504453     104.86305212
C      74.61284454      82.22756176     105.44697755
H      73.90986636      82.41086521     107.37449839
H      75.63329675      80.44932930     105.25800491
H      73.02358472      82.06315557     104.14306640
C      78.67575612      84.76924365     106.02334408
H      79.37306513      86.54369666     105.24666656
H      80.03068988      83.23289616     105.80791527
C      78.43765060      85.00923889     108.84848492
H      76.69154349      86.09772125     108.90328697
H      80.15163237      85.86906436     109.59870627
H      78.08427178      83.19321190     109.75366382
C      77.60806075      81.80993224     100.66596997
O      76.18887629      80.48334437      99.42630951
N      79.82093026      81.01435747     101.65807630
H      80.86594891      82.31259944     102.58782164
C      80.86027974      78.53314682     101.86405647
H      79.38251376      77.40120075     102.74844838
H      82.47032655      78.36685090     103.13962173
C      81.61805999      77.27458909      99.40930199
O      83.39251300      77.96055974      98.19231823
N      80.25178786      75.29226619      98.77813339
H      79.21432812      74.43055099     100.13117744
C      80.06848441      74.37763865      96.12873710
H      81.47633051      75.37541415      95.00246022
C      80.60516668      71.53171083      95.82827062
H      79.32771170      70.52826615      97.09438725
C      79.67731106      70.78148948      93.15997706
H      77.65152446      71.02715390      92.88407703
H      79.89462959      68.75192342      92.89730510
H      80.71288108      71.95878897      91.82394056
C      83.48321986      70.85707853      96.24967958
H      83.54747055      70.12386472      98.17342097
H      84.58870975      72.58239866      96.05503777
C      84.71343169      68.64420902      94.77947252
H      85.08759750      69.15065567      92.81793660
H      83.57770617      66.93589643      94.98356295
H      86.65229089      68.37397816      95.42008974
C      77.52113334      75.53415116      95.30292671
O      75.48400838      74.31905714      95.59394456
N      77.57782513      77.80371246      94.11428886
H      79.20110003      78.72967835      93.71933606
C      75.47455974      78.86006947      92.55148519
H      75.10795284      77.91331659      90.76002464
H      76.10005915      80.74034715      91.98456730
C      72.70044152      79.30415515      93.53981205
O      70.96945221      79.84272715      92.11306869
N      72.22045103      78.89975372      95.97377955
H      73.70010674      78.27425431      97.00179066
C      69.81293971      79.03959347      97.25690371
H      68.47879293      77.78292547      96.31393028
C      70.19088497      77.69599806      99.85716712
H      71.62518724      78.61629477     101.01367963
H      70.88252480      75.85918408      99.23166771
C      67.72290241      77.56749667     101.23855706
N      66.18277546      75.40187032     101.35005090
H      66.70622965      73.58584333     101.07415087
C      64.10218679      75.99902383     102.59538055
H      62.49213997      74.76125310     102.79002235
N      64.20990119      78.47645503     103.42119095
H      62.80961399      79.23801473     104.46998905
C      66.45678578      79.44966408     102.50845313
H      66.97457079      81.34505957     103.06214295
C      68.71311900      81.64552605      97.52335512
O      69.92065411      83.20077081      98.78191284
N      66.51914675      82.24456930      96.42731385
H      66.05049462      81.05215199      95.01190886
C      65.34940616      84.71255186      96.44054195
H      66.98401942      85.96733013      96.37062206
C      64.30816696      85.20954988      93.77413811
H      63.03449143      83.70910719      93.17131542
H      65.86908089      84.86939914      92.47400641
C      63.11385993      87.80225438      92.97667362
H      64.65776633      89.16285733      93.06171130
C      62.59607492      87.66808381      90.14019441
H      64.08517926      86.77802272      89.03281480
H      62.46946326      89.58993547      89.40509088
H      60.84240890      86.61361653      89.91531699
C      60.82540137      88.65263122      94.54892591
H      59.91644301      86.93864946      95.24623492
H      59.64054297      89.75623139      93.27714009
H      61.34507610      89.83371017      96.15708299
C      63.55227643      85.36639716      98.64018337
O      61.75892616      83.99445586      99.08426905
N      64.38942519      87.25423375     100.16330278
H      65.90120624      88.31248049      99.67764311
C      63.44834149      87.77390849     102.71254358
H      63.02315307      85.97110958     103.61583276
C      65.52704043      89.09671691     104.30936231
H      64.66532523      89.84504853     106.02334408
H      66.05049462      90.90329526     103.47410329
C      67.73613049      87.43375775     105.12383436
H      68.10840658      86.11850824     103.58181767
C      70.13419318      88.95498743     105.85515843
H      71.34739748      87.56792832     106.76978597
H      69.55593693      90.26645749     107.33481413
H      70.99779811      89.89985059     104.24133216
C      67.08984409      85.69143009     107.17418740
H      65.29082464      84.79947927     106.70742501
H      66.66465567      86.81392752     108.84659519
H      68.59595596      84.35350386     107.60315528
C      61.05972743      89.50678752     102.70876412
O      59.38165046      88.75278672     104.08637461
N      61.13153703      91.60060427     101.26312350
H      62.58095711      91.85004814     100.04613975
C      59.06039699      93.29568877     100.80203027
H      57.36342276      92.20720642     100.36928295
C      58.43489758      95.12305412     103.07537103