 %block lattice_cart
   139.898   0.000   0.000
   0.000 144.87   0.000
   0.000   0.000   168.12
 %endblock lattice_cart

 %block positions_abs
N      91.74321357      42.09544405      86.67727095
H      90.95519770      42.34677765      88.39692189
H      93.64238851      41.95938375      86.81144151
H      91.10448608      40.62145752      85.64359065
C      91.10259635      44.56909579      85.42816185
H      92.14572527      46.09599465      86.33523048
C      92.04745951      44.82987802      82.71451486
H      91.06669155      43.34644287      81.67516539
H      94.09025365      44.56720607      82.71829431
C      91.46920325      47.25061743      81.38603726
H      89.45853446      47.66635722      81.19517491
H      92.13438692      46.95582013      79.45851642
S      92.97153567      49.92646989      82.73719158
C      92.20997597      52.50027713      80.54321934
H      92.97153567      54.33142193      81.10257832
H      90.18418936      52.78940525      80.30700355
H      92.94507950      52.11477296      78.65916219
C      88.17730002      45.24372809      85.53398653
O      86.85260187      43.43714973      85.46406665
N      87.47621156      47.67580585      85.84201192
H      88.72343092      49.11388757      85.70595162
C      84.79468992      48.24839292      86.07066880
H      83.69675893      47.07865234      84.77620627
C      83.86116512      47.58887844      88.89014045
H      84.18619804      45.58576855      89.24729874
H      81.80892234      47.74005655      88.80132332
C      85.13673038      49.24427869      90.76285923
O      86.41796482      51.06408513      90.18082352
N      84.65296044      48.59610257      93.09856095
H      85.76789897      49.45214859      94.39113375
H      83.83470895      46.92936396      93.53886719
C      84.34115560      51.03384951      85.38280842
O      85.92663598      52.63633742      84.91226656
N      81.89018057      51.65934892      85.81555574
H      80.74500643      50.13245006      85.75886395
C      80.92453043      54.30685548      85.69461327
H      81.37995447      55.07786382      83.84079175
C      78.13529439      54.16323628      86.04043318
H      77.18287233      52.77995662      84.84801588
C      77.51168471      53.46214782      88.88447127
H      78.43387115      51.75572496      89.57989056
H      75.45944193      53.50750125      89.05832609
H      78.15797111      54.97959805      90.11846257
C      76.56682155      56.68413118      85.39603650
H      77.18854151      58.07119030      86.78876479
H      74.50890960      56.65389556      85.37902897
C      77.17531342      57.56663337      82.72963268
H      75.75234951      58.85542672      81.98130106
H      77.18287233      55.94335847      81.46351604
H      79.05181165      58.40945131      82.68427924
C      82.34371489      56.26461194      87.36702105
O      82.44387038      58.49637872      86.62813807
N      83.64384659      55.64100226      89.45138918
H      83.81203223      53.79096020      89.88602622
C      84.97610364      57.37955047      91.20316546
H      83.92541581      59.14833430      91.08600243
C      85.23877560      56.39500306      93.86578984
H      86.35749358      57.84064369      94.81632217
H      86.54835594      54.81330214      94.01696795
C      82.77079304      55.80351872      95.26040785
C      81.97710798      57.14144495      97.38634996
H      83.29235750      58.44157666      98.24995488
C      79.70187750      56.63499830      98.58443644
H      79.03669384      57.73481901     100.16802709
C      78.16741974      54.66590348      97.60933766
H      76.38918728      54.20669999      98.50317821
C      79.00834795      53.23916012      95.53441817
H      77.93687313      51.63289275      94.88246259
C      81.35160857      53.74938622      94.35711869
H      81.72955384      52.80641279      92.58644512
C      87.51589581      58.13922045      90.17893380
O      88.28312469      60.24059611      90.26019204
N      88.95397753      56.41579005      89.01864185
H      88.25666852      54.64511649      89.15848159
C      91.39550393      56.77105860      88.04921224
H      92.35737462      58.12221291      89.26997545
C      92.74476852      54.24260479      88.21172871
H      94.60425921      54.40323153      87.33867516
H      91.58636629      52.91790664      87.14025390
C      93.28145079      53.24671902      90.98962640
H      94.17340161      51.39478723      90.84033802
H      91.46353408      53.25049847      91.95905599
C      95.03322708      55.13077616      92.32377316
O      94.62126674      55.83186462      94.55931940
O      96.75098830      56.20036125      91.13891478
C      91.37660667      57.71025257      85.34123444
O      93.03578637      59.11053977      84.65715352
N      89.36782759      57.11687851      83.92582943
H      88.27934524      55.71092213      84.62313844
C      88.57036309      58.57196777      81.62225306
H      90.03490098      58.59842394      80.17661243
C      86.06269627      57.28506415      80.79266320
H      84.71343169      57.16601139      82.34412851
H      86.45009017      55.32730769      80.28054737
C      84.80413855      58.42834857      78.51176354
H      86.21009493      58.10520537      77.04155647
H      84.65673990      60.47114272      78.74231015
S      81.80892234      57.02995110      77.44595791
C      81.77490727      58.10520537      74.14271632
H      82.10182992      60.12154335      73.89138271
H      80.02502070      57.72159093      73.12604355
H      83.40952053      57.10931961      73.37737715
C      88.25288907      61.27049695      82.26098056
O      89.43963719      62.94101501      80.94006185
N      86.81480735      61.90544499      84.31889250
H      85.75845034      60.84152907      85.49808172
C      86.44631071      64.72113719      84.91037685
H      85.79057568      65.62253665      83.17938754
C      84.43186246      64.80995433      87.11001828
H      85.23499615      65.65277227      88.80888222
H      83.65896440      62.99959652      87.71851014
C      82.06025594      66.29149976      86.27475924
H      80.76012424      66.50314911      87.85646017
C      82.59693821      68.93144742      85.35068307
H      81.01523729      70.22779967      85.11446729
H      83.45487396      68.91066043      83.47796429
H      83.77801716      69.94245100      86.69994766
C      80.62217422      65.05561875      84.09590481
H      81.68797986      64.77027008      82.35735659
H      78.95921506      66.21780043      83.74441570
H      80.14407346      63.18667943      84.81589053
C      88.86138094      66.22913879      85.55666324
O      88.89728574      68.56673024      85.47918447
N      90.89472646      64.93656599      86.44294489
H      90.85315248      63.05439859      86.11791195
C      93.26822270      66.09118877      87.37835940
H      92.83358565      67.55005748      88.76730824
C      94.97653529      63.91422406      88.56510753
H      95.56235045      62.59708482      87.09112100
H      93.96553171      62.83519033      89.99752007
C      97.32357537      64.76271117      90.03153516
H      96.95696847      65.69056679      91.83433405
H      98.51410295      65.96079766      88.85045621
C      98.90716602      62.50259850      90.84222773
H     100.90271701      62.92589720      91.13891478
H      99.22841950      61.34230655      89.17170968
N      97.76577133      61.03239143      92.92659586
H      97.26877331      59.23715143      92.50896635
C      97.70907954      61.55584562      95.31709964
N      98.59536118      63.63454456      96.29219842
H      98.73898038      63.74981787      98.19137337
H      99.33235444      64.97058107      95.14702429
N      96.76232666      59.77950289      96.78541699
H      96.73209104      60.28028036      98.62601043
H      95.85147857      58.24882457      96.10133606
C      94.79890102      67.60674927      85.51508927
O      96.23509302      69.22057555      86.48262913
N      94.58158249      67.28549580      82.99041490
H      93.75577209      65.60174966      82.63325663
C      95.33936274      69.01648510      80.87392143
H      96.62437664      70.51881752      81.45595714
C      96.65650198      67.50659378      78.85002456
H      96.89838695      68.79160767      77.25887500
C      99.31345718      67.03038275      79.66827605
H     100.40004981      68.71034944      80.16149461
H     100.31879158      66.10441686      78.12814910
H      99.38904623      65.83607572      81.34635301
C      95.31857575      65.24081193      77.62548191
H      93.35892957      65.84174490      77.43839900
H      95.46030523      63.61375757      78.88214990
C      96.33524851      64.80428515      74.93640136
H      98.15505495      63.83863501      74.89671712
H      96.28611563      66.60519433      73.94051559
H      95.10314695      63.59863976      73.80823476
C      93.06602199      70.36385996      79.73441648
O      93.55168165      72.17232805      78.37570326
N      90.69819492      69.48135778      80.05566994
H      90.33725719      67.95067946      81.14037285
C      88.49288431      70.82495319      78.91616498
H      88.80279943      71.61107933      77.03588729
C      86.23844082      68.92955769      78.55144780
H      84.39595766      69.80639070      78.82923756
H      86.31025042      67.42911500      79.96307335
C      86.38206002      67.67288969      75.98330974
O      84.84193307      66.01748944      75.37103842
O      88.13383631      68.29838910      74.59625062
C      87.52345471      73.15498573      80.49408644
O      86.36505248      74.83495242      79.30544860
N      88.22454317      73.25325150      82.87325187
H      89.01822823      71.68288893      83.61591431
C      88.16785139      75.55871760      84.43605553
H      88.89539602      77.01380686      83.17560808
C      85.45798385      75.86485326      85.36958033
H      84.96098583      74.26803453      86.56955654
H      84.16163160      75.62863747      83.78598969
C      85.03090571      78.62007423      86.41270927
H      86.33670659      79.26636063      87.86779852
H      83.16385611      78.77314206      87.27064500
C      84.77957211      80.54003616      84.20550893
O      86.64284225      81.70410757      83.45717731
O      82.58371013      81.01435746      83.30221975
C      90.15206401      75.41887785      86.52420311
O      91.42007037      77.27080964      86.81711069
N      90.37316199      73.28159739      87.99441018
H      88.93130082      72.07595200      87.65614917
C      91.82636153      73.16065491      90.34711945
H      93.62727070      74.15087150      90.21294887
H      92.39327942      71.26903887      90.93671405
C      90.41662570      74.56661128      92.45227456
O      88.17918974      75.19022097      92.17637451
N      91.72809576      75.00691752      94.59522420
H      93.58191727      74.56094211      94.65191599
C      90.81535795      75.64186556      97.12178828
H      88.76500490      75.45478265      97.19737732
C      91.93218620      73.75591870      98.90002073
H      93.95230363      73.84662556      98.50695767
H      90.96842578      71.97012733      98.54475220
C      91.28589980      74.26992425     101.66658006
H      91.64305808      76.14831221     102.42813976
C      88.46453842      73.88064063     101.94059037
H      88.04690890      71.93233280     101.41902591
H      87.35526907      75.05982985     100.66691484
H      87.85604654      74.21890164     103.88133930
C      92.50477327      72.30271916     103.37489265
H      91.45975462      72.45389727     105.14556620
H      94.47197837      72.77704047     103.76795572
H      92.32146982      70.43000039     102.53585417
C      91.46542380      78.24212896      97.89279661
O      93.65372687      79.03959347      98.12145349
N      89.65317627      79.83138879      98.66380494
H      87.87494381      79.21911747      98.34633093
C      90.04057016      82.39574740      99.88645787
H      91.98320881      82.87951734     100.36833808
C      89.40184267      84.51979978      98.05153363
H      88.72343092      86.16386167      99.09466254
H      87.91273833      83.80548323      96.81754234
C      91.75455193      85.06404095      96.40747174
H      92.55579588      83.22344752      95.95204768
H      93.26444325      85.87095409      97.55264587
C      91.33503269      86.72133093      94.15302823
H      93.09625761      87.47533173      93.39902745
H      90.20686608      88.33704693      94.75396120
N      89.84403863      85.43253758      92.07054985
H      89.31491526      83.65997430      92.54676088
C      88.79901997      86.24511990      90.03342487
N      88.67618776      88.60160861      89.22651174
H      87.35715880      89.26490255      88.01897662
H      89.62294065      89.81670263      90.35278863
N      87.65573555      84.71066213      88.51786438
H      86.92441147      85.50812664      86.94561208
H      87.86171572      82.83038445      88.77297742
C      88.53067884      82.51291043     102.31853564
O      86.24033055      82.65086045     102.26373358
N      89.79112629      82.55448441     104.58431748
H      91.50699778      83.37840508     104.45203664
C      88.64973160      82.20299532     107.12599937
H      87.29668756      80.67042728     106.88789386
C      90.73598944      81.77213772     109.10076337
H      89.75522149      82.14441380     110.87143693
H      92.21942460      83.18943245     108.90234211
C      91.87738414      79.15486677     109.29162573
H      92.73343016      78.81849549     111.13599861
C      90.13316675      76.87963629     109.04974076
H      91.19519294      75.17321343     109.49571617
H      89.35082006      76.72656846     107.14867609
H      88.59492953      77.26514046     110.36499027
C      93.85214814      78.89030509     107.30363365
H      94.94252022      77.14419798     107.35276654
H      95.38093672      80.25657721     107.50394465
H      93.30979668      78.87707700     105.31753129
C      87.06047177      84.39507784     108.11243651
O      85.41640987      84.12484698     109.94547103
N      87.44030676      86.67786722     107.16946309
H      88.96531589      86.65896996     106.02239921
C      86.23655109      89.09104773     107.77039605
H      84.90618377      88.53924764     109.24249285
C      88.24910962      91.08281926     108.79273799
H      89.80813383      91.41541109     107.49260628
H      89.20720086      90.44976095     110.50294030
C      87.06425122      93.51678675     109.51461344
H      85.52412427      93.32403467     110.86954721
H      86.41985455      94.50889307     107.83086730
C      89.18641387      95.27423222     110.54640400
H      90.61693669      95.43863841     109.07052776
H      89.81758246      94.57503349     112.37754881
C      88.02612191      97.98409976     111.15867533
H      86.84504297      97.74788397     112.82730367
H      86.96787518      98.69841630     109.54106961
N      90.04623934      99.80201647     111.82196926
H      91.00055113      99.27478283     113.38666265
H      89.27712073     101.49332152     112.25660631
H      91.06480182     100.14594666     110.24593753
C      84.65673990      90.00378554     105.46492994
O      85.37105644      89.23466693     103.33520839
N      82.73110878      91.65351661     105.68413820
H      82.63662247      92.70798389     107.27150830
C      81.06059072      92.52845989     103.60921871
H      80.12706592      90.92408225     102.71348844
C      78.73811708      94.20086768     104.49739007
H      79.59038365      95.66729530     105.66713067
C      77.16208534      95.27612195     102.12767329
H      76.54225511      93.84937858     100.77651896
H      78.25812660      96.72554203     101.16013340
H      75.39141178      96.07925563     102.80986447
C      76.96933325      93.11616477     106.46270544
H      78.05970534      92.51523181     108.10298789
H      76.18698656      91.28501998     105.93736153
C      74.67898496      94.66951980     107.54551861
H      73.86451292      93.36938810     108.91934964
H      73.39397107      94.86605134     105.94869988
H      75.44621385      96.34759677     108.46014616
C      82.59504849      93.81725324     101.53618894
O      84.46209809      95.14762056     102.02373834
N      82.01679224      93.35993947      99.06442692
H      80.36328171      92.50578317      98.64490768
C      83.37928491      94.10071218      96.72683548
H      84.20887476      95.92807753      97.18792869
C      85.29735712      92.00689543      95.97283468
H      86.56725320      91.58926591      97.53941779
H      86.38394975      92.74388869      94.38546458
C      84.25422819      89.53891286      95.01852290
C      83.71943564      89.31781488      92.37668550
H      84.14084461      90.87872882      91.13135587
C      82.79346975      87.09171729      91.28442370
H      82.71788070      86.74967682      89.27186518
C      82.43631148      84.97144436      93.02864109
O      81.58404491      82.85684062      91.91748202
H      81.28357843      83.06282079      90.13924955
C      82.87850744      85.22277796      95.55898461
H      82.66874781      83.78091679      96.98761770
C      83.76100962      87.46966255      96.65502587
H      83.98588705      87.49611872      98.68270221
C      81.30058596      94.55613622      94.67081324
O      78.96677397      94.22543412      95.29442294
N      82.23033131      95.14573083      92.40125194
H      84.07848364      95.57091925      92.17070533
C      80.59949750      95.59926515      90.08255777
H      78.61339515      95.43107951      90.60223249
C      80.76390369      98.29590460      89.06777474
H      79.71321586      98.46786969      87.30466008
H      82.66496836      98.46597997      88.29109721
C      80.05336660     100.32169120      91.10867914
H      81.20798937      99.86059798      92.75274104
H      78.10127932     100.30279394      91.75874500
C      80.35950226     102.92762379      90.08822695
H      82.33048680     103.19218547      89.55721384
H      80.05903578     104.37893360      91.51686003
C      78.73244790     103.70241158      87.79598893
H      76.72933801     103.46241634      88.20794926
H      79.10094454     102.38716206      86.25586198
N      79.25401237     106.41038939      87.27631419
H      79.46566171     107.34391418      88.92793498
H      77.78758475     107.18139772      86.32956130
H      80.78280095     106.60503120      86.14625786
C      80.98311194      93.58103745      88.07566841
O      83.11094377      93.05758326      87.29710117
N      78.87606710      92.70420444      87.04576757
H      77.23200521      93.30702713      87.80732728
C      78.66441776      90.75022743      85.06344467
H      79.81337136      89.09293745      85.48296391
C      75.98856530      89.73922385      85.00864261
H      74.72055894      91.24722545      84.40015073
H      75.48589810      88.99089223      86.86057440
C      75.62762757      87.35249952      83.28710193
O      74.65819797      87.64540710      81.10257832
O      76.47611469      85.29836702      84.07133835
C      79.23700483      92.00500570      82.40837921
O      79.52802268      94.33314852      82.37625386
N      79.58849392      90.62361577      80.29566519
H      79.26157127      88.74333808      80.33723916
C      79.66975216      91.62706044      77.75965247
H      81.02657565      93.17852574      77.72752712
C      80.59004887      89.67497316      75.78677821
H      80.33304609      90.29102394      73.83847037
C      83.29424722      89.13073198      76.18928990
H      84.01990213      87.65296600      74.95151918
H      83.39251299      88.54491682      78.16216418
H      84.41674465      90.83904457      75.94551522
O      79.11984180      87.55470023      76.09480360
H      80.07037413      86.46621788      77.19273458
C      77.23011549      92.98577366      76.86203247
O      77.27546892      94.69408624      75.34647198
N      75.14007818      92.19019888      77.89760250
H      75.27424875      90.66330002      79.03521774
C      72.75524358      93.55647100      77.67461479
H      72.36973941      93.97976970      75.69607134
C      70.66142682      91.61194263      78.44373339
H      70.62174257      91.54580221      80.50164535
H      71.17165293      89.77134920      77.67083533
C      67.91754422      92.38295096      77.74642439
H      67.37330304      94.11016081      78.72530262
H      66.64764813      90.99589185      78.58357315
C      67.66054144      92.68908663      74.87026094
O      67.32417015      94.82447736      73.78933749
O      67.73990994      90.80313977      73.51154772
C      72.68343398      95.92051862      79.51331849
O      70.98645975      97.51544763      79.33001504
N      74.57505002      96.34759677      81.19328518
H      75.88840980      94.97376574      81.37280918
C      74.81315553      98.68518822      82.81467036
H      74.34072395     100.47853849      81.91705036
H      76.75768391      98.84959441      83.47229511
C      73.27680804      98.41306763      85.34312416
O      73.33916901     100.16295419      86.91537646
N      71.84250577      96.29468443      85.55666324
H      71.67809958      95.09281850      84.08456644
C      70.25891512      95.71453845      87.90181359
H      69.26113962      97.44930721      88.39125271
C      68.32950455      93.70575938      87.34245461
H      67.20889685      93.48844086      89.05643638
H      69.31216223      91.91618856      87.06088538
C      66.59851525      94.12905808      85.05210632
C      65.19444860      92.07114612      84.02787465
H      65.36263424      90.20409652      84.83478779
C      63.40109833      92.43019412      82.10980244
H      62.39765366      90.77668360      81.46540577
C      63.02693252      94.75266776      81.06478379
O      61.09563223      94.88494860      79.34513286
H      60.63453901      96.60837900      79.01821019
C      64.34596148      96.80113108      82.07578738
H      63.90565525      98.60204026      81.22352080
C      65.95789803      96.53278995      84.10535343
H      66.47568304      98.25622034      85.06911385
C      71.81227015      94.91329450      90.10145502
O      73.88718964      93.80591488      89.91626184
N      70.93543714      95.74666380      92.38424441
H      69.43310472      96.90506603      92.57699650
C      72.31304762      95.11738494      94.79553518
H      74.26891435      95.75800216      94.86356534
C      70.97890084      96.44208308      97.04997867
H      71.47400914      95.54257336      98.83577005
H      68.92854779      96.40239883      96.88746221
C      71.73668109      99.19163487      97.23139240
C      69.93388219     101.17584750      97.04430949
H      67.93833120     100.88482965      96.72683548
C      70.73323642     103.83091297      97.17470061
H      69.52759103     105.46174678      96.95360263
C      73.36751490     104.33358017      97.57343287
O      74.14986160     106.73164286      97.46949791
H      72.85161962     107.99209031      97.60744793
C      75.04559187     102.28133739      97.92681169
H      77.05437094     102.64416484      97.90413497
C      74.23300955      99.83036236      97.71327261
H      75.73156252      98.44519298      97.70004452
C      72.31304762      92.24122149      95.23206196
O      70.39119596      90.91841307      95.50796200
N      74.62418290      91.23588709      95.61756614
H      76.13785368      92.37539206      95.83299494
C      74.97567199      88.47877640      95.79520041
H      73.18421145      87.64162764      96.36778748
C      75.73345225      87.41675021      93.25351851
H      77.56837650      88.30492158      92.94360339
C      75.94888105      84.52735868      92.78675612
H      76.82004488      84.35161413      90.92915514
H      73.99490404      83.87918256      92.65447527
H      76.97878189      83.30848521      94.09066728
O      73.92498416      88.15941265      91.41292508
H      74.18954585      89.93008621      91.12379696
C      76.77280172      87.71721670      98.05342334
O      78.03135944      89.39151421      99.04175021
N      76.91453119      85.30214647      98.80364470
H      75.58227414      84.17397986      98.03263637
C      78.80236778      84.33649632     100.66313539
H      80.41241460      85.57426706     100.30975657
C      77.92175532      84.42909291     103.39378991
H      77.41530866      86.40196718     103.69236666
C      75.55581797      82.60361729     103.63945433
H      74.79803772      82.83227418     105.53862927
H      76.12084614      80.62696357     103.48449677
H      74.01380130      82.93242967     102.31475618
C      80.04769742      83.97744832     105.25517032
H      81.79191481      84.58594020     104.34243251
H      80.27824403      81.94032336     105.44603268
C      79.77368710      85.31537455     107.89511798
H      79.56959666      87.32793308     107.50394465
H      81.40074146      84.86561969     109.07619693
H      78.14474302      84.68231624     108.98737979
C      79.50345624      81.60206235      99.97716474
O      78.06726424      80.27925393      98.57309808
N      81.68042095      80.67987591     100.84832857
H      82.79346975      81.77402744     101.94625955
C      82.44009093      78.05882551     100.57998743
H      80.89618453      76.94010753     101.35855467
H      84.10116036      77.83961726     101.77618418
C      82.95031704      77.26514046      97.95893703
O      84.82870499      78.17976800      96.86478549
N      81.51223531      75.49068745      96.99517661
H      80.26690567      74.78770926      98.25940352
C      81.91474702      74.19811465      94.51774541
H      83.55880891      74.69511267      93.38013017
C      82.35316352      71.33328956      95.06387632
H      80.67319683      70.62464220      96.02385728
C      82.78024167      69.88009003      92.53920197
H      84.43753164      70.64353946      91.58111073
H      81.24956335      70.05205512      91.16915040
H      83.07125952      67.91477466      93.07021506
C      84.64729126      71.05361007      96.94793345
H      84.18430832      71.74524990      98.83199059
H      86.30458124      72.11185680      96.32810322
C      85.40507152      68.33051445      97.25217939
H      86.78646145      68.15665963      98.76962962
H      86.08537299      67.41777664      95.53441817
H      83.78746579      67.29872388      97.99673157
C      79.56203776      74.77448118      93.02864109
O      77.79703338      73.22301588      92.96816984
N      79.28613771      77.07805755      92.12535191
H      80.85272083      78.15142210      91.94204845
C      77.13373944      77.90764741      90.66081401
H      77.11484218      76.55271364      89.10556925
H      77.46255182      79.76146892      89.82177554
C      74.58638837      78.27614404      91.82866488
O      72.59272711      78.51047010      90.62679893
N      74.37284930      78.40086597      94.40247211
H      75.90163789      77.95489056      95.45504967
C      72.00880168      78.60495642      95.81031821
H      70.87874535      77.29348635      94.69348996
C      72.10139827      77.50324598      98.59010562
H      73.40530943      78.58416943      99.75795648
H      73.14452720      75.73068269      98.69404056
C      69.63719516      77.30293499      99.92803186
N      67.85140379      75.49068745      99.60299892
H      68.03092779      73.83906665      98.66191523
C      65.75191786      76.14831221     100.96549160
H      64.06250254      75.01636615     101.14501560
N      66.29804877      78.26291595     102.34877126
H      65.09618283      79.27769898     103.42780498
C      68.73579571      79.03959347     101.74972802
H      69.80160135      80.67420673     102.34499180
C      70.90331179      81.23923490      95.60622777
O      71.81982905      82.79447965      97.08399375
N      69.06838754      81.80048361      94.03397548
H      68.07061205      80.35862243      93.27619524
C      67.83817571      84.25334837      93.60689733
H      69.17043276      85.72733489      93.05887671
C      66.09206860      84.03980929      91.30332096
H      65.11885955      82.23512066      91.09167161
H      67.39786948      83.86973392      89.71973030
C      64.20801146      86.29425278      90.70238799
H      62.71134822      86.14307468      92.10834436
C      65.32294999      88.97199497      90.72884416
H      66.26592342      89.24222583      92.53920197
H      63.72046207      90.20787598      90.34333999
H      66.64386868      89.07970937      89.15092268
C      63.00803525      85.76134996      88.19850062
H      61.91010427      84.02658121      88.39125271
H      64.37619710      85.53269308      86.67538122
H      61.66821930      87.22588786      87.64481081
C      66.46245495      84.73711830      96.21849909
O      64.90154102      83.16864546      96.90258002
N      66.91409954      86.94242891      97.46193901
H      68.29359975      88.09705169      96.82510124
C      65.68577744      87.72477560      99.72961059
H      64.65965605      86.25645826     100.74628334
C      67.49235580      89.18364432     101.33209851
H      66.59851525      90.04913897     102.97238094
H      68.31060729      90.79747059     100.34755110
C      69.88852876      87.73989341     102.34877126
H      70.68599326      86.71944120     100.74628334
C      71.89919756      89.35938886     103.43725362
H      70.91276042      90.56503425     104.78462847
H      72.59461684      90.52912945     101.89145749
H      73.50546492      88.21043526     104.01550986
C      68.89831217      85.93709451     104.34054280
H      70.50457954      84.72200049     104.77706957
H      67.20889685      84.95632655     103.68669748
H      68.26525386      86.79314053     106.10554717
C      63.41432641      89.30458680      98.99261732
O      61.33751719      88.99845114     100.05842296
N      63.53526890      90.95998705      97.15769307
H      65.13397736      90.98455349      96.11456415
C      61.28271513      92.67963799      96.35455939
H      59.57818200      91.54013303      96.17314566
C      60.75737122      94.65818144      98.31231585