 %block lattice_cart
   139.898   0.000   0.000
   0.000 144.87   0.000
   0.000   0.000   168.12
 %endblock lattice_cart

 %block positions_abs
N      94.17056702      42.38646190      85.06155495
H      93.59420049      42.06898788      86.85301549
H      96.07919059      42.43937424      85.10501865
H      93.63010529      41.05420486      83.80488695
C      93.15011481      44.85822391      84.14503769
H      94.16678756      46.32465154      85.17304880
C      93.65089228      45.03207873      81.26698451
H      92.56996883      43.58076894      80.28810628
H      95.65778163      44.85255473      80.83801664
C      92.97625999      47.55864281      80.20117887
H      90.94291447      47.39045718      79.92527883
H      93.79262175      47.50762021      78.31145256
S      93.54695733      50.34976858      82.11358190
C      92.41879073      52.70436757      79.85346923
H      90.36654795      52.60610181      79.70418085
H      93.27861620      52.40579081      78.00720662
H      93.11987919      54.56196853      80.40526931
C      90.22103902      45.13223423      84.77620627
O      88.96815048      43.20660313      85.06155495
N      89.21381490      47.20715372      85.64737010
H      90.27773081      48.72271422      86.11035305
C      86.67024328      47.54730446      86.58467436
H      85.32286842      46.40590976      85.52264817
C      86.57008779      46.91613588      89.40414601
H      87.56219410      45.11711642      89.57044193
H      84.62744914      46.69692763      90.05232214
C      87.84187360      48.87578206      91.18804765
O      87.84187360      51.09621047      90.57010715
N      88.63744837      48.07075865      93.34800483
H      89.63711359      49.28774240      94.42703855
H      88.53540315      46.19992961      93.70894256
C      85.75183629      50.24583363      85.91760097
O      87.12566732      52.04485308      85.41682349
N      83.36511196      50.67291178      86.53365175
H      82.36166729      49.15735128      87.11757718
C      81.99506038      53.13900462      86.10846332
H      81.97805285      53.46970673      84.07511781
C      79.36078190      52.71381621      87.00230387
H      78.76173866      50.95448100      86.11791196
C      79.05842569      52.26217161      89.91437212
H      77.12334595      52.47004150      90.59278387
H      80.20171011      53.64356154      90.93104488
H      79.92392034      50.43669600      90.30932492
C      77.61278506      54.85676584      86.06122017
H      78.08899609      55.24982892      84.09401508
H      78.02852485      56.58208596      87.10623882
C      74.81221067      54.00638900      85.81933520
H      74.01474616      53.82686500      87.71284096
H      74.52686199      52.10910379      85.06533440
H      73.61979336      55.31218989      84.76297819
C      83.18558796      55.48982416      87.29710118
O      82.99472560      57.51183132      86.18405238
N      84.43091760      55.13644533      89.56099330
H      84.79941423      53.30341081      89.94649747
C      85.59120956      57.07152507      91.06521544
H      84.34021074      58.68724108      90.81010239
C      86.11655347      56.30240646      93.71650146
H      87.11621869      57.85198204      94.63868790
H      87.60565781      54.88133228      93.65225077
C      83.96415520      55.23282138      95.31143047
C      82.88701120      56.70302845      97.18036979
H      83.77707230      58.52850406      97.38446023
C      80.93114447      55.80918791      98.76773990
H      79.92203062      57.13199632      99.94692911
C      80.12045188      53.28829300      98.44459670
H      78.63890645      52.41523944      99.54252768
C      81.23539041      51.68958454      96.63990807
H      80.70626704      49.71859999      96.60400327
C      83.23283112      52.70436757      95.10167085
H      84.09076686      51.33620571      93.85256176
C      88.03084623      58.04473413      89.79153991
O      88.39556341      60.26894200      89.40792547
N      89.55774509      56.45358458      88.71061646
H      88.92279705      54.67157266      88.96572951
C      91.84998311      56.98648739      87.10434909
H      93.04429014      58.36787734      88.05866088
C      93.33530799      54.49582812      86.74341137
H      94.75827190      54.78873569      85.28265293
H      91.97470504      53.08231283      86.11791196
C      94.79795615      53.29018273      88.91848635
H      94.98503906      51.24549886      88.75219044
H      93.70947380      53.42435329      90.66081401
C      97.31129215      54.54685072      89.38902820
O      97.33585859      56.26839140      90.95939077
O      99.31818149      53.80040883      88.36290682
C      91.11298984      58.12032318      84.46629116
O      92.72492639      59.58486107      83.46662594
N      89.04562926      57.23782099      83.38536771
H      88.07242021      55.84131325      84.24897263
C      88.02517705      58.24126567      81.09690914
H      89.49727385      58.07874921      79.66638632
C      85.63089381      56.76538942      80.30700354
H      84.10021550      57.19435729      81.61658388
H      85.96726509      54.76038980      79.97630144
C      84.61422105      57.69513476      77.66516616
H      85.89923495      57.03562027      76.19306936
H      84.48005048      59.73603919      77.41950174
S      81.56987196      56.24571468      76.79022288
C      81.87033845      55.81863653      73.49831964
H      83.12133727      54.29929657      72.89927640
H      82.45048442      57.51183132      72.47597770
H      80.12423133      55.38777894      72.49109551
C      87.49227423      61.00593526      81.60713525
O      88.47304218      62.62354098      80.30889327
N      86.05986168      61.65411139      83.62347322
H      85.31719924      60.27839064      84.71951448
C      85.53451777      64.24870562      84.22062674
H      84.77862724      65.18789960      82.55010868
C      83.37645032      64.28838986      86.24263389
H      83.92636067      65.71891268      87.61835465
H      83.23661057      62.50448822      87.26497583
C      80.72327457      65.24837084      85.15037208
H      79.46471685      64.86286666      86.73396273
C      80.95004173      68.09240893      84.57211583
H      79.11133803      68.92955769      84.16015550
H      82.23505562      68.56861996      83.03576834
H      81.18814725      69.06372826      86.37302501
C      79.93903815      63.80084048      82.66916144
H      79.77463197      61.81662786      83.20017453
H      81.16547053      63.89721652      81.01565091
H      78.01718649      64.31106658      82.13814834
C      87.90612429      65.75481748      84.91793575
O      88.10643528      67.99981234      84.44172472
N      89.67490812      64.64743787      86.31633322
H      89.16090256      63.06762667      87.25363747
C      91.88777763      66.16299838      87.36513132
H      91.24527069      67.91099521      88.24574378
C      93.48837582      64.81562351      89.32477751
H      95.24771102      65.85497298      89.58555974
H      93.80207039      62.84841841      88.79943359
C      92.14289068      64.89688175      91.90803338
H      90.58575620      63.55328634      91.79276007
H      91.58920087      66.79605668      92.48251018
C      93.82474710      64.01815901      94.13791043
H      92.96870108      64.37342756      95.97850386
H      95.63132546      64.98758860      93.95838643
N      94.23670744      61.34797572      93.91870218
H      95.69746588      60.84530853      92.79809447
C      92.94224491      59.53194874      95.24340032
N      90.96748092      59.97225496      96.64179779
H      90.19080340      58.48126090      97.54130752
H      90.35898904      61.69946481      97.17659034
N      93.47325801      57.29829223      94.57254748
H      92.49815923      55.91501257      95.45504967
H      94.95480344      56.90333943      93.43493224
C      93.57152378      67.00959575      85.15226181
O      94.81874314      69.03349264      85.24107895
N      93.40711759      65.76804558      82.97151765
H      92.61910171      64.05406380      83.25308687
C      94.29339923      66.58062788      80.39393095
H      96.10564676      67.55194721      80.53755015
C      94.59953489      64.29216933      78.73286153
H      93.16901207      62.93723556      79.33379449
C      94.24426634      64.73436528      75.87559534
H      94.57685817      62.98258898      74.84191505
H      95.58597203      66.16488810      75.24820620
H      92.30162769      65.31451125      75.51654734
C      97.19412912      63.32084999      79.42639108
H      96.95413388      62.83141088      81.41249344
H      98.59441632      64.82885160      79.33946367
C      98.00293198      60.91522841      78.16972308
H      98.42245122      61.18545926      76.17228237
H      96.54973245      59.47525694      78.41916696
H      99.65833223      60.06485155      79.05222527
C      92.70791885      68.62531175      79.13726296
O      93.55262651      70.06717294      77.49887024
N      90.14922942      68.64420902      79.49820068
H      89.50105330      67.41588692      80.80778102
C      88.40690176      70.41488257      78.30011420
H      89.13633612      70.90243197      76.43684405
C      85.88789659      68.92010907      77.88059496
H      84.38934362      70.31850653      77.65382780
H      85.52506914      67.70312531      79.50198013
C      85.97482400      67.13809714      75.52788570
O      87.30519132      67.83918562      73.67595391
O      84.62177996      65.27860646      75.45796582
C      87.97982362      72.84696034      79.73819592
O      87.88722703      74.91054148      78.65727247
N      87.84754277      72.60885482      82.30066480
H      87.65479069      70.87975524      83.08301150
C      87.24094063      74.73668665      84.01086712
H      87.42613381      76.45066841      82.88459023
C      84.48194021      74.39086674      85.04643714
H      84.06997987      76.01792110      86.24074417
H      84.33454156      72.73357676      86.25775170
C      82.45048442      74.41921263      82.91104640
H      80.69114923      74.25858589      83.97307259
H      82.26529125      72.62397264      81.91894009
C      82.43347689      76.83995203      81.22730026
O      83.24605920      78.84117220      82.13058944
O      81.62467403      76.81916505      78.98986430
C      89.15523338      75.06360930      86.19917019
O      88.91334841      76.95900479      87.57111149
N      91.26227822      73.64631458      86.20105991
H      91.29062412      71.97201705      85.28265293
C      93.18035043      73.85796391      88.22873625
H      93.61687721      75.86485326      88.09834513
H      94.84141986      72.72223840      87.79031974
C      92.13344205      73.40442961      90.88380172
O      89.92057254      72.60318564      91.21639355
N      93.48648609      74.25858589      92.71872597
H      95.16078361      75.09384492      92.33511153
C      92.70413940      74.18299685      95.33599691
H      90.87677405      73.23624396      95.34922500
C      94.68646230      72.59184729      96.68526150
H      96.54784272      73.38742206      96.31109569
H      94.76205135      70.82117374      95.63457367
C      94.14411085      71.89453828      99.42725438
H      93.86065190      73.68977827     100.39668398
C      91.81407831      70.45456683      99.97527501
H      91.82541666      69.83662632     101.94059038
H      91.66101047      68.75570287      98.81876251
H      90.05096366      71.44856286      99.60110920
C      96.40989270      70.62464219     100.61778196
H      96.75004343      68.80105631      99.72583114
H      96.18879472      70.35252160     102.64734802
H      98.06529295      71.78682387     100.22660861
C      92.65689624      76.88719520      96.50006832
O      94.51827666      78.31771801      96.38290529
N      90.61032264      77.56371721      97.90413497
H      89.12310804      76.37318964      98.01184937
C      90.46481372      80.09972993      99.18347968
H      92.37721675      80.67609645      99.68236743
C      89.21759435      82.28803301      97.52996916
H      88.58453604      83.65619485      98.93403581
H      87.65668042      81.43387671      96.49628887
C      91.45503031      83.59761334      96.05976209
H      92.69658049      82.22756175      95.15269346
H      92.54729211      84.83916353      97.28808419
C      90.42890892      85.03380533      93.77130352
H      92.03328656      85.91819725      92.83210955
H      89.20814572      86.49078432      94.56120912
N      89.05885734      83.23667561      92.19338205
H      88.92657650      81.43765615      92.81510201
C      88.26895174      83.66753320      89.78965018
N      88.36721751      85.88796163      88.75596989
H      87.42424408      86.13173633      87.11190800
H      89.15901284      87.40730158      89.59122892
N      87.05952690      81.92898501      88.44983423
H      86.91212825      82.13874463      86.55821819
H      87.08976252      80.14886282      89.13580488
C      88.91334841      79.86918332     101.66846979
O      86.91401798      78.74857561     101.71004376
N      89.92246227      80.95388623     103.83598587
H      91.72904062      81.53970139     103.64701324
C      88.93791486      80.63641220     106.45514654
H      87.12377760      79.66131343     106.34743214
C      90.88055351      79.19455102     107.91590498
H      90.03584584      78.79203933     109.75082923
H      92.48493115      80.42476285     108.30329887
C      91.68179746      76.79270888     106.66112670
H      92.20336193      77.03459385     104.68258326
C      94.04017590      76.09728959     108.06330363
H      94.88866302      74.53637566     107.01639525
H      93.79451148      75.93666287     110.10042859
H      95.52361106      77.50324597     107.80441112
C      89.87521911      74.58928801     106.70270068
H      91.05062887      73.03593297     106.03373757
H      88.33698189      75.05605040     105.41579706
H      89.15145393      74.37196948     108.61888317
C      88.10454555      83.22722697     107.54929807
O      86.96126113      83.20832972     109.47870864
N      88.68469153      85.32293345     106.31530679
H      89.45947932      84.98089300     104.60510448
C      87.42613381      87.80792356     106.72348767
H      86.29418774      87.79091603     108.44502834
C      89.75616635      89.58615602     107.18269117
H      90.70858841      89.52190533     105.35721555
H      90.82386172      88.85294221     108.78517908
C      88.82075183      92.30547218     107.65890220
H      87.22393309      92.46987837     108.95147500
H      88.23304694      92.89317707     105.77295534
C      91.07519532      93.82670187     108.76628182
H      92.63799898      93.33348329     107.51906245
H      91.73659953      93.38828537     110.66545676
C      90.61788155      96.71231395     108.42046190
H      89.15145393      97.26789349     109.75649841
H      89.82230677      97.04868523     106.55152258
N      92.87799422      98.31480186     108.74738455
H      93.89466698      97.62694149     110.20625327
H      92.43957771     100.13649802     109.11399146
H      94.08174988      98.17496211     107.27150830
C      85.47215680      88.64129286     104.69770107
O      85.60254791      87.52635433     102.67002473
N      83.67691680      90.30425202     105.25894978
H      83.79219011      90.88628773     107.07308704
C      81.71916034      91.10171653     103.31253168
H      80.58532455      89.51056696     102.65490692
C      79.50251138      92.60026950     104.72604696
H      80.12612106      94.06858684     106.02806839
C      78.06820910      94.00055668     102.65868637
H      79.42881205      95.42541033     102.06153286
H      76.38257323      94.90573559     103.42213580
H      77.63924123      92.64562292     101.16958204
C      77.87356729      90.62739521     106.19436431
H      79.26629559      89.80914372     107.47181929
H      77.09122060      89.26112310     104.86399698
C      75.61723408      91.84815842     107.64945357
H      74.37190444      90.28724449     108.15212077
H      74.47205993      92.94230995     106.33231433
H      76.25596157      92.84215445     109.33886889
C      83.13834480      92.32814891     101.19981766
O      84.71626627      94.01567449     101.37556221
N      82.60922143      91.52501521      98.88112347
H      81.26940548      90.18330953      98.65057686
C      83.35944278      92.58326195      96.56242929
H      84.19281208      94.45031155      96.81565261
C      85.24538964      90.85416238      95.28308457
H      86.71748644      90.70676373      96.71738685
H      86.05986168      91.86138650      93.68248639
C      84.40257171      88.20098663      94.43837691
C      83.65801954      87.86839480      91.92315119
H      84.05864152      89.34427105      90.57199688
C      82.71882556      85.49300883      91.09734079
H      82.24450426      85.17931425      89.13769460
C      82.60355226      83.39541261      92.76596913
O      82.14434876      80.84239238      92.06677039
H      81.94781723      80.53058753      90.29042766
C      83.22905167      83.93776408      95.29442293
H      83.05708657      82.32393780      96.53030394
C      84.36099773      86.16953084      96.16369704
H      84.92791562      86.36795211      98.11578432
C      81.17113971      93.14262095      94.66892352
O      79.01685171      92.83837501      95.43048323
N      81.63034320      94.20086767      92.39369304
H      83.41802430      94.20464712      91.72095047
C      79.63668194      94.41440676      90.59089414
H      77.84522140      93.90607037      91.47339633
C      79.25684696      97.17718663      89.85201115
H      77.53530628      97.09592838      88.72384454
H      80.69492868      97.85937782      88.54432054
C      78.78819483      98.92329374      92.25763275
H      80.65146497      99.21242186      93.08533287
H      77.50885012      97.99354838      93.57855144
C      77.55798300     101.41206329      91.56599292
H      75.85722932     100.80924060      90.57199688
H      78.86756333     102.41361824      90.33011191
C      76.89846852     102.98242586      93.79209051
H      78.64079618     103.31123824      94.84277834
H      75.56999092     102.06212914      95.06765577
N      75.72116902     105.31434812      92.93226504
H      75.45093816     106.41605857      94.47050226
H      74.00151808     104.87593161      92.23117658
H      76.49217736     106.23464483      91.44882989
C      79.79541895      92.68719690      88.38558353
O      81.87789735      92.21854477      87.37269023
N      77.52585765      91.95398309      87.63158273
H      75.99328961      92.55302633      88.59723288
C      77.01941100      90.57826234      85.23352004
H      77.90191319      88.71877165      85.23540977
C      74.27174894      90.11716911      85.11257756
H      73.28531181      91.80091525      84.45306307
H      73.37601867      89.50300807      86.86057440
C      73.57632966      88.02524209      83.36836017
O      72.17604246      88.65830041      81.49186194
O      73.98262082      85.78591640      83.97496232
C      77.78097070      91.86516595      82.67294089
O      78.12301117      94.17063205      82.70695596
N      77.59577753      90.55747535      80.57345495
H      77.38790763      88.66207986      80.65093373
C      77.62034397      91.69131113      77.99208881
H      79.38912780      92.72877087      77.78421892
C      77.34633365      89.79213619      75.76788094
H      77.88490565      90.68786646      73.99342793
C      79.08110241      87.66052491      76.22708443
H      78.41780847      86.18653839      77.50264970
H      80.87256295      88.44476133      76.87337083
H      79.23228051      86.67786722      74.42428553
O      74.94449151      88.66396959      75.34269252
H      74.36245580      89.42741901      73.80256557
C      75.67392587      93.75489226      77.45540654
O      76.26541020      95.88272410      76.71463382
N      73.35145223      93.34104220      78.31712174
H      72.88091038      91.68753168      79.14860131
C      71.34267316      95.27423223      78.26420940
H      71.35212179      96.37783239      76.52377147
C      68.82555771      93.94386490      78.35680599
H      67.29298967      95.31013703      78.17917172
H      68.53642958      93.00089146      80.16527407
C      68.43060491      92.13350709      76.00787618
H      66.76953548      90.99778158      76.44818241
H      69.95939350      90.92030279      75.35214115
C      67.84478975      93.45631551      73.55879088
O      69.58144823      94.19519849      72.18873930
O      65.64514832      93.78890734      72.73298048
C      71.45227728      97.15262017      80.55833714
O      69.68538318      98.56046629      80.97029748
N      73.73128722      97.17907634      81.73941609
H      75.11078742      96.04524055      81.06667352
C      74.27930785      98.94408073      83.84835065
H      74.27930785     100.82435840      83.01120190
H      76.22383622      98.53589983      84.39259183
C      72.64091513      98.77211562      86.25019280
O      72.14769657     100.78467416      87.39536694
N      71.90203215      96.42696528      87.05899566
H      72.10990204      94.99077327      85.81744547
C      70.37513328      95.97154124      89.35501313
H      69.77420032      97.81780385      90.03720433
C      68.05643910      94.28023618      88.69927810
H      66.90181632      94.05157929      90.39247288
H      68.56288575      92.36216398      88.14180884
C      66.11946963      95.27045277      86.72640383
C      65.55444146      93.85126831      84.62691790
H      66.33300870      92.00500571      84.24708291
C      64.08990357      94.76211639      82.64270527
H      63.36235894      93.57725799      81.14604203
C      63.06945136      97.15450990      82.90159777
O      61.53499359      98.19952856      81.04588653
H      60.77910307      99.76989113      81.55611264
C      63.40582264      98.56424574      85.06722413
H      62.64237321     100.45397205      85.18060771
C      64.95350849      97.57780859      87.07978265
H      65.63003051      98.80235124      88.56510753
C      71.89069379      94.63361500      91.44505043
O      73.52152760      93.03679626      90.82333048
N      71.19149505      95.17029727      93.87523847
H      69.72695716      96.37594266      94.08499809
C      72.73351172      94.11205055      96.05409291
H      74.65536338      94.55802596      95.46071885
C      72.10423286      95.44430759      98.53908301
H      73.09444945      94.53912868     100.10188667
H      70.04632091      95.54824253      98.58632617
C      72.85634393      98.22031555      98.64112823
C      70.98929434     100.08925487      98.83388032
H      68.98618444      99.72453769      98.67325358
C      71.66581636     102.62526759      99.15324406
H      70.17293257     103.92728901      99.64646263
C      74.23584414     103.42084236      99.22127421
O      74.84811547     105.89260438      99.56520440
H      73.47428444     107.07935251      99.55764549
C      76.10478347     101.51788796      99.31387080
H      78.00206868     102.21330724      99.60866810
C      75.39235665      98.91573483      98.97938924
H      76.87390207      97.56458052      99.35355505
C      72.51808292      91.31336588      96.26952171
O      70.48284768      90.17575063      96.35644912
N      74.62134831      89.95843210      96.30164706
H      76.20871841      91.01856856      96.35833885
C      74.86890246      87.20888032      95.89535590
H      73.09255972      86.16575140      95.95204769
C      75.90258275      86.64763161      93.22517262
H      77.80742687      87.35249952      92.88313216
C      75.91203138      83.91886680      92.46361292
H      76.59989176      82.74156731      94.00751931
H      77.11767677      83.68076129      90.81010239
H      73.99962835      83.24801396      92.08755738
O      74.26985922      87.78713658      91.42615317
H      74.08844549      89.51812587      91.93637927
C      76.81910001      86.35094457      97.81342811
O      78.53308178      87.77957767      98.54664192
N      76.69248835      84.05303738      98.70537893
H      75.19204566      83.02124681      98.13090213
C      78.34599887      82.60739675     100.40424288
H      80.06942927      83.72800446     100.52896482
C      77.10066923      82.84550226     103.06497753
H      76.60745066      84.83160462     103.29930359
C      74.57599488      81.44710480     103.23316317
H      73.73317694      81.96111034     105.03974153
H      74.91425589      79.44399490     103.57709336
H      73.36657004      81.66442331     101.57965265
C      78.90535786      82.14063434     105.28540595
H      79.40991479      80.16587035     104.98493947
H      77.78475016      82.33149671     107.00316717
C      81.21460342      83.71099691     105.67846902
H      82.38056455      83.32360302     104.02684822
H      82.17080493      83.17620437     107.42268641
H      80.68925950      85.70087872     105.78240397
C      78.96015992      79.91264702      99.61433728
O      77.55987273      78.95455578      98.05153362
N      81.03318969      78.79770849     100.47416276
H      82.16324602      79.58950382     101.79319172
C      81.64357129      76.19366564     100.35511000
H      80.01840666      75.09573466     100.98060941
H      83.29708181      75.88375052     101.54374785
C      82.16702548      75.53226143      97.61689657
O      84.03407507      76.32216702      96.52274504
N      80.64390607      73.72757280      96.71171767
H      79.14913256      73.06616859      97.69626508
C      80.72138485      72.55027331      94.15491797
H      82.37489537      73.18144190      93.10045068
C      81.24105958      69.66466123      94.52530432
H      79.67447647      68.68956246      95.44182158
C      81.53774662      68.21146169      92.00251970
H      83.15346261      69.10152279      91.08789216
H      79.90691281      68.27004322      90.74585170
H      81.88734598      66.20079290      92.27841974
C      83.55975377      68.81806384      95.98039358
H      83.56731268      66.75826215      95.98039358
H      83.25361811      69.57773382      97.87011990
C      86.19592198      69.87442085      95.21694415
H      86.28473911      71.92099445      95.41725514
H      86.83653920      69.24325226      93.36312264
H      87.43936189      69.08640497      96.65502588
C      78.61245028      73.49324673      92.42770812
O      77.01185210      71.97201705      91.71906075
N      78.50851534      75.94989094      91.87401831
H      79.59321824      77.32750142      92.62046020
C      76.52808216      76.94955617      90.27153039
H      76.46005201      75.91209641      88.49329793
H      76.93248359      78.92054072      89.82933444
C      73.86734751      77.38797268      91.39024837
O      71.92470886      77.56371721      90.13547010
N      73.60845501      77.52970215      93.98106314
H      75.23172991      77.27836855      94.95616192
C      71.02708886      77.88119124      95.25095923
H      69.60790440      76.99301988      94.04909329
C      71.08000120      76.67365612      97.80208975
H      72.46706031      77.49001789      99.08710364
H      71.49574099      74.71212021      97.32776845
C      68.67626933      76.65664858      99.15891324
N      66.83756563      74.97290245      98.76396044
H      67.24952596      73.35907617      97.83610482
C      64.86091190      75.46045184     100.15857846
H      63.04488492      74.53070648     100.23416751
N      65.20484209      77.66576244     101.19414848
H      63.99541725      78.70322219     102.24672604
C      67.62558150      78.39330707     100.71037855
H      68.44950217      80.20366488     101.16769231
C      70.40158945      80.82349511      95.57977161
O      71.55243278      82.11417818      97.13312663
N      68.35690558      81.74946101      94.45349472
H      67.53109518      80.73278824      93.06643561
C      67.52542600      84.48011553      94.62168036
H      69.24885640      85.59127460      94.79931464
C      66.11946963      85.13207110      92.14802862
H      64.60957830      83.82627021      91.63969224
H      67.53865409      85.01112862      90.66081401
C      65.06311262      87.83060027      91.75874500
H      66.28387582      89.27057172      92.58077595
C      64.91571397      88.15941265      89.01108294
H      63.57022883      86.83660423      88.18338282
H      66.69205670      87.99689620      87.98496155
H      64.30533237      90.10583075      88.71817536
C      62.34379645      88.24256062      92.71116706
H      60.89248665      87.02746659      91.90236420
H      61.51609633      90.03213143      92.11023409
H      62.20395671      88.21610444      94.76529956
C      66.01931413      85.01679780      97.11422937
O      64.76831531      83.28013931      98.06476171
N      66.09112373      87.29013855      98.04019527
H      67.49330066      88.49578394      97.56020478
C      64.86091190      87.80603383     100.49683947
H      63.94250491      86.13740549     101.28296562
C      66.96606702      88.49389421     102.45837538
H      65.97962988      89.23088748     104.10999618
H      68.09423362      89.99622663     101.61366772
C      68.96728718      86.47755623     103.07064671
H      69.80821539      85.82749039     101.30753206
C      71.16125943      87.46777282     104.54652296
H      72.06076916      89.01923813     103.53362966
H      72.49729593      85.96544040     104.99249837
H      70.71150457      88.23500171     106.40412393
C      67.83156167      84.21366412     104.51817707
H      69.37357834      82.99479064     105.13422784
H      66.53142996      83.21966808     103.26528852
H      66.83378617      84.70310322     106.25294582
C      62.63103485      89.65607590     100.43825796
O      60.76398526      89.34238133     101.71382322
N      62.87858900      91.55336112      98.82065223
H      64.32422963      91.42863918      97.57721232
C      61.18539422      93.79646625      98.60711316
H      59.30511654      92.95364831      98.63734878
C      61.65215662      95.84870903     100.81620322