 %block lattice_cart
   139.898   0.000   0.000
   0.000 144.87   0.000
   0.000   0.000   168.12
 %endblock lattice_cart

 %block positions_abs
N      95.74848849      49.41624377      87.47284573
H      97.65333262      49.30286020      87.41237448
H      95.14944525      47.63990105      87.12513609
H      95.27605691      50.10032470      89.19249666
C      94.80173561      51.22471186      85.56611187
H      94.98503906      53.19947586      86.11980168
C      95.76360630      50.94125291      82.96773820
H      95.30251308      48.99672453      82.46318127
H      97.78561346      51.33242626      82.95073066
C      94.52205612      52.84042786      81.18005709
H      92.49815923      52.56263809      80.92305433
H      95.20235759      52.58909425      79.25253627
S      95.21558567      56.10776466      81.70351128
C      92.37343730      57.47025732      80.38826177
H      92.56240993      59.52250009      80.42227684
H      90.90323023      56.73704352      81.62792223
H      91.92368244      56.72759489      78.52121217
C      91.88021873      51.03573923      85.66626737
O      90.70102951      49.04774715      85.29210155
N      90.59520484      53.20136558      86.18783182
H      91.74604816      54.70180827      86.44861406
C      87.82864552      53.46592726      86.66404285
H      86.58331587      52.04863254      85.83445301
C      87.43936189      53.22404230      89.57611110
H      88.39178396      51.46848655      90.08444748
H      85.41735474      53.20514504      89.96917419
C      88.64500728      54.97770832      91.26363671
O      89.21003545      57.14522439      90.49640783
N      89.57286290      54.26339178      93.44816033
H      90.60087402      55.64100226      94.27775017
H      89.11743886      52.54185109      94.13413098
C      86.90834880      56.00005025      85.76264341
O      88.20659078      57.72726010      84.99541453
N      84.40446144      56.32697290      86.09712497
H      83.19881605      54.96825968      86.67916067
C      83.04952767      58.65133626      85.45650775
H      83.47471609      59.12376785      83.49875128
C      80.09777517      58.22803758      85.46595637
H      79.71416073      56.55374006      84.33023087
C      78.85622498      57.62143543      87.96228483
H      80.01840666      56.48004074      89.22084256
H      77.10444869      56.55374006      87.80921700
H      78.60867083      59.36376309      89.03375966
C      78.56898658      60.25382418      84.09212534
H      79.03763871      60.18957349      82.08712572
H      79.14913256      62.08496898      84.83478779
C      75.61156490      60.24626527      84.14881714
H      75.05976482      58.45669446      83.28899166
H      75.08055181      61.79584086      82.90348750
H      74.85000520      60.21980911      86.06122017
C      83.77329285      60.93034620      87.03631895
O      83.75061613      63.12431846      86.18405237
N      84.65579504      60.60153383      89.33422613
H      84.76350944      58.79684520      89.93893857
C      85.82553562      62.75771154      90.83277910
H      84.55374981      64.36586863      90.62490922
C      86.24316514      61.89032717      93.52752882
H      86.44158640      63.53249934      94.75774065
H      88.10454556      61.01160444      93.58800007
C      84.54619091      60.06674127      94.93537493
C      81.96482477      60.59208520      95.00529481
H      81.33365618      62.26827244      94.03019603
C      80.44170536      58.85920617      96.22038882
H      78.43292629      59.05762742      96.51329641
C      81.38467879      56.67090309      97.52052052
H      80.02029639      55.55785429      98.55231109
C      84.08320796      56.38177496      97.56965342
H      85.00350468      54.74716171      98.37278710
C      85.59498901      58.00127042      96.22605800
H      87.59620918      57.59875872      96.20338129
C      88.28973874      63.87831926      89.57233165
O      88.36910724      66.17433673      89.10178981
N      90.05852256      62.29472861      88.84667676
H      89.82041705      60.42012010      89.10745898
C      92.39989347      62.95235335      87.43505119
H      93.25971894      64.57940772      88.35912737
C      94.23859717      60.54862148      87.50119162
H      93.54317789      58.95747194      86.39381199
H      94.48804104      59.76438506      89.38713848
C      97.02216403      61.09286266      86.83789769
H      96.92389826      61.80717921      84.90848712
H      98.08985939      59.33163775      86.83600796
C      98.49048137      63.14888490      88.40826025
O     100.29328028      64.32807411      87.29332172
O      97.80451072      63.81595829      90.59845305
C      91.99360231      63.65911099      84.66093297
O      93.22381414      65.28805508      83.57056088
N      89.99049242      62.75393210      83.45339785
H      88.95870185      61.34608600      84.22251647
C      88.98704775      63.91233433      81.13848312
H      90.35143014      63.67800827      79.61347399
C      86.50394737      62.46291425      80.42605631
H      84.94303344      63.43045412      81.36336056
H      86.52662409      60.45035572      80.85502418
C      85.88411714      62.96747116      77.59713601
H      87.20692556      61.89032717      76.44251324
H      86.05986169      64.87609475      76.84124549
S      82.79441462      61.75615661      76.75431807
C      83.55786405      60.07996937      73.78933749
H      85.53073832      59.49415421      73.76477105
H      83.49928253      61.45946956      72.26054891
H      82.26340152      58.49448899      73.54745253
C      88.31619490      66.66944502      81.37469891
O      89.33475739      68.11130619      79.85346922
N      86.56252889      67.44045336      83.11891629
H      85.64223217      66.26882303      84.31133360
C      85.74049794      69.95567908      83.13214439
H      85.53451777      70.39031612      81.12903449
C      83.21015441      70.25614556      84.53243158
H      83.31408935      72.18555613      85.24674813
H      83.16480097      69.10341250      86.24074416
C      80.87256296      70.06717292      82.79199364
H      79.27574422      70.44133874      84.04110274
C      80.72516430      71.79249305      80.56589604
H      78.80709210      72.07406228      79.87236649
H      81.80608776      71.22179571      78.90860607
H      81.42058359      73.66143238      81.08557078
C      80.47761016      67.37431292      81.71484964
H      80.34154986      66.04961479      83.28710194
H      81.72860898      66.88298409      80.15582543
H      78.53875096      67.38754101      81.01754063
C      87.73037975      71.67533002      84.22251647
O      87.85888114      73.82772829      83.54410472
N      89.50672248      70.79093810      85.62091394
H      89.24782998      69.12986867      86.52420312
C      91.72337145      72.19122531      86.52042366
H      91.08464395      73.90709680      87.46528682
C      93.03295178      70.58684767      88.56321780
H      94.83386096      71.52604163      88.89391990
H      93.32019018      68.64420902      87.93582867
C      92.05974273      70.79849701      91.27308533
H      90.19647259      69.92544346      91.36001275
H      91.76305570      72.81861444      91.53008812
C      93.69057654      69.73836055      93.28564386
H      92.88744286      70.23346885      95.11678865
H      95.54061860      70.63220109      93.12123768
N      94.02883755      67.00959576      93.03808972
H      95.31385144      66.51070800      91.71906075
C      92.94035519      65.15577423      94.31554471
N      91.00716517      65.63576473      95.69693463
H      90.65378635      64.50948784      97.19359787
H      90.34198151      67.42344582      95.67236819
N      93.94379986      62.90322047      94.22105838
H      93.31830045      61.52183053      95.38135034
H      95.45747064      62.69157113      93.07588423
C      93.73215052      72.88286514      84.59857199
O      95.13432744      74.70834075      84.90848712
N      93.46758883      71.57328480      82.39893058
H      92.19769275      70.15787979      82.23452438
C      94.60898353      72.30460889      80.03488296
H      96.31540639      73.37419397      80.46763028
C      95.28172609      69.98402497      78.24153269
H      93.70758407      68.69901108      77.89949222
C      96.21147144      70.73613604      75.61481310
H      96.72358727      68.99758784      74.63782460
H      97.68356824      72.17799722      75.60914393
H      94.69213148      71.62430740      74.54711775
C      97.55695657      68.75381314      79.58323836
H      97.02783321      68.41366240      81.54477428
H      99.10842188      70.10874691      79.60402536
C      98.49237110      66.09118876      78.81978893
H      97.39066066      64.68523239      79.84968978
H     100.47847345      65.81150926      79.29599996
H      98.29394984      66.02693806      76.77132561
C      92.94224492      74.26992424      78.61758822
O      94.01183001      76.14264302      77.65571753
N      90.53473360      73.76536732      78.58546287
H      90.02450749      72.12886434      79.42639109
C      88.72437579      75.18644151      76.88281947
H      89.82230678      75.51147443      75.16883770
C      86.54363162      73.59529196      75.84913918
H      84.88823137      74.81416542      75.71118914
H      85.98238291      72.36130067      77.40060447
C      86.73071453      71.97012733      73.39060524
O      88.60343330      72.05138555      71.99976667
O      85.08287318      70.43944901      72.74998802
C      88.03273596      77.83961726      77.78799836
O      88.12533255      79.56682711      76.37070364
N      87.38455983      78.03803851      80.21062750
H      87.27306598      76.47712458      81.30666877
C      86.53229326      80.59672794      81.34635302
H      85.89545550      81.81938086      79.81567470
C      84.46115323      80.16398061      83.33056565
H      84.06809015      81.78725551      84.53621104
H      85.06397592      78.52369818      84.42093772
C      82.03474464      79.73123329      81.95862435
H      80.35477795      79.38163393      83.09623959
H      82.39757209      78.05315633      80.82100909
C      81.36200207      82.09906036      80.47329945
O      81.72293980      84.23445109      81.31800713
O      79.99572995      81.83260895      78.59302178
C      88.59776412      81.75513018      82.88459023
O      89.10043132      83.96988941      82.39704084
N      89.84498349      80.30759982      84.54754938
H      89.70136429      78.40464542      84.56077748
C      91.67045911      81.30348559      86.52987229
H      92.51705650      83.10439476      85.99319002
H      93.29184429      80.03925867      86.40892981
C      90.70669869      81.43387669      89.31910833
O      88.41257095      81.53592192      89.70461249
N      92.39044483      81.21088900      91.23340108
H      94.22725881      80.91042250      90.80632293
C      91.72148172      81.12396159      93.87334874
H      89.77128416      80.57216150      94.23428646
C      92.99704698      78.75802424      95.03175097
H      95.04173085      78.82038521      94.80120436
H      92.40934210      77.17821305      93.84689257
C      92.58886610      77.91331657      97.81720756
H      93.96836631      79.00557839      98.88490293
C      89.81096842      78.27992348      98.78285770
H      89.38389027      80.17909843      99.45937972
H      89.58042181      77.31427333     100.58565660
H      88.42201958      77.62607818      97.41091640
C      93.27483675      75.11085245      98.15168912
H      92.27328180      74.17165848      96.61723136
H      92.52272568      74.59495718      99.99984145
H      95.30062336      74.76125309      98.02129801
C      92.31674551      83.58060579      95.23206197
O      94.37465746      84.56326347      95.25473867
N      90.53473360      84.31759906      96.76463000
H      88.93602513      83.27447013      96.82132179
C      90.69158088      86.70243366      98.27263160
H      92.65500652      87.32604335      98.28208023
C      89.04751899      89.02301757      97.14824444
H      88.33698189      90.34015682      98.56175973
H      87.42235436      88.21799417      96.16936621
C      90.78228774      90.40818696      95.25095923
H      91.40022825      89.16285731      93.73350899
H      92.43957772      90.99400212      96.32621349
C      89.67490812      92.56814413      93.72595010
H      91.31519056      93.36938810      92.76596912
H      89.05885734      94.17441150      94.86167560
N      87.85888114      91.53824330      91.97795325
H      87.40912627      89.70709849      92.26141219
C      87.44503107      92.22988313      89.66114880
N      88.26895175      94.30480261      88.77864661
H      87.80596880      94.88116915      87.02120114
H      89.11554913      95.51989663      89.98429200
N      86.14300964      90.83715484      88.09267596
H      86.28662884      91.34738094      86.25964143
H      85.86144042      89.03057648      88.63880686
C      89.92246227      86.07882398     101.08832380
O      87.90234484      84.99979026     101.43603344
N      91.59864951      86.72133093     102.98371929
H      93.27483675      87.54525159     102.58687678
C      91.46825839      85.85961572     105.60854915
H      89.79774033      84.70877239     105.97137660
C      93.77372450      84.23823055     106.20948211
H      93.70191490      83.67887156     108.19180501
H      95.42345557      85.40986086     105.83342658
C      93.93813069      81.74568154     104.65423735
H      93.84742382      81.83827813     102.59821514
C      96.45713586      80.58161014     105.33642855
H      96.42690024      78.83928248     104.23660785
H      96.51004820      80.26602584     107.37166379
H      98.13710255      81.67009248     104.85076889
C      91.93313107      79.72367438     105.50272448
H      91.60620841      79.56871682     107.52851108
H      92.56052020      77.79048436     105.15690456
H      90.15867806      80.09972993     104.52762570
C      91.19613780      88.11405921     107.40567888
O      90.69913978      87.77201876     109.57697440
N      91.19991726      90.47243766     106.40223420
H      91.78006324      90.40062805     104.58431749
C      90.18135477      92.81758801     107.47937820
H      89.51995057      92.41318657     109.38800177
C      92.38666538      94.56936431     107.63433575
H      93.24271140      95.15328974     105.85421357
H      93.83041629      93.64528814     108.77950990
C      91.82352694      97.06002358     109.04974076
H      91.34920564      96.60082008     111.00371778
H      89.92624172      97.64394902     108.50360986
C      93.88143890      99.13305335     108.80029690
H      95.67100971      98.12393950     108.94958526
H      93.69057654     100.63916522     110.19302519
C      94.02127864     100.22720489     106.20381294
H      92.96870109      99.27667254     104.70903942
H      95.97147620      99.80012674     105.69547655
N      93.54506761     102.90494707     106.23971773
H      91.72148172     103.38493756     105.95058962
H      94.59386572     103.67217595     104.84320999
H      94.10253687     103.78178008     107.84220565
C      87.84943250      93.72465664     106.17357731
O      87.86266059      93.69442102     103.80952970
N      85.99372127      94.77156502     107.55685697
H      86.27529049      95.11171576     109.41445795
C      83.58432022      95.70508982     106.33420405
H      82.77362763      94.19330876     105.19469908
C      81.51129045      96.60837899     108.18046666
H      82.33710085      98.30535323     109.00438733
C      79.11322776      97.42663049     106.78962810
H      78.34410915      95.90918025     105.62177723
H      79.65179976      99.15761978     105.81074986
H      77.56176246      97.61182367     108.13322350
C      80.93114447      94.99077327     110.60687524
H      82.65646460      94.01378476     111.17190342
H      79.43637096      93.63394978     110.19491490
C      80.01651694      96.65940160     112.82352421
H      78.20615913      97.56835996     112.44935840
H      81.32798700      98.16551347     113.32241196
H      79.55920317      95.61627268     114.53939571
C      84.31186485      97.67229491     104.30841745
O      85.70270341      99.36171022     104.88856343
N      83.24416948      97.41907158     101.95003901
H      81.96860422      96.01500492     101.74783830
C      83.62589420      99.13116362      99.82409691
H      84.61044160     100.81679949     100.48361138
C      85.31530952      97.94252576      98.04208500
H      86.77795769      97.03923660      99.17781050
H      86.25828295      99.21620130      96.72494575
C      84.17580455      95.95453369      96.43770735
C      83.57487158      96.64806325      93.93004053
H      84.00383946      98.42629571      93.02297190
C      82.42213853      94.89439723      92.36723688
H      81.98561176      95.46320485      90.45483384
C      81.98561176      92.37539206      93.27241578
O      80.79697390      90.79369112      91.66803813
H      80.20359984      91.49288986      90.10145503
C      82.77929681      91.57603783      95.68559627
H      82.45615361      89.62206081      96.16747649
C      83.78274148      93.51300729      97.17470062
H      84.35910800      93.03301681      99.07387556
C      81.25239795     100.02311443      98.52585493
O      79.24739833      99.57713902      99.72772087
N      81.24483904     101.52733659      96.48495051
H      82.93425436     102.23598395      95.94448879
C      78.86945307     102.49298674      95.21883388
H      77.29909050     101.83347224      96.38101557
C      78.74284140     105.43529059      95.32654827
H      76.84366646     105.89827354      94.68026188
H      80.08265736     106.43306610      94.11712343
C      78.77307702     106.47086062      97.98917266
H      80.71571567     106.19118112      98.61845152
H      77.55798300     105.12537549      98.96616116
C      78.00773787     109.26198639      98.08932814
H      76.04431223     109.40371586      97.48650546
H      79.11511749     110.42227834      96.79675535
C      78.22694612     110.35802765     100.78029842
H      80.05620119     109.85158100     101.58154237
H      76.88335071     109.29222200     101.92169312
N      77.51073985     113.01687256     101.15824369
H      78.79764347     114.12614192     100.28896958
H      77.45971724     113.22663218     103.05552890
H      75.76274301     113.28332398     100.43825796
C      78.69937770     101.58024893      92.36534714
O      80.57776565     101.76733182      90.95372159
N      76.56587669     100.46908984      91.86456968
H      75.25440663     100.45208231      93.25162879
C      75.92148002      99.28423145      89.43438163
H      77.57121109      98.42629571      88.55187944
C      73.65569817      97.51166817      89.72917893
H      72.03998217      98.41306762      90.63624756
H      74.43804486      95.96398231      90.83844828
C      72.67493021      96.14728578      87.41615394
O      70.71150457      96.99577289      86.38247363
O      74.08466604      94.54290814      86.44483461
C      75.40369501     101.33269478      87.27631418
O      75.19204566     103.57957937      87.82811427
N      75.13913332     100.39916998      84.98029672
H      75.47550461      98.55857654      84.60424117
C      74.42859623     101.81835444      82.68049980
H      75.87801631     103.28100260      82.61057991
C      74.47017021     100.17429255      80.36180561
H      72.63335623      99.46564518      79.75520345
C      74.99362440     101.80323662      77.97130182
H      76.62067875     102.98998475      78.40404914
H      73.34578305     102.92951351      77.46296545
H      75.37156966     100.52956110      76.39715981
O      76.41091913      98.25433062      80.60558030
H      76.34477871      96.96175781      79.33379450
C      71.95494449     103.27155398      82.92994366
O      71.70739034     105.37859882      82.02476476
N      70.11813051     102.37771342      84.44739390
H      70.39403055     100.60326041      85.09179056
C      67.90715072     103.94618626      85.17493852
H      67.76164180     105.30112003      83.63103212
C      65.36735856     102.56668606      85.20895359
H      63.72896585     103.69107322      85.75697422
H      65.59601544     100.87160155      86.35412774
C      64.87791944     101.31001806      82.75797858
H      63.23763700     100.09870349      83.04143752
H      66.60323957     100.38972134      82.11358190
C      64.14092618     103.33013548      80.82100909
O      65.20673182     103.22242109      78.74797933
O      62.60646842     104.95907956      81.28966123
C      68.25863982     105.69607283      87.57489094
O      66.55788614     107.01888125      88.35723763
N      70.48473741     105.58268926      88.67660138
H      71.79809720     104.38838223      87.97740265
C      71.16881834     107.16627990      90.92537570
H      70.32033123     109.04088841      90.90080926
H      73.21728166     107.27399431      91.11434833
C      70.67748950     105.94740644      93.53130828
O      71.38046769     107.07557304      95.40969624
N      69.74396470     103.66650678      93.62201515
H      69.47373384     102.80290185      91.94204845
C      69.02019952     102.34369836      95.94448879
H      68.46461999     103.86681775      97.21627459
C      66.86780125     100.42373642      95.68181682
H      66.01175523      99.77367057      97.43926229
H      67.72006782      98.73810054      94.85789615
C      64.61335776     101.37804820      94.11523371
C      63.63258980     100.05523978      92.10834436
H      64.85902218      98.57936353      91.41292509
C      61.38192576     100.97364678      90.99151611
H      60.55800509      99.86059798      89.49485287
C      60.14415503     103.14683204      91.95338681
O      57.84057865     103.87248693      91.10678942
H      57.28310939     105.46174677      91.77764226
C      61.26854219     104.43373566      94.01318850
H      60.38037082     106.14582769      94.68404133
C      63.31889524     103.45296769      95.19048799
H      63.95573300     104.34680825      96.91391838
C      71.10456765     100.86404264      97.34288625
O      72.76374735      99.57902875      96.15235867
N      71.08378066     101.01900020      99.79008182
H      69.87246609     102.25110177     100.60077441
C      73.01319122      99.59603630     101.13556697
H      74.83488739     100.28389667     100.46093468
C      72.61256924     100.16484392     103.97015644
H      73.57821939      98.84770468     105.22493471
H      70.64347442     100.33680901     104.55408187
C      73.72372832     102.79534295     104.63911954
C      72.29698495     104.69262815     105.70681491
H      70.26552916     104.48286853     105.72571218
C      73.31932688     107.02455043     106.47026435
H      72.06076916     108.55333902     106.96537265
C      75.91959029     107.32312719     106.08853963
O      77.07799252     109.63048301     106.35310132
H      75.94037728     110.85313593     107.05985896
C      77.45215833     105.37481935     105.20981689
H      79.42692233     105.86992765     105.06241825
C      76.33533008     103.16383957     104.36888869
H      77.52207820     101.73331676     103.52229130
C      72.73351173      96.63294543     100.69148129
O      70.75496828      95.39706442     100.88045392
N      74.94260179      95.50855827     100.04141542
H      76.42603694      96.71042422      99.99606199
C      75.28653198      92.93475104      98.99639677
H      73.49129198      91.96343171      99.27229682
C      75.50951968      93.07459078      96.24873472
H      76.95138086      94.48432662      95.83299493
C      75.87801631      90.54235752      94.98639754
H      74.23773387      89.34994022      95.34544554
H      77.58632890      89.54647177      95.56087435
H      75.87801631      90.74077879      92.93604450
O      73.33633442      93.92874708      95.26985648
H      72.95083025      95.58225760      95.91047370
C      77.71105084      91.67430359     100.16991681
O      79.42881205      93.07837023     100.87856418
N      78.00584814      89.16096760     100.39479425
H      76.43548557      88.11027977     100.12267367
C      80.35477795      87.82871055     101.40390810
H      82.08765698      88.84160384     100.92958680
C      80.10155462      87.77957765     104.29140990
H      79.37967917      89.54269231     105.07564633
C      78.07954747      85.87284381     104.95848330
H      77.60900561      85.88796161     106.96159318
H      78.92614485      84.02280174     104.63156065
H      76.39958077      86.14496440     103.79819134
C      82.80764270      87.42052965     105.56508544
H      84.08131824      88.61105724     104.46715446
H      83.59565857      85.55159034     105.20225799
C      82.97015916      88.15941265     108.30140915
H      84.65012586      87.33927143     109.17068324
H      81.30720001      87.70776806     109.42768603
H      83.33487634      90.17386090     108.51305849
C      80.47194098      85.23033686     100.20393190
O      78.57087631      84.30059152      99.20804613
N      82.64134679      84.04547847     100.23227779
H      84.15501756      85.01868751     100.86344637
C      83.14023453      81.56426782      99.24206119
H      81.58310005      80.26413611      99.59166057
H      84.90334918      80.86317935     100.04519489
C      83.56731268      81.68710003      96.38101557
O      84.85799575      83.40108179      95.43426268
N      82.42780771      79.88997031      95.04686878
H      81.48105483      78.51613928      95.97283468
C      82.16513576      79.87296276      92.29542728
H      84.09265659      80.15453199      91.62268471
C      81.58121032      77.06293974      91.15781204
H      79.73116826      76.50358075      91.87023885
C      80.85744515      77.49568706      88.34023010
H      80.81209172      75.67210117      87.38402859
H      82.31253441      78.69188381      87.51064024
H      79.08677159      78.55204407      88.29298694
C      83.45959828      74.96345381      91.91559229
H      83.01929205      73.21545697      90.92348596
H      83.49928253      74.80471680      93.96972479
C      86.09954594      75.66454226      91.20883464
H      86.35276926      75.91587587      89.17926858
H      87.48660505      74.26425507      91.81165734
H      86.97637895      77.16687468      92.31054509
C      80.37367521      81.92709527      91.21261409
O      80.95571091      83.20832970      89.42304327
N      78.05687075      82.21055422      92.13291080
H      77.73372755      81.37529518      93.81854669
C      75.96305400      83.88485173      91.28820315
H      75.06165454      83.19888108      89.56666247
H      76.73973151      85.75757051      90.92348596
C      73.77475093      84.12106752      93.10800958
O      71.60534512      84.55759430      92.23306630
N      74.02608453      83.57682634      95.53630789
H      75.76652246      83.43509687      96.30920596
C      71.83589173      83.33305164      97.27107666
H      70.21072710      82.50913098      96.31109568
C      72.34989729      81.29403695      99.26851737
H      73.89380368      81.92142609     100.47794221
H      72.85634394      79.49501751      98.40869190
C      69.99151885      80.68743480     100.85399774
N      68.40225902      78.65030984     100.61778195
H      68.52887068      77.11963153      99.48205645
C      66.36513405      78.98290168     102.08987876
H      64.83634546      77.64308571     102.28263083
N      66.65615190      80.94821703     103.46937897
H      65.50152913      81.38852327     104.92257850
C      68.81232963      82.10283981     102.67191446
H      69.52286672      83.86028529     103.43158443
C      71.13669299      85.95410204      98.19893228
O      72.49162676      87.09738646      99.76173593
N      69.01642007      86.93864944      97.22761295
H      68.03565211      86.15063358      95.79331067
C      67.70117056      89.20443130      98.26507269
H      68.90492622      90.86361100      98.07610006
C      65.27476197      89.48600052      96.79675535
H      64.08234467      87.84193862      97.14257527
H      65.41271199      89.40285257      94.74451257
C      63.71573776      91.84248924      97.70949315
H      63.31133633      91.75178236      99.72583113
C      65.22373936      94.31992043      97.27296638
H      63.89337203      95.87138572      97.54508696
H      66.30655254      94.34259714      95.52119009
H      66.25364020      94.53723896      99.04363993
C      61.23830657      91.94453445      96.24873472
H      61.82034227      91.93508582      94.27208100
H      60.08368379      93.57536826      96.75329164
H      60.18383928      90.27590611      96.83832932
C      67.30810748      88.87561892     101.11289024
O      66.18938951      86.96699535     101.83665543
N      67.91659936      90.73699934     102.69648090
H      69.18460571      92.04280021     102.12389383
C      67.16448828      90.75589661     105.42713542
H      67.22873898      88.80758877     106.09231909
C      69.11090638      92.14295571     106.94458565
H      68.35879531      92.41507630     108.84187087
H      69.53420508      94.02323340     106.21326157
C      71.76786158      90.66330002     107.10521238
H      72.37635345      90.06992594     105.22682443
C      73.85600916      92.41696603     108.06708309
H      75.61156490      91.37572683     108.33164476
H      73.50829952      93.18608464     109.94547103
H      74.38702225      93.87583475     106.71403904
C      71.81321501      88.30303185     108.73226675
H      73.76908175      87.74178314     109.05163049
H      70.56599565      86.84983232     107.97259676
H      71.14803135      88.83026548     110.60876498
C      64.58123241      91.85760704     105.75783753
O      62.94661915      90.66330002     106.98426990
N      64.12769810      94.18763958     104.75250313
H      65.52042639      94.79424173     103.59788036
C      61.79010665      95.72965625     104.84698944
H      60.05155844      94.66574035     104.54274351
C      61.59357511      96.68207831     107.61543850