 %block lattice_cart
   139.898   0.000   0.000
   0.000 144.87   0.000
   0.000   0.000   168.12
 %endblock lattice_cart

 %block positions_abs
N      86.79402035      41.78836352      85.23824436
H      88.63650351      41.63340597      84.77148196
H      85.87372365      40.20099341      84.70534154
H      86.58048128      41.90174709      87.13175013
C      85.72632498      44.05981454      84.00992226
H      86.62961416      45.73600178      84.79793813
C      86.39717784      43.96721795      81.06950811
H      85.21798861      45.32404145      80.06417372
H      85.60727224      42.23055947      80.29472033
C      89.15050906      44.52279749      80.37975801
H      89.46420363      44.54925366      78.34452277
H      90.39016953      42.99022945      80.97880125
S      90.35804419      47.66352262      81.23202458
C      88.78579189      49.82725926      79.19300989
H      89.79679547      51.62438897      79.20434824
H      86.77134365      50.12016683      79.51237363
H      89.08436865      48.80113787      77.43367469
C      82.83504373      44.33193513      84.60329632
O      81.17397431      43.02802398      83.46190163
N      82.46276764      46.01190182      86.45522811
H      83.96132062      46.96054443      87.15442684
C      80.01935152      47.08337665      86.96545421
H      78.66630749      46.13284431      85.73902183
C      79.11795208      46.28213270      89.55437926
H      79.69242887      44.30736870      89.68477038
H      77.06192985      46.38795736      89.66965256
C      80.38595843      47.78635483      91.73323370
O      80.00045427      50.02757024      92.10739951
N      82.09049157      46.59582725      93.16564624
H      82.74622659      47.30636435      94.81159786
H      82.67630672      44.80058726      92.88029757
C      79.92675493      49.98221682      86.38152878
O      81.85994496      51.24833345      86.18499724
N      77.78758475      51.09904506      85.89586912
H      76.21911191      50.02001133      85.99413489
C      77.09216546      53.75222081      85.61429990
H      77.18854150      54.13961470      83.59229274
C      74.26891435      54.16796059      86.02626023
H      73.36940462      52.65051036      84.95856487
C      73.43932451      54.05079756      88.79659901
H      73.98356569      55.84603756      89.64886558
H      74.32371642      52.50311171      89.83027930
H      71.43999407      53.66529339      89.11029358
C      73.20499843      56.80601852      84.99257994
H      73.96277869      58.27433587      86.22090204
H      71.20188855      56.93829937      85.45556289
C      73.44688340      57.62049056      82.28271241
H      73.42231696      55.92162662      81.11486155
H      75.16842407      58.74865717      82.18633637
H      71.88785920      58.79401060      81.62508765
C      78.70032255      55.63816766      87.07127888
O      79.28802745      57.57135768      85.96200954
N      79.31448360      55.37360598      89.50524638
H      79.14629797      53.55946872      90.06838482
C      80.99822976      57.03845486      90.99246098
H      80.21399333      58.94329898      91.03214524
C      81.01334757      56.08792252      93.66075454
H      81.80325317      54.18496813      93.66075454
H      79.10472398      55.79690468      94.37885054
C      82.57426150      57.68852071      95.54859112
C      85.14428929      57.28222956      95.95488228
H      85.99088668      55.73454371      94.93254035
C      86.42174428      58.70330374      97.79547571
H      88.44564116      58.57480235      98.02791205
C      85.14239955      60.54200744      99.29402868
H      86.03812984      61.54167267     100.83037617
C      82.52323889      60.94451915      98.88017861
H      81.48199970      62.46763857      99.74945272
C      81.23255582      59.44407646      97.11328451
H      79.22755620      59.79745528      96.97155504
C      83.72510482      57.17262544      89.79626423
O      84.96476528      59.12093326      89.51280528
N      84.57548167      55.09581621      88.78337092
H      83.67219249      53.44797487      89.10462440
C      87.12472246      55.04290388      87.47945977
H      88.46453841      56.14839377      88.58683939
C      88.25477879      52.31224935      87.46056250
H      90.28245513      52.58436994      87.23190562
H      87.50077799      50.94030805      86.12263628
C      88.21887399      51.10471424      90.13830469
H      86.47087716      51.55635883      91.13041100
H      89.77411875      51.99288560      91.15497745
C      88.52311994      48.23233024      89.97767795
O      86.70331350      47.00589787      89.11407303
O      90.49599420      47.15140679      90.76758355
C      87.00000052      56.16729103      84.78471005
O      89.02011795      57.11593364      83.90976676
N      84.80224882      56.33925612      83.59607219
H      83.24700406      55.84981701      84.58817851
C      84.57359193      57.89828033      81.31328281
H      86.21954356      57.79245566      80.07740180
C      82.35694298      56.57358220      79.72024353
H      80.64107148      56.21264446      80.80494643
H      82.99189101      54.74999629      78.99836808
C      81.53869148      58.35937355      77.46202058
H      83.10905404      59.05290311      76.32251562
H      80.47099611      59.86548542      78.37664812
S      79.66408297      56.78334181      75.01482501
C      81.70876684      54.17929896      74.17389680
H      81.51979421      52.74688640      75.64599360
H      83.68353085      54.74621684      74.04539541
H      81.17964348      53.23632552      72.42212051
C      84.21076448      60.81601776      81.77437603
O      85.40318178      62.30512209      80.59140736
N      82.79158003      61.56812883      83.67544070
H      81.73711274      60.25854851      84.57684015
C      82.43064230      64.24965047      84.50881000
H      82.12261692      65.51198765      82.90821182
C      79.98722617      64.46885872      86.14342326
H      80.07037414      66.40771793      86.82750419
H      80.04580770      63.25565443      87.80827215
C      77.79136421      63.69029148      84.30094011
H      77.57215594      61.69285077      83.84551607
C      75.36873507      64.15516415      85.83350815
H      75.05315078      66.18284049      86.00358352
H      75.44999330      63.44084761      87.76480844
H      73.81349031      63.19140374      84.88486554
C      77.63451692      65.18317527      81.90098769
H      75.61439949      65.36269927      81.53816024
H      78.61150542      64.22319430      80.36464020
H      78.22411153      67.13904200      82.17688773
C      84.86649951      65.46663423      85.52548276
O      85.32192356      67.76643114      85.44044508
N      86.64095252      63.76210108      86.21901232
H      86.02301202      61.96686108      86.42499249
C      89.33948169      64.32334980      86.95411585
H      89.26200292      65.74253426      88.44322019
C      90.65473121      61.97253026      88.17109960
H      91.48054161      60.94829860      86.58750895
H      89.28467964      60.61192732      88.89297505
C      92.79768086      62.64527284      89.99279576
H      91.88116360      64.05500867      91.18332334
H      94.32835916      63.63737914      89.03470452
C      93.65750632      60.45130058      91.63307820
H      91.97187045      59.73887377      92.57983109
H      94.98598392      61.12404315      93.05604212
N      94.78567294      58.50299276      89.99846494
H      95.49432031      59.19463259      88.36574141
C      95.47353331      56.11437869      90.55215475
N      95.45841551      55.20164088      92.81982633
H      95.93084708      53.37994473      93.13919008
H      94.65906127      56.23910063      94.20688544
N      96.24265192      54.84259288      88.73612777
H      96.55256704      52.97365356      88.96667438
H      95.77966897      55.69296973      87.09017615
C      91.02511757      65.60647396      84.97179295
O      92.79201167      66.82912690      85.70878621
N      90.46008940      65.64993767      82.52081792
H      89.14861934      64.38004159      81.96712811
C      91.59392519      67.46029548      80.51014913
H      92.91673360      68.71507375      81.46824037
C      93.25688435      66.41527684      78.40877347
H      94.30568246      67.87981473      77.40910825
C      95.34692165      64.76554576      79.48969692
H      96.31446153      65.63104042      81.08840538
H      96.89271777      64.57090394      78.14421178
H      94.53055989      63.04022563      80.26448470
C      91.78856701      64.91861359      76.38487658
H      90.55268599      66.09402335      75.23214353
H      90.69630520      63.46730378      77.35997536
C      93.41751109      63.61659217      74.34586189
H      94.71953251      62.25598921      75.18301065
H      94.42095575      64.97152592      73.16100349
H      92.01533416      62.63015503      73.20635693
C      89.59837420      69.30655808      79.58607296
O      90.32780856      71.41360292      78.98891944
N      87.26078276      68.65649224      79.41599759
H      86.56914292      67.03321733      80.15110113
C      85.42774823      70.23063425      78.11208643
H      86.27056616      71.01487067      76.40188412
C      83.17897392      68.56011619      77.33729865
H      81.80136344      69.84890954      76.50959852
H      82.12450663      67.77210032      78.92088930
C      83.68164111      66.44173299      75.27749696
O      81.98655662      64.81467865      74.97514075
O      85.61861058      66.28866516      73.90177621
C      84.77768238      72.46240103      79.78449422
O      83.93864390      74.37102461      78.73947557
N      85.04413379      72.28098730      82.27137405
H      85.51089619      70.61424870      83.07450773
C      84.22966174      74.17827252      84.13086474
H      84.04446857      75.97162280      83.13686870
C      81.83348878      73.29577034      85.41209918
H      82.25111829      71.83312216      86.80104802
H      80.81681603      72.13925783      84.04204760
C      79.92297548      75.21762200      86.56483223
H      80.73177835      76.59712220      87.86307421
H      78.49623211      74.22551569      87.67032213
C      78.55292391      76.56310713      84.50692028
O      79.34660895      78.59267320      83.70567632
O      76.38540782      75.58989807      83.83417771
C      86.14206477      74.71306508      86.22657122
O      86.19119767      76.92026540      86.89553434
N      87.88628217      72.83089766      86.80860693
H      87.49888828      71.12636452      86.03570886
C      89.37538649      72.91404562      88.98557164
H      90.43174350      74.64881438      88.65297981
H      90.76433533      71.39470567      89.02714562
C      88.00911437      72.94428124      91.51402545
O      85.88884146      72.23374415      91.56504806
N      89.10893509      73.82489370      93.53792233
H      90.93630043      74.32945062      93.31871407
C      88.07903425      74.11402182      96.14196519
H      86.02301202      74.00819716      96.20054670
C      89.20531113      72.10335303      97.86161613
H      91.25377446      72.06177906      97.64618733
H      88.68374667      70.26464932      97.09438725
C      88.29824250      72.16949345     100.59416038
H      88.95208780      73.82300397     101.63539958
C      85.37105644      71.92760848     100.68864670
H      84.58115084      71.86146806     102.58782164
H      84.80791801      70.12103013      99.87228493
H      84.48099534      73.44694845      99.62095133
C      89.18452415      69.87347598     102.02279347
H      88.59115008      69.67127526     103.98432939
H      91.23865664      69.75631295     101.89429208
H      88.57603227      68.18972983     101.00423099
C      88.84059396      76.77475648      97.11139479
O      91.03267647      77.38891752      97.11517424
N      86.89417585      78.15992586      97.95988190
H      85.25578314      77.18293737      97.84649832
C      86.94330873      80.45972278      99.54725200
H      88.89350629      80.83199887     100.09905209
C      86.03057093      82.61779024      97.97688944
H      85.95120242      84.42058914      98.96899575
H      84.15596243      82.16236620      97.25312426
C      87.81258284      83.25273827      95.83205007
H      88.85193231      81.63891200      95.08560818
H      89.16751661      84.63412822      96.53691799
C      86.70142376      84.41680969      93.60973193
H      87.97320957      85.75851536      92.70077357
H      85.20098107      85.51663041      94.49601357
N      85.83214967      82.53275256      91.78614604
H      85.59404414      80.76396872      92.45888860
C      84.80791801      83.05620674      89.59406351
N      84.89862486      85.28230433      88.63597227
H      84.04824802      85.85867086      87.02781518
H      86.13072641      86.56731824      89.32194292
N      83.26779106      81.40458594      88.53014760
H      82.87283826      81.90536341      86.73112815
H      83.53802192      79.59422813      89.06682987
C      85.47877084      80.36145701     101.94909415
O      83.16196638      80.12524124     102.13617705
N      86.91685256      80.65058514     103.94842459
H      88.72154119      81.15325234     103.58559713
C      85.88506200      80.56176801     106.51845237
H      84.10682954      79.52052881     106.46365031
C      87.63683829      79.25218768     108.40250951
H      86.63906280      79.33344591     110.20530841
H      89.47743173      80.16870493     108.54423898
C      88.27367606      76.52909205     107.72598749
H      89.12216317      76.71995442     105.85893789
C      90.19552771      75.26675488     109.42863089
H      90.74921753      73.55655257     108.41951704
H      89.42451938      74.87936098     111.29945994
H      92.05123896      76.15681598     109.46831515
C      85.90773871      74.79999249     107.42741073
H      84.59059948      75.65036932     106.09137422
H      84.84949198      74.94928085     109.18863565
H      86.27623535      72.84979492     106.87372092
C      85.12350230      83.17525950     107.62961144
O      83.92163637      83.23006156     109.63839051
N      86.10238053      85.13301596     106.43341469
H      86.94519847      84.66058438     104.78557334
C      85.49010920      87.74839717     106.83025721
H      84.75878511      88.13201161     108.71809380
C      87.83336983      89.38301044     106.86427229
H      88.80657887      89.43781250     105.05202475
H      89.16562687      88.73861376     108.29668483
C      87.41574031      92.35554992     106.97954559
H      86.20064630      92.82042261     108.57825405
H      86.20820520      92.99427742     105.43941865
C      89.68152216      94.24149678     107.13450315
H      90.67740793      93.78985221     108.88061026
H      88.88027820      96.13878200     107.17796685
C      91.49943888      94.28873995     104.90840555
H      90.52434009      94.21693034     103.09426829
H      92.51611163      92.49727941     104.96320762
N      93.36270902      96.44302794     104.91974391
H      94.90283597      96.16712791     106.01200572
H      92.41406642      97.83386651     105.81736391
H      93.74443374      96.94002597     103.11694501
C      83.65518495      88.49672879     104.63817469
O      83.91785691      87.74650745     102.48010724
N      81.84293741      90.19559275     105.12950353
H      81.68797986      91.01384425     106.84537502
C      79.65274461      90.87211478     103.28135120
H      78.67386638      89.22049397     102.53112985
C      77.77813611      92.61066299     104.70998429
H      78.87795683      94.03929607     105.70587006
C      75.98478585      94.19803308     102.90529566
H      74.96811308      95.76272647     103.77834922
H      74.64874934      92.92813700     101.99066813
H      77.02413531      95.11077090     101.38028653
C      76.04714681      91.13100728     106.54112909
H      77.27735864      90.14268042     107.86393751
H      75.11362202      89.77607351     105.29957890
C      74.11017735      92.86577603     107.86960669
H      73.24090323      91.97760467     109.51366858
H      72.71177987      93.55741586     106.52412155
H      75.22511586      94.38133654     108.70675544
C      80.90185371      92.27240197     100.98344400
O      82.81992591      93.64623300     101.25934404
N      79.74345149      92.02673755      98.81025874
H      78.21088345      90.90046066      98.64963200
C      80.78469068      93.09632265      96.58038169
H      81.91474701      94.79707632      96.83738447
C      82.46465738      90.97038054      95.37284658
H      84.01423295      90.58487637      96.67486801
H      83.57581644      91.77918340      93.84027854
C      81.20043047      88.48539043      94.43743205
C      80.67319682      88.14712943      91.79937412
H      81.20987910      89.65135157      90.52947804
C      79.69053915      85.83410442      90.93387947
H      79.46566172      85.43915162      88.94588739
C      79.29936579      83.86311987      92.56471328
O      78.37339990      81.56521268      91.65386519
H      78.32804648      81.53497706      89.83972793
C      79.61683981      84.24673431      95.25379382
H      79.03858357      82.76518889      96.53313853
C      80.35005362      86.61834084      96.10606039
H      80.58437969      87.16636148      98.05625794
C      78.69843284      93.68591725      94.72278073
O      76.52146812      92.69192121      95.07804927
N      79.19354112      95.26572846      92.78581125
H      80.96232495      95.98382444      92.76502427
C      77.47955935      95.79107236      90.66175888
H      75.51235426      95.61721755      91.24568431
C      77.92175532      98.51983716      89.73957244
H      76.95988463      98.58786731      87.91976600
H      79.90218849      98.88266461      89.30682511
C      76.88618529     100.41901210      91.62551930
H      78.05214643     100.17901686      93.30737572
H      75.00023843      99.78028461      92.15464267
C      77.12051135     103.01549606      90.49357324
H      75.81093103     103.26871938      88.92321067
H      78.89496436     103.09297483      89.44855459
C      77.05815040     104.95435525      92.57227218
H      75.34794808     104.63310178      93.67398262
H      76.64807978     106.67211647      91.50835627
N      79.38629320     105.37198478      94.17098064
H      79.13873907     106.69857264      95.52213496
H      80.88673590     105.86898279      93.10328528
H      79.57526584     103.72036397      95.11206435
C      77.79136421      93.94292004      88.48857362
O      79.84927616      93.76906521      87.40387072
N      75.81282075      92.48594105      87.69677829
H      74.33127533      92.63522942      88.88919560
C      75.80904129      90.84376887      85.43099644
H      77.47577990      89.64001321      85.52926221
C      73.49979575      89.20726589      85.50847522
H      71.84061604      90.38456539      85.82972870
H      73.69065811      88.20193149      87.29804604
C      73.09161486      87.28919369      83.36741531
O      71.78203453      88.06209175      81.51359380
O      74.18009721      85.29931188      83.44300436
C      76.09816943      92.30074786      82.98758032
O      75.91864542      94.67802357      83.07639746
N      76.63485170      90.98549836      80.91833001
H      76.77280171      89.15813300      81.44934310
C      76.70666130      91.92469232      78.40688374
H      78.19387590      93.34009733      78.54105431
C      77.33971962      90.01228930      76.51148825
H      75.76935704      88.93703503      75.72536210
C      78.73055817      91.31053128      74.40822286
H      77.74223131      92.70325958      73.25737954
H      79.48644870      89.87055983      73.14210623
H      80.22344197      92.44058761      75.27182779
O      79.35416786      88.55342058      77.49981511
H      78.74378627      87.30620122      78.66577624
C      74.29537053      93.07175620      77.49981511
O      74.47678425      94.87266537      76.05606421
N      72.18265651      92.65412668      78.66388652
H      72.11462636      91.09510248      79.76559696
C      69.88474930      94.16590774      78.37853784
H      69.66176161      94.76306125      76.41889166
C      67.53392977      92.45948488      78.91333039
H      67.06716737      92.55964038      80.92021974
H      67.73424077      90.44503663      78.54105431
C      65.14342598      93.29474391      77.51871237
H      65.03193214      95.34509696      77.69256719
H      63.42944422      92.46137461      78.30105907
C      65.29460409      92.72782601      74.82774210
O      65.98624392      94.32464475      73.17423158
O      64.85240813      90.47905169      74.14744063
C      69.68065886      96.64900812      79.93945178
O      67.81927845      98.06063366      79.92811342
N      71.59873107      97.09309380      81.51170407
H      72.97256211      95.76839564      81.56272668
C      71.43432488      99.16612356      83.47135026
H      70.48757201     100.72514777      82.51703847
H      73.33349982      99.88988873      83.80394209
C      70.23434868      98.60298511      85.92232529
O      70.35151171     100.29051071      87.55504882
N      69.35184649      96.25594503      86.35318289
H      69.04949028      95.01061540      84.94155733
C      67.97045655      95.72115249      88.72856886
H      67.43566401      97.58820208      89.41642924
C      65.84640418      94.00528099      88.24857838
H      64.94878418      93.86922071      90.09673071
H      66.60607416      92.19114373      87.63252760
C      63.79605112      94.79896605      86.30593973
C      62.42599954      92.82042261      85.23824436
H      62.78693727      90.93825519      85.93744310
C      60.51926570      93.31175144      83.53749068
H      59.36653264      91.79619093      82.80427687
C      59.91077382      95.87044087      83.01970567
O      57.91144338      96.42602041      81.41910748
H      57.68656595      98.22692958      81.43233557
C      61.09563223      97.84898433      84.16487981
H      60.59296502      99.73493118      83.56772630
C      63.12897773      97.27450753      85.68421977
H      64.21557036      98.93368722      86.16421025
C      69.60506982      94.87266537      90.90364385
O      71.43621462      93.33820762      90.71845067
N      69.28003688      95.65690179      93.28658873
H      67.78337365      96.81530403      93.53036342
C      70.50457954      94.43235914      95.48056098
H      72.52847642      94.57030916      95.11773352
C      69.76569654      95.78918264      97.84082914
H      70.36473979      94.47393313      99.30725676
H      67.78715310      96.21626079      98.22444358
C      71.33416938      98.18157616      98.36428333
C      70.09828838     100.46625527      98.73844914
H      68.08950931     100.55318268      98.39262923
C      71.63652559     102.67723505      99.05781289
H      70.69733163     104.48570313      99.15796838
C      74.26513490     102.50715969      98.83860464
O      75.67487074     104.65010933      98.43609293
H      74.73000758     106.19023626      98.26601756
C      75.50668508     100.16011960      98.55325596
H      77.50979499      99.84075585      98.32459908
C      73.99868349      98.06252339      98.36995251
H      75.15330626      96.37877724      98.32837853
C      69.97167672      91.55430597      95.89630077
O      67.89108805      90.62267089      95.73567403
N      72.11084690      90.28063043      96.55014607
H      73.81915950      91.12911755      96.65219129
C      72.18454623      87.50084304      96.24023095
H      70.28159184      86.83565936      96.66163992
C      73.03870252      86.85833609      93.40564149
H      74.86984732      87.78997116      93.29036818
C      72.88941414      84.07287949      92.74234755
H      74.02136021      83.57399175      91.09639593
H      70.92976795      83.50596160      92.45510915
H      73.59050261      82.85589575      94.25223887
O      71.41164817      87.79941978      91.58772477
H      71.37952283      89.61166732      91.69732890
C      73.77758551      86.27252092      98.40963676
O      75.26291040      87.49895331      99.73244518
N      73.84372594      83.83288425      98.82348682
H      72.48879217      82.88802110      97.86728531
C      75.45755221      82.33622101     100.60738846
H      77.22066685      83.39635748     100.71132341
C      74.22167119      82.54409091     103.30780737
H      73.56404643      84.44326585     103.75378278
C      71.67809958      81.04175849     103.33426353
H      70.29859937      81.48584417     101.86972564
H      70.67276517      81.25529756     105.11816517
H      72.32627571      79.11612738     102.98277444
C      76.01880091      81.75796476     105.51311797
H      76.65374897      79.82855419     105.17107751
H      74.90575212      81.77308258     107.24599700
C      78.50568075      83.40391639     105.74744404
H      79.63384736      83.45115954     104.02401364
H      79.56203776      82.45527377     107.23654837
H      77.99923409      85.25584817     106.49388593
C      76.14352285      79.51863909     100.00078632
O      74.69221304      78.26764026      98.55325596
N      78.24678825      78.58511429     101.18186526
H      79.45243362      79.86823845     101.91885853
C      79.41463910      76.01697622     100.87572960
H      78.00679300      74.82077947     101.78657768
H      81.24767363      75.95083580     101.81303385
C      79.74156175      75.44627888      97.99200725
O      81.47822024      76.51208452      96.65975020
N      78.21466290      73.66237725      97.10005643
H      77.31326344      72.66082230      98.44932101
C      78.01624164      72.87436136      94.43932178
H      79.39952129      73.98741017      93.39997231
C      78.78158078      70.02843354      94.02358199
H      77.21121823      68.81144980      94.56971289
C      78.94220752      69.68639307      91.20788978
H      77.10917301      70.18339110      90.41042528
H      79.29747607      67.69273182      90.83183425
H      80.42186323      70.93172271      90.50680132
C      81.10972360      69.32545536      95.59961373
H      80.30470020      69.36136015      97.49689895
H      82.45520874      70.86180284      95.33883150
C      82.37772996      66.91227485      94.88151774
H      83.48321985      67.31100710      93.19021269
H      81.00956812      65.39860408      94.61317660
H      83.65140550      66.74975839      96.49156455
C      75.50101591      73.85701905      93.26958119
O      73.73601153      72.54365927      92.74801673
N      75.65786320      76.25697146      92.35306393
H      77.33594016      77.07144351      92.75557563
C      73.89096910      77.57033125      90.77325273
H      73.80404168      76.77475648      88.87596751
H      74.41064382      79.51296990      90.32916705
C      71.19621936      77.88024637      91.84283782
O      69.35940540      78.20338958      90.47089652
N      70.82961246      77.57789016      94.44310123
H      72.28659146      77.07900242      95.56937811
C      68.43343949      77.83111349      95.62795963
H      67.02559340      76.85790443      94.48089576
C      68.65264776      76.40437012      98.23389222
H      70.23245894      77.21128325      99.27891087
H      69.38775129      74.50708490      97.90130038
C      66.27159260      76.36090642      99.61906160
N      64.41210191      74.52220271      99.48678076
H      64.56139029      72.89325863      98.50601280
C      62.35041049      75.45194806     100.63573436
H      60.69501024      74.33323008     101.05336387
N      62.85307769      77.77442170     101.62028177
H      61.73247000      78.78542527     102.79002236
C      65.30405272      78.32811150     101.06848168
H      66.13364257      80.19138166     101.11761457
C      67.64542363      80.57499610      95.81882199
O      68.82650258      82.06410042      97.11895369
N      65.61963701      81.38001950      94.60372797
H      64.61808207      80.19894055      93.48878944
C      64.80327526      83.96894455      94.66041976
H      66.47190359      85.13679541      94.35806355
C      62.75859139      84.21460898      92.49668313
H      61.28082541      82.81054233      92.79714961
H      63.33117845      83.64013217      90.60128764
C      61.39987816      86.84132854      92.09228170
H      60.13754099      87.22305327      93.67398262
C      63.29149420      88.88034323      91.44599530
H      64.65776632      88.89357132      92.98990170
H      62.33718242      90.70392913      91.54237134
H      64.19478338      88.67436308      89.60729160
C      59.61219706      86.79597512      89.77925669
H      60.54383214      85.94559827      88.15031261
H      58.62387020      88.55531031      89.37107581
H      58.03238588      85.56009411      90.24601909
C      63.46345929      84.77018850      97.14540986
O      61.86664056      83.43604174      98.09972165
N      64.08517925      87.07943407      98.06570657
H      65.33428835      88.04886366      96.99801121
C      62.90787975      88.27941028     100.31259116
H      62.22001939      86.84321827     101.61839204
C      64.88642320      89.80441941     101.67886328
H      63.92266278      90.77951819     103.21710050
H      65.77648430      91.21982442     100.47510762
C      67.06338793      88.17169587     102.63884425
H      67.72857158      86.92447651     101.13840156
C      69.28003688      90.08598862     103.37205806
H      71.04126182      89.07120559     103.70653962
H      68.92854779      91.08943329     105.13517271
H      69.50869378      91.48627582     101.87728455
C      66.31694602      86.62023056     104.92352336
H      64.79571635      85.26907626     104.60038016
H      65.88608842      87.86367049     106.50711401
H      68.12352438      85.74150783     105.37894740
C      60.73280477      90.04252492      99.50189857
O      58.64276747      89.63812350     100.21243566
N      61.08240414      92.24594580      98.29247373
H      62.89276194      92.60877326      97.81626270
C      59.19834701      94.11677486      97.54603184
H      57.47491660      93.08498429      97.08493862
C      58.48592018      95.93847102      99.67575339