 %block lattice_cart
   139.898   0.000   0.000
   0.000 144.87   0.000
   0.000   0.000   168.12
 %endblock lattice_cart

 %block positions_abs
N      93.00366102      42.87590102      83.49686156
H      92.95830759      42.75684826      85.40359541
H      94.79134212      42.48850712      82.95073066
H      91.72998549      41.60222548      82.87136215
C      92.29879311      45.41191372      82.56522649
H      93.64805770      46.60055158      83.57056089
C      92.50288355      45.77096172      79.73819592
H      91.21975938      44.38201289      78.91994443
H      94.50977289      45.41758291      79.44906780
C      91.62605054      48.28051827      78.73475125
H      89.65884545      48.52240323      79.29977942
H      91.86037660      48.38256349      76.69195711
S      93.31168641      50.89023031      79.78921853
C      91.62982999      53.59631839      78.52877108
H      91.08936827      53.42435330      76.54833791
H      92.58036233      55.37833030      78.92372388
H      89.83459000      53.73993758      79.52843630
C      89.48121118      45.82198434      83.28899167
O      88.08470343      43.92280940      83.04521697
N      88.68941585      47.95548534      84.28676716
H      89.87616397      49.42191297      84.57211583
C      86.14395451      48.37689432      85.12202619
H      85.05169270      47.11266741      83.92016025
C      85.93986406      47.60588597      87.96417456
H      86.97354436      45.89568366      88.45550341
H      84.00478432      47.20148454      88.54432054
C      86.68630596      49.64679040      89.89358513
O      87.86171573      51.61399549      89.43060218
N      85.79435514      49.41435406      92.17070534
H      86.51434086      50.38378366      93.64847131
H      85.03468516      47.72682847      92.64124719
C      85.28601876      51.09243103      84.39637129
O      86.73543884      52.82908950      83.82000476
N      82.90307388      51.74249688      84.99163507
H      81.68042096      50.39890147      85.57933996
C      81.92797510      54.23693560      84.44172472
H      82.30781009      54.73582336      82.48018880
C      78.93653835      54.27661987      84.42282745
H      78.56426227      52.73649291      83.10379849
C      77.98789574      53.85710063      87.23096075
H      76.09816943      53.04829776      87.35379297
H      77.62884774      55.78273173      87.86968825
H      79.17086441      52.68169085      88.44038560
C      77.69687789      56.61610103      83.30410948
H      78.38284854      56.86554492      81.37658864
H      78.18631700      58.39055405      84.22818564
C      74.75079457      56.53862225      83.15860055
H      73.99301431      54.83786858      82.27798809
H      74.08750063      58.24693484      82.21940657
H      74.12340543      56.70302845      85.11446728
C      83.07125952      56.37610580      86.03287427
O      82.94653759      58.61732121      85.25052758
N      84.37706040      56.06619069      88.17582391
H      84.73799813      54.32575275      88.86746374
C      85.43908659      58.11654374      89.60256728
H      84.27879464      59.80973850      89.42115355
C      85.98899695      57.43813198      92.36156769
H      87.23999577      58.76849930      93.31776921
H      87.11716356      55.72603995      92.56187868
C      83.84037813      57.15467304      94.21727893
C      83.90651855      58.49259927      96.45093544
H      85.59215442      59.59241998      96.79108617
C      81.91285729      58.45102529      98.21782954
H      82.06592512      59.66611931      99.84866335
C      79.79258437      56.96759014      97.66791918
H      78.32615675      56.73515380      99.06820638
C      79.72077477      55.44825017      95.52496954
H      78.01057246      54.45425413      95.02419207
C      81.71632576      55.65612008      93.82421586
H      81.45932298      54.42401852      92.21794849
C      87.85415682      58.91589796      88.29109722
O      88.56091446      61.14766473      88.17771364
N      89.30168718      57.04128946      87.37835941
H      88.74988709      55.24793918      87.71662042
C      91.53534368      57.26805661      85.88547562
H      92.78823222      58.62299039      86.80010316
C      92.83925483      54.69046993      85.80799684
H      94.45875028      54.97014942      84.56455693
H      91.58447656      53.24293957      85.05021659
C      94.02978241      53.74371705      88.28164858
H      95.08047024      52.01272773      87.90559305
H      92.57658288      53.29585190      89.67059742
C      95.70596965      55.71659132      89.54020631
O      94.91228460      56.67279283      91.49229359
O      97.69774118      56.39122361      88.44605477
C      90.99110250      58.33764171      83.25686632
O      92.65028220      59.39966790      82.02665449
N      88.63461379      58.19780197      82.22507575
H      87.37038688      57.09609152      83.13781356
C      87.79935476      59.33352748      79.90827129
H      89.07492002      58.87810343      78.35680599
C      85.15184819      58.26961156      79.16560885
H      83.62116988      59.24471034      80.13881790
H      85.04791325      56.24949413      79.55300275
C      84.36383232      58.52661434      76.34235774
H      85.51278592      57.07152508      75.44095829
H      84.75500567      60.39555367      75.57323913
S      81.05492155      57.74237792      75.97386111
C      81.20798938      56.13422082      72.80479008
H      79.94943165      54.50716647      72.93329147
H      83.10149514      55.33297687      72.67250924
H      80.59004887      57.35876348      71.27033232
C      87.50833690      62.19457312      80.23897340
O      88.61193707      63.57974250      78.69695673
N      86.03624011      62.99770679      82.22885520
H      85.21231943      61.87331965      83.53276636
C      85.79813459      65.79072229      82.61624910
H      85.57892634      66.59574570      80.73219196
C      83.33960066      66.34063264      84.09590480
H      83.50778630      68.11130619      85.13147482
H      83.15062803      64.80995434      85.46217693
C      80.83760302      66.51259773      82.41404838
H      79.30881443      66.86975602      83.74819516
C      80.59760778      68.77837959      80.75297895
H      81.77301754      68.48736174      79.08624035
H      81.53302230      70.42622094      81.56178182
H      78.65496913      69.17711185      80.19361997
C      80.17808854      63.91422405      80.90037761
H      78.19576563      64.03894600      80.35613643
H      80.47666529      62.32874368      82.17972232
H      81.37617502      63.67989800      79.24308763
C      88.17352057      67.04361084      83.75764379
O      88.48532541      69.39820982      83.36647044
N      90.12938730      65.46946881      84.57022611
H      89.79490574      63.60052950      84.75541928
C      92.53122944      66.42944979      85.32611663
H      92.34603627      67.63320545      86.98718606
C      94.34158725      64.32240495      85.98563111
H      94.14883517      62.92211775      84.48707815
H      93.59325563      63.50604318      87.72417932
C      97.01932944      65.32207016      86.56766682
H      96.90972531      66.79227724      88.00574854
H      97.86025765      66.01748944      84.82155971
C      98.79567217      63.39265960      87.54465532
H     100.64571423      64.19957274      87.95850539
H      99.06779276      62.02449774      86.02909482
N      97.80356586      62.04717447      89.87090841
H      97.06090342      60.30862626      89.61579536
C      98.20229811      62.39677383      92.30298618
N      99.60069558      64.09941724      93.20249590
H     100.05422990      64.12965286      95.05631742
H     100.69295739      65.14254616      92.03653477
N      97.08358013      60.84341880      93.91681245
H      97.22908906      61.19679763      95.78575177
H      96.29934371      59.16723157      93.45193978
C      93.77088991      68.02437879      83.19828480
O      94.73276060      70.13898253      83.72362872
N      93.87671458      67.15321496      80.83990636
H      93.17751584      65.39954894      80.55833714
C      95.08424969      68.66121656      78.82356839
H      96.46563963      69.85930304      79.77599045
C      96.54122868      67.20423756      76.81856877
H      97.57301925      68.54027407      75.63748982
C      98.63126598      66.03638670      78.32468064
H      99.45707638      67.37431294      79.65693769
H      99.97108194      65.21435576      76.99242359
H      98.07190699      64.50570839      79.58323837
C      94.98598393      65.40710784      75.04978494
H      93.30601723      66.30094840      74.26365880
H      94.30190300      63.82729665      76.17795155
C      96.75665748      64.46980360      72.88793804
H      98.17773167      63.17723079      73.62682103
H      97.49365074      66.14977029      71.95252351
H      95.84958885      63.50793291      71.31001657
C      93.19263365      70.56795041      77.47997298
O      94.00710570      72.57295003      76.59558107
N      90.74921753      69.89520784      77.69540178
H      90.40906680      68.20957197      78.52310190
C      88.72343092      71.17833200      76.39149062
H      89.60971256      71.78682388      74.63593488
C      86.54268676      69.41710708      75.90205151
H      84.85327143      70.43566957      76.49542557
H      86.56914293      67.95067947      77.34769214
C      86.28568398      68.43633913      73.21675042
O      84.67563716      66.61653269      72.82935652
O      87.60282322      69.56261600      71.49898920
C      87.87872326      73.65387348      77.66705588
O      87.14739918      75.48501827      76.53699955
N      87.92596642      73.79182349      80.17283298
H      88.37005210      72.16098969      81.06289407
C      87.17574507      75.87241217      81.75831335
H      87.12094301      77.68465971      80.78321457
C      84.41296520      75.53226144      82.54254977
H      84.27312546      73.85040502      83.72173899
H      83.41518971      75.11841137      80.78699403
C      83.15251775      77.91898577      83.87291710
H      83.91596718      77.94922139      85.78343040
H      81.20232020      77.26325074      83.99385958
C      83.49644794      80.65153001      82.70317651
O      83.11094377      82.50346179      84.21873701
O      83.79502470      80.91609170      80.41660767
C      88.71398229      76.48090404      84.09212535
O      89.06169193      78.70700164      84.65148434
N      89.66451463      74.59117772      85.46406665
H      89.01633850      72.79971718      85.36202143
C      91.65439644      74.75747365      87.38591831
H      92.90917471      76.36185129      87.08734156
H      92.91106443      73.12663983      87.34812379
C      90.72276136      75.14108809      90.11279338
O      88.63461379      74.22646055      90.69104963
N      92.25154995      76.22012180      91.76063473
H      93.90883993      76.96656370      91.18426820
C      91.81124372      76.54704446      94.53664268
H      89.79112629      76.47901432      94.93159548
C      93.08680898      74.53637567      96.06921072
H      95.08802915      74.75936337      95.62701476
H      92.82035757      72.63531099      95.32087910
C      92.62193631      74.57983936      98.99261733
H      92.98287403      76.54137529      99.51418179
C      89.84214890      73.89953790      99.69370579
H      89.52278515      73.90331735     101.72894103
H      89.29412827      72.02492940      99.04930912
H      88.50989185      75.22801549      98.85088785
C      94.40205849      72.84507061     100.40991206
H      96.25399028      73.20222889      99.57843248
H      94.07891530      70.81928401     100.23227779
H      94.33969753      73.27781794     102.42247059
C      92.58981096      79.20966884      95.29631266
O      94.64205374      80.23579022      94.71805641
N      90.92874153      80.36618133      96.74006356
H      89.20342141      79.56682710      96.88368276
C      91.09503745      82.98723173      97.83421510
H      93.06791172      83.43887632      98.22160899
C      90.23332225      85.03569505      95.98039358
H      89.44152692      86.67219804      96.94982318
H      88.77445353      84.26657644      94.74640230
C      92.22698351      85.92953561      94.00751931
H      92.93752060      84.24578947      93.05509725
H      93.55546111      87.10872482      95.05064824
C      91.28023063      87.40352212      91.80598816
H      92.75988633      88.48444559      90.86301473
H      90.05568797      88.93797990      92.43148757
N      89.88183315      85.76134996      90.10145502
H      89.19775223      84.15697232      90.87813254
C      89.34893033      85.95032259      87.70906151
N      89.39239404      88.18964827      86.52987229
H      89.02200768      88.40129763      84.66849187
H      89.94041467      89.79780536      87.40103612
N      88.56847337      84.08516273      86.42404762
H      87.97131985      84.33082715      84.62691790
H      88.29068360      82.42031385      87.31788817
C      89.50577762      83.19510164     100.24361615
O      87.25133413      83.35194892     100.08109968
N      90.74165863      83.35383864     102.48105210
H      92.63705412      83.23289615     102.30719728
C      89.38672486      83.41053042     104.89801206
H      87.89951025      81.99701515     104.71659833
C      91.30668679      82.11228845     106.82931235
H      90.61315724      82.21622340     108.76439209
H      93.12838296      83.05337216     106.63656026
C      91.83769989      79.24179419     106.33042460
H      92.63138494      78.95077634     104.45203665
C      93.83703033      78.42921187     108.12755432
H      94.68929689      76.59995679     107.71937344
H      92.90917471      78.35173310     109.96436830
H      95.25999424      79.91075729     108.27495298
C      89.47554200      77.55804804     106.59687601
H      88.37383156      78.08717140     108.25416599
H      90.10860031      75.61729912     106.88033496
H      88.22076372      77.52214323     104.96415248
C      88.26611716      85.85205683     105.78996287
O      88.12438768      86.45487952     107.98960430
N      87.49699855      87.52824406     104.08731947
H      87.60660267      87.08982757     102.23349795
C      86.14206478      89.87717388     104.69959079
H      85.21609889      89.58237657     106.51561778
C      88.36627265      91.85382760     104.86210726
H      89.38294541      92.13161737     103.09332343
H      89.76089067      91.21321037     106.23971774
C      87.24566495      94.33125879     105.91657454
H      86.29135316      93.88717310     107.68724809
H      85.61861059      95.07770068     104.89612233
C      89.30546663      96.16807277     106.21704102
H      89.81947219      96.59893037     104.27062292
H      90.81724768      95.30446785     107.31686174
C      88.54012747      98.59637109     107.58520287
H      87.42329922      98.31858131     109.29540519
H      87.28534920      99.73020687     106.40979311
N      90.77567370     100.15917475     108.22393037
H      91.39739366     101.29490025     106.81986372
H      92.23832187      99.19352460     108.97982089
H      90.32213938     101.53300577     109.46737028
C      84.09360146      90.28913421     102.73427543
O      84.43564192      89.45198545     100.60833332
N      82.03757923      91.62517071     103.31064195
H      82.07915321      92.39428932     105.05863879
C      80.17997826      92.52279072     101.43414372
H      79.40896993      90.80313976     100.60077442
C      77.96710875      94.13661698     102.54908225
H      78.67197667      95.96398232     103.18969947
C      76.08683107      94.69030679     100.38534562
H      74.40119520      95.76178161     100.88990255
H      75.54636934      92.82514693      99.69937497
H      76.92586955      96.03012274      99.06442693
C      76.46477633      92.94419967     104.67691408
H      77.74412105      92.06736667     106.03373757
H      75.48778783      91.26423299     103.99472288
C      74.64119044      94.54857731     106.11688553
H      75.73723170      96.16996249     106.75561302
H      73.71711427      93.43930797     107.58520287
H      73.11051213      95.03990616     104.82809218
C      81.59538327      93.99866697      99.29308381
O      83.26968078      95.59737542      99.62945509
N      80.80736740      93.48088196      96.95549236
H      79.79069464      91.90673993      96.59455464
C      81.99222580      94.48621636      94.64813653
H      82.75945468      96.32680978      95.16781127
C      84.07848365      92.60782840      93.93570971
H      85.34837973      92.22421396      95.51174146
H      85.18964272      93.34671138      92.36912660
C      83.38873354      89.98677800      92.89636024
C      83.06181089      89.77890810      90.24129477
H      83.24511434      91.47210288      89.12068707
C      82.93708895      87.42619884      88.99974458
H      82.64985055      87.56792831      86.98340661
C      83.39251300      85.30781565      90.45483384
O      83.50967603      82.93809885      89.35312340
H      83.65329523      82.93620913      87.54465532
C      83.61172125      85.33427181      93.08722260
H      83.96132062      83.60706197      94.11334399
C      83.49455822      87.74556259      94.31932415
H      83.53991165      87.80981328      96.35833885
C      80.01368235      94.82636709      92.59778348
O      78.00679300      93.66040595      92.60723212
N      80.69587355      96.28712552      90.68915991
H      82.43064230      97.06758250      90.53987153
C      79.00078904      96.95797837      88.48195957
H      77.08649629      96.47798789      89.07344391
C      79.19921031      99.76800139      87.56922176
H      78.60772597      99.91917950      85.60390640
H      81.11728251     100.50877411      87.70528206
C      77.36806551     101.47253453      89.07533364
H      77.94443203     101.48765235      91.05387709
H      75.41219878     100.82435840      89.16037132
C      77.58349431     104.12382055      87.96039511
H      77.51357444     104.09169519      85.90248316
H      79.34849869     104.96285903      88.61235069
C      75.20621861     105.63938104      88.77297743
H      75.48400838     107.62926286      88.32511229
H      74.66386716     105.08569124      90.68160100
N      73.02358472     105.25387689      87.05521621
H      72.90642168     103.40572454      86.59223326
H      73.19366008     106.26110101      85.44516939
H      71.30582350     105.41072417      87.87535743
C      79.88140151      95.00400136      86.40515036
O      82.20576487      94.65062253      85.94783659
N      78.01246218      93.75678200      85.16171044
H      76.28525233      93.77378953      85.97618248
C      78.23544989      92.14673518      82.91860531
H      79.98722618      91.07337062      83.08490122
C      75.87518172      90.55936507      82.62380800
H      74.46922535      92.00500571      82.19861958
H      75.48967755      89.52001559      84.35857676
C      76.31359823      88.61672642      80.42983575
O      75.10606311      88.97766415      78.54766835
O      78.14852248      87.12762209      80.35802615
C      78.73055818      93.92307791      80.69439744
O      78.06726425      96.15295496      80.79266321
N      79.28046854      92.95364832      78.39082106
H      79.23322538      91.08092953      78.03177306
C      79.32771170      94.42952457      75.95685357
H      80.30281047      96.18697004      76.40849816
C      80.85461056      93.20498191      73.85169846
H      81.16074622      94.57125404      72.34369686
C      83.50589657      92.57759277      74.80978970
H      84.24288984      94.33314852      75.59780557
H      84.52823851      92.01256460      73.11281547
H      83.53046302      90.95053842      76.07401660
O      79.76234875      90.90896444      72.77266473
H      81.00578866      90.16441227      71.68229265
C      76.69910239      95.25911441      75.12915345
O      76.38162837      97.09592839      73.64382856
N      74.78480964      93.80024570      75.94929467
H      75.10984257      92.25067012      77.01510031
C      72.14675171      94.41818621      75.71685833
H      71.98423524      95.09659795      73.77799913
C      70.36285007      92.13917627      76.19684881
H      70.30804800      91.65918579      78.19995871
H      71.29070569      90.46676848      75.43339938
C      67.72290241      92.09760230      75.13671235
H      66.48324195      93.59237580      75.82268300
H      66.79882624      90.38173080      75.80567547
C      67.62274691      92.30169273      72.22275438
O      67.00480641      94.23110329      71.04923434
O      68.45422649      90.45920957      71.05868297
C      71.39653036      96.57625365      77.54989285
O      69.35373622      97.68930245      77.28533117
N      72.97634156      97.28679074      79.29599997
H      74.38040821      96.00933575      79.50009041
C      72.84784017      99.30690817      81.22163108
H      71.35495638     100.65617277      80.78510430
H      74.62229318     100.33491929      81.02509954
C      72.27903255      98.67951903      83.91638080
O      72.82516345     100.07413705      85.72484888
N      71.31527213      96.47987761      84.21495756
H      70.75780287      95.55958090      82.63892581
C      70.00758152      95.60871378      86.48451886
H      68.94744506      97.29812911      86.99285524
C      67.95344902      93.78890735      85.73618724
H      67.05582902      93.49222030      87.56544231
H      68.66020666      91.97288036      85.06533440
C      66.02781790      94.65629172      83.82567394
C      65.14720544      92.94608941      81.94350653
H      65.70845416      90.99022268      81.79421815
C      63.37275244      93.78701761      80.18039188
H      62.79638591      92.64562292      78.58924233
C      62.19356322      96.08492481      80.46385083
O      60.35296979      96.87483041      78.93695197
H      59.89376629      98.60581971      79.22419037
C      63.04771951      97.77245041      82.35168741
H      62.10663581      99.58091849      82.42916619
C      65.00925542      97.09214894      84.00141849
H      65.87852953      98.39039092      85.31288855
C      71.43621461      94.72054242      88.80321305
O      73.33161010      93.42419016      88.48384930
N      70.52725626      95.46887403      91.09167161
H      69.04004165      96.65184271      91.26930589
C      71.87841057      94.67140953      93.39335826
H      73.78703415      95.38761580      93.10234041
C      70.90709125      96.03957138      95.69315518
H      72.26391474      95.65784666      97.19548760
H      68.92287862      95.58036789      96.00684975
C      70.99590838      98.92140400      95.43615241
C      68.88508409     100.44263369      95.32843801
H      67.11063108      99.45997600      95.55709489
C      68.97390123     102.99187449      94.72183586
H      67.26558864     104.11059246      94.80120436
C      71.33227967     104.17295344      94.34389060
O      71.56471600     106.63526681      94.19460222
H      69.97545617     107.50454093      94.10200563
C      73.49790602     102.67817992      94.68971051
H      75.37440425     103.45863689      94.51018651
C      73.40152998     100.04579116      95.08466331
H      75.07204804      98.87794031      94.95616192
C      71.69699684      91.75934129      93.75807544
O      69.66932051      90.68597673      93.75240626
N      73.85506429      90.65196166      94.25318373
H      75.31393301      91.87272486      94.41192074
C      74.55804248      87.92319686      94.27775018
H      72.78736893      86.86872959      94.27397072
C      75.80337212      87.36005843      91.87212858
H      77.51735389      88.49578393      91.77008336
C      76.69154349      84.63129363      91.49229359
H      77.96710875      83.86784420      92.91714723
H      77.70632652      84.56137376      89.70083305
H      75.00023844      83.46911195      91.32221822
O      74.35773149      88.09516196      89.70839195
H      74.45032808      89.90740949      89.71784058
C      76.28147288      87.27502075      96.43770735
O      77.93120395      88.89073673      97.01407388
N      76.16242012      85.09427658      97.61689657
H      74.75835347      83.93020516      97.05186840
C      78.38662799      84.08705245      99.12111872
H      79.96077001      85.38907388      98.85466731
C      77.81593065      84.35728331     101.98216435
H      77.05626067      86.26779662     102.11444520
C      75.73912143      82.38062959     102.77395968
H      73.84750539      83.02124681     102.27318221
H      75.85061528      81.95733090     104.78651820
H      75.76557760      80.58349986     101.76862528
C      80.22722142      84.40452648     103.63000570
H      81.89773948      85.22466769     102.74561378
H      80.58060024      82.43921110     104.13834208
C      79.77179738      85.75379105     106.09420881
H      81.43664626      86.01646301     107.27717748
H      78.32426702      84.71822103     107.13166856
H      79.11984180      87.69265025     105.86366220
C      79.40708020      81.47167124      98.34822065
O      77.93498340      79.89563949      97.40146777
N      81.85238605      81.24490407      99.15135434
H      82.86527935      82.81526665      99.53874823
C      82.94842731      78.88841537      99.55386604
H      81.62939835      77.44277474     100.19448326
H      84.66807826      79.00368866     100.68203265
C      83.78557607      77.77536657      96.88179304
O      85.68853047      78.61251533      95.78386205
N      82.34749434      75.73257243      96.16369704
H      80.88484618      75.25636138      97.28997392
C      82.40418613      74.43622017      93.83555422
H      83.98777678      75.10329355      92.69793898
C      82.62339439      71.58840262      94.17192550
H      80.86216946      70.84951962      94.94860302
C      83.09771569      70.26181475      91.51119085
H      84.87972760      70.77204084      90.61168113
H      81.52357367      70.67566480      90.24885368
H      83.08259788      68.22280005      91.79087035
C      84.76445430      70.86274772      95.92370179
H      84.30147135      71.81139032      97.69248562
H      86.62961417      71.48446767      95.31332020
C      85.24066533      68.06406305      96.59077518
H      83.53046302      67.14376633      97.27863556
H      86.47654634      67.99792263      98.23483708
H      86.03246065      67.10408208      94.95049274
C      80.02124125      75.25825112      92.41825948
O      78.10694850      73.98268585      92.27653001
N      80.14974264      77.43899529      91.26174698
H      81.86372441      78.27614403      91.18048875
C      78.06726425      78.31015912      89.47217616
H      77.94443203      77.18577196      87.74874576
H      78.71166092      80.20366488      88.97328842
C      75.26480012      78.49535228      90.30743519
O      73.57538480      78.82605439      88.72195482
N      74.78103019      78.45944748      92.73762323
H      76.18509684      78.77503179      93.99429123
C      72.03525785      78.30448993      93.59366925
H      70.99968783      77.09506509      92.28597864
C      71.63841533      77.02703494      96.10322579
H      72.82705318      77.72434395      97.63390411
H      72.42832093      75.15620589      95.75551615
C      68.98901904      76.87774656      97.09344238
N      67.26747837      74.87274694      96.74006356
H      67.62085719      73.15120627      95.99173194
C      65.09051365      75.66643200      97.89279661
H      63.41810587      74.51369894      98.08932815
N      65.40420822      77.98890564      98.85655703
H      64.02281829      78.96967359      99.73339004
C      67.76825584      78.80904685      98.28208023
H      68.41076279      80.65530946      98.86789539
C      71.10551251      81.04837253      93.80342887
O      71.92943318      82.67353716      95.32276883
N      69.24035264      81.63040825      92.28786837
H      68.93421697      80.40397587      90.85923528
C      67.68510788      84.02280175      92.41825948
H      68.85673820      85.69520955      92.14235944
C      65.72735142      83.74312227      90.24885368
H      64.66721496      81.98945625      90.45672357
H      66.75158308      83.23667560      88.53487191
C      64.14754022      86.16575140      89.70650222
H      63.12141884      86.66652887      91.42048399
C      65.61396784      88.49578393      88.79376442
H      67.04638039      89.07970937      90.15436736
H      64.31194641      90.03780061      88.37613490
H      66.55694127      87.99311674      87.03064977
C      62.21435021      85.37773552      87.81677591
H      63.32361955      84.84294297      86.16515511
H      60.87831370      86.83282479      87.23096075
H      61.22602334      83.73178391      88.56510753
C      66.25458506      84.43287237      94.81443245
O      64.87886431      82.85873034      95.66858874
N      66.54560291      86.73455902      95.82732575
H      67.91565449      87.86839481      95.13379620
C      65.24736094      87.49233926      98.24239598
H      64.56516974      85.91441779      99.37812149
C      66.97835024      88.92286208      99.87511952
H      65.95033913      89.70331906     101.48138688
H      67.44511264      90.57259315      98.73183510
C      69.16287386      87.34305088     101.01651421
H      70.38174733      86.64007270      99.51229206
C      70.64441929      89.15907788     102.64923774
H      72.19966404      87.95910166     103.26906797
H      69.45578144      89.62961972     104.26306401
H      71.39842009      90.73888908     101.56264511
C      68.16131891      85.09049713     102.72860625
H      67.33550851      83.75635035     101.39445947
H      66.78748788      85.49678828     104.20826195
H      69.87152123      84.21555384     103.46937896
C      62.92488730      89.04002511      97.72650070
O      61.00303564      88.88695728      99.02096322
N      62.91732839      90.53668835      95.69693464
H      64.43666835      90.44031231      94.54420159
C      60.74792259      91.95587281      94.76340984
H      59.16055248      90.74644797      94.26452209
C      59.72180120      93.63394978      96.92903619