 %block lattice_cart
   139.898   0.000   0.000
   0.000 144.87   0.000
   0.000   0.000   168.12
 %endblock lattice_cart

 %block positions_abs
N      93.34948094      43.24534251      87.35662756
H      92.74098906      43.81037068      89.07627849
H      95.25243534      43.40030007      87.32450221
H      92.65973084      41.51435321      86.94655694
C      92.36871299      45.33915927      85.82783896
H      93.21531038      47.10227392      86.47412537
C      93.01688911      44.99144963      83.00836730
H      91.65817589      43.89162891      81.91799522
H      94.91228460      44.24311801      82.71545973
C      93.07736035      47.66730209      81.61752875
H      91.17440595      48.45153851      81.50414516
H      93.78600771      47.30258491      79.71835379
S      95.10314695      49.98032709      83.26537009
C      94.74031951      52.83759328      81.27170883
H      94.51166262      54.63472300      82.24869732
H      93.15483912      52.60515694      79.97913603
H      96.39383002      53.10593442      80.07173262
C      89.51522624      45.46199148      86.02814996
O      88.27367607      43.43620487      85.94689173
N      88.40784663      47.64273564      86.40042603
H      89.28656937      49.28490781      85.98657597
C      85.75656061      47.84493636      86.91821104
H      84.75878511      46.59960672      85.61807934
C      85.10271531      46.73377729      89.59028405
H      86.42363400      45.18042226      89.88697108
H      83.15062803      46.07993198      89.57516625
C      85.63183867      48.56492209      91.84472754
O      83.91785692      49.72899349      92.92943046
N      88.04501917      48.88995501      92.50802149
H      88.30580140      49.74600103      94.19554707
H      89.44719611      47.79769320      91.81260219
C      85.15940710      50.74944570      86.81049665
O      86.66740870      52.43508157      86.36263152
N      82.66496837      51.29746633      87.30560494
H      81.47066134      49.82536954      87.07883779
C      81.50467640      53.80702288      87.11474259
H      81.92608537      54.33236679      85.16832448
C      78.59638761      53.56891736      87.64008650
H      78.04080808      52.26122675      86.14909244
C      77.75734913      52.61082612      90.09673070
H      78.56804172      50.79857859      90.63530271
H      75.76746732      52.13650482      90.35373348
H      78.11639713      54.05457702      91.51969462
C      77.05437095      55.85737593      86.99191038
H      77.53436143      57.47687138      88.16920986
H      75.10039393      55.63627795      87.60229197
C      76.98067162      56.73798839      84.12141610
H      75.95832968      55.18652309      83.23513447
H      78.81559587      57.23309668      83.32584132
H      75.93376324      58.51055167      84.03448869
C      82.75189577      55.82903003      88.82683463
O      82.85772044      57.90772898      87.89142010
N      84.21265422      55.18841281      90.82238562
H      84.43186246      53.34403993      91.26647130
C      85.44286605      57.13861037      92.46455778
H      84.33359669      58.86770994      92.31526940
C      85.59215443      56.01044376      95.18198421
H      86.71843130      54.28701336      95.14985886
H      83.72321510      55.39061353      95.79236581
C      86.70520323      57.72442552      97.25879344
C      88.70075420      56.87782814      98.74978749
H      89.34326115      54.99188128      98.30192236
C      89.72309614      58.35559411     100.73022067
H      91.28212036      57.66584401     101.85271810
C      88.75555628      60.78389243     101.23288786
H      89.33003308      61.86670560     102.86372167
C      86.74488747      61.69851996      99.68709175
H      86.10804970      63.54100312     100.29369390
C      85.67530238      60.17162110      97.81626270
H      84.27123574      60.92373217      96.54069743
C      88.11304933      57.64883647      91.53103298
O      88.83681451      59.73509432      91.08505756
N      89.62105093      55.62682932      91.00757878
H      88.68941586      53.96953934      90.82427533
C      92.16273281      55.81958140      90.00035467
H      93.14728023      57.11971310      91.25513294
C      93.30979668      53.17018511      89.94555261
H      95.17873601      53.50844612      89.14430864
H      92.32713901      52.14406372      88.45455854
C      93.77277964      51.63761707      92.39463790
H      92.07202596      52.16485071      93.43209764
H      95.38282646      52.43130212      93.40375176
C      94.42851466      48.81247623      91.70677752
O      96.58469238      47.95454049      92.28125433
O      92.77689387      47.36683560      90.93576920
C      92.15895337      56.97042473      87.32261247
O      94.09214338      58.09670161      86.69144390
N      90.05757770      56.66050961      85.93555337
H      88.89728575      55.30179639      86.61018565
C      89.83836944      58.19685710      83.59229274
H      91.51833615      58.28189479      82.40554461
C      87.57258760      57.01577816      82.24491787
H      86.08915244      57.08569803      83.67355097
H      87.88817189      55.03723471      81.76870684
C      86.90551421      58.45008043      79.83551682
H      88.62894461      59.02455723      78.86608723
H      86.06269627      60.26421769      80.32306621
S      84.90051460      56.80034936      77.47902812
C      82.09238129      56.63972262      79.55961679
H      81.79002508      58.48409550      80.42322171
H      82.40985532      55.19219227      80.99202933
H      80.46532693      56.16162186      78.38987619
C      89.29223855      60.98042396      84.23857913
O      90.45630995      62.67928792      83.32206188
N      87.62738966      61.50387815      86.02626023
H      86.92252174      60.08280396      87.09017615
C      86.61260664      64.06445730      86.45333838
H      86.20820520      65.14160130      84.74502578
C      84.16163160      64.03611141      87.95756053
H      84.14840353      65.58190753      89.31816346
H      84.20131586      62.45063103      89.27092031
C      81.75601000      64.20807650      86.34562397
H      80.06659468      63.97186072      87.50024675
C      81.24578390      66.91794404      85.65776360
H      81.07192908      68.16327367      87.29048713
H      79.39763156      67.01243035      84.75258469
H      82.75756496      67.83446130      84.60140658
C      81.44798461      62.57346324      83.93433321
H      82.70843208      63.20274211      82.43200078
H      79.52613295      62.65094202      83.19733994
H      81.91285729      60.63460405      84.45778739
C      88.68185695      65.87292539      87.55126936
O      88.41918499      68.20106820      87.38686318
N      90.69630519      64.90349579      88.84006270
H      90.61126751      63.01187975      89.07627849
C      92.79579112      66.17339187      89.95689096
H      92.02856225      67.87414555      90.83183424
C      93.89939130      64.40460803      92.12818649
H      95.63793951      65.23797735      92.85384140
H      94.08647421      62.56401461      91.22300759
C      91.80557454      64.34980598      94.32971765
H      90.54890654      62.77188451      93.90641895
H      91.03834566      66.26220901      94.38074025
C      93.16617749      63.77154973      96.75990568
H      91.70352933      63.65816615      98.20365659
H      94.43985303      65.24364651      97.42697908
N      94.60047975      61.47364253      96.76935432
H      94.69685580      60.51366156      95.12340269
C      95.43951825      60.39082935      98.86695052
N      95.63038060      61.45096581     101.00423098
H      96.54500814      60.67806775     102.49144560
H      95.65116758      63.35392021     100.87006041
N      96.49776497      58.16851121      98.83860463
H      96.99665273      57.61671112     100.59793982
H      97.34814182      57.56946797      97.23800644
C      94.62126674      67.12959338      87.89142010
O      96.15572452      68.69806622      88.51314005
N      94.51544207      66.36236450      85.55193893
H      93.29845832      64.93940059      85.17021420
C      95.70785937      67.83068185      83.44300435
H      96.08013546      69.65048828      84.33306545
C      98.05300974      66.55700631      82.34885282
H      98.68795778      67.71729827      80.76904162
C     100.01832509      66.06945692      84.32172709
H     101.71151987      65.60269451      83.24647282
H      99.61014422      64.55389641      85.65398414
H     100.33957858      67.81556403      85.36674575
C      97.32924456      63.99453743      81.16399442
H      95.47164358      64.15516417      80.28716141
H      97.33491374      62.54511735      82.62664259
C      99.09424893      63.12715305      79.12497973
H     101.09168965      62.90227562      79.57284486
H      99.28700102      64.60113958      77.70012610
H      98.47441869      61.34514114      78.30105907
C      93.66128579      68.81522925      81.61752875
O      94.13371736      70.62369734      80.16432921
N      91.32180460      67.92327844      81.45879174
H      90.64150313      66.36992341      82.33373502
C      89.34515088      68.93806147      79.72402297
H      90.25599897      69.21207177      77.89665763
C      87.37794578      66.98597417      79.40087977
H      85.82648049      66.93495157      80.75770327
H      88.06958563      65.05089444      79.54638870
C      86.15718259      67.20518244      76.87809515
O      83.83092951      67.50375919      76.69668142
O      87.58014651      66.99542282      74.94679485
C      88.27745551      71.47029473      80.58006900
O      87.69541981      73.21262239      79.03238314
N      88.10360069      71.69139269      83.05183102
H      88.90862411      70.24197262      83.99669416
C      87.20409097      73.96095400      84.49369219
H      86.98677244      75.44249944      83.08017691
C      84.67185770      73.30521898      85.64831496
H      84.93263995      71.77832011      87.00702818
H      83.61361098      72.61546886      84.02315033
C      83.31314450      75.58044946      86.99002065
H      84.57359195      76.59523248      88.26558590
H      81.80325317      75.02675964      88.28070372
C      82.01301279      77.40592506      85.11730187
O      79.67353162      77.59489770      85.11163269
O      83.36983627      78.92337529      83.86252360
C      89.31491526      74.86235346      86.21712258
O      90.22954280      76.96372912      86.07728284
N      89.93852494      73.35435186      88.13897424
H      89.29790773      71.56667076      88.32983660
C      91.72242658      74.13102937      90.20822456
H      93.07547062      75.58044946      89.64697585
H      92.90161581      72.53421063      90.75435547
C      90.33725720      74.94928086      92.65919958
O      88.16407193      75.91493100      92.55148519
N      91.31802516      74.31811228      94.91175336
H      93.01877884      73.45261763      94.90986362
C      90.16907156      74.39370132      97.43453799
H      88.12438769      74.60913013      97.32493385
C      90.43930242      71.80099682      98.70821351
H      92.40272805      71.25675564      98.40207786
H      89.17318579      70.54810828      97.67642294
C      89.77033930      71.31344744     101.34627144
H      88.10360069      72.29988457     102.04358045
C      89.30735635      68.40704837     101.84515919
H      90.60181888      67.10313722     100.91352412
H      87.35715880      67.96485241     101.35760980
H      89.49443926      68.00075721     103.85582799
C      91.94352457      72.09012495     103.09237857
H      92.37627188      74.07811703     103.42874984
H      93.77466936      71.50997897     102.34782639
H      91.64305807      71.18305632     104.91785418
C      91.32558405      76.59145302      98.76868475
O      93.58569673      76.78231539      98.96521630
N      89.74199341      78.39047247      99.75890134
H      87.84470819      78.20716903      99.65118694
C      90.43363324      80.69971804     101.10438649
H      92.46508902      80.73562284     101.45020639
C      90.01600373      82.87857247      99.28458004
H      90.31835994      84.65869466     100.28046581
H      88.04501917      82.93526427      98.68553680
C      91.66951425      82.91636700      97.08493861
H      91.39928339      81.28742292      95.85472678
H      93.51766659      82.75762998      97.98255862
C      91.38227584      85.33332696      95.51835549
H      93.27578161      85.75662565      94.82671566
H      90.81535795      86.83376965      96.81281802
N      90.00466536      84.89868990      93.17131541
H      88.81602752      83.42848283      92.90864346
C      89.89128179      86.58810522      91.36851651
N      91.01377921      88.70648843      91.47623092
H      90.84937303      89.97071533      90.05515673
H      91.87360469      89.13734602      93.12407226
N      88.76500490      86.17803462      89.14052919
H      88.96531590      87.48572523      87.76291871
H      87.83714928      84.56609807      88.71345104
C      89.01255905      81.28931264     103.53268479
O      86.78835118      81.73150860     103.45142657
N      90.32024965      80.99262562     105.70587006
H      92.17407117      80.59011391     105.48855153
C      89.20342141      80.92081602     108.26078003
H      87.34204098      80.04209328     108.20219851
C      90.77945315      79.18982671     110.11460154
H      89.53790297      79.09911985     111.75488398
H      92.58414178      79.97217341     110.72687287
C      91.52967449      76.54798933     109.06202398
H      92.70697399      76.67838044     107.37638811
C      93.13405214      75.29888024     110.99521400
H      95.08991887      75.91115156     111.20119417
H      92.93941032      73.24852719     110.95741947
H      92.16084308      75.72028919     112.76021837
C      89.11460428      75.00219320     108.39684032
H      89.41129131      73.02364975     107.90929094
H      87.90139998      75.95650499     107.03245793
H      88.04123972      74.95683977     110.15239607
C      88.50611240      83.49462325     109.38516719
O      86.91118339      83.63257327     110.99521400
N      89.44908582      85.43915162     108.16629371
H      90.60748806      84.88924127     106.75088870
C      88.54768637      88.08665820     108.39495059
H      87.30613618      88.10177601     110.03901249
C      90.91173400      89.85166256     108.85037463
H      92.24966022      89.37923098     107.35938058
H      91.70730878      89.19025835     110.63238655
C      90.12182839      92.67491367     108.98454521
H      88.92374191      93.18513979     110.57947422
H      89.24310567      93.46859872     107.30079906
C      92.49532464      94.18102555     109.48721240
H      94.09403310      94.03551663     108.19652933
H      92.96208705      93.54796724     111.39205653
C      91.75833139      96.95325406     109.47209460
H      89.90262015      97.27828698     110.30546390
H      91.86604578      97.82441789     107.60882444
N      93.46097479      98.48015291     111.34103391
H      92.74854797     100.15445042     111.91551071
H      95.20897163      98.76550159     110.63049682
H      93.71986730      97.53717948     112.97942663
C      86.83559433      88.74806241     106.12727902
O      87.32881291      87.92225200     104.01078555
N      84.88161734      90.33165306     106.51845237
H      84.92886049      91.16124290     108.23810332
C      82.80858756      90.98738808     104.77045553
H      81.96576963      89.22049398     104.12794858
C      80.73366807      92.51617667     105.91940913
H      81.48955860      94.26417351     106.71120446
C      78.93653835      93.37033297     103.83126155
H      77.65341419      91.91146424     103.15096008
H      79.89273986      94.27362214     102.24578118
H      77.70821625      94.81219413     104.63439523
C      79.33338088      91.04030041     108.04913068
H      80.71855027      90.45637498     109.45508705
H      78.61150543      89.33198784     107.15340040
C      77.10917301      92.71648766     109.19430483
H      76.31359823      91.84721355     110.88560988
H      75.52369262      93.16813225     107.96409300
H      77.70254707      94.64589822     109.61382407
C      84.14840353      92.32531432     102.55002710
O      85.67530238      94.04118580     102.93175182
N      83.43219724      91.62611558     100.16519250
H      81.84104770      90.57731748     100.05747811
C      84.56036386      92.52562529      97.81626270
H      85.67341266      94.13000293      98.47388745
C      86.29513261      90.40913183      96.80525911
H      87.41196086      89.58332144      98.32837853
H      87.53479307      91.21793469      95.37284657
C      84.99878037      88.07720955      95.57315757
C      84.62272483      87.98650270      92.97478388
H      85.44286605      89.44159196      91.80126384
C      83.52668356      85.81142770      91.89197071
H      83.19220200      85.62623454      89.88697108
C      82.83504373      83.77241302      93.34517023
O      81.99978470      81.68804489      92.20188581
H      81.36861611      82.01118809      90.53325748
C      83.28857804      83.79697946      95.96622063
H      82.86527935      82.08299770      96.98667285
C      84.26745628      86.01173869      97.08682833
H      84.59248921      86.11189419      99.09938686
C      82.45898820      93.40056859      96.08338366
O      80.28769266      92.40657255      96.22133369
N      83.08826706      95.08242501      94.25979777
H      84.88161734      95.73438058      94.29570257
C      81.53491202      95.60587918      91.96378031
H      79.54880968      95.32053052      92.42676325
C      81.80325317      98.48771182      91.26647130
H      80.52579818      98.75983240      89.67532173
H      83.78746580      98.83353174      90.82616506
C      81.00956811     100.23192921      93.34328052
H      82.50245191     100.14689153      94.76057524
H      79.17275414      99.56674555      94.00090527
C      80.43698104     102.84353097      92.19621664
H      78.71355064     102.88888440      91.06993975
H      82.00545388     103.38399270      90.97356371
C      80.36139198     104.83719222      94.30515121
H      82.06970458     104.75404428      95.45032536
H      78.75323490     104.48759287      95.54481166
N      80.04391797     107.46958098      93.38296476
H      81.19665102     107.60753100      91.86929398
H      80.69587354     108.67900582      94.70766292
H      78.26757523     107.91366666      92.84628249
C      82.03946896      93.86355152      89.79815394
O      84.14273434      93.56686450      88.93265929
N      80.00045427      92.75617191      88.66998734
H      78.21844235      92.76562054      89.35784772
C      80.12139674      91.20848606      86.41365412
H      81.77490728      89.99717150      86.62341374
C      77.71577516      89.74772762      86.37396988
H      76.08494135      91.00439561      86.28137329
H      77.71577516      88.64790691      88.11629754
C      77.56270731      87.75028690      84.24235859
O      79.28802744      86.12512227      84.12897501
O      76.03391874      88.21326985      82.62664259
C      80.79224958      92.65601642      83.90598730
O      80.60327695      94.94258526      83.84551606
N      81.21932773      91.31431073      81.89720823
H      81.31381405      89.42080497      82.12019593
C      80.98122222      92.29129923      79.24592221
H      82.66496837      93.38923023      78.80561599
C      80.49745228      90.01795849      77.52249183
H      78.49245267      89.54552691      77.56784525
C      81.04736265      90.75306202      74.82207291
H      80.10060975      92.48594105      74.23625777
H      80.53902627      89.13167685      73.65989124
H      83.03724444      91.21793469      74.56318042
O      81.93364428      87.92981091      78.06295354
H      83.62683906      88.54775141      77.86831174
C      78.60772597      93.85788236      78.98136053
O      78.95732533      95.98193473      78.07618163
N      76.52713730      92.96782126      79.88087026
H      76.56115238      91.15935318      80.48369295
C      74.09883899      94.19992282      79.63331611
H      74.12529516      94.77817907      77.65666239
C      72.01258114      92.16279785      79.98102576
H      71.81982905      91.73005052      81.98602537
H      72.56438123      90.41858046      79.03616259
C      69.43310473      92.77695890      78.75270366
H      68.87563545      94.74227426      79.02482423
H      67.89675723      91.64879229      79.53505035
C      69.59373145      92.52373558      75.89732720
O      70.85417890      94.07331115      74.78427840
O      67.99124355      91.23116278      74.84663937
C      73.82671840      96.47326356      81.26792937
O      71.80093179      97.60331991      81.31706225
N      75.73156253      97.16112395      82.71923918
H      77.21688740      95.96303747      82.69656246
C      75.84116665      99.52517156      84.24802777
H      75.12118093     101.07285742      83.09340500
H      77.86128408      99.68579830      84.61274495
C      74.61095481      99.34564757      86.81994529
O      74.96433364     101.03128344      88.39786675
N      73.27680804      97.20647737      87.30938439
H      73.02547445      95.94414020      85.89775884
C      71.78014481      96.73404580      89.70744708
H      71.05448990      98.49338099      90.50113214
C      69.41420745      95.10321200      89.08572713
H      68.39186553      94.69881055      90.82616506
H      70.21545142      93.27206720      88.58494966
C      67.62841610      95.66635043      86.92199050
C      66.57772826      93.75772686      85.44233479
H      66.83473104      91.81886765      86.02437050
C      65.14153626      94.34543174      83.20678856
H      64.36107929      92.75239246      82.20145417
C      64.51981631      96.96081295      82.70034191
O      62.76426057      97.58064319      80.99580878
H      62.64520780      99.33619893      80.56117174
C      65.58562194      98.84675982      84.23290995
H      65.22090477     100.78183957      83.69433795
C      67.31283179      98.24204740      86.08862120
H      68.37863744      99.72548256      87.00135900
C      73.40341971      95.55296685      91.86551454
O      75.09094531      93.93347141      91.39875213
N      72.47367435      95.87988950      94.18798818
H      71.29448514      97.34442739      94.51302110
C      73.80404169      94.75172290      96.47455702
H      75.83738720      95.05596884      96.38385016
C      72.97823129      96.15012036      98.87639916
H      73.49223684      95.02573322     100.52424050
H      70.92976796      96.35232108      98.94820875
C      74.33505478      98.59920566      99.18820399
C      72.97634156     100.91034096      98.85372245
H      70.99023920     100.73648612      98.42475457
C      74.07994172     103.23092486      99.27891087
H      73.06515869     104.99970870      99.32048484
C      76.75012501     103.43879476      99.74567326
O      77.64774501     105.72725332     100.41652611
H      76.70855103     107.11053298      99.71354791
C      78.23167043     101.25238142      99.76646025
H      80.27068512     101.24293278      99.84015958
C      77.01090724      98.86754681      99.54725199
H      78.31292867      97.29718425      99.54725199
C      73.15586556      91.95492796      96.74667761
O      71.08094607      91.00250590      96.70510362
N      75.25724121      90.62645036      97.15863794
H      76.84461133      91.68469710      97.22099891
C      75.68620909      87.86744993      97.04714408
H      73.94388143      86.76762923      97.05092353
C      76.81248598      87.34966493      94.43743204
H      78.75701435      87.98461296      94.17287036
C      76.69721266      84.49617819      93.57760658
H      74.74512538      83.84989179      93.67587235
H      77.62317857      83.18470813      94.87017937
H      77.31326345      84.47728094      91.61418093
O      75.10606311      88.33988152      92.63463314
H      75.33849944      90.12567289      92.41542490
C      77.29436619      86.84888746      99.21088072
O      78.68520475      88.35877877     100.40518774
N      77.17720316      84.35255900      99.90441028
H      75.89785844      83.10722936      99.22977798
C      78.82126505      83.17336977     101.79035713
H      80.60327695      84.19193226     101.59760504
C      77.64396555      83.52107942     104.55124727
H      77.23578466      85.50529205     104.93108227
C      75.31960218      81.79764902     104.75344800
H      73.84939512      82.37968473     103.43252929
H      74.52024796      82.24173470     106.59593114
H      75.84494611      79.83800283     104.39062053
C      79.16519523      82.58944435     106.78679351
H      79.45054391      80.55042966     106.78112432
H      78.46221705      83.23384101     108.61226912
C      81.73522302      83.94059866     106.81324967
H      81.37806475      85.96449555     106.95686887
H      82.65174029      83.32832734     105.07092201
H      82.91252252      83.31509926     108.38361224
C      79.55636859      80.47862005     101.05147415
O      78.28836223      79.23895960      99.45276569
N      81.70876685      79.62257404     102.02846265
H      82.75756496      80.84522696     103.05080458
C      82.74622659      77.09034078     101.54469271
H      81.45176407      75.62391315     102.18908939
H      84.56036386      76.80121264     102.47632778
C      83.14306912      76.59523248      98.74789777
O      84.66618854      77.91426144      97.50067841
N      81.98466690      74.69038836      97.68020241
H      80.97933249      73.56600120      98.84616354
C      81.54625038      74.10835266      95.03080612
H      82.87472799      74.96628839      93.71366688
C      82.01679223      71.21896112      94.81726704
H      80.58248996      70.09835341      95.77913774
C      81.81648125      70.52543156      91.96944948
H      83.28290886      71.48541253      90.88663630
H      79.90596795      71.13770289      91.49323845
H      81.93364428      68.46940933      91.91464742
C      84.70965224      70.30055413      95.88496240
H      84.58682002      70.45362196      97.93720518
H      86.20820520      71.47218445      95.09505680
C      85.44853523      67.62281194      95.39552328
H      84.12005763      66.29433435      96.23834122
H      87.21731906      67.62659140      96.45565975
H      85.99466612      67.22596943      93.44910518
C      78.96110479      74.94172195      94.44310122
O      77.11295245      73.63970052      95.18387395
N      78.74945544      76.99774419      92.98423252
H      80.36895089      77.96717378      92.70266329
C      76.46477633      77.35490246      91.45544392
H      76.33060577      75.79398853      90.11751770
H      76.79736816      78.98006709      90.23279100
C      73.97600678      78.06543956      92.89163593
O      72.19966405      78.94983147      91.65386519
N      73.83805675      77.74985525      95.29158834
H      75.44243440      77.26797505      96.20621587
C      71.47589887      78.07866764      96.63140429
H      70.02647878      77.13380449      95.51457604
C      71.69888658      76.72751333      99.07671014
H      72.82516345      77.92559980     100.31826034
H      72.75524357      74.98329594      98.78569230
C      69.20444783      76.22106668     100.20865620
N      67.67565925      74.14047801     100.15385414
H      68.08950932      72.39815033      99.49811911
C      65.39853905      74.66771164     101.16485773
H      63.82628675      73.38836693     101.39540433
N      65.58184250      77.09412023     102.04547018
H      64.11352515      77.97662242     102.88450866
C      67.85896270      78.01063749     101.45020639
H      68.44288814      79.94571724     101.72232698
C      70.96000358      80.97561807      97.02446738
O      72.59272712      82.35133884      97.99200724
N      68.77170052      81.93559905      96.12495764
H      67.43377428      80.65436461      95.66953360
C      68.03470725      84.54909054      96.16842135
H      69.72790203      85.59221945      95.63173907
C      65.89364733      84.87034400      94.32782792
H      64.27037243      83.86500961      95.10261571
H      66.50969811      83.77052330      92.69888384
C      65.37397261      87.66524922      93.69476961
H      64.76359100      88.62523018      95.41253083
C      67.49991471      89.00317545      92.18109884
H      69.24980127      88.76884939      93.24123529
H      67.07094684      90.99683672      91.88252207
H      67.66621061      88.26240273      90.26491635
C      63.01181470      87.52918892      92.14141457
H      61.51326175      86.40291204      92.99179141
H      63.31984010      86.68070181      90.28948279
H      62.25403446      89.41891524      91.82205083
C      67.31661125      85.41458518      98.85561216
O      66.46434469      83.74406713     100.33904732
N      67.45456128      87.71816155      99.47922186
H      68.49391074      88.62711992      98.16208262
C      66.46812414      88.87467406     101.76579068
H      65.26247875      87.56320401     102.80136070
C      68.87752518      89.60410842     103.25489502
H      68.15376000      90.65857571     104.87061103
H      70.20033360      90.75306202     102.16830239
C      70.49513090      87.38368001     104.29991367
H      71.18488102      86.35944835     102.65396205
C      72.87618606      88.23594657     105.81358445
H      72.29981953      89.90646463     106.87372091
H      74.44654863      88.80664391     104.60604933
H      73.32216148      86.68826072     107.09481890
C      69.00791630      85.66213934     106.08570504
H      68.53359500      86.72227580     107.78456900
H      70.33639390      84.11445349     106.37483316
H      67.27881672      84.99317622     105.18619532
C      64.84673896      91.19714770     101.36516871
O      63.00047636      91.48627583     102.75411755
N      65.38909041      92.76373082      99.48489104
H      67.03504204      92.27618143      98.65152172
C      63.77715387      94.83298113      98.41152648
H      61.91199400      93.95614811      98.34727578
C      63.57495316      97.05718900     100.27857608