 %block lattice_cart
   139.898   0.000   0.000
   0.000 144.87   0.000
   0.000   0.000   168.12
 %endblock lattice_cart

 %block positions_abs
N      88.86327067      42.47433417      86.24641335
H      88.24533016      42.48945198      88.05299170
H      90.62449559      41.74489981      86.17271402
H      87.68975063      41.43876415      85.15415154
C      88.71209256      45.05192086      85.31477827
H      89.89695096      46.35772174      86.37869419
C      89.57191803      45.16530444      82.49530662
H      88.43430279      44.00690221      81.22730026
H      91.55046148      44.59838655      82.41593811
C      89.51900570      47.82981854      81.58067908
H      87.56880814      48.49122275      81.65248868
H      90.23899142      48.15485147      79.67961441
S      91.49376969      50.13528464      83.38536771
C      91.70163959      52.88483643      81.25375643
H      92.08525403      52.05524658      79.40938355
H      93.21908982      54.14717361      81.83957159
H      89.88750233      53.85804548      81.31611740
C      86.03246065      45.97977648      85.53398653
O      84.51501042      44.37161939      84.91793575
N      85.25200368      48.35327273      86.26153116
H      86.58992991      49.70064759      86.46940105
C      82.64229164      48.98066187      86.82844905
H      81.44231544      47.93564322      85.52075844
C      82.07915320      47.67675071      89.40414602
H      83.38495409      46.12906486      89.77264265
H      80.25367758      46.72621837      89.32477751
C      82.06025594      49.50222633      91.56599292
O      80.33682554      51.00644847      91.97228408
N      83.80447333      49.20931875      93.20249591
H      83.59660343      50.10504902      94.87490369
H      85.27657012      48.18319736      92.54865060
C      81.95632099      51.77745681      86.70372711
O      83.67408221      53.36860637      86.75663945
N      79.49589733      52.41429458      86.59412299
H      78.35639237      50.91385188      86.90403810
C      78.44143005      55.04479360      86.49774695
H      78.83071367      55.66273411      84.57211583
C      75.52558235      54.71220177      86.83789768
H      74.94732610      53.25522279      85.49808173
C      74.55615275      53.96198043      89.39280766
H      75.03803296      55.52856354      90.64002702
H      75.21188778      52.19508632      90.22239751
H      72.57571958      53.39506253      89.36257204
C      74.10450816      57.04979322      86.23129554
H      74.75646374      58.59747907      87.42560257
H      72.05604484      56.94774800      86.42026817
C      74.38229793      57.86048581      83.39859579
H      72.90264223      59.21352985      82.92616422
H      74.32371641      56.24099036      82.12492026
H      76.20399410      58.75054690      83.03954779
C      79.73022340      57.07246994      87.96606429
O      80.13462483      59.17384560      86.99096551
N      80.40485569      56.53389794      90.36034753
H      80.09305085      54.74432712      90.93860378
C      81.71065657      58.19118792      91.91181283
H      80.84516192      60.05634779      91.78898062
C      81.81837097      57.13672063      94.61601119
H      82.79535948      55.33014228      94.45160500
H      79.90407822      56.89105621      95.33410719
C      83.41518971      58.75810581      96.35644912
C      86.02112229      58.14205503      96.73061493
H      87.08314848      56.55090548      96.01440866
C      87.29857728      59.61982101      98.50317821
H      89.13917071      59.05479284      99.18158996
C      86.17419012      61.77599873      99.54063796
H      87.10960465      63.00243111     100.87856419
C      83.74400209      62.48842555      98.78663716
H      82.83693345      63.97186071      99.85811198
C      82.28135392      60.89160682      97.35422462
H      80.41241460      61.39427402      96.70415876
C      84.45642891      58.58614072      90.99529557
O      85.17263518      60.71775200      90.44160576
N      85.99277640      56.60759727      90.68160100
H      85.26145231      54.89361550      91.09167161
C      88.70831311      56.60948699      89.75752484
H      89.86293589      57.82080156      90.95939077
C      89.73821395      53.89395028      89.74429675
H      91.49565942      53.92985508      88.67282193
H      88.41351580      52.87349807      88.53865136
C      89.93474549      52.42185348      92.28219919
H      88.20942536      52.83192409      93.33099729
H      91.51455668      52.86782889      93.52563910
C      90.40717706      49.73088321      91.50552168
O      92.65784110      48.92019062      91.41292509
O      88.43619252      48.54791454      90.81577157
C      88.71398229      57.82647074      87.11190800
O      90.36371336      59.28344972      86.51853394
N      86.77890254      57.42962821      85.59634750
H      85.28412903      56.60381781      86.44861406
C      86.51245113      58.57669208      83.08490123
H      88.24155071      58.28189478      82.00586750
C      84.30147135      57.00632952      82.07200792
H      82.82181564      57.11782337      83.50064101
H      84.76445429      55.01455798      81.84902022
C      83.38684381      57.85859608      79.43961917
H      84.72099059      57.23876585      78.00153744
H      83.45865341      59.90516968      79.21852119
S      80.12706592      56.67373769      78.76309715
C      79.90596794      57.15939735      75.42395075
H      78.14663275      56.37894038      74.68884722
H      81.48199969      56.30713078      74.40727800
H      80.12328647      59.12282299      74.83624587
C      85.93797433      61.43584800      83.15860055
O      87.41951976      62.93440096      82.26287028
N      83.87061375      62.14638509      84.32078223
H      82.55914369      60.99176231      85.08801112
C      83.25078352      64.74286904      84.75352956
H      83.22999653      65.56112054      82.86380325
C      80.80736739      65.12270403      86.06688935
H      80.58060024      67.14660091      86.36924556
H      80.89051535      64.30634226      87.95661566
C      78.31292866      64.26476829      84.78376518
H      78.75701435      62.38449060      84.06944863
C      76.12651532      64.40082858      86.78687507
H      74.29914997      63.76021136      86.08389688
H      75.79959267      66.30189325      87.51064025
H      76.63296197      63.00432084      88.21172871
C      77.69309843      65.84835894      82.46129154
H      76.05281599      65.05845334      81.49942085
H      79.40519047      65.62537123      81.33879411
H      77.68742925      67.86847636      82.86758270
C      85.27468040      66.23764256      86.12358114
O      85.41829960      68.43350453      85.43950021
N      86.95653682      65.21152117      87.72606905
H      86.87716831      63.30289759      87.74118686
C      89.09948646      66.61180837      88.93927334
H      88.57036309      68.20673737      90.12980092
C      90.55646544      64.79011220      90.72695444
H      91.97942936      63.76399081      89.64414126
H      89.26767210      63.55045174      91.74362719
C      92.08714376      66.11292062      92.93415477
H      90.85882165      67.43194959      93.93193026
H      93.73309538      67.08612967      92.16692589
C      93.28711997      64.21563540      94.84277835
H      91.63171972      63.65627641      95.93692988
H      94.69685580      65.23041843      95.94637851
N      94.34725643      62.04245014      93.57099254
H      95.00299146      62.26354812      91.79087035
C      94.76866540      59.71430732      94.43081801
N      94.48898590      59.34581069      96.85155742
H      94.14883516      57.60348303      97.55831506
H      94.66662017      60.80467941      98.06854116
N      95.38660590      57.89828034      92.91336778
H      96.33524851      56.41673491      93.65225077
H      95.23164834      58.18362901      91.03120037
C      90.97409496      67.52265645      87.07222375
O      92.46697875      69.13459299      87.66748753
N      90.81913740      66.76487620      84.68738914
H      90.25410923      64.95451839      84.49085760
C      92.44052258      67.65115784      82.44239428
H      93.34381176      69.43694920      82.92994367
C      94.68362771      65.61781233      81.85468940
H      95.55857099      66.49275561      80.20684805
C      96.54122868      65.52899519      84.01842602
H      97.98120013      64.13626690      83.53843554
H      95.63604977      64.76743549      85.70406190
H      97.34625209      67.39604479      84.34156922
C      93.71230839      62.92117288      81.14793175
H      92.50666300      63.08179961      79.48497260
H      92.42351504      62.19173852      82.57845457
C      95.67195457      61.06924109      80.54510906
H      97.16672809      61.99331726      79.46985479
H      95.13905175      59.41762029      79.43772944
H      96.31068207      60.22264370      82.31011344
C      90.93252098      68.28799561      80.06889803
O      91.93029647      69.11380601      78.12814911
N      88.35682402      68.42972508      80.25031176
H      87.65762528      67.71540853      81.87736611
C      86.54268675      69.39348550      78.35869572
H      87.61794103      69.77521021      76.64282422
C      84.50178234      67.36013999      77.95618401
H      83.06748007      67.87792500      79.34324313
H      85.45042495      65.57056917      78.32090119
C      83.12795131      67.76454142      75.43528911
O      80.81870575      68.00075721      75.37292814
O      84.44131109      67.51131809      73.50776827
C      85.17641463      71.81611463      79.23930818
O      84.62272482      73.28254225      77.53099559
N      84.71154196      72.05233042      81.73563664
H      85.01767762      70.41960689      82.68049979
C      83.43030752      74.18583143      82.94317175
H      82.99378074      75.73918646      81.66382704
C      80.92453043      73.32600596      83.96740341
H      81.36672638      71.74997421      85.21651251
H      79.89085013      72.80633122      82.26287028
C      79.46755144      75.18738638      85.45083857
H      80.62406394      75.69572275      87.07789292
H      77.90663750      74.03654305      86.14058867
C      78.15230192      77.36813054      83.89370409
O      75.87329199      77.14325311      83.32489647
O      79.39196239      79.13691437      83.11891630
C      85.09704613      75.39903572      85.08612139
O      85.22554751      77.67237648      85.40548514
N      86.39150865      73.76253274      86.49396749
H      86.33481686      71.90493177      86.05555099
C      87.75211159      74.49574654      88.71250619
H      88.23399180      76.49129753      88.55754863
H      89.35837896      73.24474773      89.01864185
C      86.17796958      74.42582667      91.12190723
O      83.87628293      74.74330069      91.13891477
N      87.51778553      74.21039787      93.26296715
H      89.37916595      74.04788141      92.87557325
C      86.64095252      74.01008688      95.87834836
H      84.58682002      74.00441770      96.04464428
C      87.75778077      71.53265569      96.80242453
H      89.69663997      71.46651526      96.11834361
H      87.09259711      69.94150613      95.67614765
C      87.75022187      71.01487068      99.62945510
H      88.86138094      72.44161404     100.61589223
C      85.16885573      70.56322609     100.82754158
H      84.22210284      72.38303253     101.04108065
H      85.29357766      69.62781156     102.65868638
H      83.95187198      69.28010192      99.77118457
C      89.06169193      68.52610112      99.88078870
H      88.88216793      67.89493253     101.83287598
H      91.08936826      68.80578062      99.64646263
H      88.22643290      67.21463106      98.52774466
C      87.71998625      76.37224477      97.31454036
O      89.99332700      76.48751808      97.99862129
N      85.98521749      78.17126422      97.73972878
H      84.11249872      77.94827652      97.44304175
C      86.45386962      80.52208376      99.25150983
H      88.36627265      80.24240426      99.96960583
C      86.08726271      82.87290329      97.57910205
H      85.97198941      84.50373710      98.83577004
H      84.41674465      82.77652725      96.37912584
C      88.44375143      83.22439238      95.82165658
H      88.92563164      81.45182910      94.88813178
H      90.05757770      83.58910956      97.04619923
C      88.27934524      85.35033449      94.12657207
H      90.09537222      85.56009411      93.17603974
H      87.87872326      87.12100804      95.10167085
N      86.47276688      85.07821390      91.95716627
H      85.81136267      83.32454788      91.59622854
C      86.59559909      86.62401002      89.97673309
N      87.28912865      88.96160147      90.21294888
H      87.82014174      89.94614888      88.66715275
H      87.70108898      89.64190294      91.94582791
N      85.81136267      86.11189419      87.75063549
H      85.71687636      87.31376013      86.26909006
H      85.30113657      84.31098501      87.37646968
C      85.04602351      80.67893104     101.61933690
O      82.81425674      80.12335150     101.66280061
N      86.36127303      81.71639079     103.53740911
H      88.16407193      82.20771963     103.14434604
C      85.63750785      81.80142847     106.26239445
H      83.95376171      80.65436460     106.57419930
C      87.72943488      80.97939752     108.01417075
H      86.92252174      80.98317698     109.90956624
H      89.44530637      82.06410043     107.65701247
C      88.47965623      78.25819163     107.45292203
H      89.41318102      78.22984574     105.61610806
C      90.49599420      77.39269698     109.37288397
H      92.00777525      78.64558553     109.99082447
H      91.43896763      75.81288578     108.44313862
H      89.36404814      77.22829079     111.08497601
C      86.38394974      76.15870570     107.58520287
H      84.76823375      76.64247564     108.77006127
H      87.22865741      74.28787665     107.76472687
H      85.92096680      75.93949745     105.58965189
C      84.55847413      84.39791242     107.08820485
O      83.32259312      84.55098026     109.07052776
N      84.85138170      86.38590451     105.57075462
H      85.83025993      86.07220994     103.96448726
C      83.90462882      88.90490968     105.79752178
H      82.93897868      88.72349596     107.60598986
C      86.03624010      90.80219490     105.82586768
H      87.39873277      90.58298665     104.29707909
H      87.03968477      90.15779823     107.50394464
C      85.16129682      93.51584188     106.37199858
H      84.01234322      93.37600214     108.07653171
H      84.22777202      94.32653447     104.72415724
C      87.51967526      94.84242976     107.13355828
H      89.06169193      94.42291052     105.83720603
H      87.91084861      94.22259953     109.05918940
C      87.21164987      97.79229253     107.34520763
H      86.51812031      98.25716520     109.22926477
H      85.44853522      98.26094466     106.38711639
N      89.56246940      99.20202836     107.07497677
H      89.42829883     101.09742385     106.88222469
H      90.87016001      98.39133577     105.94681016
H      90.36560309      99.03951190     108.80029689
C      81.83915796      89.41513579     103.78685298
O      82.14340390      88.26807191     101.83665543
N      79.91919603      91.03463124     104.39912431
H      79.85683506      91.77351422     106.15656978
C      77.81404091      91.45226075     102.71348844
H      76.80492706      89.71182282     102.27507193
C      76.06604408      93.55174668     103.67913858
H      76.94854626      95.37911203     104.04007631
C      74.05726500      94.37377763     101.74405884
H      72.82894290      95.81752853     102.54908225
H      73.12751966      92.71837738     100.95037379
H      74.88874458      95.11266062     100.00929008
C      74.96433363      92.44814652     106.02995812
H      76.48367359      92.26295334     107.40567887
H      74.19143557      90.55653048     105.75216835
C      72.85350934      93.95236866     107.38111243
H      72.17509760      92.83554041     108.97415171
H      71.29448514      94.22637898     106.06586292
H      73.79270332      95.61532782     108.15401049
C      78.91008218      92.48405132     100.24739560
O      80.38217897      94.30196803     100.33999219
N      78.14285329      91.50895254      98.06665144
H      76.90508256      90.05764273      97.97594457
C      79.18598222      92.28563006      95.53630790
H      80.31603855      93.98827346      95.79897986
C      81.06059072      90.29385852      94.54798104
H      82.48733409      89.92914134      95.98795249
H      82.09427101      91.03841069      92.92848559
C      80.11194811      87.76729444      93.73161927
C      79.90029876      87.28163478      91.21261410
H      80.47288584      88.67247334      89.83122416
C      79.05559110      85.00829402      90.24696395
H      78.65307940      84.54909053      88.30054585
C      78.39607662      83.04108893      91.96094572
O      77.73845186      80.79987352      91.00663393
H      77.10539355      80.91703656      89.30965970
C      78.88740546      83.35667323      94.50829679
H      78.55292390      81.84300245      95.83299493
C      79.63006790      85.75473592      95.35111472
H      79.89085013      86.12512227      97.34099653
C      76.92964900      92.86766576      93.74862681
O      74.70922058      92.21382046      94.32121388
N      77.34160934      93.74260904      91.41292509
H      79.13306988      94.10543649      90.86301473
C      75.49345700      93.91835359      89.30210080
H      73.51491355      93.95803784      89.87279814
C      75.74101115      96.39956424      88.01519718
H      74.18387667      96.41846150      86.66593259
H      77.59105321      96.56397043      87.12702581
C      75.08149667      98.54629333      89.69327414
H      76.77091199      98.72581733      90.85923528
H      73.39397107      98.00205215      90.74018252
C      74.53725549     101.03128343      88.22684652
H      73.62073823     100.50027034      86.46184215
H      76.25123725     102.04039728      87.69772316
C      72.80437646     102.66589669      89.93326938
H      73.82482867     103.33297008      91.59244909
H      71.29637486     101.38088280      90.49640783
N      71.65164341     104.85797922      88.50652602
H      70.42521103     105.78016566      89.64036181
H      70.85984808     104.41956271      86.82466960
H      73.04437170     106.07307323      88.03031499
C      75.97155776      91.84154437      87.46906627
O      78.19576563      91.08754357      87.11946690
N      74.09505953      91.27084702      85.98185166
H      72.45099764      92.10232660      86.47884968
C      74.14608214      89.37734126      84.04866165
H      75.58227414      87.95626707      84.44739390
C      71.42298652      88.29452808      84.01842602
H      70.05104522      89.71371254      83.43072114
H      71.21700636      87.48761495      85.90248316
C      71.37196391      86.03630514      82.38192304
O      72.23934829      84.03508497      83.22096152
O      70.77670013      86.37834560      80.16149462
C      74.79047881      90.76062092      81.42950098
O      74.74512538      93.06797675      81.33312493
N      75.31393300      89.33576728      79.48686233
H      75.50668509      87.47438686      79.87047677
C      75.29503574      90.37889621      76.92628317
H      76.67831540      91.90390534      76.90171673
C      76.32682631      88.39468358      74.98553425
H      74.94921582      87.12856695      74.12570878
C      77.58916348      89.77607351      72.82368735
H      76.28525233      91.26517785      72.25865918
H      77.84805599      88.55531031      71.18529463
H      79.35605759      90.76817983      73.18462507
O      78.24489851      86.86400526      76.02677345
H      77.33405043      85.34655503      76.42172625
C      72.87240661      91.67524846      76.31401185
O      72.79303810      93.77851384      75.38993568
N      70.72567751      90.62267090      77.36092022
H      71.02047482      89.09955149      78.47207930
C      68.19344426      91.92847178      77.47808325
H      67.80227091      92.45192597      75.52599597
C      65.98813365      90.09354753      78.30578338
H      65.88041925      90.18803385      80.36180561
H      66.35474055      88.13768080      77.78232919
C      63.27826612      90.72471612      77.39682502
H      62.53938313      92.31964513      78.47018957
H      62.10096662      89.15435355      78.02421416
C      62.96268182      91.29919292      74.62270680
O      62.04427483      93.36277405      74.06523753
O      63.62597576      89.63812349      73.01643943
C      67.88919832      94.42668997      79.20718283
O      66.03915626      95.74004976      78.93695197
N      69.76569655      95.08431472      80.71518443
H      71.40219953      94.15267965      80.40715904
C      69.93199246      97.30474314      82.50097579
H      69.60695954      99.15856466      81.66382704
H      71.79526261      97.30663287      83.38158826
C      68.06683259      97.13844723      84.76108847
O      67.60007019      99.08675506      85.92515987
N      67.18999958      94.97093115      85.60390640
H      67.42810510      93.30797199      84.70061722
C      65.59318085      94.66668521      87.98118210
H      65.10752119      96.56963961      88.60668151
C      63.44645176      92.80341506      87.64103137
H      62.58662628      92.61633216      89.50619124
H      64.21934982      90.90990930      87.39536695
C      61.31484048      93.49316517      85.78720985
C      60.43422801      91.79997039      83.98819040
H      61.03327126      89.84977284      84.06377946
C      58.66544419      92.67113422      82.22318603
H      57.93789955      91.46926829      80.74353032
C      57.73191939      95.12021952      82.18161205
O      55.89699514      95.67957851      80.44495357
H      55.79872937      97.45214179      80.06889803
C      58.83174010      96.73593552      83.96929314
H      58.22891741      98.67290499      84.16960413
C      60.50603761      95.94036074      85.73996670
H      60.94445412      97.14789586      87.32544707
C      67.47723798      93.95992757      90.01641734
O      69.40286910      92.71459793      89.53453713
N      66.93488653      94.39834407      92.51085607
H      65.22279449      95.18824967      92.80754311
C      68.49769019      93.68780698      94.71616668
H      70.50268981      93.64623300      94.25129401
C      68.22745933      95.61910727      96.87423413
H      69.10429234      94.75361262      98.52585493
H      66.21112135      95.92902239      97.14446499
C      69.43877390      98.24771657      96.56431902
C      67.86085242     100.50782924      96.62479026
H      65.82939664     100.31507716      96.72683548
C      69.10618206     102.89644330      96.59266491
H      67.92699285     104.56129218      96.57943683
C      71.79715233     103.04762141      96.59077518
O      72.93287785     105.37576423      96.58321628
H      71.88974892     106.85919938      96.63612862
C      73.28625667     100.87254642      96.54542175
H      75.27046930     101.02372453      96.09566689
C      72.12596471      98.52361661      96.53408340
H      73.27869776      96.83987047      96.52274504
C      67.99880245      90.90235039      95.38324007
O      65.90687542      90.18803385      95.81031822
N      70.09072947      89.53796800      95.58733051
H      71.62140779      90.61511199      95.22450306
C      70.54237406      86.80353402      95.73472916
H      68.79437722      85.80575853      96.17314567
C      71.26802897      86.13457091      93.14769384
H      73.07082787      86.91880733      92.53353279
C      71.51747284      83.31131979      92.85100681
H      72.20155377      82.81810123      90.97072913
H      69.68821777      82.37212582      92.97572875
H      72.81949427      82.39102308      94.15491797
O      69.39908964      86.75251141      91.45071961
H      69.62585680      88.49105962      90.98017776
C      72.69477233      86.26874147      97.63579384
O      74.15742050      87.96760543      98.22916790
N      72.82705317      84.02185689      98.61089261
H      71.37007419      82.85967521      98.20271173
C      74.87551650      82.89558001     100.27007232
H      76.66508732      83.86123015      99.93559076
C      73.96844787      83.03919921     103.09899261
H      73.53003136      85.03097074     103.38812073
C      71.38708172      81.68048599     103.63000570
H      71.32850021      79.73028843     102.96671176
H      70.10017811      82.63857723     102.33932263
H      70.79559739      81.76741340     105.60287997
C      75.92998378      82.26630114     105.13800730
H      76.11139751      80.21783782     105.13422785
H      75.10984256      82.61023133     106.99560826
C      78.52457801      83.39824721     105.00950591
H      79.40708020      83.59288902     103.15757412
H      79.84360698      82.50440666     106.31530679
H      78.16741974      85.32954750     105.63500532
C      75.44621384      80.09500561      99.45182082
O      73.79837250      78.86857323      98.26885215
N      77.50790525      78.90825749     100.23038806
H      78.82126504      79.96461449     101.12233888
C      78.12017658      76.18327214     100.00173118
H      76.54036538      74.88691989     100.25306478
H      79.70754668      75.72028920     101.22816356
C      79.15952605      75.44627888      97.41847531
O      80.59004887      76.84089690      96.10889497
N      78.25812660      73.29010116      96.64368752
H      77.04681203      72.35468663      97.78508221
C      77.90285805      72.91026617      93.97161451
H      79.12929043      74.11024238      92.83210955
C      78.51512938      70.20795754      93.31021031
H      77.28869700      68.88892857      94.30987552
C      78.52079856      69.61269375      90.48695919
H      79.18409249      67.73052634      89.96728446
H      79.62061927      70.87881038      89.28887271
H      76.64430033      69.95284449      89.70839195
C      81.28357843      69.57111977      94.17381523
H      81.64073670      70.06622807      96.14102032
H      82.45898819      70.94306108      93.18170892
C      82.35316352      66.88581868      93.66736858
H      84.05391720      66.64393371      94.80498382
H      82.78024167      66.76298647      91.65481006
H      80.86216946      65.50442875      93.99807068
C      75.24968231      73.63214162      93.41225553
O      73.54136972      72.21295716      94.01129877
N      74.99078980      75.75430427      92.15369780
H      76.38351810      77.05821542      92.17448479
C      72.56816067      76.61035029      90.96128050
H      71.82927768      75.36124120      89.50241178
H      73.09539431      78.36212658      90.01263789
C      70.19655415      76.92404486      92.59022458
O      68.15376000      77.04687707      91.46961688
N      70.25324594      76.95239075      95.11489893
H      71.93888181      77.12624557      95.99173194
C      67.93266202      77.16026065      96.67014369
H      66.59284607      76.06232966      95.55898462
C      68.42210114      76.00185842      99.31009135
H      69.90742602      76.98829555     100.34188192
H      69.12129988      74.06677867      99.20048722
C      66.15631929      75.81099606     100.99572722
N      64.87319512      73.57167038     101.46059989
H      65.35885479      71.92382903     100.63101004
C      63.07984485      73.98552044     103.11033096
H      61.70601382      72.56822571     103.63000570
N      63.07984485      76.45350300     103.77929408
H      61.91199399      77.33411547     105.00194700
C      65.18877942      77.57033126     102.65868638
H      65.77837403      79.51485963     102.85332819
C      66.80449542      79.89280489      96.61534163
O      67.61329828      81.53497706      98.07043089
N      64.79760607      80.30665496      95.09033249
H      64.00959020      78.77030746      94.27586045
C      63.51637163      82.78219643      94.94293384
H      64.65587660      84.19760144      93.97539397
C      61.12208839      82.80676287      93.19115755
H      59.60841762      81.65025037      93.97161451
H      61.99703168      81.88457643      91.56788264
C      59.71613202      85.33710640      92.35589852
H      58.96969012      86.02874623      94.15113851
C      61.23169252      87.52351975      91.12757641
H      61.98758304      87.09644160      89.26052682
H      62.67355370      88.12445271      92.46928210
H      60.00526014      89.15057410      90.82522020
C      57.58452073      84.58310560      90.53609208
H      56.40344179      83.18470813      91.47906551
H      58.27616056      83.41525474      88.98651650
H      56.36186781      86.14779899      89.98618172
C      62.63386944      83.80453836      97.56398424
O      61.19956717      82.42314843      98.92269745
N      63.45023121      86.10811474      98.28585969
H      64.39509437      87.09077242      96.94793346
C      62.59418519      87.47438686     100.56109017
H      62.01025976      86.14212981     102.01806916
C      64.74847319      88.97860901     101.79319172
H      63.72991070      90.24094618     103.06119808
H      65.63097537      90.02551738     100.25306478
C      66.56638990      87.32887794     103.01962410
H      67.49802497      86.14024009     101.61933690
C      68.61296350      88.85388707     104.38022705
H      70.19466442      87.67847730     104.97738056
H      67.74368939      89.31687002     106.18869513
H      69.19688893      90.33354277     103.06875699
C      65.54404796      85.32576804     105.01895454
H      67.10307217      84.56609807     106.13200334
H      64.39509437      83.73272876     104.39912431
H      64.24769571      86.36322779     106.23782801
C      60.29816772      89.21293507     100.10377640
O      58.20057151      88.77640829     101.06753682
N      60.78571711      91.26517785      98.64112823
H      62.47135298      91.21793469      97.74539796
C      58.93567505      93.21537540      97.89657607
H      57.05539737      92.38011637      97.96271649
C      58.92055724      95.37722230      99.94314966