 %block lattice_cart
   139.898   0.000   0.000
   0.000 144.87   0.000
   0.000   0.000   168.12
 %endblock lattice_cart

 %block positions_abs
N      93.75955155      45.31459282      85.01620152
H      95.59069634      45.73600179      84.67983023
H      93.58380700      43.56281653      84.27920825
H      93.37971656      45.20120924      86.88514084
C      92.29690338      47.32715134      83.60646568
H      92.84870346      49.19042149      84.28676716
C      92.79579113      47.70320688      80.66605154
H      92.17596089      46.08371143      79.55111301
H      94.85370308      47.73722195      80.63581593
C      91.75077247      50.15229218      79.68150413
H      89.75522149      50.03890860      80.18039189
H      91.83769988      50.22221206      77.62359219
S      92.62193630      52.86782889      81.33501465
C      96.09147382      52.71854051      81.24997697
H      96.67350952      54.61015655      81.82067432
H      96.52989032      52.21965277      79.29977941
H      96.76421638      51.38439374      82.66916144
C      89.44152692      47.12306090      84.15826577
O      88.44564115      45.17664280      83.66504721
N      88.47209732      49.13561943      85.23540976
H      89.62105092      50.59448814      85.67004682
C      85.77923733      49.46254208      85.90248315
H      84.46776726      48.36083164      84.75541928
C      85.45798385      48.57248098      88.66337330
H      86.17985930      46.64496014      88.68038083
H      83.55313973      48.65184949      89.44383027
C      87.09826629      49.84804625      90.62112977
O      88.37383155      51.67352186      90.11468310
N      87.00566970      48.91452145      92.93793422
H      88.27556578      49.38884275      94.28341936
H      85.90206954      47.44809383      93.46327813
C      84.84004335      52.22910140      85.43761048
O      86.25733808      53.95442152      84.74597066
N      82.41552449      52.57870077      85.60768585
H      81.36294693      51.00644847      85.85712972
C      81.04736264      54.97487373      85.36202144
H      81.08893662      55.66273411      83.42127250
C      78.14474302      54.61015655      85.92704959
H      77.39452167      53.30813512      84.51920349
C      77.47577991      53.60671188      88.66715275
H      78.85716984      52.14973289      89.12446653
H      75.64085566      52.67129736      88.67849111
H      77.54003060      55.10904430      90.07310913
C      76.46666605      56.91562266      85.39981596
H      77.04870176      58.60125853      86.43160653
H      74.56560138      56.30524106      85.90248315
C      76.53091675      57.56946796      82.55010867
H      75.99612420      55.94808278      81.40115507
H      78.46788622      58.04945844      82.03988258
H      75.06826858      59.00754968      82.36113604
C      82.17174979      57.00632952      87.03253949
O      82.27946419      59.10581545      86.19917018
N      83.18275337      56.26177735      89.17548913
H      82.78024167      54.49866270      89.78398100
C      84.62083510      57.90017006      90.97072912
H      83.32070339      59.41384084      91.48095523
C      85.28601876      56.24665954      93.30454112
H      86.74866692      57.20097133      94.39491320
H      86.21765383      54.50811133      92.70549788
C      83.02590609      55.42084914      94.73506395
C      82.44387038      56.64161234      97.07076566
H      83.59849316      58.17984956      97.75295686
C      80.54847489      55.73076426      98.58632617
H      80.32737691      56.54334657     100.44581686
C      78.98945068      53.82025096      97.67358837
H      77.18287233      53.33081184      98.48617067
C      79.36550622      52.56547268      95.31332019
H      78.05592588      51.13117041      94.68404133
C      81.52168394      53.34781938      93.86956929
H      82.14907308      52.37838978      92.18582315
C      87.02834642      59.15683806      89.87468786
O      87.21920878      61.49442951      89.79909882
N      88.78390216      57.67907209      88.82400003
H      88.47776650      55.85737592      89.30965969
C      91.21409020      58.61259688      87.69205397
H      91.98131908      60.07335532      88.92226580
C      93.10570624      56.47720615      87.73551768
H      94.67417908      57.01955760      86.51286475
H      92.06635677      54.88038742      86.95506072
C      94.13371736      55.53045327      90.17893380
H      95.67384430      54.19630649      89.87657759
H      92.62193630      54.77078329      91.35056411
C      95.44329769      57.77355840      91.54331620
O      94.33969752      58.61259688      93.38768909
O      97.04200615      58.94140926      90.24129478
C      90.87582919      59.50265798      84.93494329
O      92.33847736      61.17695549      84.26598017
N      88.92374191      58.51622084      83.49497184
H      88.05068835      56.90806375      84.03921302
C      87.94108423      59.73509431      81.18383655
H      89.31869471      59.74454295      79.65315824
C      85.67908183      58.31213040      80.32212136
H      83.86683430      58.53322838      81.27265370
H      85.96632023      56.27500544      80.23708368
C      85.08759749      58.55968455      77.49887025
H      86.66551897      57.66584400      76.52377146
H      84.88728651      60.54578690      76.99620304
S      81.93553400      57.12538228      76.78455369
C      82.13962445      56.03501019      73.47564292
H      80.45587830      55.04857306      72.81045926
H      83.73833291      54.75188603      73.27155249
H      82.57237177      57.38049533      71.97708995
C      87.20409097      62.64716256      81.72807773
O      88.31147058      64.16272307      80.40148987
N      85.93041543      63.07046126      83.79921777
H      85.40885097      61.58324665      84.87636176
C      84.98933173      65.62915068      84.34912812
H      84.61327619      66.47196862      82.50664498
C      82.42686285      65.57812807      85.73807697
H      82.19442651      67.55856125      86.25208252
H      82.62339438      64.59736012      87.53709642
C      80.19320634      64.82223755      84.10724316
H      80.57871051      63.14416058      82.97907656
C      77.83482791      64.32146008      85.68327490
H      78.38473826      62.94384959      87.11001827
H      76.21155300      63.65249696      84.60424119
H      77.28113810      66.02977266      86.69049902
C      79.45999253      66.81778854      82.33279015
H      77.88585052      66.34913641      81.09123996
H      81.04925236      67.49997973      81.21218244
H      78.77969106      68.42594563      83.42694169
C      86.95464709      67.45084685      85.81933520
O      86.71843130      69.85079927      85.65681874
N      88.92752136      66.55889603      87.05521620
H      88.69508503      64.74664850      87.60134711
C      90.97598469      68.11414079      88.03976361
H      90.05757770      69.58623758      89.15092268
C      92.70886372      66.50598369      89.58367001
H      93.96175226      65.43828833      88.34211982
H      91.43329845      65.43261915      90.79498458
C      94.38505095      67.96674213      91.33922576
H      93.37404738      69.00609161      92.80187392
H      95.44896687      69.29710946      90.18271325
C      96.36737386      66.09591308      92.42203893
H      97.81868367      67.08046049      93.50296238
H      97.55979116      65.30789721      90.94049351
N      95.12015449      64.12870799      94.08877754
H      95.58880662      62.35425498      93.56343363
C      94.08458447      64.23453267      96.29030869
N      93.54223302      66.28110626      97.41091640
H      92.47075820      66.11670007      98.98127897
H      93.95608308      67.93461679      96.55487038
N      93.26255352      62.05189877      97.27674583
H      92.13816637      61.95174328      98.81498305
H      93.11137542      60.58547116      96.06354154
C      92.29690338      69.50308963      85.96673386
O      93.52144603      71.42116183      86.50152639
N      92.38572052      68.62436689      83.61402459
H      91.43329845      66.99353308      83.35135263
C      93.48743096      69.96796230      81.34824274
H      94.48520645      71.69517215      81.86602776
C      95.51321756      68.56200592      79.97063227
H      96.23698274      69.83379173      78.52310191
C      97.93017752      67.98374967      81.47674413
H      97.54278362      66.89526731      83.18127727
H      98.61992762      69.72040815      82.34412851
H      99.34180307      67.01243035      80.33345972
C      94.43985302      66.14315624      78.46263067
H      92.93185142      66.76865565      77.20785240
H      93.90883992      64.75798685      79.89315348
C      96.16706287      64.82223755      76.47274885
H      97.69018228      63.74509355      77.34769213
H      96.91917394      65.99386786      74.95340889
H      95.01432982      63.35014075      75.61103365
C      91.52967450      71.11691590      79.67205551
O      91.83392043      73.29388061      78.75931769
N      89.36782759      69.92071914      79.34891230
H      89.19397277      68.15193531      80.04055213
C      87.20031151      70.83534668      77.75965247
H      87.93163560      71.56478103      75.97953028
C      85.36160781      68.59602100      77.21541129
H      83.48133013      69.43128003      77.16060923
H      85.49577838      67.19195435      78.71396426
C      85.77545787      67.09935776      74.72286228
O      87.71809652      67.44139822      73.38682578
O      83.90840828      65.60647397      74.21830536
C      85.96443050      73.09167990      79.08624034
O      85.07247968      74.79621303      77.78799836
N      85.60349278      73.01231139      81.46918522
H      86.52567922      71.66304680      82.45373263
C      84.10116036      74.93416305      82.82978818
H      83.51723493      76.54232014      81.68461403
C      81.59349354      73.65292861      83.81622530
H      82.10182992      72.27531813      85.25997621
H      80.95098660      72.32067156      82.38192303
C      79.42219801      75.20628364      84.81778026
H      80.03257961      76.67838044      86.12358113
H      78.20143481      73.99496907      85.94972631
C      78.24867797      76.58578385      82.68994842
O      76.26635507      75.79020907      81.70540102
O      79.21054866      78.51141496      81.70540102
C      85.48066057      76.21161804      85.13525427
O      84.47154672      78.06543955      85.99885919
N      87.78990612      75.39714600      85.91382151
H      88.37572128      73.75686356      85.13336455
C      89.36215841      76.51208452      87.97551293
H      89.66640435      78.46984098      87.40670531
H      91.22542856      75.63147206      87.99252046
C      88.04879863      76.53287151      90.54743043
O      85.78301678      76.16059543      90.92915514
N      89.68530161      76.88625033      92.44093620
H      91.35959913      77.70261210      92.02708613
C      89.07680974      76.71428524      95.19615716
H      87.06803067      76.42515711      95.54008735
C      90.68496683      74.49007737      96.45660462
H      92.53311917      74.89636852      95.64213258
H      89.86482561      72.85168465      95.51552091
C      90.58103189      74.50708490      99.34977560
H      91.72620603      76.08311665     100.01873871
C      87.89384107      74.58267396     100.31542574
H      87.74266296      74.77164659     102.36010961
H      86.86582996      72.90459699      99.70693388
H      86.78268200      76.07933720      99.43481328
C      91.92840675      72.09768385     100.46093468
H      93.94663445      72.13547838     100.05275378
H      91.18763403      70.31567194      99.74283868
H      91.51455669      71.86524752     102.46404456
C      89.73443450      79.45060894      96.23928609
O      91.87738414      80.07988780      96.17314566
N      87.97887875      80.88491121      97.42414448
H      86.18363876      80.33878031      97.78130276
C      88.38705964      83.41147529      98.70159947
H      90.42607433      83.66469862      98.84521867
C      87.08881766      85.55064548      97.03486086
H      86.71654158      87.25139916      98.13468158
H      85.49577838      84.58877478      96.15235867
C      89.07869947      86.66558400      95.11111948
H      90.37694144      85.26340708      94.34767005
H      90.20497635      88.10366573      96.06921073
C      87.59904376      88.02807667      92.90580887
H      88.89539602      89.19025836      91.80787788
H      86.35371412      89.36033372      93.86390012
N      86.03246065      86.28952847      91.48095523
H      85.69230991      84.63979739      92.38046496
C      85.04980297      86.65424564      89.29265216
N      84.99689063      88.81042337      88.06999923
H      84.18997750      88.84254871      86.34089966
H      86.03435038      90.30897633      88.63502740
N      83.79313497      84.90057962      88.30432530
H      82.92764032      85.03475019      86.60735107
H      83.73077400      83.32832733      89.38524875
C      87.43463758      83.26407664     101.50406359
O      85.39751261      82.37968472     102.09176848
N      88.92752136      84.15980691     103.33331867
H      90.44686132      85.23128173     102.90624052
C      88.45886924      83.74595685     106.14145196
H      86.85071214      82.47417104     106.35310132
C      90.65095176      82.48739912     107.26583912
H      90.44308187      82.37968472     109.31241273
H      92.24210132      83.76107466     106.97293154
C      91.21409020      79.81343639     106.19625403
H      91.69030123      80.00240902     104.20070304
C      93.33058367      78.56243757     107.79874194
H      93.42884944      76.59901193     107.18647062
H      92.84870346      78.82888898     109.78484431
H      95.02377845      79.63580212     107.32253091
C      88.91429328      78.15236696     106.56475066
H      88.50611240      78.14669778     108.58297837
H      89.34515088      76.21539749     106.01295058
H      87.22298823      78.73440267     105.53862928
C      87.79746503      86.24228531     107.57953369
O      87.77478831      86.38779423     109.85854362
N      87.03590532      88.14334998     106.21704102
H      87.00000052      87.78430198     104.34432225
C      86.09293189      90.72849557     106.80096646
H      85.38050507      90.82298189     108.73226675
C      88.40406717      92.67302395     106.69514177
H      88.93696999      92.64278833     104.70525997
H      89.89317151      91.76217587     107.79118304
C      87.76722941      95.34887641     107.63622548
H      86.53512785      95.32242024     109.28595655
H      86.74110802      96.36365944     106.16601841
C      90.27678595      96.80396567     108.14267213
H      91.06102237      95.76650592     109.73949086
H      89.63049955      98.68802280     108.66801605
C      92.29501365      97.07986571     106.05452456
H      92.17407117      98.76361186     104.87533533
H      92.37816161      95.37722230     104.89801205
N      94.81779828      97.18758011     107.43780423
H      95.21653053      95.64745317     108.49227150
H      94.88771815      98.69180226     108.60943453
H      96.16895259      97.32175068     106.09609853
C      83.97454870      91.38989978     105.02651345
O      84.14084461      90.40535237     102.86466655
N      82.20765459      92.98860824     105.88822864
H      82.69142453      93.61221793     107.62488712
C      80.11761729      93.98827346     104.28574073
H      78.99889931      92.40657254     103.58654200
C      78.21466289      95.52840041     105.87878001
H      79.22377675      97.13088832     106.68569314
C      76.17753793      96.62822112     103.97960506
H      74.88307540      97.84142542     105.02084426
H      75.02480488      95.27706681     102.94025559
H      76.88618530      98.00205215     102.61711239
C      76.84272159      93.81630837     107.70992480
H      78.13529439      92.80719452     108.95714417
H      75.52369262      92.50483831     106.82553289
C      75.27802820      95.20525721     109.72437306
H      74.39741574      93.87111043     111.02261504
H      73.71333482      96.13689228     108.75872291
H      76.38729755      96.59420605     110.76750198
C      81.07948798      95.29407435     101.97649517
O      82.93519922      96.80207594     101.91980338
N      79.73778230      94.89912155      99.80330991
H      78.16741974      93.81252892      99.84299416
C      80.26312622      96.04807515      97.38257050
H      81.08137771      97.90378638      97.72839042
C      82.18119843      94.46259477      95.94826824
H      83.72699455      94.15456938      97.27674583
H      83.29613695      95.37155313      94.47617143
C      81.29491678      91.99650193      94.87490370
C      80.19887552      91.59210050      92.44849511
H      79.73211312      93.17191170      91.24473944
C      79.56014803      89.12222821      91.61512580
H      78.59071843      89.02396244      89.82177554
C      79.86250424      86.98683747      93.32910756
O      79.18220277      84.61901040      92.50518689
H      78.56615199      84.50751655      90.80254349
C      81.18531266      87.30998067      95.60055859
H      81.44231544      85.61867562      96.71171766
C      81.68231068      89.79119132      96.50951695
H      82.24733885      90.03685574      98.45404532
C      77.71199570      96.27862176      95.80842849
O      75.66164265      95.67390934      96.71927657
N      77.95010121      97.51261304      93.64469186
H      79.67164188      98.25905493      93.28942331
C      75.93376323      98.06441312      91.92315120
H      74.16308968      97.42379590      92.75274104
C      75.93187351     101.10687249      91.37891002
H      74.32182669     101.38466225      90.12602147
H      77.53436142     101.66245202      90.20916942
C      75.23267477     102.80195699      93.68059666
H      76.47044551     102.40322474      95.27930513
H      73.31082311     102.31251787      94.23617619
C      75.26857957     105.68378962      93.42926306
H      73.81160059     106.32629656      94.73317421
H      74.68276442     106.50393084      91.63402307
C      77.94632176     106.84408157      93.83933368
H      79.21999729     106.36598081      92.29353754
H      78.76268353     105.89921842      95.47772638
N      77.98411628     109.47836005      94.39869266
H      77.98978546     110.62920338      92.87935271
H      79.70376723     109.76937790      95.17725990
H      76.73500719     110.06984439      95.71394217
C      75.99801393      96.62066222      89.47973506
O      77.95199094      96.17279708      88.48384931
N      73.80026223      95.71737304      88.53298218
H      72.24312775      96.20114298      89.52508850
C      73.52625191      94.70259001      85.93649823
H      74.89441376      93.19080896      85.64737010
C      70.88630425      93.59143094      85.76453313
H      69.45956089      95.06541746      85.93460850
H      70.76914122      92.28940951      87.35379296
C      70.49702063      91.90768479      83.29844030
O      68.93043752      92.51806639      81.59390716
O      72.16564897      90.23905646      82.83545735
C      74.09316981      96.78695813      83.96929313
O      74.41631301      98.96014339      84.54943911
N      74.25946572      96.11988475      81.52587701
H      73.96466842      94.34543174      80.88714952
C      74.40308492      97.89244803      79.37536847
H      75.79014403      99.31919139      79.90071238
C      75.31015355      96.70003072      76.89415783
H      75.22889532      98.21370150      75.49765007
C      77.96332929      95.63800454      76.99620304
H      78.98756096      96.15578955      75.28600073
H      78.06537452      93.58198231      77.01887976
H      78.93464862      96.30318820      78.68750809
O      73.64530467      94.81975304      76.28377622
H      73.66231221      94.83109140      74.47152869
C      71.85006467      99.32864002      78.74797933
O      71.86896194     101.17868209      77.37225858
N      69.77514518      98.43290975      79.82134389
H      69.80727053      96.71325881      80.65093373
C      67.32794961      99.73493118      80.40715904
H      67.03315230     101.07474714      78.87270127
C      65.00547597      97.97370626      80.10858228
H      63.42377504      99.29273522      80.15015626
H      64.98279925      96.74538415      81.76398253
C      65.24925066      96.81530403      77.56312094
H      66.73457554      95.39422984      77.42706064
H      65.97301584      98.34787207      76.39149062
C      62.71323795      95.78918264      76.72408246
O      62.44678654      93.45726037      76.52566119
O      60.99547673      97.26505889      76.01921454
C      67.42810510     101.36387526      82.76364775
O      65.64231373     102.70747067      83.32867591
N      69.40097937     101.44702322      84.36235622
H      71.05071044     100.65711762      83.81811504
C      69.47089924     103.04762141      86.64136615
H      67.96856683     104.43657025      86.40326063
H      71.26991869     104.02838937      86.84923604
C      68.72445735     101.72481299      89.19249666
O      69.63341571     102.57141038      91.10489970
N      67.30905234      99.53462019      88.98273704
H      66.87063584      98.89400297      87.23851966
C      66.15820902      98.14378163      91.22395245
H      65.21712531      99.53650992      92.41070057
C      64.21557037      96.33531354      90.43404685
H      63.19889761      95.71926277      92.11590327
H      65.32483971      94.87644483      89.49107342
C      62.11797416      96.97404104      88.46873149
C      61.57373298      95.05785856      86.67916067
H      62.71890713      93.37222269      86.58278463
C      59.71046284      95.46225999      84.84990561
H      59.40999635      94.13189266      83.33245537
C      58.19490233      97.68835759      84.93116384
O      56.09919585      97.99449325      83.40993416
H      55.04094912      99.33997838      84.00897739
C      58.70890789      99.34186811      86.86624357
H      57.62798444     101.06340878      87.03631895
C      60.56650886      98.98659956      88.75030071
H      60.89532124     100.56263131      90.00696870
C      68.14998055      96.88144445      92.97572874
O      70.23245895      96.23137860      92.06866012
N      67.56794485      96.40145397      95.33032773
H      65.72924114      96.44869712      95.82921547
C      69.31027251      95.70792441      97.35800406
H      71.13763785      96.53940399      96.89691085
C      68.55249226      96.92868761      99.85622226
H      69.14397659      95.88555868     101.53240949
H      66.55127209      96.53751426     100.16424764
C      69.48412733      99.57430445     100.46660385
C      67.70967432     101.16167455     101.70059513
H      65.84829390     100.48893198     102.19381370
C      68.39942442     103.67690027     102.19003424
H      67.04827011     104.93356827     103.06308780
C      70.79370766     104.71813947     101.54374785
O      71.26424952     107.23525492     101.75161775
H      69.77514518     108.26893521     101.76673555
C      72.57760930     103.07974676     100.33243329
H      74.45410753     103.86020372     100.14535037
C      71.85951330     100.44168882      99.77874347
H      73.16909364      99.12454958      98.93214608
C      69.65231297      92.84876850      97.61311711
O      67.92699285      91.40879705      97.95137812
N      71.97667634      91.94358959      97.69248562
H      73.34672791      93.27206719      97.71705206
C      72.83083263      89.44726113      97.21060542
H      71.26991869      88.11122463      97.33154789
C      73.53003136      88.95971175      94.44971527
H      75.48967755      89.54741663      94.21916866
C      73.11807103      86.37834560      93.29509250
H      74.34450341      85.01207348      94.22861729
H      73.27302859      86.26874148      91.24284972
H      71.18866046      85.87000922      93.80531859
O      72.01825031      90.58109692      93.03808971
H      72.50013052      92.32153486      93.20249591
C      75.11362201      88.77451857      98.94915363
O      76.61028525      90.38078593      99.72583113
N      75.20810833      86.25929284      99.66158044
H      73.80215195      85.08577280      99.12489816
C      77.34349906      84.97427895     100.96927106
H      78.99511986      86.03819487     100.35322027
C      76.71044075      85.34088586     103.90023657
H      76.29848041      87.33832657     104.18936468
C      74.35584176      83.99351099     104.79407710
H      74.24056846      83.83477398     106.84443015
H      74.46544589      82.03386481     104.16668798
H      72.57760930      84.80420358     104.14590098
C      79.04992192      84.87223373     105.56886489
H      80.73366807      85.53552767     104.58242777
H      79.23700483      82.86156493     105.98082523
C      79.01590685      86.58054632     107.93858169
H      78.79669860      88.56097949     107.41323777
H      80.72421944      86.15535790     109.00816678
H      77.35294770      86.34810998     109.13099899
C      77.95577039      82.17937373     100.20015244
O      76.50824003      81.03608931      98.94537417
N      80.10249948      81.24584894     100.97494022
H      81.37050584      82.30409567     101.93114174
C      80.86783864      78.62101909     100.65557648
H      79.35794731      77.50608056     101.50028414
H      82.67063754      78.11835189     101.51918140
C      81.19854074      78.25441218      97.83799455
O      82.20387514      79.86256927      96.46983270
N      80.40107624      76.10390364      96.97816907
H      79.97399809      74.86046372      98.36144873
C      80.18564744      75.29321105      94.28341936
H      81.54436066      76.30610435      93.10989932
C      80.70343245      72.41137842      93.87712819
H      78.96110479      71.46084609      94.43081800
C      80.95665577      71.82556327      91.03686955
H      79.23133565      71.92382903      89.91248239
H      81.53869148      69.85079927      90.94427296
H      82.57048205      72.84223602      90.25830231
C      83.11850268      71.53832487      95.29064349
H      83.06181089      72.46240103      97.13123690
H      84.68508579      72.44161404      94.30042689
C      83.78368634      68.75853746      95.86512027
H      83.15062802      68.22563464      97.75106713
H      85.83214966      68.59980045      96.01062920
H      83.23377598      67.37525780      94.44215636
C      77.50412580      76.13602899      93.37068154
O      75.71455498      74.90392743      93.56721308
N      77.26035111      78.49251770      92.63557801
H      78.96488424      79.34856372      92.55431977
C      75.19110079      79.39580688      91.07466407
H      74.72244867      77.91804090      89.71973030
H      75.77691595      81.01719205      89.95027691
C      72.65508808      80.14413850      92.39747249
O      70.73134669      80.75640982      91.26363670
N      72.48879217      79.79831858      94.92970575
H      74.12529515      79.30698974      95.77630314
C      70.34206307      79.82099530      96.65880533
H      68.81894367      78.66259307      95.89157644
C      70.84662000      78.58511429      99.17781050
H      72.48879217      79.38824797     100.12456338
H      71.63841533      76.71617496      98.83010086
C      68.52603609      78.35456768     100.90124090
N      67.01614476      76.21350776     101.01651420
H      67.24858110      74.51842326     100.17369627
C      65.12641845      76.73885168     102.66813500
H      63.55416616      75.52375766     103.13678713
N      65.29460409      79.19738561     103.28229605
H      63.80738948      80.19516111     103.93992081
C      67.37330304      80.27830906     102.23727740
H      68.00825108      82.21905799     102.22404932
C      69.24980127      82.39480253      97.17281088
O      70.20978223      83.92359112      98.41436107
N      66.89331255      82.73873272      96.30731624
H      66.02781790      81.05876603      96.03519564
C      65.36641369      85.10089061      96.36211829
H      66.69489129      86.67503263      96.29408815
C      63.42377504      85.23695091      94.16814605
H      62.39009475      83.46816708      94.39680293
H      64.43288889      85.03663992      92.38613413
C      61.57184326      87.51218139      93.99429122
H      60.40777185      87.51785057      95.69504491
C      62.97590991      90.01984821      93.71461174
H      64.07195117      90.29763797      95.43426268
H      61.72302136      91.60343886      93.30643086
H      64.34029230      89.93670025      92.17637451
C      59.87864848      87.10966968      91.72095047
H      59.09630179      85.20671529      91.62079499
H      60.98791783      87.24950943      89.99374062
H      58.28560920      88.40602194      91.54898538
C      64.14376077      85.47694615      99.03230158
O      62.55639066      84.05020278      99.89212706
N      65.06972666      87.46493823     100.37400726
H      66.32072548      88.49672880      99.36678313
C      64.08328953      88.39279385     102.84387956
H      63.51448191      86.67314291     103.82464751
C      65.93144186      90.14834960     104.26306401
H      64.91665883      90.94392437     105.86744165
H      66.45678577      91.56375460     102.86277681
C      68.20667234      88.74617267     105.08698469
H      68.41076278      87.37801082     103.55819609
C      70.64630901      90.24850509     105.48004776
H      72.24312775      89.05419806     105.98838413
H      70.43088021      91.65068202     106.96915209
H      71.13952758      91.12155865     103.68102831
C      67.84573462      87.23061217     107.37922270
H      68.01769971      88.44003701     109.03840240
H      69.08917453      85.59221946     107.50583436
H      66.01836927      86.28196956     107.43780423
C      61.60207888      89.87811873     102.66435555
O      59.70668338      89.39623852     103.83220642
N      61.61152751      91.75650669     100.90502036
H      63.06094759      91.97949439      99.68614688
C      59.76526490      93.81441864     100.63478950
H      57.90766393      92.93380618     100.51195728
C      59.64054296      95.39800929     103.10655152