 %block lattice_cart
   139.898   0.000   0.000
   0.000 144.87   0.000
   0.000   0.000   168.12
 %endblock lattice_cart

 %block positions_abs
N      94.26599820      47.42825170      84.85179533
H      96.06312793      47.47738459      84.21117811
H      93.43073917      45.79930762      84.31322333
H      94.57024413      47.58698871      86.73018328
C      92.66540001      49.63167258      84.23385482
H      93.37593710      51.38155915      85.05210631
C      92.50288355      50.22882610      81.41438316
H      91.49565943      48.73594231      80.41282822
H      94.44174274      50.36299667      80.73219196
C      91.20842103      52.67791140      81.02509954
H      89.20531113      52.36421683      81.39170645
H      91.54290257      53.15601216      79.05033554
S      92.33847736      55.45391935      82.69183815
C      95.73053609      55.37455085      82.10413327
H      96.69240679      56.92979561      83.05277588
H      96.01966422      55.30463098      80.06511857
H      96.49776497      53.64356155      82.91671558
C      90.07269551      49.10443894      85.44327966
O      89.16940633      47.02762972      85.20517415
N      88.81035833      50.88834058      86.61868943
H      89.55302077      52.64389633      86.55443873
C      86.09293189      50.80519262      87.50308134
H      85.08759750      49.26695541      86.56955654
C      86.23844081      50.36299667      90.41325986
H      87.35904852      48.75106012      91.03120037
H      84.32603779      50.14567814      91.14458395
C      87.08314849      52.58342509      91.92882037
O      87.47243210      54.70936719      91.14458395
N      87.54613142      51.94658732      94.26074264
H      88.44753088      53.03884913      95.53819763
H      87.36282797      50.10788362      94.74073312
C      84.72099059      53.27884437      86.64514560
O      85.83970856      55.05707683      85.64925983
N      82.24166966      53.57931085      87.17237924
H      81.35727776      52.13555995      88.05677115
C      80.83193384      55.83753380      86.20294964
H      81.37239557      55.99249135      84.22062674
C      77.99167518      55.26683645      86.53554147
H      77.45310320      53.58120058      85.48296391
C      76.85217023      55.06841519      89.33611587
H      76.54981402      56.94302369      90.13169064
H      78.21844234      53.89678487      90.33767081
H      75.08527613      54.01016845      89.23973982
C      76.32682630      57.25860798      85.35068307
H      76.38540782      59.04628908      86.37302501
H      74.42954109      56.54051198      85.69461326
C      76.44209961      57.74426765      82.49908607
H      75.03992268      59.01038428      81.67894485
H      76.09250024      56.03217561      81.40493453
H      78.24489851      58.61921093      82.02854421
C      81.47444079      58.23748621      87.60134711
O      81.19665102      60.33130297      86.55065928
N      82.42686284      58.09575674      89.99185090
H      82.78024167      56.29484756      90.52097426
C      83.12417186      60.22547829      91.63591279
H      81.64073669      61.65600111      91.66236896
C      83.59660343      59.36187337      94.38168512
H      83.50211712      60.92278730      95.72339080
H      85.45420440      58.47370200      94.40625156
C      82.06214567      57.32663813      95.51741064
C      79.43731582      57.42868335      95.57221270
H      78.53591636      58.92912604      94.51963514
C      78.02191082      55.57108239      96.76085055
H      76.03769819      56.02839615      96.90824920
C      79.20865893      53.70025334      98.17814528
H      78.09749987      52.44547506      99.34032697
C      81.86939359      53.53962660      98.07232061
H      82.84260263      52.30185586      99.37056259
C      83.35849791      55.41423510      96.86100604
H      85.38428452      55.48415498      97.09533211
C      85.34271054      61.57663261      90.60979140
O      85.39184343      63.87265008      90.47184138
N      87.21353960      60.24059611      89.76697347
H      87.06992039      58.33764171      89.81421662
C      89.59459476      61.23270242      88.65959385
H      90.06702633      62.97503008      89.64981043
C      91.77155946      59.21069526      88.85423566
H      91.35392995      57.76127518      87.45205873
H      91.91328893      58.63054929      90.82522020
C      94.32457971      60.17067623      87.85834989
H      94.09025364      61.11553939      86.04421263
H      95.72486692      58.65700546      87.81488618
C      95.63604978      62.25126490      89.50241178
O      97.43128978      63.33785753      88.42337806
O      95.12015450      62.66133551      91.73039910
C      88.90484464      61.92056280      85.80043793
O      90.01789344      63.73281033      84.72518366
N      87.14550944      60.73570440      84.54376994
H      86.00222504      59.55840491      85.51319953
C      86.48221552      61.36120381      81.94539626
H      88.16218220      61.20624625      80.76053786
C      84.67185771      59.37510145      81.00053310
H      82.88795606      59.56974326      82.00964695
H      85.28412904      57.43624226      81.34635301
C      84.05769666      59.46202886      78.22641487
H      85.56191879      58.59464449      77.11903525
H      83.81014250      61.46702848      77.82201344
S      80.97366332      58.03906495      77.74264494
C      81.43664625      56.65578529      74.52255130
H      83.47566094      56.35909826      74.55467665
H      80.79791876      57.97103480      73.07124149
H      80.73744752      54.73960281      74.23720263
C      85.58837497      64.21846999      81.71295992
O      86.48788469      65.68111816      80.15204598
N      83.82715004      65.03672149      83.44016977
H      82.83693346      63.72903088      84.41526855
C      83.03724444      67.73147121      83.58378897
H      82.66307864      68.53271517      81.72429828
C      80.49178310      67.85808287      84.93116383
H      80.53902626      69.60230026      86.02342564
H      80.35761253      66.39732443      86.37680446
C      78.07671287      67.72958148      83.36269099
H      76.50446059      67.81272944      84.69116859
C      77.91419641      69.93489209      81.61091470
H      79.44109528      70.15599007      80.24653230
H      77.79325392      71.73013209      82.61435937
H      76.13407423      69.60796944      80.62636729
C      77.82915873      65.35041606      81.91705036
H      79.07259864      65.04050094      80.30322409
H      75.85817418      65.06884684      81.38792699
H      78.10694850      63.73658978      83.16615945
C      84.94019884      69.65899205      84.87447204
O      84.73610841      71.90776636      84.51731377
N      86.99811080      68.74058506      86.12169141
H      87.13228137      66.83763066      86.18783183
C      89.21664949      70.20134350      86.75097027
H      88.57225282      72.06272392      87.35568269
C      90.73976889      68.95601386      89.00352403
H      92.55012670      69.93489209      88.94305279
H      91.04968401      66.96235260      88.58022534
C      89.58703585      69.34718721      91.71717102
H      87.90706915      68.18500553      91.97606353
H      89.11082482      71.34462792      91.87401830
C      91.18952376      68.48547201      93.89791519
H      90.35615445      69.02782346      95.70449354
H      92.97720485      69.49269613      93.74295763
N      91.54479230      65.71702296      93.82232613
H      92.76177606      64.98569888      92.54676087
C      90.67551821      64.02004873      95.40969624
N      89.05791247      64.72680637      97.21627459
H      88.61571653      63.44179248      98.55609055
H      88.84248368      66.59763542      97.52618971
N      91.55424093      61.74481825      95.43237295
H      91.27645116      60.43334819      96.78919644
H      93.06980144      61.52749972      94.29286798
C      90.88338810      70.48858190      84.32456168
O      92.10982047      72.46712535      84.08834589
N      90.66606957      68.56484051      82.61435937
H      89.22798785      67.32895951      82.82600872
C      91.90384030      68.87475563      80.03488295
H      93.71797757      69.79505234      80.35991588
C      92.54823698      66.18378536      79.05411500
H      90.94196962      64.90066119      79.12214514
C      93.34570149      66.17811618      76.28566595
H      94.99732228      67.37809239      76.02299399
H      91.65817588      66.81495395      75.28978018
H      93.67073440      64.25248507      75.62615147
C      94.61748729      64.78538789      80.66416182
H      94.29434410      65.25215029      82.64270527
H      96.35225604      65.63198528      79.94795554
C      94.77622430      61.96213678      80.43550493
H      96.12737861      61.34608600      81.86224830
H      95.38093672      61.57474288      78.50609437
H      92.97720485      61.00215581      80.73219196
C      90.42040515      70.61519356      78.23208405
O      91.62227108      72.09106981      76.93195235
N      87.94297396      70.53393533      78.00153744
H      87.15873754      69.19978856      79.11836569
C      86.63906280      71.80005196      75.98519946
H      87.67085336      72.00981158      74.21263618
C      84.42997274      70.08418047      75.10647673
H      83.07503898      71.27659777      74.11437041
H      83.38873354      69.37175365      76.73353108
C      85.19342216      67.83540616      73.42651004
O      86.92630120      68.09051921      71.74276389
O      84.15785214      65.78505311      73.96130258
C      85.55247016      74.39653592      76.57857353
O      84.61894537      75.89508888      75.01388014
N      85.67908184      75.28659701      79.02954855
H      86.02301202      73.90898653      80.30322409
C      85.01011872      77.92276522      79.90827129
H      85.28223930      79.20210993      78.31334228
C      82.29836145      77.65064463      80.72652278
H      82.29836145      77.28025827      82.75230939
H      81.56136820      76.04437726      79.66449660
C      80.94909687      80.13752446      80.18606106
H      81.41774900      80.83483346      78.30389365
H      81.84104769      81.51891439      81.42572152
C      78.11639712      79.75957919      80.37314396
O      76.94476682      80.23390050      82.45751209
O      76.82571405      78.96022496      78.52121218
C      86.63906280      79.07171881      82.07200792
O      86.50489222      81.36017738      82.59168265
N      88.21509454      77.48812816      83.37780880
H      88.65918023      75.76469777      82.68616897
C      89.91206877      78.58038997      85.42438240
H      89.78923657      80.63641220      85.38280842
H      91.74888275      77.65442408      85.37335979
C      89.30924608      78.03992825      88.22684652
O      87.77667804      76.43177116      88.82211031
N      90.76622507      79.42887709      89.75941456
H      91.85659714      80.83861292      89.07911309
C      90.54323737      79.23423528      92.46172319
H      88.94263918      78.00024400      92.86612462
C      93.07358089      77.98890564      93.48784458
H      94.72331196      79.17754349      93.14958357
H      93.52900493      76.32216703      92.36534715
C      92.77500413      77.27647882      96.35644912
H      92.23643214      78.92243044      97.47327737
C      90.53756818      75.29415591      96.59833409
H      90.84181412      73.96945777      98.14601994
H      90.51111202      74.33795440      94.77663792
H      88.91051383      76.45444787      97.10100129
C      95.18440519      76.07083343      97.39579859
H      96.76421638      77.18955141      96.69659986
H      95.37526755      74.12063587      96.76274028
H      95.32991412      76.00469301      99.45182082
C      89.92340713      81.87985212      93.72028091
O      91.29723816      83.71288664      93.05698698
N      87.90328970      82.23134121      95.17537017
H      86.65984979      80.78192113      95.17537017
C      87.19086289      84.62562445      96.32999295
H      88.78579189      85.92953560      96.32999295
C      85.16696599      85.97866849      94.56309885
H      84.16919050      87.65674545      95.22072360
H      83.77612744      84.46688744      94.42325910
C      86.37450111      86.67408777      91.94393818
H      86.98866216      85.20388070      90.63813730
H      88.00344520      87.87784343      92.32377317
C      84.47154671      88.24256061      90.44916466
H      84.06714529      89.94709375      91.53197784
H      82.88228689      86.94053918      90.31877355
N      85.23310642      88.95498743      87.81299646
H      85.83970856      90.67463838      87.25363747
C      85.17641464      87.38651459      85.92515987
N      84.62272483      84.94876765      86.08956606
H      84.74744675      83.94910243      84.47007061
H      83.93864390      84.13051615      87.67315671
N      85.90962845      88.19531745      83.69150337
H      85.66396403      86.87817821      82.33090042
H      86.21576411      90.03024170      83.25875604
C      86.16852095      84.43476209      98.99261733
O      84.00478431      83.87540310      99.38190095
N      87.85604654      84.84483270     100.81431349
H      89.57947695      85.28324921     100.11700448
C      87.38928415      84.42720319     103.47882759
H      85.56947770      83.51446538     103.79819134
C      89.39050431      82.66219881     104.74494422
H      88.76878436      82.15764188     106.64411917
H      91.24810528      83.54470100     104.65612709
C      89.66829408      80.13185528     103.25583989
H      90.27300650      80.71389098     101.37367248
C      91.67329370      78.33283583     104.48983117
H      91.26511282      78.18354745     106.50238969
H      93.54601247      79.16242568     104.28007155
H      91.51833613      76.41665334     103.74527900
C      87.05291286      78.66731738     103.09143370
H      87.36282797      76.76247326     102.37144797
H      85.68097156      79.77469700     102.02562806
H      86.42552373      78.61251532     105.05296961
C      87.00189024      86.75345628     104.93958603
O      86.49544360      86.54369666     107.17891171
N      87.06047176      89.01734840     103.74527900
H      87.77289859      88.96065661     101.97649517
C      86.07025517      91.28501998     104.90557096
H      85.66585374      91.01667884     106.90679112
C      88.22265344      93.18419492     104.82809218
H      89.08058919      93.16907711     102.95348368
H      89.70419888      92.38106124     106.01106085
C      87.37416634      95.84870902     105.64256422
H      86.24222027      95.67485420     107.35465626
H      86.72976966      96.74632902     103.90590574
C      89.55491050      97.62316203     106.48727188
H      90.94574907      97.72520725     104.96982165
H      90.26922705      96.80868999     108.24093790
C      88.21887399     100.14972611     106.96159319
H      86.82614570      99.91540005     108.46014615
H      87.58581569     100.75821798     105.09832304
N      90.00277564     101.99220926     107.69858645
H      89.08247893     103.64760952     107.93858169
H      91.16684704     102.37393398     106.23404856
H      90.89850591     101.44229891     109.29162573
C      83.65329522      92.28468519     103.47882759
O      83.34338010      91.67997277     101.17336149
N      81.89773948      93.42985934     104.82620245
H      82.20576486      93.60749361     106.70081096
C      79.58660420      94.18574987     103.69047694
H      79.02724521      92.53790852     102.58876650
C      77.38696276      94.91329450     105.63689504
H      78.31670812      96.34003786     106.79718700
C      74.84528088      95.77311997     104.67313462
H      75.22889531      96.97876536     103.04796999
H      73.90608690      97.06569277     105.97515605
H      73.57727453      94.26133892     104.08731947
C      76.81059624      92.76089623     107.56441588
H      78.63040269      92.24311122     108.37888792
H      75.89596871      91.18864393     106.59876574
C      74.97945144      93.57158881     109.64689428
H      75.27235903      92.27334684     111.21914657
H      73.03681280      93.59993471     108.96092363
H      75.62951729      95.39706443     110.34798274
C      79.82659943      96.28145635     101.58343210
O      81.24389418      98.09559361     101.89712667
N      78.78724997      95.68241311      99.31953998
H      78.27324441      93.84370940      99.29875299
C      78.89496436      97.16773799      97.02730196
H      79.64896516      99.04234649      97.43926230
C      80.76201396      96.05657892      95.22261333
H      82.54969506      95.59737542      96.13535114
H      81.18342294      97.59292641      93.91681245
C      79.89085013      93.69631075      94.05476247
C      79.34849869      93.73221555      91.42804289
H      79.52991241      95.46131513      90.35845780
C      78.73244791      91.52690494      89.99940980
H      78.52646774      91.54013303      87.96984374
C      78.42253278      89.21576966      91.28442369
O      77.67231144      86.97077480      90.36979616
H      77.07326821      87.12762209      88.66715275
C      79.14629797      89.19498267      93.84689258
H      79.49778707      87.41108103      94.77663792
C      79.77935629      91.39273438      95.31332019
H      80.69776326      91.29635833      97.13501636
C      76.27202425      97.47576338      95.88779699
O      74.41253356      96.55924611      96.96872044
N      76.02258037      98.73810055      93.71083228
H      77.53058197      99.49021163      92.81321228
C      73.56215672      99.30879790      92.66581363
H      72.05037566      98.53401011      93.82799531
C      73.11240184     102.20574834      92.37857523
H      71.67054068     102.58747305      90.95750104
H      74.73189730     103.05612518      91.42993262
C      72.52658669     103.58524855      94.87490369
H      74.21411228     103.80634653      96.03897510
H      70.93354741     102.58747305      95.71394217
C      71.51558311     106.19685031      94.19649194
H      69.59184172     106.02488522      93.48217540
H      72.87996552     107.07179359      92.92470613
C      71.23401390     107.94484715      96.44526626
H      72.51524833     107.42517241      97.97405484
H      69.43499445     107.31178884      97.22194377
N      71.04693098     110.72652428      96.06921072
H      70.02458906     111.59201893      97.42981366
H      70.00002262     111.00809350      94.49695843
H      72.77603057     111.50698125      95.84433329
C      73.10673267      98.26566898      90.07499885
O      74.85095005      98.02567373      88.55565890
N      70.75969259      97.54946270      89.65925907
H      69.61640818      97.45875584      91.18426820
C      70.06238358      96.42885500      87.22340185
H      71.62707697      95.20998153      86.66782231
C      67.86463188      94.65251227      87.33489570
H      66.12041450      95.45375622      88.08511705
H      68.40509360      93.00656065      88.44605477
C      67.12196944      93.60182444      84.69305831
O      68.35596072      91.69887004      83.88047600
O      65.32483971      94.59959993      83.53465609
C      69.74679929      98.56991491      85.16926935
O      69.49357596     100.78278442      85.79665848
N      69.80727053      97.86504700      82.77876556
H      70.54237406      96.13594742      82.44806346
C      69.42554581      99.59036712      80.60180085
H      70.90142206     101.00766186      80.82667828
C      69.67309995      98.39228064      77.96563264
H      68.06305314      97.15262018      77.62548190
C      70.21545141     100.29901449      76.00409673
H      69.84695479      99.35226161      74.21074646
H      72.21856131     100.72609264      75.76599121
H      69.32539031     102.15094628      76.16094401
O      71.70455574      96.74254957      77.94484565
H      71.12818922      95.25155551      78.80089167
C      66.84984884     100.92262417      80.89092897
O      66.52670564     103.11470669      80.15015626
N      64.94122527      99.63572055      81.89059419
H      65.15287462      97.74788397      82.05500038
C      62.40899202     100.67884948      82.38003331
H      61.98947278     102.08291613      80.93061323
C      60.48336090      98.67196013      82.08712573
H      58.72213598      99.64894864      82.51798333
H      60.61375202      97.36237980      83.67071638
C      60.37186705      97.48710173      79.52276712
H      62.06884128      96.48743652      78.92183416
H      60.13376153      98.88360948      78.02610388
C      58.17411535      95.67863365      79.57945891
O      57.83585434      94.09693273      81.28588177
O      56.61887059      95.75611243      77.71996822
C      62.12553306     102.01488598      84.80077271
O      60.05439303     103.04856627      85.29966046
N      64.18533475     102.29645520      86.23318526
H      65.83128637     101.53489550      85.64170092
C      64.26470326     103.94240682      88.49329793
H      62.40710229     104.82679873      88.57833561
H      65.74435895     105.37292964      88.39314244
C      64.64453825     102.57991415      91.02931064
O      65.29460410     103.96886299      92.81699173
N      64.10218679     100.09114459      91.33355658
H      63.54660725      99.19730405      89.74051730
C      63.81116893      98.80046152      93.76941380
H      63.35574490     100.29334531      95.10922975
C      61.57562271      96.92963247      93.58422062
H      61.03894044      96.40617828      95.50040310
H      62.22568856      95.29312949      92.51841498
C      59.37976073      98.08047580      92.14613889
C      58.58229623      96.81624889      89.96350500
H      59.42700389      94.98699382      89.64036180
C      56.52060482      97.82914220      88.53109246
H      55.98014310      96.78601327      86.86246412
C      55.45479918     100.15728501      89.02242130
O      53.50082218     100.94341116      87.66559781
H      52.99815497     102.46842030      88.51030547
C      56.10486504     101.34025369      91.50363195
H      55.07874365     103.06746354      91.86079022
C      57.98703244     100.23287407      93.04942807
H      58.46324347     100.94152143      94.90135986
C      66.07884051      97.34915171      94.96183110
O      67.45645100      96.24933100      93.52752883
N      66.32828439      97.54568325      97.50540272
H      65.01870406      98.45653133      98.55231109
C      68.51847718      96.65184270      98.83388032
H      70.15498017      97.54568325      97.95704731
C      68.42399087      97.58536750     101.66846978
H      69.79782189      96.56491529     102.81553366
H      66.52481592      97.16017908     102.33743290
C      69.15153549     100.29712476     102.20704178
C      67.80227091     101.79756745     103.89645711
H      66.07695079     101.11537626     104.74305450
C      68.42588059     104.26555002     104.17424688
H      67.23346328     105.38993718     105.38934089
C      70.37040896     105.34080429     102.63223020
O      70.59906585     107.82390467     102.29963837
H      70.23245894     108.73664248     103.82275778
C      72.00880169     103.74398556     101.23194301
H      73.57160534     104.44696375     100.12267366
C      71.39275091     101.18151668     101.11477997
H      72.74957439     100.04012198     100.10755585
C      68.53737444      93.77378953      98.72805564
O      66.57205907      92.38673042      98.87734402
N      70.87496590      92.74010924      98.37089737
H      72.45477709      93.81536351      98.38601518
C      71.27369814      89.93008621      97.58477122
H      69.66176161      88.85672166      98.28963914
C      71.08661524      89.87528415      94.73317422
H      72.52469697      91.16218777      94.01129876
C      71.57416463      87.13329127      93.53319801
H      71.04693098      87.18998306      91.54520593
H      70.27025348      85.77457805      94.36467758
H      73.37507380      86.38873910      94.20216112
O      68.69800119      90.44031231      93.82421586
H      68.51847718      92.22610368      94.09255700
C      73.84183620      89.03246621      98.72238646
O      75.65597346      90.51023219      99.32142970
N      73.89852799      86.58149118      99.38001122
H      72.45099763      85.60828213      98.60900288
C      76.00746256      85.19254234     100.55353126
H      77.52869225      86.55692474     100.30408739
C      75.44243439      84.88451695     103.38812073
H      74.91520076      86.68542613     104.23660784
C      73.14452719      83.17809409     104.01550987
H      72.56438121      83.31226466     105.98838414
H      73.79648277      81.34128012     103.35599538
H      71.47400913      83.67131266     102.91379942
C      77.67987035      83.96799969     105.08887441
H      78.24678825      82.05181721     104.59187639
H      77.02413531      83.71855582     107.02395416
C      80.03257960      85.63095885     104.76384149
H      81.23633527      85.33049236     106.40790338
H      79.59038366      87.63784819     104.89801205
H      80.87161810      85.16419645     102.94214532
C      76.75579419      82.64141182      99.30820162
O      75.10228366      81.45277397      98.15924802
N      79.15007741      81.71544593      99.66158044
H      80.40674541      83.08549750     100.09054831
C      80.14596318      79.28903734      99.00962486
H      79.33338087      77.95867002     100.35699972
H      82.18875733      79.29659625      99.27607627
C      79.53558158      78.64086122      96.31298541
O      80.13462483      80.16209090      94.70860777
N      78.28836223      76.56594172      95.72150108
H      77.81782036      75.34706825      97.11422937
C      77.67042172      75.89508888      93.10989931
H      79.00456850      76.87396711      91.88346694
C      77.95954984      72.96790282      92.71494651
H      76.50635031      71.93233280      93.74673708
C      77.57026623      72.17988695      89.92948993
H      78.01624164      70.17488733      89.78398100
H      78.94409726      73.14931655      88.73896235
H      75.63518648      72.57295002      89.33611587
C      80.49556255      71.87186156      93.66358912
H      80.69398381      69.84985441      93.32910757
H      80.48611393      71.95311979      95.72339080
C      82.98433210      73.09640421      92.77919721
H      84.40918575      72.28949108      94.02641657
H      83.14495884      75.06549903      93.36312264
H      83.44731505      72.70712059      90.81010239
C      74.99267954      77.00057878      92.58266567
O      73.14263748      75.54359979      92.64124719
N      74.88685485      79.42131818      92.02141696
H      76.46666605      80.39074778      92.48062045
C      72.78736893      80.70066290      91.03875927
H      72.38296750      79.95422100      89.16037132
H      73.27869777      82.69432416      90.86112500
C      70.40442405      80.74601633      92.62234992
O      68.35218126      81.04648281      91.66803814
N      70.61040421      80.60428685      95.09411194
H      72.35084215      80.45310875      95.86701000
C      68.43721895      80.50413136      96.80242453
H      66.89142283      79.53092231      95.85000247
C      69.14586632      78.89786399      99.02663240
H      70.79370766      79.66698260      99.99795172
H      69.53137048      76.99868905      98.33121312
C      67.01236532      78.63141258     100.95415324
N      65.37019315      76.46578623     101.24139164
H      65.42121575      74.93321819     100.10566612
C      64.11541487      76.90420273     103.52229130
H      62.66599480      75.72690324     104.34432224
N      64.80705470      79.20210993     104.50872843
H      64.08328952      80.19610597     105.96759715
C      66.66843513      80.12807582     102.94781450
H      67.79471201      81.75701991     103.43536389
C      67.53015032      83.08927696      97.35989379
O      68.68477309      84.46499771      98.78096798
N      65.35885479      83.80737295      96.21094019
H      64.53871356      82.65275018      94.93537493
C      63.96423677      86.10150070      96.93848482
H      65.03949105      87.84949754      96.77218891
C      61.44523160      86.30370141      95.70449354
H      60.54383215      84.45932853      95.88779699
H      61.80994878      86.73455901      93.72217064
C      59.63298406      88.46743804      96.64368752
H      59.14354495      88.06303661      98.60333370
C      60.79894520      90.99778158      96.07110045
H      59.42133472      92.43964275      96.58699573
H      61.23547198      91.26801244      94.07743919
H      62.32395433      91.34171176      97.41091640
C      57.12909670      88.45043051      95.21127497
H      57.54105704      88.45420996      93.19304727
H      55.97258420      90.01323417      95.89535590
H      56.15966710      86.69109531      95.67236819
C      63.47857710      85.96921986      99.86378116
O      62.42977901      84.15319287     100.85966692
N      64.27037243      87.95532221     101.20170739
H      65.08673419      89.40474229     100.26629286
C      63.74691825      88.18019964     103.82086806
H      63.65621137      86.36228293     104.78462847
C      65.74057950      89.81292318     105.21737580
H      64.96201226      90.59715960     106.95781373
H      66.30749739      91.29446861     103.90401601
C      68.06683259      88.18586882     105.90901563
H      68.48257238      86.70810285     104.53329488
C      70.19466443      89.87528415     106.40790338
H      71.06960771      90.87116991     104.83187163
H      71.56471600      88.51279147     107.12221992
H      69.64853351      91.23966654     107.85165428
C      67.59818046      86.61361653     108.32975504
H      69.33861841      85.54970062     108.62266262
H      65.99380283      85.33805127     108.12755432
H      67.32605987      87.73989341     110.03239845
C      61.06350688      89.30080735     104.24794620
O      59.50259295      88.09516196     105.35343609
N      60.69689998      91.66485496     103.41268717
H      62.14065087      92.54546743     102.52451580
C      58.36875716      92.98955311     103.60732898
H      56.91933708      91.60060427     103.15001521
C      57.74136801      93.98165942     106.21326157