 %block lattice_cart
   139.898   0.000   0.000
   0.000 144.87   0.000
   0.000   0.000   168.12
 %endblock lattice_cart

 %block positions_abs
N      94.34914615      44.05603510      85.25997621
H      96.21430602      44.44909817      85.37902897
H      93.94663446      42.62362255      84.06755891
H      94.08647419      43.54202954      87.07978265
C      92.70130481      46.33504503      84.83667752
H      93.38160629      47.83548772      86.07633798
C      93.04523500      47.24589312      82.10980245
H      91.28401007      48.13973366      81.52587702
H      93.54601247      45.63395657      80.92872350
C      95.22030999      49.05058174      81.91327091
H      95.55101210      49.87639214      80.05378022
H      96.95318901      47.97532747      82.20617849
S      95.05779352      51.41651909      84.28865689
C      92.44241231      53.10782414      83.02442998
H      90.74165862      51.94564246      83.06600396
H      92.78445278      53.61993997      81.05722489
H      92.20997597      54.86149016      84.07511781
C      90.07458524      45.45065312      85.42627213
O      89.42829883      43.19809935      85.11068783
N      88.54390692      47.21187804      86.45806269
H      89.28467964      48.86349884      87.06655457
C      85.79435513      46.95865472      86.96450935
H      85.08381804      45.80025249      85.41682350
C      85.88695172      45.57159560      89.46650698
H      87.54046225      44.38295775      89.76508374
H      84.24666928      44.41508310      89.92004130
C      85.77167843      47.39896095      91.79276008
O      83.76667880      47.82603909      92.89824997
N      87.83903900      48.57626044      92.43526702
H      87.51400609      49.64584553      93.98106315
H      89.46231392      48.26067615      91.48095523
C      84.58682003      49.65529416      86.78309562
O      85.83592911      51.53368212      86.71884492
N      82.10749910      49.79702364      87.02120113
H      81.11728251      48.18319737      87.26497583
C      80.52201873      52.22721168      87.14970252
H      80.76390370      53.08703715      85.29210156
C      77.77624639      51.43163690      87.41237448
H      77.66097308      49.89717913      86.04232290
C      77.05437094      50.10882848      89.96350500
H      77.09594491      51.45431361      91.52252921
H      78.40930471      48.60082688      90.31310437
H      75.07015831      49.56836675      89.86334951
C      75.96588858      53.62749887      86.77175726
H      76.18698657      55.18085390      88.10590404
H      73.99868349      53.03979399      86.94750181
C      76.06604408      54.94463811      84.26598017
H      74.56182194      56.31279996      83.93527807
H      75.81282075      53.32136321      83.02254026
H      77.79892311      56.00477458      83.93716779
C      81.52357367      54.09615100      89.22273229
O      81.74845110      56.32602805      88.65203494
N      82.10749910      53.20608991      91.57922100
H      81.91663675      51.33904031      91.93071010
C      83.00700882      54.76700384      93.63902268
H      81.84671687      56.46208834      93.49918294
C      82.53268753      53.63127833      96.19582238
H      83.59660343      54.82369563      97.49406436
H      83.47566095      51.80202326      96.24117582
C      79.78124601      53.64828586      97.03864032
C      78.81559587      55.85548620      98.15924802
H      80.05903578      57.40884123      98.61278234
C      76.23233999      55.89139100      98.77340908
H      75.42353714      57.68663099      99.30631190
C      74.72811784      53.76544889      98.31231586
H      72.72122850      54.05079757      98.53908301
C      75.72400361      51.49399787      97.40902668
H      74.59205755      49.88017160      96.87801358
C      78.26001633      51.44297526      96.67770259
H      79.14062879      49.82347981      95.79709013
C      85.85671611      55.63438822      93.40091717
O      86.59559910      57.46364329      94.59900365
N      87.36282797      54.52700860      91.63213334
H      86.71843130      52.97365357      90.73262361
C      89.72687559      55.80446359      90.74018252
H      90.53567846      56.98365281      92.22361767
C      91.79423618      53.93174481      89.97106391
H      93.24176654      54.95219702      88.92037608
H      90.90606482      52.66562818      88.61046096
C      92.90917470      52.17618907      92.08755738
H      91.37093748      51.42785745      93.23462125
H      94.25654957      53.17207483      93.28564386
C      94.13938653      49.86127433      91.03875928
O      92.91295415      47.94320212      90.35089890
O      96.49776497      49.87450242      91.09923052
C      89.26767211      57.49765836      88.36857600
O      90.11426948      59.60092375      88.14747802
N      87.63305884      56.56791302      86.57900518
H      86.72976966      54.91251277      86.87569221
C      87.14172999      57.70363853      84.02031575
H      88.88027820      57.94552350      82.94317175
C      85.54302154      55.82336085      82.49152716
H      83.72321510      55.76666906      83.45717731
H      86.57481211      54.04323866      82.38948194
C      84.95720639      56.56791302      79.76276237
H      86.28001481      55.74399234      78.41538751
H      84.96287556      58.62771470      79.79488771
S      81.65963397      55.91217799      78.92750334
C      82.15285253      55.71375672      75.60536448
H      83.71754592      54.52700860      74.98931370
H      82.13962445      57.69041045      75.02521850
H      80.52012899      54.79534974      74.74931846
C      85.90962845      60.43618278      84.05244110
O      86.92630120      62.33913718      83.03576834
N      84.09549118      60.87270956      85.73429752
H      83.39251300      59.38738468      86.70561684
C      83.08070815      63.35769966      86.48451886
H      82.61394576      64.49342517      84.83289806
C      80.67130711      62.88715781      87.90559305
H      79.87573233      64.72964096      88.36668627
H      81.14751814      62.05756796      89.72917894
C      78.65118968      61.48687061      86.57522573
H      79.17086442      59.56879840      86.03854345
C      76.20210438      61.25632400      88.02653553
H      74.85661924      60.05634779      87.03253949
H      75.32338164      63.10447633      88.25141296
H      76.80492706      60.45885950      89.83122416
C      78.03702863      62.73408998      84.12425070
H      76.38540782      61.77788846      83.34757318
H      79.48833844      62.70196463      82.66349226
H      77.42475730      64.66350054      84.51164459
C      84.89295569      65.03010745      88.00574854
O      84.72477004      67.36391944      87.81488619
N      86.38772920      63.86603604      89.60445700
H      86.20820520      61.99520699      89.93326938
C      88.28501442      65.29277940      91.17859902
H      87.44975539      66.78944264      92.32188344
C      89.64939681      63.33691267      92.85289654
H      90.80779904      62.00087617      91.79464980
H      88.19241783      62.06323714      93.55398500
C      90.88149838      64.43484366      95.23395169
H      89.45286529      65.37970681      96.37723611
H      92.32524928      65.79355688      94.66892352
C      91.98131908      62.62826530      97.07643485
H      90.53378874      61.33380278      97.76051577
H      92.54256781      63.91516892      98.58065699
N      94.11859954      61.29411853      96.05031346
H      95.32235521      62.45441048      95.13001674
C      94.97275584      58.91117365      96.19204293
N      94.14694545      57.11404392      97.60177876
H      94.56079550      55.36604708      96.95549236
H      92.47075821      57.55812961      98.40113299
N      96.87948969      58.27622560      94.74073312
H      97.62593158      56.53389794      94.97127973
H      97.58246787      59.62737992      93.58800007
C      90.32780856      66.48897616      89.62335427
O      91.51644641      68.34846685      90.29609684
N      90.97031551      65.16049856      87.49552244
H      90.34292637      63.36147911      87.39347722
C      92.43674312      66.17717132      85.52075844
H      94.12237899      67.06156323      86.30499486
C      93.52900493      64.06823675      83.78032051
H      92.00210608      62.89471671      83.05088615
C      94.93685104      65.27577187      81.45028796
H      96.37115331      66.49842479      82.28176754
H      93.57624810      66.15449460      80.17850216
H      95.82691213      63.66950450      80.51676317
C      95.46219496      62.40716732      85.21651251
H      94.69496607      62.06890631      87.09867991
H      97.10247739      63.56745928      85.66815709
C      96.60925883      59.93729503      84.07133836
H      97.45774594      60.36815263      82.24586274
H      95.29211958      58.35370438      84.02409520
H      98.06812755      59.29478809      85.37713924
C      91.09503745      68.24264218      83.99008013
O      92.17785062      70.25709043      83.78598969
N      88.81980696      67.76265170      83.13970329
H      87.96376094      66.14504597      83.69150337
C      87.44786566      69.51631771      81.48619276
H      88.68185694      69.92071914      79.88937403
C      84.97421392      68.45051207      80.59046249
H      83.53424247      69.91882942      80.48085837
H      84.27312545      67.09179885      81.97374215
C      85.01767763      67.21652079      77.95996346
O      86.47843607      68.00642639      76.27243787
O      83.50400684      65.46096505      77.72185795
C      87.06425122      72.08256605      82.49908607
O      87.39117387      74.04788141      81.22918999
N      86.26678671      72.12980920      84.97084809
H      85.81514212      70.48763704      85.82878383
C      85.62805922      74.63936575      86.25964143
H      85.67908184      76.17949269      84.89147958
C      83.02212664      74.37291434      87.50308134
H      82.59315876      75.84123168      88.88447128
H      82.90496361      72.68349901      88.67282193
C      80.95665578      74.20472870      85.42816185
H      79.09527536      73.85512933      86.23507499
H      81.43097708      72.64948394      84.16204522
C      80.63351257      76.71050579      83.99574931
O      80.22155224      78.67393143      85.34123444
O      80.66374820      76.74830031      81.57689963
C      87.56880814      75.27809324      88.18338282
O      87.12472246      77.15459147      89.46083781
N      89.50388789      73.76820192      88.52731301
H      89.78923657      72.13547838      87.58244985
C      91.42384982      74.10079375      90.46428248
H      92.33847736      75.94705636      90.51908454
H      92.80901922      72.63436613      90.05232214
C      90.27867567      73.95528482      93.14391439
O      88.17352056      73.01042167      93.34989456
N      91.84903825      74.57700478      95.10545030
H      93.65183715      74.84912537      94.54609131
C      91.08180936      74.74330070      97.80397948
H      89.02578714      74.79054385      97.70760343
C      91.95675264      72.42271678      99.34599615
H      93.97309062      72.24697224      98.96805089
H      91.07802990      70.73141173      98.56364945
C      91.97753963      72.63436613     102.21649042
H      93.34003230      74.08756566     102.74750351
C      89.55113105      73.07467236     103.51662212
H      88.85382204      74.94550141     103.00261656
H      89.64561736      72.90081754     105.56508544
H      88.16596166      71.74241531     102.77584941
C      93.24932545      70.37614319     103.33142894
H      92.77689387      70.51976239     105.33075938
H      95.24109698      70.39504045     102.80797475
H      92.44808148      68.59413127     102.68325282
C      92.16651226      77.10923804      98.98694815
O      94.46252974      77.66103812      98.97183034
N      90.45819968      78.47739989     100.17936545
H      88.64217269      77.89536419     100.11322503
C      90.88716755      80.88491121     101.44548208
H      92.88271854      81.13057563     101.89334722
C      89.94986331      83.01841222      99.76740512
H      89.93285576      84.63979740     101.04108065
H      88.02990137      82.65369504      99.12111872
C      91.76966974      83.43793146      97.53563834
H      92.48020683      81.68048599      96.72683548
H      93.35703985      84.50184738      98.30853640
C      90.71331273      85.25017900      95.48150584
H      90.37505172      87.07754434      96.37156693
H      88.94074944      84.42625832      94.82955026
N      92.58603150      85.66780851      93.41225553
H      93.66506523      87.23817108      93.52563910
C      93.03389664      84.23917542      91.44694016
N      91.76966974      82.12268195      90.97639831
H      92.29879310      81.11734755      89.44194054
H      90.26355786      81.80520793      92.10645464
N      94.77055512      84.83821866      89.90303376
H      94.88960789      83.84611235      88.27597941
H      95.67384430      86.51251617      90.05232214
C      89.58136666      80.89624957     104.03251740
O      87.45542456      80.12335151     104.30463799
N      90.88716755      81.79197984     106.01673003
H      92.69374590      82.34000047     105.75027862
C      90.00088591      81.96961412     108.66801605
H      88.23966099      80.90947765     108.80029689
C      92.03612115      80.95294136     110.48971222
H      91.07991964      81.24017976     112.29062139
H      93.60081454      82.29275732     110.52750674
C      92.85437265      78.13535943     110.08531079
H      93.91261937      77.91237172     108.33164477
C      94.38694068      77.45883741     112.34164400
H      96.12170943      78.56621703     112.31140838
H      95.10503668      75.52942684     112.42857141
H      93.26066381      77.99174023     113.98570590
C      90.51111202      76.49318726     109.97192721
H      89.51144680      76.81066128     108.19936392
H      89.24310565      77.17159901     111.44780346
H      90.70008465      74.45039312     110.16278956
C      89.16184742      84.63412822     109.57886413
O      88.16785139      85.01963239     111.70480624
N      89.63616874      86.59566413     108.12944405
H      90.54512708      86.18181407     106.50238970
C      88.42296444      89.21671453     108.25227626
H      87.36471771      89.47749676     110.00216283
C      90.64717232      91.11399975     108.37888792
H      91.85092797      91.25572922     106.71403904
H      91.76400057      90.56219966     110.02106009
C      89.77033930      93.80308029     109.11021201
H      88.83681451      93.52718025     110.92434927
H      88.43808226      94.44369751     107.67590974
C      92.01911362      95.52462096     109.50327508
H      91.38605530      97.43135481     109.95869912
H      93.08869870      95.53784904     107.74205016
C      93.94852417      94.60810370     111.66512198
H      95.00866064      92.94325482     111.07174792
H      93.06224253      93.86166180     113.36776539
N      95.74943336      96.57530879     112.24337823
H      94.97653529      98.09275902     113.10131398
H      96.75476775      96.99293830     110.67679512
H      96.99854244      95.81563881     113.47170034
C      86.61827582      89.80819886     106.11121635
O      86.82236625      88.85766653     104.00795096
N      84.64162208      91.24250113     106.71781850
H      84.13517544      91.80941903     108.46770506
C      82.86716907      92.07964989     104.74305450
H      81.79380453      90.40913183     104.19125441
C      80.98689139      94.13945157     105.66713067
H      82.11694773      95.76461620     106.23593829
C      79.38251375      95.17124214     103.50339404
H      80.58437969      96.06697241     102.09176848
H      78.39985608      96.83420129     104.21771058
H      78.06915398      93.75394740     102.78340831
C      79.18787195      93.23049322     107.75338851
H      80.24044950      92.50483831     109.36721479
H      78.15041221      91.55997515     107.13544801
C      77.35483742      95.16557296     108.74927428
H      76.26446534      96.01217035     107.21859597
H      78.57560062      96.62822113     109.53351070
H      76.16242013      94.02228854     109.97948611
C      84.54902549      93.24372130     102.50939800
O      86.10993944      94.88400374     103.13300768
N      83.87250348      92.69948012     100.16424764
H      82.47410601      91.40690732     100.00362091
C      84.86083034      93.65190218      97.75862605
H      85.63750785      95.46603944      98.34822066
C      86.65229088      91.87933890      96.53030394
H      88.30769113      91.52218063      97.70193426
H      87.56124924      92.84876850      94.95616192
C      85.61861060      89.40001798      95.52874900
C      85.61483114      88.82365145      92.94927258
H      86.31214015      90.16346741      91.57733128
C      84.38461931      86.68259154      92.04409367
H      84.66618852      86.21393942      90.07688858
C      83.44920479      84.84388784      93.75618571
O      82.66118891      82.54787037      93.11745822
H      83.05992116      82.30409567      91.36757165
C      83.49266848      85.36356257      96.39802310
H      82.86716907      83.92926030      97.70760343
C      84.65862963      87.58021154      97.19737733
H      84.78902074      87.89201638      99.20993585
C      82.73488823      94.39456462      96.10133607
O      80.61650504      93.53095970      96.17503540
N      83.22432735      95.97248610      94.29097826
H      85.07625913      96.28429094      93.94704807
C      81.46310242      96.75294306      92.23873549
H      79.51101514      96.93813624      92.86423489
C      81.90151894      99.54973801      91.11245860
H      80.66374820      99.73682091      89.47784534
H      83.83848840      99.65745241      90.41892905
C      81.16074621     101.59064242      92.97005957
H      82.47977518     101.86465274      94.52719405
H      79.22566647     101.23159442      93.57666171
C      81.07381881     104.04917636      91.56977237
H      79.83226863     103.99059484      89.92760020
H      82.98622184     104.23625926      90.82899966
C      80.37650980     106.03716844      93.41603498
H      81.52735312     106.21858216      95.11678866
H      78.51134992     105.71024579      94.23050702
N      79.87384259     108.52215854      92.16881561
H      78.92519999     108.28594275      90.52853317
H      81.58971410     109.28371824      91.83244433
H      79.06315001     109.93756355      93.15903220
C      81.75789973      94.99927704      90.02397625
O      83.87250348      94.38700572      89.23218092
N      79.58849392      94.23771734      88.89958909
H      77.90285805      94.73471536      89.64414126
C      79.31259389      92.49916913      86.76041890
H      80.63162285      90.95904219      87.13080526
C      76.63485170      91.46926829      86.71506547
H      75.33472000      93.03963086      86.42215789
H      76.19265574      90.80597436      88.61424042
C      76.16242013      89.57576253      84.64203571
O      77.38318331      87.50840194      84.69494804
O      74.87929596      90.30330716      82.76364775
C      79.90218849      93.86733098      84.14503769
O      80.17241935      96.14256146      84.02976438
N      79.92108576      92.51428694      81.92838872
H      79.60550147      90.63589899      82.04366203
C      80.25178787      93.51584189      79.35647121
H      81.90340865      94.73471536      79.20907256
C      80.60705641      91.38045116      77.37981749
H      80.77524206      92.42169035      75.60914393
C      82.94275813      89.89701600      77.81067509
H      83.14684858      89.21671453      79.74386510
H      84.60193784      91.01006480      77.31556679
H      83.07314924      88.26240274      76.56345572
O      78.51512938      89.57009335      77.26265445
H      78.85905956      88.36066851      75.95496385
C      77.95766012      95.28651544      78.56845534
O      78.28080331      96.87766500      76.87148111
N      75.81660020      95.06541747      79.93850691
H      75.58794332      93.47426791      80.96651803
C      73.60562042      96.78695814      79.87992540
H      73.43365532      98.01716997      78.23397378
C      71.35495639      95.06163801      79.80811580
H      69.74490957      96.34476218      79.71173976
H      71.25291115      93.77473439      81.41249344
C      71.33416940      93.32686926      77.41005311
H      72.95177512      92.06264235      77.59146683
H      71.55526736      94.29251940      75.60536448
C      68.86429710      91.88689781      77.26454418
O      67.03315231      92.87900412      76.11559058
O      68.74146488      89.83465503      78.41727723
C      73.69632728      98.84298037      81.98319078
O      71.68754821      99.81618942      82.70695596
N      75.64652484      99.19635919      83.43261087
H      77.17909288      98.09086929      83.17560809
C      75.97911666     100.85175944      85.56989133
H      75.47644947     102.74337548      84.92549465
H      77.96143957     100.73837586      86.11791196
C      74.69599250     100.14122234      87.98118210
O      75.05504050     101.52639173      89.89547486
N      73.17476282      98.14189190      87.90748278
H      72.58327848      97.45403153      86.22562636
C      71.83872632      97.23482327      90.17893380
H      70.90898097      98.82030365      91.10678942
C      69.79593217      95.57942302      89.25485764
H      68.62241213      95.00305650      90.84600719
H      70.83339191      93.97126593      88.49329793
C      68.02336890      96.57341906      87.24985802
C      67.26747836      95.06730719      85.20139470
H      68.06683259      93.20403705      84.97651726
C      65.69333635      96.19169435      83.30033002
H      65.41365685      95.04840993      81.62981196
C      64.84673896      98.67668445      83.45339786
O      63.71479289      99.84264558      81.35958110
H      63.07984485     101.53584036      81.52587702
C      65.39475959      99.95980862      85.75508451
H      64.57083891     101.80796095      86.01775646
C      67.23157356      99.01305573      87.45205873
H      67.63597499     100.15067097      89.09612063
C      73.60562042      96.00839090      92.22928685
O      75.32149191      94.59676534      91.71717102
N      72.85539908      96.35799026      94.62545982
H      71.42487625      97.58064319      94.93726466
C      74.29348079      95.43013464      96.76840946
H      76.29281123      95.69469633      96.34511076
C      73.77191633      96.80963485      99.29119409
H      74.51268905      95.72115250     100.87478474
H      71.74046054      96.73782525      99.62756537
C      74.71677949      99.50438457      99.50662288
C      72.94988538     101.35442664      99.88834760
H      70.99212893     100.79317792     100.00929008
C      73.61128959     103.92445442      99.80330992
H      72.14675170     105.33985943      99.90535514
C      76.13029478     104.51404903      99.47260781
O      76.79925789     106.97258296      99.29686326
H      75.52936181     108.15744136      99.82031745
C      77.98600601     102.58841792      99.22883312
H      79.93053438     103.12510019      98.92269745
C      77.34727851     100.05807438      99.27985573
H      78.74756572      98.63322074      98.87167484
C      73.88152046      92.51239722      97.16147253
O      71.79715233      91.49950391      96.99517661
N      76.06226463      91.17825044      97.75295687
H      77.73656213      92.03996564      98.06098226
C      76.20777355      88.35310960      97.59988904
H      74.29537053      87.76162527      98.08932815
C      77.19421069      87.70115402      94.92403658
H      79.17464387      88.26429247      94.83899889
C      77.19421069      85.00073512      94.27775018
H      75.28747684      84.23350624      94.14168988
H      78.14852247      83.83855344      95.68559628
H      78.28836222      84.75129125      92.54865060
O      75.88463035      88.61389183      92.76974858
H      76.62162362      90.18425440      92.23684576
C      78.06537452      87.50840194      99.70882360
O      79.54691994      89.03341107     100.50439838
N      77.59861212      85.26718653     100.51951619
H      76.14163314      84.27319049      99.79008183
C      79.48077953      83.85556098     102.14279109
H      81.16074621      85.04608855     102.06153286
C      78.41119443      83.50596161     104.89423260
H      77.34538879      85.17836940     105.44981214
C      76.32304686      81.55576405     104.96415248
H      77.09216546      79.65091993     104.81108465
H      75.06259940      81.72205997     103.34087757
H      75.13251929      81.81465656     106.62522191
C      80.38595843      83.08833209     106.99938772
H      81.61617026      81.46694692     106.68947260
H      79.34282950      82.75762999     108.74549483
C      82.31536900      85.19348721     107.42268641
H      83.36416709      85.42781327     105.66713067
H      83.45109451      84.99317622     109.13099900
H      81.38562365      87.02841146     107.53229054
C      80.23100088      81.25340784     100.98816831
O      78.91008218      80.18382275      99.52174070
N      82.34560461      80.25941180     101.82909652
H      83.53424247      81.43482157     102.75506242
C      82.87283826      77.60623606     101.65524170
H      81.06814962      76.92215513     102.37522743
H      84.35060423      77.10356886     102.99883711
C      83.17897393      76.52153316      99.04363994
O      84.93263993      77.40403534      97.68303699
N      81.68042095      74.67905000      98.29719804
H      80.33304609      74.12158074      99.52740987
C      81.78057645      73.75497383      95.68370655
H      83.42652806      74.56566642      94.74640230
C      82.17552925      70.77865489      95.94259906
H      80.52957764      70.12291986      96.99139716
C      82.35505324      69.48986155      93.27241578
H      81.82592988      67.49809001      93.35367401
H      84.27690491      69.74497460      92.57888622
H      80.92453043      70.02087464      91.89102584
C      84.47721590      69.89993216      97.58666095
H      86.13639560      71.09423919      97.33910680
H      84.99311119      68.06500791      96.80998344
C      84.32414807      69.63348075     100.46849358
H      85.91907707      68.49208605     101.09588271
H      82.53835671      68.65838197     100.80108541
H      84.36005287      71.45328718     101.42847455
C      79.48644870      74.49196710      94.18893304
O      77.63073747      73.07467236      93.89224601
N      79.50912543      76.88625033      93.36879182
H      80.86027974      77.97662242      94.16625632
C      77.56837649      77.93504844      91.67748677
H      77.19232096      76.57822495      90.17515435
H      78.16364028      79.69249391      90.78364622
C      74.95866445      78.58133484      92.82455064
O      73.15019638      78.60212183      91.39969700
N      74.71677949      78.62101909      95.41914487
H      76.22856054      78.51897387      96.57943683
C      72.21478186      78.99518490      96.57187792
H      70.67087545      78.07488819      95.56654352
C      72.31493735      77.55521345      99.14757489
H      73.97978622      78.15992587     100.19826272
H      72.74579495      75.57478027      98.78096798
C      69.94522055      77.69883265     100.66502511
N      67.89108805      76.22484612     100.68392238
H      67.84195517      74.49952600      99.86756061
C      66.30182822      76.89191951     102.39412469
H      64.56139029      75.89414402     102.77395968
N      67.14842560      79.09723012     103.33142894
H      66.32261521      80.23484536     104.62400174
C      69.57294447      79.63580212     102.40924250
H      70.87496590      80.96238999     103.25017071
C      71.73479137      81.84678191      96.95549236
O      72.92531894      83.02975058      98.50884739
N      69.88096985      82.84266767      95.67047847
H      68.98146013      81.66725791      94.46861253
C      68.62808132      85.30498106      95.98984222
H      70.06427331      86.74684224      95.67614765
C      66.28104124      85.57710165      94.02263712
H      65.02626295      83.97083428      94.31743443
H      66.76670089      85.19159748      92.05921149
C      64.61052316      87.82776569      94.19649195
H      64.10974570      88.49294935      96.08054908
C      66.05238435      89.86867010      92.79431502
H      67.74557913      90.34110168      93.87145902
H      64.72012729      91.43147377      92.94549313
H      66.50969811      89.47560703      90.82333048
C      62.17466596      87.50273276      92.88502188
H      61.23925142      85.87945786      93.74295763
H      62.30883652      87.11155941      90.86679418
H      61.05783770      89.22805288      92.97950820
C      67.73990994      85.87189895      98.62223097
O      66.88197419      84.26941104     100.09243804
N      67.99124355      88.29263836      99.32898861
H      68.64508885      89.48127621      97.98539320
C      66.85740775      89.19214808     101.68736705
H      66.25836451      87.65391087     102.91946861
C      68.80382585      90.59999419     103.24450153
H      67.81171954      91.38612033     104.86966616
H      69.32161086      92.10421633     101.93492120
C      71.30015431      89.11088985     103.87755985
H      72.12596472      88.47405209     102.10121711
C      73.42042724      90.61700172     105.28918540
H      74.96244391      89.36600291     105.83342658
H      72.58894767      91.47682720     106.96348292
H      74.09694927      92.16279785     104.10621673
C      70.75213368      86.80164430     105.68791765
H      69.83183697      87.86744994     107.19025007
H      72.51713807      85.80386881     106.05452456
H      69.34239786      85.58466055     104.80919492
C      64.59540535      90.69070105     101.31320124
O      62.66599479      90.00095095     102.28452057
N      64.69934030      92.66735477      99.75228731
H      66.33206384      93.16246307      98.90002074
C      62.47135298      94.22637898      98.88112348
H      60.99358701      93.23427267      97.84555346
C      61.52837956      95.87044087     100.98627859