 %block lattice_cart
   140.777   0.000   0.000
   0.000 144.511   0.000
   0.000   0.000   162.462
 %endblock lattice_cart

 %block positions_abs
N      94.23306662      43.42866996      83.60827570
H      93.12001782      41.92633754      83.23222017
H      94.04976317      43.50425902      85.50745065
H      95.92815112      42.67277944      83.16419002
C      93.17293016      45.65476756      82.38751250
H      93.80787820      47.29127055      83.46465650
C      93.95338713      46.01570529      79.62095318
H      93.32788772      44.36030504      78.56837563
H      96.01129908      46.12530941      79.62095318
C      93.04253904      48.58195362      78.49089685
H      91.05265723      48.35707619      78.00901664
H      94.11779331      48.98824478      76.78258426
S      93.41292540      51.24079854      80.75856842
C      91.67437719      53.27603378      78.69309756
H      92.61357117      53.19288582      76.86384249
H      91.77075323      55.26213613      79.23544901
H      89.75252553      52.54093024      78.81592977
C      90.35723795      45.68122373      82.38940223
O      89.12135694      43.65165767      82.10405356
N      89.17048983      47.77693021      83.20765372
H      90.04921256      49.45122772      83.46276678
C      86.27731884      47.83173227      83.49867158
H      85.46095707      46.90387665      81.84894050
C      85.81433590      46.44845261      86.09704526
H      86.91982579      44.72880167      86.34837886
H      83.92271986      45.64342920      86.24633364
C      86.14503800      48.05471998      88.40629081
O      84.38759253      48.85218448      89.55713414
N      88.36168697      48.80116187      88.94486281
H      88.87002334      49.88208532      90.43207742
H      89.65803922      47.74669459      88.02456610
C      85.36458103      50.61340940      83.42686198
O      86.98407648      52.25558157      83.53457638
N      82.84368613      50.94033206      83.69331339
H      81.70796062      49.44366882      83.35883183
C      81.45851674      53.35351256      83.79157915
H      81.54733388      54.30593462      81.96988299
C      78.64282454      52.71100561      84.16763469
H      78.20062858      51.25024717      82.78435503
C      78.02866349      51.56394174      86.70175768
H      76.10870155      50.81938957      86.75844947
H      78.09291418      52.91698578      88.25322298
H      79.18706572      49.94444629      87.21954269
C      76.93262222      55.11095803      83.96165452
H      77.67906412      56.37707466      85.40540543
H      75.02777810      54.47223054      84.41140939
C      76.69451671      56.13896914      81.33493495
H      75.84036042      57.99090093      81.61650417
H      75.27533225      54.93521348      80.45243276
H      78.49164643      56.00290885      80.33904918
C      82.45629224      55.20733407      85.98933086
O      82.75486899      57.45610838      85.51123010
N      83.28588209      54.22467639      88.05669144
H      82.99864369      52.34817816      88.23999490
C      84.57467543      55.87818691      89.99744037
H      83.36714032      57.54870497      90.03712462
C      84.59168297      54.69332851      92.62793939
H      85.53843585      55.92165062      93.98476289
H      85.87102768      53.08328170      92.53912226
C      82.25976070      53.82405441      93.79201080
C      80.58168373      55.76102388      94.52900407
H      81.00687215      57.74145706      94.27767047
C      78.13637789      55.25646696      95.35103501
H      76.86459208      56.83627815      95.57780217
C      77.39560517      52.75068986      95.60425834
H      75.50398913      52.33495008      96.24676528
C      78.96974719      50.75513888      94.89183152
H      78.36503477      48.81627968      95.08647333
C      81.47552428      51.33528486      93.96397590
H      82.61691897      49.67043597      93.66539914
C      87.07667307      56.90997748      89.38138959
O      87.66248823      59.10017028      89.93507940
N      88.57522604      55.64953003      87.84315237
H      88.06311021      53.89586401      87.29513174
C      90.81833117      56.80037335      86.94175292
H      91.65170048      57.89641462      88.47243123
C      92.87624313      54.95977992      86.10271444
H      94.50140776      56.06526982      85.48288420
H      91.99185121      54.04515239      84.48321899
C      93.81165765      53.13052485      88.27589970
H      92.62868898      51.44677871      88.40440108
H      93.48662473      54.18121268      90.01822736
C      96.44971558      52.10818292      87.83370374
O      96.71238754      50.03515315      86.73199330
O      98.23172750      53.51413930      88.34770930
C      90.01897694      58.80537297      84.83281835
O      90.94305311      60.95966097      84.89328960
N      88.43916574      58.04381327      83.00167356
H      87.50753067      56.38841302      83.19820509
C      87.71162111      59.24756893      80.56392661
H      89.43127206      59.36284223      79.43764973
C      85.68394478      57.57138169      79.23166956
H      83.94350685      57.89452489      80.28424712
H      86.37747434      55.63063277      79.22977984
C      84.88459055      58.45577360      76.58416300
H      86.40770996      58.40286127      75.19710388
H      84.17027400      60.38518417      76.69187740
S      82.53566074      56.35250822      75.01191070
C      82.84746558      57.26713575      71.86362667
H      84.64081585      56.48856851      71.21545054
H      83.11580672      59.30237099      72.02992258
H      81.10135847      56.67754114      70.94332995
C      86.89336962      61.98767208      80.92297461
O      87.56611219      63.69031549      79.40930383
N      85.44394954      62.49789819      82.89584888
H      85.27009472      61.28280417      84.36038677
C      84.43294596      65.04713898      83.38150854
H      84.13814866      66.04680420      81.60705554
C      82.00653737      64.93186568      85.05013688
H      81.36214070      66.64773717      85.99311031
H      82.38259291      63.69409494      86.65262479
C      79.85224938      64.06637103      83.45142842
H      80.50420496      62.27113103      82.68042008
C      77.57890862      63.25756817      85.12383621
H      76.48853654      64.93564513      85.61138559
H      78.01921485      62.12373238      86.78679536
H      76.17295225      62.18231389      84.07125865
C      78.88093005      66.03357612      81.54091512
H      80.16405422      66.47766180      79.99322927
H      78.82990744      67.84960311      82.51223444
H      77.07246197      65.46665823      80.73589171
C      86.39637160      66.61939128      84.96320947
O      86.41526886      68.99855670      84.64195600
N      87.91760128      65.34382601      86.57703574
H      87.64926015      63.45598943      86.63939671
C      90.16259614      66.46065427      87.82236538
H      89.53709673      68.29746824      88.51400521
C      91.27942439      64.81659237      89.94074858
H      92.10712452      63.10639006      89.14706353
H      89.61457551      64.42352930      91.08970218
C      93.12001782      66.18853368      91.68496596
H      92.50018759      65.61405688      93.56524365
H      93.08411302      68.24644563      91.62260500
C      95.82610590      65.23800134      91.60748719
H      96.88435264      66.09215763      93.15706276
H      96.74829234      65.73121991      89.83492390
N      95.96783537      62.43175777      92.09314685
H      94.88691192      61.72688985      93.50099295
C      97.00340539      60.85194657      90.44341578
N      98.37723642      61.71177204      88.59526344
H      98.96116185      60.48722939      87.25166803
H      99.06698653      63.48055587      88.80880252
N      96.56309916      58.43876607      90.56057881
H      97.75740619      57.21800287      89.71020197
H      95.72406068      57.51846935      92.00621944
C      92.15058822      66.97654955      85.77201233
O      93.73606860      68.57147856      86.26334117
N      92.10523479      65.88428774      83.56859145
H      90.74274212      64.55203069      83.47221541
C      93.71717134      66.44175700      81.40485482
H      95.55398531      66.82348172      82.25145221
C      94.25952279      64.00212033      79.95354501
H      92.44538553      63.03080101      80.00834708
C      95.21572430      64.53313343      77.31548708
H      96.71049782      65.94286926      77.45532683
H      93.84189327      65.37217191      76.03047319
H      95.81476754      62.84371810      76.30259378
C      96.01507853      62.28057966      81.46154661
H      95.14769416      62.04814332      83.31536812
H      97.72717057      63.42197435      81.51067949
C      96.65002657      59.66708817      80.25023204
H      95.23084211      58.17798384      80.36172590
H      98.22605832      58.91497710      81.34438358
H      97.36245339      59.79747929      78.32271120
C      92.68160132      68.83792997      80.08204640
O      94.20283100      70.19097401      78.91797499
N      90.08322764      69.17241152      79.73433676
H      88.83600827      67.94408942      80.49400674
C      88.83978772      71.37961186      78.54758864
H      89.98118242      71.85582289      76.89974729
C      86.20928869      70.74466382      77.61406384
H      85.26253581      72.51155792      77.14730144
H      85.17560840      69.84515409      79.15230106
C      85.99952907      69.03257178      75.15930936
O      87.60012726      69.34248689      73.43209951
O      84.14570756      67.49244483      74.96655727
C      89.07600351      73.77200537      80.13684847
O      90.42337837      75.52756112      79.36961958
N      87.83067387      73.71909303      82.33648989
H      86.65715383      72.24321678      82.62750775
C      87.34501421      75.90928583      83.95598534
H      87.11635732      77.44941278      82.60672076
C      84.82222958      75.58803236      85.50178147
H      84.92805425      76.81635446      87.15151254
H      84.71073573      73.75310811      86.42774736
C      82.43361552      76.10770709      84.00133878
H      80.70073649      75.57669400      84.98210673
H      82.60747034      75.24032272      82.14373781
C      82.22196617      78.99142945      83.46843596
O      83.13470398      79.94952069      81.50878977
O      81.35458180      80.17250839      85.27312458
C      89.55977345      76.36848932      85.77957124
O      89.73929745      78.47742389      86.74711111
N      91.24918877      74.52033699      86.16885486
H      90.57455648      72.85737784      85.51878900
C      93.04442877      74.36159998      88.34581957
H      94.43715706      75.87149130      88.21731818
H      94.33511184      72.76100179      88.49132850
C      91.92004161      74.73198634      91.01789258
O      89.53142755      74.70553017      91.25788782
N      93.51308089      74.91717952      93.11548878
H      95.27052637      74.25199585      92.78289695
C      92.75719037      75.66740086      95.66472958
H      90.71817568      75.60315017      95.93496044
C      94.18204401      73.91751430      97.51477164
H      96.17381554      74.38049724      97.26532777
H      93.87023917      71.94841948      96.99887636
C      93.49607336      74.10837665     100.33046385
H      93.60000830      76.10959682     100.81234406
C      90.74085239      73.35626558     101.08635437
H      90.36479686      71.34748651     100.82179269
H      89.30843985      74.44474794     100.08668915
H      90.73140376      73.90806567     103.07245673
C      95.40469693      72.46809421     101.79311201
H      95.09667154      72.73643535     103.81133971
H      97.26418763      73.32036078     101.53421951
H      95.42359420      70.49333022     101.20540713
C      93.41859458      78.48498280      96.26944200
O      95.61823601      79.13693837      96.09558718
N      91.50052237      79.93818233      97.13304692
H      89.68638511      79.40338978      96.86659551
C      92.00129984      82.57057108      98.13649160
H      93.97039466      82.69529302      98.72608621
C      91.28887302      84.51698919      96.02944676
H      91.23218123      86.33112645      96.99887636
H      89.48985357      83.85180552      95.27922541
C      92.99151643      84.72485908      93.65217106
H      93.61701584      82.84080195      93.10604015
H      94.64124750      85.80200308      94.24932457
C      91.64792102      86.15160245      91.48087552
H      93.12001782      86.78466076      90.18641300
H      90.72195513      87.88637120      92.09692630
N      90.04165366      84.45084877      89.89350542
H      89.41426452      82.88237593      90.77789733
C      89.21773298      85.13492969      87.71087153
N      89.42938233      87.37614510      86.87939195
H      88.83789800      87.92605546      85.15029237
H      90.40826056      88.69139461      87.85827018
N      88.05177185      83.53811096      86.22176719
H      87.29588132      84.27321449      84.63061764
H      88.24830339      81.69184835      86.66396315
C      90.31377425      83.03166430     100.40794262
O      88.03476431      83.14693761     100.19440355
N      91.47784566      83.12048144     102.61892241
H      93.38457951      83.16016569     102.55656144
C      90.35345850      82.95796498     105.16627348
H      88.94750212      81.45185311     105.21351664
C      92.54176157      82.49498203     107.11269158
H      91.63847239      82.72552864     108.95139529
H      94.10078578      83.84046717     107.12591967
C      93.47906582      79.78511450     107.07300733
H      94.48440022      79.61692886     105.28532624
C      95.38957912      79.30323429     109.18005217
H      96.14546965      77.39083126     109.05344051
H      94.48628995      79.68306928     110.99229970
H      97.04875883      80.50887968     108.98730009
C      91.48918401      77.71586419     107.12214021
H      92.54365130      75.95085981     107.01442582
H      90.30999479      77.79523269     105.43461462
H      90.51975441      77.89349846     108.93060830
C      88.90781787      85.39949137     105.97129689
O      87.42060326      85.42783727     107.69094784
N      89.37647000      87.48574922     104.57100969
H      90.82211062      87.28354851     103.34079786
C      88.18783214      90.02932084     104.80911521
H      86.85935455      90.08790236     106.38325723
C      90.34967905      91.99652593     105.33823858
H      91.73295871      92.10424033     103.81511917
H      91.45516894      91.35779844     106.95584430
C      89.34056520      94.67237839     105.60091053
H      87.73807728      94.59112016     106.88970388
H      88.51286507      95.18260450     103.78299382
C      91.09423121      96.74540816     106.60435521
H      92.48506978      96.93816024     105.09824333
H      92.10901424      96.22951287     108.32400615
C      89.54654536      99.10000714     107.19206009
H      87.80799716      98.48773582     108.10857735
H      88.93994322      99.86345657     105.37792283
N      90.82777980     100.82154782     108.88147541
H      92.29987660     101.68326301     108.02353967
H      91.26997576      99.85211822     110.46506606
H      89.60890633     102.11223089     109.57878442
C      86.67038192      90.52820859     102.44695732
O      87.29210187      89.66460366     100.47030359
N      84.54066036      91.98518758     102.59813542
H      84.14192811      92.89792538     104.22707950
C      82.82100942      92.77509317     100.49675976
H      81.99519902      91.00630935      99.83724528
C      80.67805978      94.52497974     101.50398389
H      81.53032634      96.08022450     102.55278199
C      79.20785270      95.95550256      99.56323496
H      80.65538306      96.92871161      98.46908343
H      77.90583128      97.32177468     100.38526591
H      78.17984159      94.64403250      98.35569985
C      78.91872458      93.35145970     103.27276772
H      80.00153776      92.26675680     104.64659874
H      77.81701414      91.99841566     102.17483673
C      77.02899827      94.85379212     104.96029331
H      76.20318787      93.65948509     106.41916203
H      75.43784871      95.55488058     103.85480342
H      77.76410180      96.63580403     105.68405849
C      84.30822402      94.04498926      98.27822107
O      85.95228592      95.63235936      98.65049715
N      83.65248899      93.13603090      96.05968238
H      82.33723948      91.75842042      95.91795291
C      84.93183371      93.75586113      93.66728887
H      86.02409552      95.44149700      94.13027181
C      86.81400111      91.62236012      92.62604967
H      88.29176709      91.30488610      94.02633687
H      87.62280398      92.36880202      90.88372201
C      85.57245093      89.13737002      92.06480095
C      84.23263497      88.75186585      89.74988622
H      84.03799316      90.19561676      88.32125313
C      83.26509510      86.41994358      89.18485805
H      82.32401140      86.20073533      87.38583860
C      83.58634857      84.31100902      90.86104529
O      83.12903480      81.94507167      90.12972121
H      82.61124979      81.85625454      88.39117300
C      84.62947750      84.74186662      93.24210045
H      84.88270082      83.31323353      94.67640272
C      85.57056120      87.15504712      93.87137931
H      86.13180992      87.66527322      95.76677480
C      82.92494436      94.45317014      91.68118651
O      80.86514268      93.55177069      91.54323649
N      83.64681981      96.38258071      90.16562601
H      85.30599952      97.24429590      90.54924045
C      81.92527914      97.28020070      88.23621544
H      80.01476584      96.76241569      88.80502306
C      82.04622163     100.20738676      87.88094690
H      83.99263973     100.65903135      87.38394888
H      81.69284281     101.36200954      89.54957523
C      80.44184399     101.46216504      85.79846850
H      78.55778685     100.63824436      85.67185684
H      81.59079759     101.25051569      84.10338400
C      80.28121725     104.29297505      86.19531102
H      82.18984083     105.06587311      86.15940622
H      79.42895068     104.64257442      88.03779418
C      78.61636837     105.76885130      84.25645183
H      78.25732037     107.60377555      85.12383621
H      76.87970989     104.68036895      84.05803056
N      79.90138226     105.94459585      81.72232884
H      78.80534100     106.70426583      80.35605672
H      80.25098163     104.15691476      81.15352122
H      81.58890786     106.81764941      81.88295558
C      82.20684836      95.86290597      85.81547604
O      84.14192811      96.25029986      84.61549983
N      80.24342272      94.47773658      84.99155536
H      78.68817797      94.23396189      86.07436854
C      80.46641043      92.79965962      82.69931735
H      82.17283329      91.65070602      82.83726737
C      78.14771624      90.94394838      83.10371878
H      76.42239612      92.01920265      83.43442088
H      78.40849847      89.76664888      84.77234711
C      77.76977098      89.25453305      80.83415747
O      76.03122277      89.74586189      79.26190518
O      79.36092054      87.57267663      80.44298413
C      80.57979401      94.18293928      80.12928956
O      80.87648104      96.51675127      79.96488337
N      80.57601456      92.79965962      78.05814952
H      80.11114188      90.97229427      78.34538792
C      80.85569405      93.66893372      75.41631214
H      82.15960521      95.25819355      75.28025184
C      81.78732912      91.74141288      73.59272624
H      81.73819624      92.71651166      71.78047871
C      84.51609392      90.73418876      74.15019551
H      85.80866672      92.31966913      73.88752355
H      85.03387893      89.27532004      72.79337201
H      84.71073573      89.67594202      75.90575125
O      80.37759329      89.55499954      73.34139264
H      81.02954887      88.78210147      71.83339105
C      78.39527039      94.91048391      74.57160447
O      78.31401216      96.49407456      72.97667547
N      76.23720294      94.02609199      75.62985121
H      76.38271187      92.38203010      76.58605272
C      73.70874913      95.16937641      75.25757513
H      73.59347583      96.12935738      73.43965841
C      71.79256665      93.00752951      75.45599639
H      69.85370746      93.67082345      75.67898409
H      72.23854206      92.05132800      77.22666994
C      71.97020093      91.28409911      73.12407412
H      71.54312278      89.31122484      73.53792418
H      73.72197722      91.15748745      72.04693012
C      70.03134173      92.00408484      71.11151559
O      69.89339171      94.22073380      70.24224149
O      68.35137504      90.49986269      70.47278810
C      72.94340998      97.20461165      77.12840417
O      70.97809461      98.38002142      76.73912055
N      74.65739174      97.57688774      78.94443116
H      76.05956867      96.30888138      79.20899285
C      74.67439928      99.79164697      80.53180126
H      73.27978126     101.15980883      79.87228678
H      76.60758930     100.38313131      80.92486434
C      73.74843339      99.26252361      83.22088181
O      73.24387646     100.95571838      84.65707381
N      73.29300935      96.87579927      83.88984492
H      73.66339570      95.39614357      82.74089132
C      72.00988518      96.24652041      86.20664938
H      70.86282131      97.83011106      86.85671523
C      70.12393832      94.07900433      85.57170134
H      68.79357099      93.85979608      87.13072555
H      71.18029533      92.31777941      85.40729515
C      68.62538535      94.54198728      83.20765372
C      68.23043255      92.59178972      81.33871440
H      69.06758131      90.75119629      81.61461444
C      66.54290696      93.05288294      79.36772986
H      66.25566856      91.54866080      78.01846527
C      65.58292599      95.41882029      78.88018047
O      64.04657850      95.89881077      76.80904043
H      63.80469353      97.69027131      76.65975205
C      65.96087125      97.35201030      80.63006703
H      65.03679508      99.12268386      80.21243752
C      67.42918860      96.90036572      82.84860572
H      67.53690300      98.44049266      84.18464223
C      73.70874913      95.51141688      88.48943877
O      75.53611448      94.15648311      88.19086201
N      72.97364560      96.28431494      90.78923569
H      71.54312278      97.54476239      90.87238365
C      74.23787250      95.42448947      93.18162920
H      76.28255637      95.62480045      93.03234083
C      73.39127511      97.07611026      95.43985215
H      74.07535604      96.23329233      97.19162844
H      71.33336316      97.01941847      95.52300011
C      74.27566703      99.80865451      95.16395211
C      72.57491335     101.82310276      94.93340550
H      70.60581853     101.52641573      95.38693981
C      73.44985663     104.34777712      94.47609173
H      72.13082766     105.90302187      94.39294377
C      76.06523785     104.91847446      94.31735472
O      76.77955439     107.30708852      94.01877796
H      75.70430012     108.70359627      94.44207665
C      77.70929974     102.84733442      94.32869308
H      79.71807881     103.10433720      94.08491838
C      76.95718867     100.32643952      94.86159590
H      78.27432791      98.78064340      95.06001716
C      73.84291970      92.52375957      93.70508339
O      71.78500775      91.57133751      94.09625674
N      75.92539810      91.01575798      93.70697312
H      77.47875313      91.98329785      93.17029085
C      76.24854130      88.30778017      93.63327379
H      74.45141158      87.43283689      94.13027181
C      76.96663730      87.37425537      90.97820832
H      78.92628348      87.94873217      90.72309527
C      76.79278248      84.56234262      90.72876445
H      77.74520454      83.49464725      92.21030988
H      77.34647229      83.79133428      88.90139910
H      74.78967259      84.10502885      90.84970693
O      75.39438501      88.34368497      89.02990049
H      76.18429060      89.90648863      88.55557919
C      78.24598201      87.61803007      95.78189261
O      79.78043978      89.19595154      96.49431943
N      78.70707523      85.25209272      96.63226945
H      77.26143460      84.09935967      96.16361733
C      80.61758853      84.44895904      98.56545947
H      82.45440251      85.33902013      98.29144915
C      79.51776782      85.28421807     101.25642974
H      78.78266428      87.20606973     101.15060507
C      77.34080311      83.47008081     101.91216477
H      77.99653814      81.63893601     102.58868679
H      75.91783919      83.40205066     100.42495016
H      76.33357898      84.29967066     103.50520405
C      81.63048184      85.28610780     103.30489306
H      83.34257388      86.18750725     102.59435597
H      82.12181068      83.30756435     103.59402119
C      80.79900226      86.15916135     105.90893592
H      82.32401140      85.99475516     107.28087723
H      79.34580273      85.09524544     106.90860114
H      80.33979877      88.16416097     105.78610371
C      81.05600504      81.62759765      98.45963480
O      79.48564247      80.17439812      97.48264629
N      83.18383687      80.85092014      99.49520482
H      84.22129661      82.34191420     100.08857888
C      84.18161236      78.29601016      99.81267884
H      82.84746558      77.06012916     100.78210843
H      85.89370440      78.80056709     100.84068995
C      84.80144259      77.12437985      97.24643050
O      86.55510861      77.91617518      96.03133648
N      83.41438348      75.08536516      96.61148246
H      82.15960521      74.44852739      97.90027581
C      83.44083965      73.77389510      94.12838209
H      84.88081110      74.64883838      92.94352369
C      84.21562743      71.00733577      94.46475337
H      82.66038268      69.92830205      95.28111514
C      84.96584878      70.16262811      91.66039952
H      86.36613598      71.32103034      90.68908020
H      83.23485948      70.10404660      90.54735072
H      85.47040571      68.16707713      91.66984815
C      86.70061754      70.78623780      96.05023375
H      86.30188528      71.51567215      97.93240115
H      88.16515543      71.85960234      95.07891442
C      87.68138549      68.05369355      96.42062010
H      86.17527362      66.91607831      97.24643050
H      89.38213917      68.10471616      97.57902233
H      88.26342120      67.21843452      94.62915956
C      80.84057624      74.33514381      92.89250108
O      79.15116092      72.75344289      92.69219009
N      80.45696180      76.67273526      92.08369822
H      81.63993047      78.06357383      92.64305720
C      78.58991220      77.25288124      90.28845822
H      78.09291418      75.63716524      89.11115873
H      79.14360201      78.88371505      89.15651216
C      76.04067140      78.02388958      91.50355224
O      74.32668964      78.61348418      90.01066845
N      75.78366863      78.27711290      94.01310878
H      77.32757502      78.44907800      95.12426785
C      73.27978126      78.75710338      95.12426785
H      71.75855158      77.75176899      94.16617661
C      73.15127987      77.96908751      97.87381964
H      74.59503077      79.04245206      98.87537458
H      73.71063886      75.98865434      97.91161417
C      70.60203908      77.94830052      99.21552532
N      69.28301011      75.75999745      99.50276372
H      69.94441432      74.07247185      98.90938966
C      67.04179470      76.25510575     100.61770225
H      65.46576296      74.97954048     100.85769749
N      67.05502279      78.74009585     101.01643450
H      65.57158763      79.79078368     101.59658048
C      69.33970190      79.90416726     100.20007273
H      69.79323621      81.89593879     100.20385218
C      72.56357499      81.51610380      94.67640272
O      73.83536080      83.20929858      95.57591244
N      70.57747263      82.00365319      93.24210045
H      69.29056901      80.64493997      92.85848600
C      69.51355672      84.56801180      93.00588466
H      70.94974872      85.75475992      92.12716192
C      67.47454203      84.53588645      90.90450900
H      65.96465070      83.33213079      91.62638445
H      68.34570586      83.58724384      89.29824163
C      66.17063087      86.94717723      89.86138007
H      64.93474986      87.71062666      91.32024879
C      67.99610649      88.85769053      89.03367995
H      67.15517828      90.61702572      88.36660656
H      69.11860392      88.02621095      87.52000917
H      69.42473958      89.21106935      90.47554112
C      64.29224292      86.12703601      87.81480647
H      65.39773281      85.52043386      86.18586239
H      63.12628178      87.80700270      87.55213452
H      63.05636191      84.56423234      88.33637094
C      68.28901407      85.50909550      95.56646381
O      67.28745912      83.94440211      96.87415442
N      68.40806683      87.95440135      96.14472006
H      69.54190261      89.04855289      95.06568634
C      66.84337344      89.10524467      98.12137379
H      66.26511719      87.55755882      99.35158562
C      68.48554561      90.82678535      99.71819252
H      67.27234131      91.74708206     101.10336191
H      69.10915529      92.29132324      98.41239164
C      70.73620964      89.39059335     100.84446940
H      71.61304265      88.11691781      99.48386646
C      72.72987090      91.30110665     101.61547774
H      74.29834374      90.16538114     102.32412511
H      71.91539886      92.33856640     103.19528894
H      73.18340522      92.66548905     100.14149121
C      69.85181773      87.60858143     103.04411083
H      68.45153053      86.32356754     102.25231551
H      69.03167651      88.73485832     104.56156106
H      71.46942345      86.62970320     103.86803150
C      64.56247378      90.32411815      97.02722225
O      62.49700292      89.53421255      97.77366414
N      64.82136628      92.31588968      95.62504533
H      66.60904738      92.48218560      94.96742057
C      62.77668241      93.68594126      94.35892870
H      61.14584861      92.44628080      94.15294853
C      61.83181926      95.80243473      96.09936663