 %block lattice_cart
   140.777   0.000   0.000
   0.000 144.511   0.000
   0.000   0.000   162.462
 %endblock lattice_cart

 %block positions_abs
N      91.58933950      42.40538317      79.62662236
H      90.56510784      41.81956800      78.12806939
H      91.32288809      41.05611857      80.94754105
H      93.46205828      42.42428042      79.24489765
C      90.72762431      44.83935066      80.49967592
H      91.66681829      45.06800753      82.31759263
C      91.78776078      46.81411465      78.62506741
H      91.02431135      46.49097145      76.73912055
H      93.82866519      46.68561327      78.37562354
C      91.02809079      49.57500479      79.15985996
H      91.45516893      50.05121582      81.11572670
H      89.03631925      49.89436854      78.74034072
S      92.78931571      51.73685169      77.16430897
C      95.55209558      52.37935864      79.03513802
H      95.29887226      53.42248756      80.79258350
H      97.20560610      53.19572041      78.11484131
H      96.20216143      50.48963233      79.53213604
C      87.80043825      44.99997740      80.69053827
O      86.41904831      43.53921895      79.54158468
N      87.00675319      46.69695162      82.25145221
H      88.31066436      47.27709760      83.51756884
C      84.33090074      47.48685722      82.69742762
H      83.18572660      47.06166880      81.03824792
C      83.28588208      45.94673027      85.01234235
H      84.18917126      44.11936492      85.30902938
H      81.24119821      45.85035423      84.79313410
C      83.73185749      47.16938319      87.58425986
O      82.04055245      48.40715393      88.45920315
N      85.92960920      46.93127768      88.71053675
H      86.10913321      48.08967992      90.21853834
H      87.39792654      46.14515153      87.77512222
C      84.12114112      50.33656450      83.06403452
O      86.00141880      51.71039552      83.31725785
N      81.79110858      51.43260576      82.93364341
H      80.53255085      50.08334118      82.44987347
C      81.27710301      54.18215754      83.23033044
H      82.27298878      55.33300087      81.84516105
C      78.28188682      54.78309051      83.03568863
H      77.53166547      53.81744036      81.37461920
C      76.84569482      53.82688900      85.36005199
H      77.21608117      55.21016866      86.84348715
H      77.27844214      51.86157363      85.80035823
H      74.85770274      53.82688900      84.82336972
C      77.68095385      57.57232656      82.68230981
H      78.76754647      58.77419249      83.95220589
H      75.66650559      57.99184580      82.75600913
C      78.50487451      58.25640748      80.04992105
H      78.07968609      60.26518654      79.87984569
H      77.61481342      57.45327380      78.37562354
H      80.54766867      58.23373077      79.79291828
C      82.33723947      55.33489060      85.64162121
O      83.28021290      57.51563477      85.38461844
N      82.44306416      53.88547051      87.61449549
H      81.51709826      52.21684219      87.59181877
C      83.40493484      54.96261451      89.98610201
H      82.53377101      56.82399494      90.11082395
C      82.63014706      53.17871288      92.06291123
H      83.82067463      51.51764345      91.80968790
H      80.70073650      52.50219085      91.82102626
C      82.94951080      54.18026783      94.73120478
C      82.12747985      56.66147847      95.25087952
H      81.26198521      57.79909371      93.79201080
C      82.32590113      57.52886284      97.63193467
H      81.71740924      59.38646381      98.21397038
C      83.24241839      55.95850028      99.60669867
H      83.20651359      56.54998461     101.56067568
C      83.88681505      53.49240744      99.18339997
H      84.19295071      52.19983464     100.73297555
C      83.83957190      52.62502306      96.66817425
H      84.36869526      50.69750222      96.25810364
C      86.10157430      55.67126188      89.73287868
O      86.97084839      57.57988545      90.78356651
N      87.53776629      54.07066369      88.43085725
H      86.74219152      52.35290247      88.17763393
C      90.26842081      54.39002745      87.84693182
H      91.50241209      54.90592272      89.41351494
C      91.32288809      51.85779419      86.76411864
H      92.96883972      52.14503258      85.56036298
H      90.00196940      50.97718172      85.45264858
C      92.02397655      49.85279456      88.68597031
H      90.53487222      49.61468904      90.08814723
H      93.88535698      50.51608849      89.27178546
C      92.40759101      47.16560374      87.56158315
O      90.68416060      45.94295082      86.53924121
O      94.48440021      46.30766800      87.78268113
C      90.82211062      56.38746815      85.97043359
O      92.58900472      57.83877796      86.36538639
N      89.38213917      56.41959350      83.87661684
H      87.97429307      55.13080016      83.87661684
C      89.47284604      57.93326427      81.63351170
H      91.37769016      57.74240192      80.87384173
C      87.79476908      57.02808538      79.45465727
H      85.80677698      57.54209094      79.61339428
H      87.92138073      54.98907069      79.20710312
C      88.45050410      58.34522461      76.90730620
H      89.81866596      57.37768474      75.71110944
H      89.37458026      60.16692077      77.18320624
S      85.78221054      58.76096440      74.92120384
C      84.23263497      55.71283587      74.73034148
H      82.21062782      55.77897628      74.34483732
H      84.17972263      54.72072954      76.53503011
H      85.22285156      54.27853358      73.63241050
C      89.03631925      60.70171333      82.08704602
O      90.48951880      62.26640672      81.07604244
N      87.28454296      61.41225042      83.81047642
H      86.23007569      60.08755227      84.69108888
C      86.49652710      64.19770700      84.15629633
H      86.38314352      65.14257016      82.32893099
C      83.94728629      64.39423854      85.52445818
H      83.89815341      66.18569908      86.53735149
H      83.89059450      62.77096364      86.79057481
C      81.48497291      64.41502553      83.82748395
H      81.48119346      62.77096364      82.58971322
C      79.07368213      64.04274944      85.46776639
H      79.08313076      62.32309851      86.59971246
H      77.35592091      63.99550629      84.33015115
H      78.85636361      65.54130242      86.86427414
C      81.29789000      66.64490258      82.00578779
H      82.40715936      66.25372923      80.31637246
H      82.15204630      68.34187680      82.80136257
H      79.29289038      66.81308823      81.56359183
C      88.50341643      65.73594422      85.55091435
O      88.43160683      68.10566102      85.49800202
N      90.36857631      64.35833374      86.68475014
H      90.11913243      62.47049716      86.56758711
C      92.64569651      65.22382839      87.92630033
H      92.16192659      66.80930877      89.15084298
C      93.91559259      63.15457808      89.65539990
H      95.48028598      64.04463918      90.65506512
H      94.70360848      61.71460663      88.41195999
C      92.02019710      62.15680258      91.66228925
H      90.10401462      61.85066692      90.96498024
H      92.00696902      63.44559594      93.26855661
C      93.15403290      59.81354196      92.81691203
H      94.91714755      60.42959273      93.68618613
H      93.63213365      58.33199652      91.46953716
N      91.28320385      58.68915481      94.67073354
H      90.21172902      57.16036621      94.27767047
C      90.86935378      59.45638368      96.91950785
N      91.75374569      61.48028057      97.96074705
H      91.23407097      61.74106280      99.77866376
H      92.72506502      62.70293349      96.86281606
N      89.39158781      58.13735472      98.25554435
H      89.07978296      58.57577122     100.08668915
H      88.72073496      56.50085173      97.53366890
C      94.67337285      65.93247576      86.05736100
O      96.23617651      67.64267807      86.58459464
N      94.77163862      64.85155230      83.78968943
H      93.43749184      63.57409732      83.30780922
C      96.28719913      65.71137778      81.63918088
H      97.85567196      66.95103824      82.13806863
C      97.79709045      63.62134049      80.24267314
H      98.77596868      64.43770224      78.62506741
C      99.78319280      62.83899378      82.15507617
H      98.82888102      61.87145392      83.70276202
H     100.73372513      64.58510089      82.69364817
H     101.14568547      61.66925319      81.14596232
C      96.24184569      61.37634562      79.32804560
H      94.75085162      62.22294301      78.18476118
H      95.58422093      60.33888588      80.98155613
C      97.85378223      59.73417346      77.60461521
H      98.61912140      60.87556815      76.07015744
H      96.76529987      58.12790608      76.91675483
H      99.51485167      59.00284937      78.58160371
C      94.65825505      67.09276771      79.64551962
O      95.52374969      68.71793234      78.15641529
N      92.19972111      66.67702792      79.43198055
H      91.37202099      65.22004895      80.34471836
C      90.59156401      68.11888910      77.56682068
H      91.48162511      68.25116995      75.71488889
C      88.22373694      66.55797517      77.03769731
H      87.01053265      66.50884229      78.70443592
H      88.85301580      64.61344680      76.79959180
C      86.84234700      67.25339445      74.51680241
O      84.53310146      67.72582603      74.58672228
O      88.15192734      67.14945950      72.55526650
C      89.79032005      70.72671141      78.33215984
O      89.39536725      72.21203629      76.62951643
N      89.76197416      71.39189507      80.79825267
H      89.60323715      69.95192362      82.04169259
C      89.52386864      73.81452421      82.08326657
H      89.77142280      75.25638539      80.63384649
C      86.78943467      74.20191810      83.14340303
H      86.81022167      75.80062656      84.44353473
H      86.26220104      72.56163566      84.27345936
C      84.66727202      74.90300656      81.33493495
H      82.94195189      74.26427907      82.26279057
H      84.85813438      73.90712080      79.54158468
C      84.34412882      77.72058850      80.64140539
O      84.94317206      78.77505578      78.57404480
O      83.45406773      79.06607363      82.40074059
C      91.28320385      74.36443456      84.31314362
O      92.66648351      76.26927869      84.32259225
N      91.47217647      72.61643772      86.29546652
H      90.40826057      71.05363406      86.03846374
C      93.13324590      72.72415212      88.53668193
H      94.87557356      73.76161187      88.17952365
H      93.71528161      70.80607992      89.01289296
C      91.81421693      73.61421323      90.93096516
O      89.89803445      75.06174357      90.84970693
N      92.62868897      72.52951031      93.03423055
H      94.39180362      71.80763486      93.15328331
C      91.19060726      73.00005217      95.36237337
H      89.18371791      73.17579671      94.93529522
C      91.40414632      70.72482169      97.28989421
H      93.37702060      70.29774354      97.70185454
H      90.73707294      69.04296528      96.30534680
C      89.98685159      70.92702240      99.73708978
H      90.48573934      72.78084391     100.48542140
C      87.12013677      71.05174434      99.35347534
H      85.91638112      71.37677727     100.99375778
H      86.57967505      69.23004817      98.55979029
H      86.86313399      72.59754046      98.01365939
C      90.56699757      68.79541113     101.73453050
H      90.02086666      67.04174510     100.80478515
H      89.81866596      69.16201802     103.61858763
H      92.61924035      68.70470426     101.88570860
C      91.84634228      75.61354366      96.60203383
O      94.10267551      75.90078207      97.30123257
N      89.99441049      77.24248774      97.05367842
H      88.22751640      76.73982055      96.53400368
C      90.40637083      79.78983881      97.98342377
H      92.44727525      80.01471624      98.13649160
C      89.19316654      81.78727952      96.19763240
H      89.02498091      83.54850445      97.25587913
H      87.35635257      81.09752942      95.57213299
C      90.60479209      82.02727477      93.72398066
H      90.55943866      80.16211489      92.85470655
H      92.48129033      82.82284954      94.01499851
C      89.06655488      83.87542710      92.21597906
H      88.80388292      85.57051160      93.35737375
H      87.21651281      82.99859410      91.97787354
N      90.12858106      84.61997927      89.67807662
H      91.09612094      86.25459254      89.49666289
C      89.95850569      83.26882495      87.56158315
N      89.06277542      81.06918352      87.40851532
H      88.90970759      80.31707245      85.66240820
H      88.00830815      80.47769919      88.88439157
N      90.88258186      84.19668057      85.46965612
H      91.03753943      83.23669960      83.82937368
H      91.62335458      85.95412604      85.49233284
C      89.22151243      80.12998955     100.64604814
O      87.14848267      79.32307641     101.13170780
N      90.70305787      81.43956988     102.33357374
H      92.32822250      82.09530491     101.57957294
C      90.61424074      81.47547468     105.18706047
H      89.50308165      79.93723746     105.99019415
C      93.43938156      81.26949451     106.14326198
H      93.65292064      82.04995148     108.03865748
H      94.50329748      82.48458854     104.86202754
C      94.64691669      78.54261944     106.19428459
H      95.95649701      78.24782215     104.62959121
C      96.06232170      78.02294471     108.68683360
H      96.55365054      76.03684235     108.91549049
H      94.97005988      78.61064959     110.33089549
H      97.83677470      79.06418390     108.59990619
C      92.78931571      76.31463212     105.99019415
H      91.63847240      76.34675747     107.69850674
H      93.75307613      74.49860513     105.89948729
H      91.60634705      76.43746434     104.30644801
C      89.57300154      83.97747232     106.10357773
O      89.00986309      84.51226487     108.25030682
N      88.96828912      85.61775477     104.30266856
H      89.43694124      85.30217046     102.47908266
C      88.17271433      88.26337160     105.14737622
H      86.88959016      88.34651956     106.75742304
C      90.49140851      89.89420540     105.83901605
H      91.50052238      89.04949774     107.42449642
H      89.75819472      91.75936529     106.31333735
C      92.40192182      90.12664175     103.70551504
H      91.89169571      91.17732957     102.01043054
H      92.80254380      88.21990789     103.03655193
C      94.95872152      91.12441723     104.84313028
H      95.63524355      89.82995471     106.29632982
H      94.43337761      92.88753189     105.77098590
C      97.15269377      91.73290911     103.10647180
H      96.31743474      92.52281471     101.39626949
H      97.82354661      89.87719787     102.51498746
N      99.23139271      93.34295593     104.09101921
H     100.87734434      93.12185795     103.14993550
H      99.73972910      92.93477504     105.88436948
H      98.87234471      95.20811580     103.90771576
C      86.51731409      89.63153345     103.04033138
O      87.01242237      88.96446006     100.79533652
N      84.97151795      91.60818717     103.72063285
H      84.93750288      92.25069412     105.51776257
C      83.14037316      92.59840377     102.01232026
H      81.78354967      91.09418161     101.63059555
C      81.21096259      94.59206502     103.10269235
H      82.07834697      96.45344544     103.25387045
C      79.07368213      95.14575483     101.15060507
H      77.89071347      96.43643790     102.23530797
H      78.00976622      93.43744224     100.71029883
H      79.85602883      95.82605630      99.37048288
C      79.75398361      93.48846485     105.44973243
H      81.15993998      92.64564692     106.70073125
H      78.22897448      92.21100986     104.91305015
C      78.58802248      95.47834666     106.99741828
H      77.02710853      96.35895912     105.98452497
H      80.00342749      96.90886948     107.43394506
H      77.98331006      94.59773420     108.75675348
C      84.31578293      93.59617925      99.61803703
O      85.88236604      95.43677268      99.67283909
N      83.43328074      92.64186746      97.37871134
H      82.57912444      90.95434187      97.62437577
C      84.19673017      93.03115108      94.71608697
H      85.46284680      94.65631571      94.78033766
C      85.87858658      90.97134940      93.48587514
H      87.26753543      90.70678772      94.98442811
H      86.95384086      91.95211736      92.03078588
C      84.42160760      88.74147235      92.59203459
C      84.24208361      88.12920103      90.05791161
H      85.15671113      89.42933273      88.77667717
C      82.94006218      86.07884798      89.21509367
H      82.73219227      85.68389518      87.22521187
C      82.15960520      84.23636482      90.98387750
O      81.09568929      81.98570078      90.27145068
H      81.11647629      81.84964049      88.46298260
C      82.37692373      84.65210461      93.59547927
H      81.92149969      83.10063931      94.84269863
C      83.56556158      86.92355564      94.37215678
H      84.08334659      87.14276390      96.33369269
C      82.15393603      93.77381353      92.78100723
O      79.87681581      93.25980798      93.05312781
N      82.99486423      95.54826653      91.12560698
H      84.82600903      96.06794127      90.96120079
C      81.34891261      96.23990636      89.01478268
H      79.44595822      95.82038712      89.68374580
C      81.70607090      98.99701706      88.22865654
H      83.58823829      99.19354859      87.41985368
H      81.58701813     100.14030148      89.93885885
C      79.61414386      99.95321857      86.43719599
H      77.80189633      99.58850139      87.34615435
H      79.78799868      98.84583895      84.70809642
C      79.78421923     102.80859503      85.87972673
H      79.45729657     103.57393418      87.76378386
H      78.15338543     103.12228960      84.66085326
C      82.30700386     103.92164383      84.93297385
H      83.04210739     102.79536694      83.37394964
H      83.64304036     103.94054110      86.49766723
N      81.81567501     106.51245860      83.91819082
H      80.95773927     107.47810875      85.32414719
H      80.63837552     106.34805241      82.42719676
H      83.28399236     107.53669026      83.25489688
C      81.69284280      94.49757870      86.73955220
O      83.87736642      94.09317727      86.03846374
N      79.62737194      93.39586826      85.76256370
H      78.04945047      93.90042519      86.70931658
C      79.61981305      91.40598646      83.68575448
H      81.46796538      90.50458700      83.54780446
C      77.69985110      89.59562865      84.69297861
H      75.92728783      90.47435138      84.11661208
H      77.76599153      89.49736289      86.74900083
C      78.01543541      87.03504949      83.35316265
O      80.18484120      86.29049733      82.67475090
O      76.06712758      85.68200545      82.74656050
C      78.97352664      92.58328595      81.09304998
O      78.47085945      94.84150889      80.94754105
N      78.94140129      91.10929942      79.08994009
H      79.35903081      89.26303683      79.32804560
C      78.65416289      91.75936529      76.44054380
H      80.40027001      92.66265445      75.82638275
C      78.20251830      89.42555328      74.88151959
H      78.03055321      89.97168419      72.90486587
C      80.50231522      87.65110027      74.88718877
H      80.84813514      86.91410701      76.77880481
H      82.05944971      88.88698128      74.34483732
H      80.17350286      85.96546440      73.75146325
O      76.07090702      87.98747155      75.56182106
H      75.57201928      86.98591661      74.13318797
C      76.61514820      93.64531214      75.80937521
O      77.02521881      95.59928915      74.62262708
N      74.37015335      93.08784287      76.81659933
H      74.17551153      91.51181113      77.87862552
C      72.08547423      94.55049105      76.58983218
H      71.95130366      95.51803091      74.77758464
C      69.92929650      92.83272983      76.83360687
H      69.41718067      92.97067984      78.82537840
H      70.37716165      90.88820146      76.31393213
C      67.66729412      93.68310666      75.22733950
H      66.97376456      95.51425147      75.86606700
H      66.17063088      92.41887976      75.86606700
C      67.89028181      93.85318203      72.42298566
O      67.83925920      95.94888851      71.29103959
O      68.58570109      91.97857353      71.11718477
C      71.76233103      96.69722013      78.46066123
O      69.93307597      98.13719158      78.22255571
N      73.70874914      97.18476952      79.95165529
H      75.25265554      96.13219196      79.56804084
C      73.88638341      99.35984451      81.70910076
H      73.11915452     100.83761048      80.49589646
H      75.81390425      99.99101310      82.05681040
C      72.77333461      99.23323284      84.37928404
O      72.66750993     100.97556050      85.87783700
N      71.85303789      96.99579689      85.15029237
H      71.79256666      95.47078775      84.00322850
C      70.92896172      96.49879887      87.80157839
H      70.50377331      98.39608409      88.48187986
C      68.47609697      94.99079727      87.73165852
H      67.65784547      94.91709794      89.61949510
H      69.03356623      93.02926136      87.44442012
C      66.45408982      95.74290834      85.93641852
C      65.23710607      93.89286628      84.53802105
H      65.39395335      91.87274885      84.78179574
C      63.28879824      94.72056641      82.69175844
H      62.43653167      93.17099083      81.67508568
C      62.92786051      97.32649899      82.30436455
O      61.49922742      98.13341214      80.35605672
H      61.67308224      99.93621103      80.24834232
C      64.12027782      99.21244585      83.81803532
H      63.49855786     101.14374615      83.59126817
C      65.78512670      98.42065053      85.67941574
H      66.73754876      99.73401032      86.91340702
C      72.85837230      95.38008089      89.69886361
O      74.80668012      94.15742797      89.07147447
N      72.78278324      96.39864337      92.01944752
H      71.44107755      97.75168741      92.16306672
C      74.27188757      95.65220148      94.17373552
H      76.30523308      95.75802615      93.86004095
C      74.01299507      97.53058944      96.39227421
H      74.69140681      96.50068859      98.04011555
H      72.08547423      98.12396350      96.81368318
C      75.38871582     100.06660215      96.29211871
C      73.96953136     102.31915591      96.37148722
H      71.97398037     102.24545659      96.78911674
C      75.02399865     104.78902820      96.13527143
H      73.72764639     106.36317022      96.13527143
C      77.63560041     105.00634673      95.85559194
O      78.62581700     107.20598816      95.25843842
H      77.41072299     108.54013494      95.43985215
C      79.24942669     102.78969776      95.97653442
H      81.26765438     102.94087587      95.72709055
C      78.09480390     100.31793575      96.20708103
H      79.14171228      98.57182863      96.07480019
C      73.72575667      93.02737163      95.22631307
O      71.49965907      92.26203247      95.32646857
N      75.77988917      91.49858304      95.47008777
H      77.46363532      92.35084962      95.18284937
C      75.88382412      88.62808878      95.07324524
H      73.98464917      87.89865442      95.39260899
C      76.68506808      87.84574208      92.49943800
H      78.68250879      88.22179762      92.15928727
C      75.94807481      85.20768415      91.75488584
H      73.96575191      84.88832040      92.22542769
H      77.14616129      83.87164765      92.76588941
H      76.40727831      84.95068137      89.76311430
O      75.06179317      88.97012924      90.71553637
H      75.25265554      90.75214115      90.99332613
C      77.60347506      87.43567147      97.08769349
O      79.32312601      88.66210385      98.01554911
N      77.15560992      85.08296221      97.99098267
H      75.70430013      84.05117164      97.30501202
C      78.70707523      83.84141202      99.89393707
H      80.64404470      84.48391897      99.61425757
C      77.96630251      84.36486621     102.61136351
H      77.96630251      86.41710899     102.45262650
C      75.21297128      83.81684558     103.36158485
H      73.97709027      84.69178888     101.96318738
H      74.65172257      84.84485670     105.05666935
H      74.88604863      81.78727952     103.48441706
C      79.84658020      83.57307090     104.59179668
H      79.99208913      81.53405620     104.85068919
H      79.02265952      84.34029977     106.31522708
C      82.49975595      84.67856078     104.32534527
H      83.41816293      83.82629421     102.69073201
H      83.34068415      84.28171826     106.16404897
H      82.56022719      86.68167067     103.84724451
C      79.14738146      80.99926365      99.13993627
O      77.78110933      79.99392925      97.58847097
N      80.96718791      79.58574837     100.08479943
H      82.16149494      80.64588483     101.12792835
C      81.47930374      76.99493359      99.62559593
H      79.85035966      75.82897246     100.10369669
H      82.99864368      76.35998555     100.86336667
C      82.18417164      76.49037667      96.79289619
O      84.15704591      77.33886379      96.00299059
N      80.70829539      75.09386892      95.27922541
H      79.03210816      74.53450993      96.00110086
C      80.69506731      75.32441553      92.48054074
H      81.98386066      76.83619658      91.94007902
C      81.67772500      72.88099941      91.06324601
H      80.24531246      71.40512316      90.96686996
C      82.34479838      73.45925567      88.32881203
H      81.96874285      71.74149445      87.25544749
H      84.23641442      74.26427907      88.18708256
H      81.10513793      74.96914698      87.67874618
C      83.86980751      71.63944922      92.44274622
H      83.29911018      71.43724851      94.41184103
H      85.34946322      73.06997205      92.45030512
C      84.93750288      69.20359200      91.24654946
H      85.55922284      69.66090577      89.33792588
H      83.48619307      67.83920962      90.72120554
H      86.55132915      68.45337066      92.28589893
C      78.00220731      76.01983481      91.56969266
O      76.32224063      74.40222909      92.07991876
N      77.59969562      78.17790227      90.15050820
H      78.91872457      79.53661548      89.90484378
C      75.12415415      78.88465992      89.34548479
H      74.54400817      77.19524458      88.32125313
H      75.45107680      80.49659645      88.10582433
C      73.11348534      79.53661548      91.22576247
O      70.98943296      80.12243064      90.41506988
N      73.53111487      79.38354766      93.67673750
H      75.29045006      79.16811885      94.38916432
C      71.43918783      79.77850045      95.61370697
H      69.81402320      78.67679001      94.99198701
C      72.19507835      78.96402842      98.27633134
H      73.05868329      80.55895742      99.25331985
H      73.72197722      77.59397683      98.10814570
C      69.76678004      78.29317557      99.73897951
N      68.87860867      75.83842110     100.04700490
H      69.52300536      74.35120648      99.03600132
C      66.74888712      75.81952383     101.47941744
H      65.91740755      74.14900576     102.30900730
N      66.57503230      78.07585704     102.50553883
H      65.83992876      78.38388243     104.24030759
C      68.18885857      79.75204428     101.18462014
H      68.48365587      81.71546992     101.66083117
C      70.52645003      82.56773649      95.81401796
O      71.79823583      84.14943741      97.00454553
N      68.27011680      83.26693523      94.93151577
H      67.22698788      81.84775077      94.19452251
C      67.14195019      85.82751439      95.21119526
H      68.40617710      87.23158103      94.39105404
C      64.78735122      85.97113358      93.61248680
H      63.46643251      84.62186899      94.43640748
H      65.38261499      85.40043624      91.72465022
C      63.25667289      88.64131686      93.19296756
H      62.80502830      89.54460604      94.99009729
C      64.75144642      90.49324865      91.81346735
H      65.25600334      89.74869648      89.96153557
H      66.49188434      90.91276789      92.83391956
H      63.57036746      92.12408245      91.38072003
C      60.72632936      88.11975240      91.78134201
H      59.67375180      86.59285354      92.67329283
H      60.91152254      87.63976191      89.78579102
H      59.63028810      89.86396978      91.73598857
C      66.55613503      86.57017682      97.90405526
O      65.48088076      85.14910263      99.44040275
N      67.17407554      88.92477581      98.41428136
H      68.02256266      89.74491704      96.91383867
C      66.55046587      90.27781985     100.78399816
H      65.50733693      88.91532718     101.92539285
C      68.98254363      91.40220700     102.08979904
H      68.41940518      92.30171673     103.85480342
H      69.83292047      92.73257433     100.76888035
C      71.02344805      89.50303206     102.84002039
H      71.51099744      88.14242911     101.36981332
C      73.38371620      90.91843707     103.74519929
H      73.09269836      92.13731054     105.38170228
H      74.24732113      91.91054338     102.15971892
H      74.84258492      89.48980398     104.00787125
C      69.88016362      88.01392772     105.06611799
H      69.36048888      89.22902174     106.64781891
H      71.17462614      86.59852272     105.81255988
H      68.20586611      86.99536524     104.42928022
C      64.39050868      92.22801740     100.47975222
O      62.32692755      91.88219749     101.67594898
N      64.43775184      93.98168342      98.65805606
H      66.24244047      94.19333277      98.07791008
C      62.52156936      95.57850215      97.59225042
H      60.79435951      94.47112253      97.41461614
C      62.09827066      98.00491074      99.21930477