 %block lattice_cart
   140.777   0.000   0.000
   0.000 144.511   0.000
   0.000   0.000   162.462
 %endblock lattice_cart

 %block positions_abs
N      94.96061124      41.99531255      82.23444468
H      94.48628994      41.49075562      84.01267714
H      96.76152042      42.57923798      82.48577828
H      94.79053588      40.53833357      81.01368147
C      93.37891032      44.18361563      81.36706030
H      93.93448986      45.78232408      82.54247007
C      94.15369811      44.87525546      78.72144347
H      93.49985280      43.50331414      77.33249462
H      96.17948472      45.23241373      78.70065648
C      92.97072944      47.29599486      77.89563306
H      90.98084764      46.78954821      78.05437008
H      93.80598847      47.82511822      76.08716499
S      93.47528636      49.82633840      80.22944505
C      96.64435739      51.07922694      79.56048195
H      96.62923958      51.99952365      77.71799879
H      98.24495558      49.78665414      79.66819634
H      97.29253352      52.53242648      80.86817256
C      90.64447635      43.51654224      81.78280009
O      89.76953306      41.40760767      81.29903015
N      89.13458503      45.36658430      82.76734749
H      89.96039543      47.05977908      83.08482152
C      86.44928393      45.29855414      83.11883660
H      85.61402491      44.66171637      81.34627330
C      85.64803997      43.87181079      85.63028286
H      86.78943467      42.20696189      86.03279457
H      83.68083488      43.29544425      85.42052324
C      86.07133867      45.44217335      88.06236062
O      84.26476031      46.21696113      89.26989574
N      88.27475956      45.92972273      89.01856215
H      88.61302056      46.68183381      90.74010282
H      89.83945295      45.11903015      88.28156888
C      85.40993446      48.09912854      83.37772910
O      86.98029704      49.90948635      83.72732846
N      82.94384163      48.34857241      83.75945382
H      81.97630175      46.75175368      84.14684770
C      81.50009073      50.75041455      83.78779970
H      81.61725376      51.82377910      82.03224397
C      78.62392727      50.07200281      84.20731894
H      78.05511965      49.19894926      82.43097622
C      78.37448341      48.03298813      86.33704051
H      79.10958693      46.18294607      85.80791713
H      76.41483722      47.75897781      86.91340702
H      79.45351712      48.61502383      87.99244076
C      76.95151949      52.47762441      84.56258750
H      77.73386618      53.63602664      86.07625828
H      74.99754247      52.01653118      85.01423209
C      76.84191537      54.17081918      82.18531180
H      78.39149094      53.95728012      80.84549584
H      76.38838104      56.08511195      82.79569340
H      75.21108155      53.60012184      81.06659382
C      82.61313953      52.61179498      85.73043836
O      82.56400663      54.92481998      85.32792665
N      83.49186226      51.73118252      87.93196952
H      83.21029304      49.90759663      88.41573944
C      84.57467543      53.53209169      89.86326981
H      83.25753620      55.06654946      90.25444314
C      84.92805426      52.00897228      92.50132774
H      86.19795034      52.94438681      93.82791561
H      85.61969408      50.09090008      92.21786879
C      82.43172580      51.81810993      93.97720399
C      80.66294196      50.18349666      93.24399018
H      81.24686739      48.69061287      91.97976327
C      78.04378130      50.19672474      94.05279304
H      76.67750917      48.74352521      93.62571490
C      77.31434694      52.03353872      95.88393783
H      75.44918706      52.04298736      96.71163797
C      79.15683010      53.72106433      96.77210921
H      78.74486975      55.01741657      98.29333888
C      81.64182020      53.55665813      95.77622344
H      83.15738070      54.78686997      96.37148722
C      87.04832717      54.79253914      89.12627654
O      87.36202174      56.92792988      89.98043284
N      88.77742675      53.69460815      87.63528247
H      88.44672464      51.91259625      87.04190842
C      90.97895790      55.03064466      86.62805836
H      91.66870801      56.35723254      88.04535309
C      93.29765209      53.37335469      85.97988222
H      94.90580918      54.64136104      85.76445342
H      92.73640337      52.64392033      84.13739908
C      93.69071517      51.27764820      88.04535309
H      91.94082861      50.19861447      88.17763394
H      94.03653508      52.12424558      89.88972598
C      95.82799562      49.41248833      87.52945781
O      95.23084212      47.49630585      86.33893022
O      98.09566720      50.19861447      87.80346812
C      90.43093727      56.61423531      84.31503335
O      91.09423122      58.80820756      84.27912855
N      88.72262470      55.69393859      82.56514678
H      88.36357670      53.83444790      82.80136257
C      87.60957590      57.09800525      80.48455811
H      89.24607887      57.17170457      79.23544902
C      85.49875160      55.52575296      79.29592027
H      83.98130137      54.94749670      80.56392661
H      86.24708322      53.76263831      78.54191947
C      83.94350685      57.03942372      77.33060490
H      85.08490154      57.45705324      75.66764574
H      83.04021767      58.75529522      78.02791391
S      81.53032634      54.91915081      76.34038831
C      83.13092453      53.47162046      73.56438035
H      85.14159333      53.76830749      73.90075164
H      82.51109429      54.48262402      71.88252394
H      82.43739497      51.54598934      73.32060566
C      86.57778533      59.61701043      81.32170686
O      87.63981151      61.61067168      80.55069853
N      84.76364806      59.59811316      83.12639549
H      84.50286583      57.95027182      84.05236138
C      83.76209311      62.03019092      84.29613609
H      83.46729581      63.16969589      82.60483104
C      81.28466192      61.72783472      85.82114522
H      80.76309746      63.66291445      86.29735625
H      81.60213594      60.46549753      87.41796396
C      79.23430887      60.48250507      84.18653196
H      79.86736719      58.67592672      83.42497226
C      76.95340921      60.02141186      86.03279457
H      76.52255161      61.65980457      87.20820434
H      77.32946474      58.43215203      87.28757284
H      75.38682610      59.70771729      84.73077314
C      78.48786698      62.03963956      81.90752203
H      80.14326722      62.67458759      80.85683420
H      77.40505380      63.61000212      82.68419954
H      77.37292845      60.85289143      80.64329513
C      85.71418041      63.86700490      85.57926026
O      85.22285156      66.20270662      85.60571642
N      87.83256359      62.92970065      86.41451928
H      87.90437320      61.02296680      86.48632889
C      89.96039543      64.25250906      87.51811944
H      89.18371791      66.09121276      88.02456609
C      90.96384009      62.84655268      89.76689377
H      91.73862788      61.03997434      89.15462244
H      89.33867546      62.79553008      91.03301040
C      93.12001782      64.15424330      91.09537135
H      93.35623362      63.73472406      93.09848125
H      92.99529588      66.20648608      90.96875970
C      95.81854699      63.47583155      90.26767124
H      97.10923006      64.77407353      91.21820356
H      96.25696350      63.56086923      88.25700244
N      96.37034707      60.91525240      91.22765220
H      95.70894286      60.62423455      92.99454631
C      97.19804720      59.00851855      89.97854310
N      98.02763705      59.25607270      87.65795920
H      98.74762279      57.66492314      86.88884058
H      98.74762279      60.98706199      87.30647011
N      97.26607735      56.74840588      90.83458913
H      98.27330147      55.56732694      89.72531978
H      96.62734986      56.24951814      92.56179898
C      92.06744026      65.08965783      85.65484930
O      93.26174729      67.06064237      85.92696989
N      92.36979647      63.71960625      83.72543873
H      91.10745929      62.35144440      83.30402978
C      93.91937205      64.56620363      81.49745142
H      95.63713326      65.42980855      82.23822413
C      94.39180362      62.36656221      79.74378540
H      92.80632325      61.12690174      79.29969972
C      95.25729828      63.50795689      77.26635420
H      96.70293892      64.97438451      77.29658982
H      93.71150216      64.17692002      76.08149581
H      96.10767512      62.00940394      76.13818760
C      96.43459777      60.48817426      80.64329513
H      95.82043673      59.71149673      82.45176321
H      98.26196311      61.43492714      80.55636772
C      96.75774097      58.10711910      79.08616063
H      94.93982426      57.17737375      78.81781951
H      98.05220349      56.91848125      80.15952519
H      97.65536098      58.60222739      77.30036928
C      92.54743074      66.84332385      80.25023205
O      93.77764257      68.67824810      79.35261205
N      90.12480161      66.57498270      79.74189567
H      89.31599875      64.95926671      80.35794644
C      88.44105547      68.37211242      78.54380919
H      89.38402891      68.70092480      76.74290002
C      85.75386466      67.54630203      78.00712692
H      84.52554255      69.19414337      78.14885639
H      85.06789400      66.42191487      79.59071757
C      85.44205981      66.26695731      75.52780600
O      86.21117842      67.38567529      73.57004953
O      84.15137673      64.26762687      75.38418680
C      88.41837875      70.88166897      79.66819634
O      88.97395829      72.70903431      78.27735777
N      88.12169173      71.18213545      82.17775289
H      87.70406220      69.61933179      83.19253592
C      87.97051361      73.61610294      83.48544349
H      88.92104595      75.00505179      82.30058510
C      85.33623513      74.64222433      84.18653196
H      85.43072145      76.11243140      85.62839313
H      84.06255960      73.33075428      85.13517456
C      83.90004314      75.58519777      81.81492544
H      81.90260242      75.81763410      82.26657003
H      83.92838903      74.21325647      80.28046767
C      84.96017961      78.17223309      80.83415747
O      86.70817644      78.17034336      79.16174969
O      84.47829939      80.28305737      81.83571242
C      89.96417487      73.96003314      85.72287945
O      90.56132840      76.02739372      86.35026858
N      91.10179012      71.93613625      86.70931658
H      90.72384485      70.17680105      86.07247881
C      92.88191230      72.12888833      88.81447170
H      94.37479609      73.29862893      88.01133802
H      93.76063504      70.28829491      89.10171010
C      91.62335458      73.00950081      91.33725632
O      89.23851998      73.19469398      91.46197826
N      93.19749659      73.50271937      93.20241619
H      95.10045099      73.49516046      93.06824563
C      92.41514990      74.23026400      95.87826865
H      90.36479685      74.05829891      95.93118100
C      93.57544186      72.54273840      97.86437102
H      95.61445656      72.45203154      97.59225043
H      92.90080957      70.67190935      97.32957846
C      92.97450889      73.07186176     100.64982760
H      92.97072944      75.09953810     101.00509614
C      90.32133315      72.15534451     101.31501126
H      88.84545690      72.96792683     100.13204259
H      89.94338788      72.87533024     103.20662730
H      90.19850095      70.11066064     101.09391328
C      94.99462632      71.91723900     102.43372924
H      95.11178935      69.87633458     102.19562373
H      94.70360847      72.36132468     104.42361105
H      96.76529987      72.72982131     101.76665585
C      92.93671437      76.96469798      96.51888587
O      95.01730303      77.93601729      96.40172285
N      91.01486270      78.29506530      97.39760861
H      89.31599875      77.44468846      97.23131269
C      91.03942915      81.04650681      98.09302790
H      92.92915547      81.60208635      98.69585059
C      90.22495710      82.61686938      95.75732618
H      89.76764334      84.53872103      96.33936188
H      88.47507054      81.76271309      95.08269388
C      92.14680877      83.03449889      93.72020120
H      93.26363702      81.38098837      93.20997510
H      93.38268977      84.40077102      94.64427738
C      91.12824628      84.24581346      91.36371250
H      92.75341091      84.62753817      90.15806711
H      90.38936329      86.05428154      92.01377835
N      89.21206380      82.59230294      90.16373628
H      88.51853424      81.14666231      91.19930631
C      88.44861438      82.83607763      87.66173864
N      88.57900549      84.99603480      86.43908572
H      88.39003285      84.93745329      84.54180050
H      89.29710148      86.53238230      87.31213928
N      87.34690394      80.95957940      86.57514602
H      86.84990591      81.21658217      84.75156012
H      87.00486348      79.43646000      87.67118728
C      89.50686111      81.56618155     100.46274469
O      87.17871829      81.84964050     100.23597754
N      90.62935855      82.08774600     102.69073202
H      92.53609239      81.99703915     102.76443135
C      89.25552751      82.18979123     105.11525088
H      87.57367109      81.01060200     104.95462414
C      90.99407572      80.96902803     107.08245597
H      89.95283652      81.22792053     108.83990144
H      92.75719036      82.02727477     107.20717791
C      91.78776077      78.02294471     106.86135798
H      92.67593213      77.74515494     105.02454402
C      93.70205352      77.28595144     108.99485900
H      93.03686986      77.83586181     110.86568804
H      95.56721339      78.10042349     108.67360552
H      94.03275564      75.25638539     109.11391176
C      89.60134743      76.22770472     107.13347857
H      88.31444380      76.50549448     105.54988793
H      88.56199795      76.62454723     108.86635761
H      90.15503723      74.24160235     107.14103748
C      88.15003762      84.75981902     105.98074553
O      87.24863816      84.89587930     108.14637189
N      88.01208759      86.65710424     104.32912472
H      88.58089521      86.19034183     102.56978953
C      86.96517922      89.22524230     104.67116520
H      85.99952907      89.24224983     106.49097164
C      89.06655487      91.22079328     104.44439804
H      89.68638512      91.49858305     102.49986965
H      90.65014552      90.42521851     105.49697559
C      88.43160683      93.78326216     105.67838932
H      87.55477382      93.38075045     107.49819575
H      87.16549020      94.80749382     104.41983160
C      90.74085239      95.64086312     106.12058527
H      92.21672864      94.52214514     107.02198472
H      90.48762906      97.03926060     107.61157934
C      91.73484844      97.10918048     103.80756027
H      90.21739820      98.36773820     103.21607594
H      91.92571079      95.57472270     102.44884705
N      94.04220426      98.62663070     104.20062334
H      93.57355213      99.78881238     105.63870506
H      94.46928241      99.68865689     102.67372448
H      95.51052161      97.53247916     104.73541589
C      85.02065085      89.59562865     102.56601008
O      85.22096183      88.66777303     100.44006798
N      83.24430810      91.26047754     102.93261698
H      83.13281425      92.33384208     104.50675901
C      81.46985510      92.04660368     100.95029408
H      80.26043026      90.49135893     100.34558166
C      79.54044454      93.93066081     102.03877644
H      80.61569880      95.53692817     102.74931353
C      77.79433742      94.81127328      99.69740554
H      78.89415813      96.06605155      98.48609097
H      76.17106251      95.86007138     100.41172209
H      77.15183047      93.21445454      98.56545947
C      77.89449292      92.74769213     104.10991648
H      79.18328626      92.05416259     105.55933656
H      76.97797565      91.10174052     103.27654718
C      75.74020493      94.07239028     105.30422350
H      74.96541713      93.19555727     106.99741828
H      74.24165195      94.26136292     103.90393631
H      76.39782967      95.91865289     105.94106127
C      82.77943543      93.22957234      98.57679784
O      84.17027400      95.12874729      98.65994579
N      82.14070795      92.24502494      96.43384819
H      80.83301733      90.85418637      96.40361257
C      82.54699909      92.99335656      93.71831149
H      83.06478411      94.98512810      93.68429640
C      84.67672065      91.37008166      92.58069624
H      86.44361475      91.21512410      93.62949434
H      85.29466116      92.23179685      90.81569187
C      83.71107050      88.68478056      91.99488109
C      83.07423274      88.17833391      89.52311907
H      83.29155126      89.61263618      88.08692706
C      82.22952507      85.77838150      88.71242648
H      81.53032634      85.50059173      86.81514126
C      82.10480315      83.84897093      90.51711511
O      81.36969960      81.40933426      89.81980610
H      81.14860162      81.32240685      88.02078665
C      82.82478886      84.29872579      93.10415043
H      82.78510461      82.78316530      94.47042255
C      83.65815817      86.73269328      93.83736423
H      84.24208361      87.15788170      95.74598782
C      80.07145762      93.16721139      92.33125236
O      78.12881898      93.10862986      93.61437654
N      80.16783367      93.48090595      89.83114446
H      81.80811611      93.48090595      88.85415595
C      77.88693401      93.62641487      88.14550859
H      76.20507760      93.14264494      89.23210122
C      77.76788125      96.35706939      87.20631461
H      76.78711329      96.38163583      85.39595680
H      79.65949729      97.04115033      86.76411864
C      76.52255161      98.26191352      88.91651692
H      77.52599628      98.31104640      90.71553637
H      74.63660476      97.63263466      89.45319919
C      76.54522832     100.80170569      87.63717220
H      75.29233978     100.56737963      86.02145621
H      78.45385190     101.08138519      86.91340702
C      75.61926243     103.08260535      89.33603616
H      77.04411608     102.91252997      90.81569187
H      73.82969162     102.68954227      90.27900960
N      75.58524736     105.60350025      88.08503735
H      74.18684989     105.81892905      86.80380290
H      77.21419144     105.91152564      87.13639473
H      75.50398913     106.84694017      89.53067798
C      77.95496415      91.76692419      86.13483978
O      79.98075076      91.30583096      84.96131974
N      75.76477137      90.74647198      85.30902939
H      74.45519103      90.89198090      86.68852960
C      75.26588362      89.66743824      82.85994408
H      76.80979002      88.36163737      82.46310157
C      72.71475309      88.19156200      82.92419478
H      71.17462614      89.52948822      83.21899208
H      72.93396135      86.91977619      84.52857243
C      72.03067216      86.56072819      80.78313487
O      71.42407002      87.57362149      78.74034072
O      71.65083717      84.20612920      81.12895479
C      75.42084117      91.71401185      80.68486911
O      75.70430013      93.92877108      81.13084452
N      75.28289115      90.89953981      78.21499680
H      75.14683085      89.00036486      78.09027488
C      75.47186378      92.55871950      75.95299442
H      76.95151949      93.90231492      76.44999243
C      76.23909266      91.16032204      73.61351323
H      74.52889035      90.92788570      72.49101581
C      78.20062857      92.54738115      72.05826848
H      80.03744255      92.82706065      72.94643985
H      77.45229695      94.45033555      71.82394242
H      78.45007245      91.90298447      70.11751956
O      77.40505380      88.81517168      74.15019550
H      78.02110458      88.15943666      72.57605349
C      72.94152026      94.06672110      75.66764574
O      72.80357022      96.04148511      74.50735379
N      70.95352816      93.15209357      76.89596785
H      71.08202955      91.48724469      77.81815429
C      68.62538535      94.72812531      77.17564734
H      68.10382089      95.58417133      75.37662789
C      66.53912750      92.99335656      78.12995912
H      64.86294026      94.15553825      78.41719753
H      67.00022072      92.27715029      80.00456763
C      65.79079588      90.77292814      76.43487463
H      63.98232780      89.94711774      76.97155690
H      67.34415092      89.41988410      76.45566161
C      65.74544245      91.33417685      73.59839543
O      64.65129092      93.30894086      72.77447475
O      66.87360906      89.89420540      72.05826848
C      68.80868881      96.93154619      79.00868186
O      67.44619613      98.74379373      78.97655651
N      70.67384867      96.82383180      80.69053828
H      71.97587010      95.42921377      80.64896431
C      70.78534253      98.54726220      82.88451052
H      69.54568206     100.15163983      82.52357281
H      72.68073802      99.22945340      83.30780922
C      69.72331633      97.60050931      85.44886913
O      70.29401368      98.65686632      87.56536261
N      67.96965033      95.86574056      85.29958076
H      67.16462691      95.42732405      83.62528325
C      66.98888236      94.48435063      87.56914206
H      65.77378834      95.69755491      88.70675730
C      65.31080539      92.26014276      86.67152205
H      64.51523062      91.36630220      88.34959903
H      66.77156383      91.09607134      85.80413769
C      63.28690851      92.86863462      84.77612656
C      62.51401045      90.90520899      83.15096193
H      63.41540990      89.07406418      83.17930784
C      60.50901083      91.29449261      81.38973702
H      59.60194220      89.78838074      80.35416699
C      59.42997711      93.68877584      81.11005753
O      57.52135353      94.25380402      79.50379016
H      56.88829522      95.95077824      79.59827648
C      60.49011357      95.68243711      82.53869062
H      59.74178195      97.55893534      82.24200359
C      62.34204536      95.26102814      84.31692308
H      62.88061736      96.87485440      85.44697941
C      69.18663406      93.65476077      89.32280807
O      71.10848572      92.75525104      88.48376959
N      68.82380661      93.89286628      91.79834955
H      67.09848650      94.19711222      92.55235035
C      70.90817473      93.20122645      93.58036146
H      72.68262774      93.64720186      92.63549830
C      70.62849524      94.65064654      96.16550706
H      71.80390501      93.79271080      97.62248605
H      68.74632783      94.50324789      96.98942772
C      71.28234054      97.43421340      95.96330635
C      69.41529095      99.20866641      96.28455982
H      67.51233655      98.50568822      96.51510642
C      69.99165747     101.86940105      95.93685018
H      68.44964081     103.14307659      96.34692079
C      72.48231675     102.61773267      95.27355624
O      72.99821205     104.97611111      94.69529999
H      71.91728858     106.27057364      95.36426309
C      74.37204306     100.67509403      94.85214726
H      76.18807005     101.37996193      94.23987595
C      73.88449368      98.14097104      95.34914529
H      75.30367814      96.69722013      95.09025279
C      71.15950833      90.37041643      94.20208141
O      69.28867929      89.04193885      94.49309926
N      73.55757102      89.38586903      94.64805682
H      75.07124180      90.52159454      94.90505961
C      74.27755676      86.72702410      94.85214726
H      72.76010652      85.63854176      95.71953165
C      75.00888083      85.73680751      92.21975851
H      75.84791932      83.85841957      92.26511195
C      72.82435721      85.56673215      90.46798223
H      73.41395182      84.80139300      88.64817579
H      72.23287289      87.52637834      90.23176643
H      71.28423027      84.60108200      91.43741182
O      76.76821603      87.38464887      90.94986244
H      78.50109506      87.07095430      91.38072003
C      76.54711805      86.46435215      96.58691603
O      77.71874837      88.31061476      97.38627025
N      77.13482293      84.20801893      97.41839561
H      76.15216525      82.75670913      96.66250507
C      79.27210339      83.28205304      98.98308898
H      80.88403994      84.42533746      98.40483273
C      78.46519026      83.82818395     101.74964832
H      77.49576067      85.62909312     101.50398390
C      76.59058176      81.86475830     102.47530321
H      75.19785346      81.23736917     101.09391328
H      75.36225966      82.52994197     103.98897399
H      77.60536479      80.17345325     103.06678756
C      80.71396458      84.36864567     103.48630680
H      81.83268255      85.70468218     102.38837580
H      81.73630651      82.60553101     103.78677328
C      80.04500146      85.30972938     106.24719694
H      81.88370516      85.73302806     107.07678678
H      79.05856432      83.79605860     107.23552380
H      79.05856432      87.09552073     105.95806882
C      80.20373847      80.50982454      98.36514849
O      78.93195266      79.03016883      97.06123733
N      82.19739974      79.90322240      99.71063362
H      83.40115539      81.17122875     100.47219333
C      83.20462385      77.27461308     100.06401245
H      81.84780036      76.15022593     101.13170781
H      84.90726727      77.40311447     101.22052495
C      84.08145687      76.12943895      97.55823534
O      85.70851122      77.10453773      96.34314133
N      82.76242790      74.17924138      96.96486128
H      81.52465717      73.68413310      98.33113341
C      82.55644774      72.92068366      94.48931982
H      83.98697055      73.77672969      93.28178471
C      83.27832319      70.05207913      94.80301438
H      81.71929897      69.17713584      95.82157686
C      83.35202251      68.96926595      92.08369823
H      84.14948702      67.07764991      92.25377359
H      84.42916650      70.29774355      90.93852408
H      81.46040647      68.80108030      91.28434399
C      85.85590987      69.69492084      96.23164748
H      85.61969408      70.30908190      98.18373476
H      87.21273336      70.90623541      95.26977679
C      87.07100389      67.08520881      96.21463995
H      88.75852950      67.38945474      97.35414490
H      87.80232797      66.48049639      94.38538487
H      85.85024069      65.77373875      97.23131269
C      80.02232474      73.39311525      93.31391005
O      78.27621763      71.96259242      93.80145943
N      79.70674045      75.48693200      91.99299136
H      81.22419068      76.64533422      92.04023452
C      77.51654765      76.13888757      90.40562125
H      76.99120373      74.66679077      89.06202585
H      78.05134021      77.67712479      89.14517380
C      74.89549725      76.86454248      91.78512147
O      73.09647781      77.25193637      90.35081919
N      74.54022871      76.88721920      94.33058281
H      76.16161388      76.56596572      95.28678432
C      72.09303313      76.94202126      95.71386247
H      70.67951786      75.75338340      94.80112465
C      72.42940441      76.04629098      98.37081767
H      73.78244846      77.18012678      99.42906439
H      73.22875866      74.15278521      98.44640671
C      69.90661979      75.98204030      99.56323497
N      68.48365587      73.79940640      99.88448845
H      68.62727508      72.28006645      98.73742456
C      66.40117748      74.20002838     101.30367290
H      64.95175739      72.83942543     101.76476613
N      66.42952338      76.76627672     101.75531749
H      65.07647933      77.60153575     102.80978477
C      68.63483399      77.87176661     100.76888036
H      69.22820805      79.80495663     101.03911122
C      70.95352816      79.53472575      95.66850903
O      72.14216602      81.41311371      96.51132698
N      68.63672370      79.83330251      94.90694934
H      67.80335440      78.26860912      94.20208141
C      67.10604539      82.07073847      94.78789658
H      68.13027705      83.71857981      94.10003620
C      65.01978754      81.82318432      92.72431545
H      63.73288392      80.34352863      93.36115321
H      66.08748291      81.26004588      91.05379738
C      63.47399142      84.27793881      92.28778867
H      62.82392557      85.07918276      94.07169031
C      64.78735122      86.40577063      90.87805284
H      66.78101247      86.67600149      91.32024879
H      63.71209693      88.14431885      91.12371726
H      64.77412312      86.02215619      88.85415595
C      61.14206915      83.95479561      90.62671923
H      61.42174864      83.43512087      88.65384497
H      60.07248405      85.71413080      90.72309528
H      60.00634363      82.43356592      91.42985291
C      66.09882127      82.90410777      97.25587914
O      64.99522110      81.32996576      98.63915881
N      66.52400969      85.32862664      97.83413540
H      67.62949958      86.29994595      96.61904138
C      65.60182325      86.63064807     100.12070422
H      64.94419849      85.33807527     101.58524213
C      67.68808110      88.27093050     101.01265505
H      67.01911798      89.39342794     102.60569433
H      67.98287840      89.72413004      99.58024251
C      70.21086572      86.98024743     101.96129765
H      70.98376379      85.79727877     100.46463442
C      72.01933381      89.00792377     103.01765466
H      72.92640245      89.91877184     101.40949758
H      73.48765115      88.12920103     104.16282881
H      71.09336791      90.35151918     104.27432266
C      69.41529095      85.35508280     104.20629252
H      71.04234530      84.34218949     104.96407276
H      68.03012157      83.89243464     103.77354519
H      68.47420725      86.48702886     105.64626397
C      63.05825163      88.11408323      99.58402195
O      61.21576847      88.19723117     101.18839960
N      63.02612628      89.68444578      97.57902234
H      64.39428813      89.66743824      96.24865501
C      60.87939719      91.09229188      96.83635990
H      59.39785176      89.66365880      96.73998386
C      60.32948683      93.29571277      98.67695332