 %block lattice_cart
   140.777   0.000   0.000
   0.000 144.511   0.000
   0.000   0.000   162.462
 %endblock lattice_cart

 %block positions_abs
N      86.56644697      39.11159019      81.86878264
H      85.72929821      37.85303247      83.03474377
H      88.31633354      38.45018599      81.49083738
H      85.31166870      39.02466279      80.43448037
C      86.60235177      41.66650017      83.08954583
H      88.21617804      41.68917688      84.36889054
C      87.25997653      43.64315389      81.09588458
H      85.57434065      44.46518484      80.24361801
H      88.40137122      42.94395516      79.52930145
C      88.47885000      45.74075011      82.52829711
H      90.09456600      45.00564656      83.57709522
H      86.90659771      46.50042009      83.61866919
S      89.47851522      48.43738955      80.75951328
C      91.45516894      49.85279456      83.20670886
H      92.66837323      48.54888340      84.24038916
H      90.08511736      50.48018369      84.61266524
H      92.54176157      51.36079616      82.32042723
C      84.10791304      42.04822488      84.37455973
O      82.14070794      41.60602893      83.21804722
N      84.13058975      43.15371478      86.65167994
H      85.92394002      43.50898333      87.19970057
C      81.92527914      43.92850257      87.96692945
H      80.30011452      42.75498253      87.48504923
C      82.45440251      44.23085878      90.87710796
H      84.09846440      45.41949664      91.23615596
H      82.83801695      42.27310232      91.39867244
C      80.14704668      45.02076437      92.46825753
O      77.98708951      45.43272471      91.51961492
N      80.56278647      45.76909600      94.80017979
H      78.94707048      46.35113171      95.63732856
H      82.31456276      46.13948235      95.46347373
C      81.29222083      46.60246530      86.86899845
O      82.98163615      48.28054226      86.84821146
N      78.85825334      47.26009005      86.37766962
H      77.63182096      45.80122135      86.28696275
C      77.89260319      49.79421304      85.50083660
H      78.87148142      50.17971721      83.72827333
C      75.04289591      49.68649865      84.83565294
H      74.97486577      48.11991554      83.49772671
C      73.38560594      49.14792664      87.15245741
H      73.50276897      50.47262480      88.72659942
H      74.00921562      47.34134830      87.92346574
H      71.39572413      49.18950062      86.62522376
C      74.10370193      52.19227573      83.59410275
H      74.40983760      53.70972597      84.95281597
H      72.07980505      52.29054150      83.22371641
C      75.30556787      52.96517379      81.11289210
H      75.32635486      51.32489135      79.86945220
H      77.20852227      53.65681362      81.50028600
H      74.24921086      54.26719522      79.91669536
C      78.46141081      51.94661131      87.29985605
O      79.14171229      54.01019245      86.43058196
N      78.44251355      51.35701670      89.75650026
H      78.01732513      49.60901986      90.39333803
C      79.24186778      53.19194095      91.62166014
H      77.92283881      54.77364187      91.55174027
C      78.99620336      51.88991952      94.16901121
H      80.61758854      50.70128168      94.62254552
H      77.40316408      50.59167754      94.00838447
C      78.52944096      53.58878348      96.45369031
C      76.39782968      55.05710082      96.68045747
H      75.23375827      55.20260975      95.00993941
C      75.93484673      56.51407982      98.81206876
H      74.36259444      57.77452727      98.47191801
C      77.58079835      56.55565379     100.78305331
H      77.08757978      57.58933409     102.47435835
C      79.75587334      54.99851931     100.57140395
H      81.09379957      54.69427337     102.08129528
C      80.21507683      53.51886360      98.45302076
H      81.80433666      52.23762917      98.43601322
C      82.03677300      54.17648836      91.03017579
O      82.61124980      56.48195447      90.97537374
N      83.70918078      52.37179973      90.62577437
H      83.06100466      50.59167754      90.40278667
C      86.29243665      52.83100323      90.27617500
H      86.84234701      54.26152604      91.65378548
C      87.92516019      50.52931659      90.83364427
H      89.89614473      51.11891119      90.72215041
H      87.88547594      49.09123485      89.35965774
C      87.43383135      49.52776164      93.36587753
H      88.44861438      47.74763945      93.58886523
H      85.44205981      49.04399170      93.56618851
C      87.89303484      51.35134752      95.55418059
O      90.02653585      52.06755379      95.88677243
O      86.07700785      52.01275173      96.90344518
C      87.13525459      53.97428765      87.65512460
O      88.98529665      55.31221387      87.35654784
N      85.57245093      53.43382592      85.62744828
H      84.14381784      52.20172437      85.91279694
C      85.76331329      54.79820833      83.42969657
H      87.71351084      54.78309051      82.76829235
C      84.11358221      53.30910398      81.59855178
H      82.16338466      53.72673350      82.10688814
H      84.32523156      51.26630984      81.76484769
C      84.41215897      54.27475413      78.88301505
H      85.71984958      53.11446217      77.79642243
H      85.16238032      56.19093661      78.90758150
S      81.56434142      54.34089455      77.07265725
C      80.54199948      57.39469227      77.77563543
H      81.68528390      58.49829245      79.08710551
H      78.56534576      57.55720874      78.33310471
H      80.78010500      58.50963081      76.06165368
C      85.09057072      57.55909846      83.65079454
O      86.45684284      59.23528570      82.71726975
N      82.93628272      58.14491363      84.92258036
H      81.68717363      56.76919286      85.36099687
C      82.11614150      60.79619963      85.34776877
H      82.13692849      61.83554911      83.56953631
C      79.46485548      60.79997909      86.50995045
H      79.21730134      62.55742456      87.55496910
H      79.35903081      59.44315559      88.05763630
C      77.24820652      60.16125159      84.86399883
H      77.06490307      58.17136980      84.36889054
C      74.84258492      61.06643050      86.21137370
H      75.06746235      63.10166574      86.42869222
H      74.80668012      60.28408380      88.11810755
H      73.24198674      60.51840988      85.03785367
C      77.18584555      61.67303264      82.35066284
H      78.84502525      61.46138330      81.15068663
H      77.27466269      63.62889938      82.98561088
H      75.51721722      61.32154355      81.19226062
C      84.03043426      62.20782519      86.96348478
O      84.41404870      64.49628377      86.54018608
N      85.45339817      60.86422978      88.66423846
H      85.17749813      58.97450347      88.65478982
C      87.52831766      62.11144916      90.10987908
H      86.55510861      63.64968638      91.06986005
C      88.83978772      60.34833450      91.95614170
H      90.44416536      61.48028057      92.58542056
H      89.64481113      58.77608222      90.89411551
C      87.24296899      59.35622818      94.14255503
H      85.84268179      58.13357527      93.25627339
H      86.38503324      60.97194418      95.08930792
C      88.91348705      58.10522936      96.11731904
H      90.20228040      59.51874465      96.88265820
H      90.04921256      56.65391956      95.19702231
N      87.64170124      56.99973947      98.22436387
H      86.86502373      55.27063990      98.02216315
C      87.20328474      57.98239716     100.49392517
N      87.89303484      60.25762764     101.19123419
H      87.57556082      60.74328730     103.00915090
H      88.82655964      61.21949833      99.83252096
N      86.22629623      56.57266132     102.25515010
H      86.18094280      57.37957447     103.98235995
H      85.51386941      54.85678984     101.82240278
C      89.66181867      63.30953564      88.39211786
O      90.83722844      65.14634961      89.27273032
N      90.18149341      62.31176014      86.13578465
H      88.98718638      60.97005447      85.49327770
C      91.88035736      63.34921988      84.32353711
H      93.05198768      64.72872009      85.30241535
C      93.76630422      61.46327302      83.14623762
H      94.68849066      62.41569508      81.56831615
C      95.82988536      60.75084621      85.10021463
H      94.89069138      59.68882002      86.59498815
H      96.72372590      62.38168002      85.98838599
H      97.33221777      59.67748167      84.18747681
C      92.28286907      59.08788705      82.08232170
H      90.51408524      59.68882002      81.21304761
H      91.84445256      57.80287316      83.63378701
C      93.89669534      57.76129918      80.11511662
H      92.74585201      56.14747291      79.55575763
H      95.69949424      57.27752924      80.98817017
H      94.16503647      58.85923016      78.39357595
C      90.61990991      64.80619887      82.06153471
O      91.93137997      66.14034566      80.78785919
N      88.11791227      64.75517627      81.55508807
H      87.04832718      63.45315483      82.45270806
C      86.87447236      66.42947377      79.75417888
H      87.96295471      66.33498746      78.00618205
C      84.20806853      65.09343727      79.31009320
H      83.13848344      65.44114692      81.03541333
H      84.47829939      63.06198149      79.11545140
C      82.94573135      66.04207988      76.86856681
O      84.26665005      65.80586410      74.93726652
O      80.75175910      66.92647179      76.80809557
C      86.89525935      69.20359201      80.62345300
O      87.59067863      70.68324770      79.16080483
N      86.14692773      69.67413386      83.01017733
H      85.05088647      68.39856860      83.91157677
C      86.32267227      72.38400139      83.89078979
H      86.82344975      73.55185226      82.27129433
C      83.67516571      73.12288437      84.64479059
H      83.74319586      74.53073049      86.14901274
H      82.66416213      71.50716838      85.42335783
C      81.93283805      73.98459958      82.56231220
H      79.99964803      73.70869954      83.21804722
H      82.14448740      72.69580624      80.96927290
C      82.27865796      76.85131440      81.86689290
O      82.51109430      78.55773726      83.55441851
O      82.84746559      77.32374598      79.58599324
C      88.18027324      72.82241790      85.99783462
O      89.02120145      75.00883124      86.16791000
N      88.71317606      71.00072173      87.74205202
H      88.10657391      69.23193790      87.36410675
C      89.93015981      71.39567453      90.19302705
H      91.59500869      72.55785622      89.84909685
H      90.66904279      69.55508110      90.74482713
C      88.22940612      72.39345003      92.25849791
O      86.98785594      74.19246947      91.83519921
N      88.43727602      71.49394030      94.57908181
H      89.28198368      69.79507634      94.79451062
C      87.00675320      72.38022193      96.71825201
H      85.13403442      72.67501925      95.90944913
C      86.94628196      69.95759281      98.39065978
H      88.85868499      69.79696607      99.14277086
H      86.59857232      68.17747062      97.41556102
C      85.13025497      70.32230999     100.64321355
H      85.29844061      72.25361027     101.33863283
C      82.36936483      69.66846467      99.80228535
H      81.68339418      70.36766341      97.99003781
H      81.02198997      69.94814417     101.33296365
H      82.42983607      67.65401642      99.37520720
C      86.01275716      68.58376177     102.73514059
H      84.48018912      68.01306442     103.98613940
H      87.75130537      69.13745159     103.69134210
H      86.26787021      66.71104299     101.91688909
C      87.87602730      74.92379356      97.75193229
O      89.72984882      75.04284632      99.12576333
N      86.33212091      76.94391099      97.39666375
H      84.82600903      76.72659246      96.24393069
C      86.83478811      79.56496139      98.47569748
H      88.86246444      79.85219978      98.71569271
C      85.76898247      81.56807128      96.66156022
H      85.78221055      83.29339140      97.78594736
H      83.76398285      81.35831166      96.24204098
C      87.20517446      82.05751039      94.15767285
H      87.44516970      80.20746833      93.28272957
H      89.08356242      82.82095981      94.52050030
C      85.80110781      83.53905581      92.21881365
H      85.47796461      85.45901776      92.89344594
H      83.85657944      82.88143106      92.03173075
N      87.09557034      83.60141678      89.79240506
H      88.28609791      85.04894714      89.42390843
C      86.53621135      82.39199195      87.73260339
N      84.90348781      80.65533346      87.56819720
H      84.41782815      79.89944293      85.88256133
H      84.02476508      79.90889157      89.08942687
N      87.69083413      83.13087494      85.66335308
H      87.17115939      82.20112959      84.07976242
H      88.70372743      84.74470120      85.58398457
C      85.82378453      79.84842033     101.18745473
O      83.79421847      78.82607839     101.84507949
N      87.34501421      81.09941914     102.68978716
H      88.59034385      82.31451317     101.90366101
C      87.07478335      80.96146913     105.55083279
H      85.64237080      79.58196892     106.08940478
C      89.64670086      80.01849569     106.66199187
H      89.26497614      79.88810457     108.68210928
H      91.11501820      81.42445208     106.33695894
C      90.51786469      77.52216723     105.51114853
H      91.09423122      77.79050838     103.55150234
C      92.67593214      76.34108830     107.00403232
H      94.39369336      77.40122476     106.59018227
H      93.11434864      74.41545718     106.42199662
H      92.12602178      76.40911843     108.99013468
C      88.49207808      75.36221006     105.46768484
H      86.89903880      75.93101769     104.29038533
H      87.72106975      74.85387368     107.30827826
H      89.15348229      73.70869954     104.43589427
C      86.20172979      83.49748184     106.52404183
O      85.79732836      83.76204352     108.82383877
N      85.66504752      85.32295746     104.83651625
H      86.22251678      84.97146837     103.04505570
C      84.58034461      87.69645370     105.21068206
H      83.67705544      87.95534620     107.04371657
C      86.72518398      89.72035059     105.10863683
H      88.30310545      89.07217447     106.26325961
H      86.15637636      91.35496385     106.23113427
C      87.83634305      90.24947395     102.36664396
H      86.23952432      90.18711298     101.06462253
H      89.22151244      88.76792853     102.00759595
C      89.25930697      92.66454418     102.25326037
H      90.85990515      92.32817289     103.50425920
H      88.10279446      94.21789922     102.95623857
C      90.18905231      93.18799838      99.58874628
H      91.20194561      91.43433235      99.21080101
H      91.46272785      94.80749382      99.52449558
N      88.06122048      93.83806422      97.82374190
H      87.86468895      95.73534944      97.75949120
H      86.36802571      93.10296068      98.31318100
H      88.63002810      93.33161757      96.07385533
C      82.59613199      88.24825379     103.26237423
O      82.46007169      86.94056318     101.35375064
N      81.12970437      90.20789998     103.73669552
H      81.66638664      91.27370561     105.22579986
C      79.46107603      91.40787619     101.75437263
H      77.88882374      90.14364928     101.34052256
C      77.92472854      93.63964295     102.85986252
H      79.27777258      95.09284249     103.40788314
C      76.10492210      94.79804519     101.01171018
H      77.23308871      95.76558506      99.58307709
H      74.90116644      96.27581117     101.79216715
H      74.90116644      93.43177307     100.04794976
C      76.66617082      92.82139147     105.34674234
H      77.98708951      92.75714077     106.92466382
H      75.82335288      90.97134940     105.01981969
C      74.47030884      94.57694722     106.25192126
H      74.96919659      96.54604203     106.60152061
H      74.02811288      93.78893134     108.10196332
H      72.72420173      94.53915269     105.15965944
C      80.84624542      92.07683929      99.35630994
O      82.97029780      93.07272507      99.63220997
N      79.71429936      91.35118440      97.33052333
H      77.96630252      90.67277264      97.69335077
C      80.38137275      92.22612768      94.83230514
H      81.69473253      93.80782860      94.97970380
C      81.90449216      90.24758422      93.42256932
H      83.35580196      89.44445054      94.64144279
H      82.80400188      91.40220701      91.97125951
C      80.56089675      88.14431885      92.36243285
C      80.18295148      87.90999278      89.65067559
H      80.90860639      89.41421492      88.47715555
C      79.13793283      85.73491780      88.48660419
H      79.19840407      85.46657665      86.46459702
C      78.37070395      83.55228390      89.97759824
O      77.32568530      81.51326921      88.78707066
H      77.62048260      81.59074799      86.99938958
C      78.91116568      83.76393325      92.57975138
H      78.21763612      82.21624739      93.71358717
C      80.01098639      85.92011098      93.77972758
H      80.28310698      85.85397054      95.79984501
C      78.01543540      92.93666477      93.34131107
O      76.05200976      92.81005310      94.41467563
N      78.26865873      93.90609437      91.01883745
H      79.90705144      94.12908207      90.06452566
C      76.22397486      95.23646170      89.66390368
H      74.48353692      95.26480758      90.76372438
C      77.04789553      97.79893057      88.78140149
H      75.53800421      99.01780405      88.08976165
H      78.34046833      97.78570249      87.17702385
C      78.49353616      99.28047600      90.82230591
H      80.19995902      98.25624434      91.34953954
H      77.38615654      99.38441096      92.55896438
C      79.03588761     101.90530585      89.82830986
H      77.26899351     102.95599368      89.72248519
H      79.92594871     101.75979693      87.97637808
C      80.82167898     103.05425946      91.75394098
H      82.49597649     101.90530585      92.10165062
H      79.89760281     102.84449984      93.58319604
N      81.40938386     105.67153040      91.06986005
H      82.89281902     106.52946615      91.90889853
H      79.86169801     106.79402783      91.07741896
H      81.96874285     105.86995166      89.25572279
C      75.70052067      93.33917648      87.37355539
O      77.44473806      92.25636329      86.25294768
N      73.35726004      92.98201821      86.62711348
H      72.09303314      94.21034031      87.36221703
C      72.64483322      91.23024192      84.53896592
H      73.57079911      89.41799438      84.86210912
C      69.63449920      90.99969531      84.53140701
H      68.96742582      92.84595791      83.90212815
H      68.88616758      90.70678772      86.43058196
C      68.48554561      88.99091623      82.75506427
O      68.52711959      86.74025219      83.42969657
O      67.80524413      89.67499715      80.56676121
C      73.44040800      92.57761677      82.09743951
O      73.32513469      94.86229588      81.88012099
N      73.64638817      91.16221176      80.02629948
H      73.82969162      89.28571353      80.32298650
C      74.20196770      92.03337559      77.40335935
H      75.80256589      93.32783812      77.49028677
C      75.06935208      89.68066633      75.78953308
H      73.66339570      88.20290035      75.50796386
C      76.28444610      90.50647674      73.33288888
H      76.75498795      88.78493606      72.30487776
H      78.02299431      91.57039264      73.62201701
H      75.06935208      91.61196663      72.08755923
O      77.03466745      88.57706617      77.14257713
H      77.15183048      89.52948822      78.68081434
C      72.00610573      93.59051007      76.24684686
O      72.71097364      95.27614594      74.74073498
N      69.58536632      93.36752238      77.00084766
H      69.17529571      91.84251323      78.07043275
C      67.38383517      94.97001029      76.51140853
H      67.42540914      95.98101387      74.71616854
C      65.15773757      93.19366754      76.36967907
H      64.79868957      92.54171197      78.29153073
H      65.59048489      91.48913441      75.30009397
C      62.46487757      93.92310190      75.50229469
H      62.17385972      95.83739467      76.20716259
H      61.22899656      92.45478456      76.25062630
C      62.19464671      93.72090119      72.60723398
O      61.08159791      91.77070364      71.78331331
O      63.11494342      95.37441172      71.10868100
C      67.11927348      96.99390716      78.59010749
O      65.38828418      98.51702658      78.43892937
N      68.83514497      97.10351130      80.39668583
H      70.21464518      95.78826177      80.27574336
C      69.20742106      99.20488696      82.04074772
H      68.70097441     100.92831734      81.03352360
H      71.16706724      99.13685681      82.67191632
C      67.55957971      99.31638081      84.40668508
O      66.62983437     101.33460851      85.18336258
N      67.46887285      97.23390240      85.76350856
H      68.31358051      95.70133437      85.00761804
C      66.26889664      96.81438316      88.31085964
H      65.40718144      98.60206426      88.85699053
C      64.09760111      94.78103766      88.02740069
H      62.89195572      94.79615546      89.69791875
H      64.82325601      92.85351682      87.98393699
C      62.40251660      95.01914317      85.80319281
C      62.27968439      93.13319630      84.02873980
H      63.82359079      91.79904953      84.01362199
C      60.60727661      93.30516141      81.91791552
H      60.68475539      91.81416735      80.52896667
C      59.11439282      95.45566994      81.80075249
O      58.08827143      96.05093374      79.47449940
H      57.41552886      97.73467987      79.45938158
C      59.17486406      97.27736612      83.67536098
H      57.93898305      98.89875129      83.56764659
C      60.92097118      97.19799760      85.56508730
H      60.92475063      98.58883617      87.05986082
C      68.30602161      96.13597142      90.15712225
O      70.43196371      96.84083933      89.69413930
N      67.67485302      94.98701782      92.14889378
H      65.89473083      94.30671634      92.28873352
C      69.25844367      94.36529787      94.44680098
H      71.20297204      94.84717808      93.97436939
C      68.71798194      96.11329471      96.74281845
H      69.31324573      95.18732881      98.48325637
H      66.67140835      96.32116459      96.85620202
C      70.32424931      98.46978341      96.75415681
C      68.96742582     100.84138993      96.68045747
H      66.94919811     100.97367078      96.95446779
C      70.38850000     103.02969300      97.02438767
H      69.45119575     104.83438163      97.18123494
C      73.03222712     103.00134712      97.00360068
O      74.42873486     104.91941933      97.61587199
H      73.61048337     106.52001750      97.37587676
C      74.32102046     100.76958034      96.53305883
H      76.34680707     100.54092345      96.63888349
C      72.92073326      98.47167314      96.43668278
H      74.05645878      96.77658863      96.45746977
C      69.20742106      91.57039264      95.11009491
O      67.17974472      90.60285278      95.30095726
N      71.35037070      90.44222604      95.38032577
H      72.92829217      91.46267825      95.04773395
C      71.78122830      87.69834343      95.16300724
H      69.95575268      86.81017207      95.51638607
C      72.61459760      86.94434263      92.40967600
H      74.60825886      87.44323037      92.26794653
C      72.23476261      84.13431961      91.68024166
H      73.11537507      82.80395229      92.98604253
H      72.93963053      83.67889557      89.79807425
H      70.23165272      83.69779283      91.49882793
O      71.52233579      88.32195311      90.44436064
H      72.93774080      88.79438470      89.41068035
C      73.70874914      86.68922959      97.12643289
O      75.33580349      88.05928116      97.92389739
N      73.66150598      84.23636482      97.85586725
H      72.25554960      83.12331603      97.20202194
C      75.52288640      82.92300504      99.55284148
H      77.32757502      83.91322163      99.49425995
C      74.40227869      83.09119069     102.37987204
H      74.25865949      85.10941838     102.76726593
C      71.97209065      81.32051712     102.48002752
H      70.67573840      82.10853300     101.08729923
H      71.02533777      81.55673291     104.29227507
H      72.37649208      79.31362779     102.25326037
C      76.27877692      82.12365080     104.39432028
H      76.69073726      80.10542310     104.39998947
H      75.43784871      82.31829262     106.26514933
C      78.67494989      83.61653460     104.55305730
H      79.86925692      83.15922083     102.93923102
H      79.67650483      82.79639338     106.15554521
H      78.13448816      85.60452668     104.60030045
C      76.01610496      80.20935805      98.75159751
O      74.53078008      79.06985309      97.32485414
N      78.06834774      79.08875035      99.61331272
H      79.19273490      80.21880669     100.66400054
C      78.64282454      76.46958967      99.25993389
H      76.86459208      75.54740324      99.73992437
H      80.13759805      76.02172454     100.60541903
C      79.50265001      75.67590463      96.57652253
O      81.29600028      76.70013628      95.39166413
N      77.88126483      74.03184273      95.41056140
H      76.46397010      73.31941592      96.47447730
C      77.41072298      73.93357697      92.57975138
H      78.59558138      75.38110733      91.71614646
C      78.42739574      71.41646151      91.47993067
H      77.28600105      69.87633458      92.22637256
C      78.12126008      71.48449167      88.60376722
H      76.21263650      72.02306366      88.04062877
H      78.55589713      69.74594346      87.58898418
H      79.20974243      73.13044328      88.01039316
C      81.15238108      70.98371420      92.08653280
H      81.77410104      71.44480741      93.99515639
H      82.37692373      72.18180068      90.93946894
C      82.07078807      68.24928021      91.76905878
H      84.02287535      68.18502953      92.41912464
H      81.92527914      67.64834726      89.80374342
H      81.16749889      66.96048688      93.09753639
C      74.64605339      74.57230447      91.87110401
O      72.89427709      73.08886931      92.28684380
N      74.18684989      76.86643220      90.93757920
H      75.52477612      78.22325570      90.83175453
C      72.10248177      77.58074876      89.39178308
H      71.57902758      76.01227592      88.16346099
H      72.77333461      78.97347704      88.03306986
C      69.69119099      78.33474956      90.81663672
O      67.76178043      78.83174758      89.70547766
N      69.78378758      78.30451392      93.33375218
H      71.45808510      77.67145561      93.99515639
C      67.66351466      78.71647427      95.01938804
H      66.02323222      77.80373646      94.17279066
C      68.07736472      77.23114938      97.47036307
H      69.36237862      78.42356668      98.55128652
H      68.89561622      75.35465115      97.24737537
C      65.70575820      77.18579596      99.06340235
N      64.31302991      75.09386892      99.65299696
H      64.35271416      73.48949128      98.62120640
C      62.31558919      75.69858135     101.09485814
H      60.73766772      74.44002362     101.40855272
N      62.76723378      78.11365158     101.92822745
H      61.55025004      78.95269006     103.13576256
C      64.75900532      79.13410379     100.50715325
H      65.19175264      81.12020614     100.70746425
C      66.89250632      81.58507880      95.51071688
O      67.82225167      83.02505025      97.13399180
N      64.88372725      82.42033783      94.13877558
H      64.11271892      81.11075750      92.98415281
C      63.89351067      85.06217523      94.37688109
H      65.54702119      86.23191582      94.00460502
C      61.87906242      85.43067185      92.34920476
H      60.46743686      83.99825931      92.79140072
H      62.64440157      84.98091700      90.48971407
C      61.18553286      88.19723117      92.02606156
H      62.77479269      89.31783889      92.70636304
C      60.76412389      89.01737239      89.22548718
H      59.47533055      87.69645370      88.31274937
H      62.63306322      88.94367308      88.36566170
H      60.08760187      90.96001105      89.14989812
C      58.69676331      89.06839500      93.41312067
H      58.33771531      91.07150490      93.08808776
H      58.56070301      88.64131687      95.42189975
H      57.02813497      88.05928116      92.74415756
C      62.77857214      85.49303283      97.07730001
O      61.31970343      84.07951755      98.13554673
N      63.26990098      87.69267426      98.07129604
H      64.41696485      88.77737715      97.00360068
C      62.55936389      88.67722167     100.62998547
H      61.66741307      87.17110980     101.72035755
C      64.98955193      89.53515741     102.03405212
H      64.33759635      90.63497813     103.64976812
H      66.22354321      90.72001581     100.88509852
C      66.57314258      87.12386663     102.63498509
H      66.79802001      86.06373018     100.88320880
C      69.07891967      88.18211337     103.49292084
H      68.84837306      89.59751838     104.97257654
H      69.76678005      89.20445530     101.84318977
H      70.46408906      86.82151042     104.18645040
C      65.40151226      85.44389994     104.73636075
H      65.05758207      86.60986107     106.40120963
H      66.80557891      84.02660520     105.24469712
H      63.77823736      84.36675595     104.07117708
C      60.43342179      90.60474251     100.11031074
O      58.40196600      90.37797534     100.96068758
N      60.97577324      92.62674965      98.71002354
H      62.72754953      92.54927088      97.95980219
C      59.21076886      94.73568422      98.05995769
H      57.33616036      93.88530739      97.96925082
C      59.15596680      96.76147083     100.18212034