 %block lattice_cart
   140.777   0.000   0.000
   0.000 144.511   0.000
   0.000   0.000   162.462
 %endblock lattice_cart

 %block positions_abs
N      91.84161798      42.32884924      80.74911979
H      91.13675005      40.93612095      79.65307853
H      91.10840416      42.08696428      82.49522691
H      93.72000592      42.11342044      81.00801230
C      91.04604319      44.84029551      79.95354502
H      91.81894125      46.12152995      81.36895002
C      92.20255570      45.58673741      77.42887066
H      91.55060011      44.48313724      75.81693412
H      94.25857792      45.49225109      77.45910628
C      91.69232960      48.39298098      76.67864932
H      89.67221217      48.74635980      76.48211778
H      92.45955847      48.84084612      74.81915862
S      92.79404003      50.89308889      78.81026060
C      92.28381393      53.61051533      76.53503012
H      93.65386550      53.28926186      75.03269770
H      92.72034070      55.39630670      77.46477546
H      90.35818282      53.74657563      75.81504439
C      88.20389481      45.01037088      80.19354026
O      86.82817406      43.25103569      79.44898809
N      87.07761794      46.92277391      81.24422809
H      88.22090235      48.32873029      81.84516106
C      84.28460245      47.31016781      81.63162198
H      83.25848106      46.52026221      80.02913407
C      83.57217562      45.55650179      83.84260177
H      84.61719428      46.27270806      85.46776640
H      84.30727916      43.64220903      83.63662160
C      80.75648342      45.14454145      84.44731419
O      79.23147429      45.41099286      82.75222969
N      80.30294910      44.62297699      86.82081044
H      78.49259129      44.38676120      87.37827970
H      81.67300069      44.28282625      88.10582433
C      83.32462148      50.02192506      81.81681516
O      85.00269844      51.75291437      81.96610354
N      80.80561631      50.47734911      81.80925626
H      79.63020653      48.98068587      81.68642405
C      79.55839694      53.00202346      81.83382270
H      79.86075315      53.85806948      79.98567036
C      76.55940127      52.56549668      81.96610354
H      76.06807244      51.51480885      80.26346013
C      75.64855320      50.76647723      84.03724358
H      73.78339333      51.38630746      84.64762518
H      76.89766228      51.11607660      85.63784177
H      75.49170591      48.77470570      83.53079693
C      75.02494352      55.04859706      81.88862476
H      75.62965594      56.29392670      83.41363390
H      73.06718706      54.50435588      82.22121659
C      75.22903396      56.57927537      79.46221617
H      74.66211607      55.47567520      77.82004401
H      77.20568767      56.94021310      79.00490241
H      74.15000022      58.30081604      79.80236691
C      80.64498957      54.95411074      83.75000518
O      80.83963137      57.13674463      83.09804960
N      81.06639854      53.93932771      86.01389730
H      80.70357108      52.08172675      86.25389254
C      82.19834459      55.47000602      88.11149351
H      80.83963137      56.91564665      88.66707305
C      82.40810421      53.95255580      90.58325553
H      83.37186463      55.05048678      92.03834479
H      83.45501259      52.23857403      90.13350066
C      79.82106889      53.32327693      91.83614407
C      78.66833585      50.97434713      91.50544197
H      79.15588523      49.72145858      89.97287393
C      76.42145125      50.60018132      92.81502230
H      75.45769083      48.85407420      92.38416470
C      75.26871820      52.51447407      94.24365539
H      73.48292684      52.07416784      95.12804731
C      76.32696495      54.95600047      94.47798146
H      75.25171067      56.42053836      95.40394735
C      78.69668173      55.25079777      93.41973472
H      79.66233189      57.04036859      93.60303817
C      84.57373057      56.80415280      87.34804408
O      84.77971075      59.10772918      87.42174340
N      86.35385276      55.41331424      86.17074459
H      86.00992256      53.60295643      85.67941574
C      88.74057710      56.44321508      85.14651292
H      89.42843747      57.73011870      86.59782273
C      90.80415822      54.35884695      85.07848278
H      90.19944580      52.82438919      83.84638122
H      90.71723081      53.52358792      86.95876046
C      93.57071754      55.22056215      84.39062240
H      93.73134429      57.15753162      85.07281360
H      93.79559498      55.53614645      82.36672552
C      95.72311581      53.48390367      85.18808690
O      95.35272946      51.19922456      84.86305398
O      97.77913804      54.27002982      86.09137608
C      88.56483255      57.57894059      82.52168308
O      89.86496424      59.42709292      82.09838438
N      86.79415898      56.79848362      80.78880405
H      85.66788211      55.33016628      81.25745617
C      86.00992256      58.27247015      78.52302220
H      87.63130775      58.16853520      77.25690557
C      83.57406536      56.89863912      77.46099601
H      81.76370755      57.50335154      78.23200434
H      83.71768456      54.85206552      77.64618919
C      83.11486186      57.60539676      74.68120860
H      84.77026211      57.16886998      73.53414473
H      82.63865082      59.59716829      74.46577980
S      80.23113951      56.11818215      73.49823993
C      80.69790190      56.37518493      70.08728394
H      82.63676111      55.89897390      69.56949893
H      79.77760518      58.10050505      69.44477699
H      79.46202089      54.92198539      69.31438587
C      85.41465879      61.12595688      79.18820586
O      86.38597810      62.89474071      78.10350296
N      83.74980989      61.59460901      81.09871916
H      82.76904194      60.21132934      81.97366244
C      83.08273651      64.18731351      82.07003849
H      82.68967344      65.21154517      80.32582110
C      80.72813752      63.98700252      83.66496749
H      80.26137513      65.73877881      84.64384572
H      81.10608278      62.53947216      85.08226223
C      78.30928785      63.25567843      82.16074535
H      78.79116805      61.63240353      80.98911504
C      76.30239850      62.35616871      83.88228602
H      76.88821366      60.95399179      85.27312459
H      74.97014144      61.40185692      82.63695638
H      75.49170591      64.12495254      84.55691831
C      77.40977811      65.42130479      80.37306426
H      78.92722835      66.03357611      79.12395516
H      76.66711568      67.04835914      81.39351647
H      75.86020254      64.62573001      79.27135382
C      85.44867385      65.57626235      83.29647086
O      85.70756635      67.86850036      83.04891672
N      87.18155289      64.09471692      84.54369023
H      86.73179803      62.24845431      84.71565532
C      89.58150530      65.05280816      85.43564105
H      89.29237717      66.75356184      86.56002821
C      90.76825342      63.03458046      87.22332214
H      92.70711262      63.60527780      87.62961330
H      90.60384724      61.19776648      86.30680488
C      89.52103406      62.91930715      89.90862323
H      87.61052075      62.15207827      89.93318967
H      89.47190117      64.79580538      90.75900007
C      91.29548707      61.33193705      91.58292075
H      93.02836609      62.44876530      91.56591321
H      91.64886589      59.45165937      90.82136104
N      90.27125541      60.99178631      94.09814647
H      89.17710388      59.46488745      94.44396638
C      90.84006303      62.44309612      96.12393308
N      92.14019473      64.51423616      95.91228373
H      93.29481750      65.10761022      97.31068120
H      92.53892699      65.03202117      94.11704373
N      90.38841844      61.66263915      98.35947930
H      90.90620345      62.69820917      99.87692953
H      89.37174568      60.10172522      98.77521909
C      91.37485557      65.87672883      83.30214004
O      93.03970446      67.46976811      83.70465175
N      91.25013363      64.84871772      81.02879929
H      90.09929032      63.34827502      80.77557596
C      92.81671674      65.35894382      78.93498253
H      94.56282386      66.31892479      79.46032645
C      93.62174015      62.86450509      77.58004877
H      91.93610428      61.76846383      77.13407336
C      94.98612255      63.18197911      75.07805113
H      95.67776238      61.32437814      74.51491269
H      96.59238993      64.47266218      75.04025660
H      93.59528400      63.79236071      73.68910229
C      94.95021775      61.23934046      79.56993057
H      94.84817254      59.24189975      79.07671201
H      94.07527448      61.09005208      81.42753154
C      97.77535860      61.79491999      79.80425664
H      98.69943476      61.82893507      77.96366321
H      98.56715392      60.42864787      81.12517533
H      98.11550933      63.72244083      80.44865331
C      91.62996863      67.36205371      77.10572746
O      93.13608050      68.77178954      75.99834784
N      89.15253743      67.85716201      77.04147677
H      88.00547355      66.62128100      77.93909677
C      87.94122287      70.12294386      76.05881908
H      88.77270243      70.34971101      74.18799004
C      85.05183132      69.86594108      75.75079370
H      84.47168536      71.80669000      75.37851761
H      84.46223672      69.11005055      77.57437959
C      84.32239698      68.16140794      73.50768856
O      82.51959806      66.69120087      73.64941804
O      85.36363617      68.48833060      71.40631290
C      88.55916337      72.63439013      77.52713643
O      89.46623200      74.40884313      76.42542599
N      87.86185436      72.76667097      79.94787584
H      87.00580833      71.26055910      80.74534034
C      88.14909275      74.99843774      81.49556169
H      88.92010109      76.68029416      80.59227251
C      85.31261356      75.78834334      82.10405356
H      85.28048822      76.99776818      83.77079217
H      84.33562505      74.09892802      82.75978859
C      83.78949415      76.93918667      79.91575049
H      81.80717125      76.99209900      80.47321975
H      83.72146401      75.73165155      78.24712216
C      85.03671352      79.52433226      79.55103331
O      84.32995587      81.21941677      80.96265887
O      86.73368774      79.92306452      77.92586868
C      89.92543550      74.79623703      83.71032093
O      91.21044939      76.61982292      84.49077789
N      90.14086430      72.50966819      84.79880328
H      88.98624152      71.18119059      84.06558947
C      91.12541169      72.01833935      87.35182353
H      92.91309279      73.03312238      87.48221465
H      91.42587819      69.98121438      87.38772833
C      89.29237717      72.80824495      89.57603140
O      88.20956399      74.85481854      89.14517380
N      88.97112370      71.32292006      91.60937691
H      90.10306977      69.81491847      91.89472559
C      87.46879128      72.13172293      93.73531902
H      85.57717524      72.53423463      93.02667165
C      87.38186387      69.77712394      95.57213299
H      89.26592100      69.60137939      96.38282558
H      86.87352750      68.20865110      94.34003144
C      85.82094994      69.89806642      97.85870183
H      86.31605823      71.67062971      98.78277800
C      83.04116253      69.90751506      97.48453602
H      82.65376864      71.58559202      96.35636941
H      81.99614388      70.00200137      99.25898903
H      82.54227479      68.15762849      96.52077560
C      86.53526648      67.82881611      99.77866377
H      88.32294758      68.34471140     100.65927623
H      86.59195827      66.07892955      98.69396086
H      85.23891423      67.93464079     101.37548250
C      88.59317843      74.37293833      95.16206238
O      90.86085001      74.44474793      95.82535632
N      86.89431448      76.16061943      95.64583232
H      85.14442791      76.15683997      94.88616234
C      87.52548307      78.51332869      96.96864074
H      89.52859297      78.63238144      97.42784423
C      87.05872068      80.73375710      95.35859392
H      87.22501659      82.53466628      96.34125160
H      85.10663340      80.40683445      94.79167603
C      88.91443191      80.83202287      93.02667165
H      89.14686824      78.99142944      92.13283110
H      90.79470960      81.33280034      93.69941422
C      87.89397970      82.80867660      91.07080492
H      87.96578931      84.63415221      92.02322698
H      85.89086982      82.53844573      90.68341102
N      89.47001144      82.66883685      88.82581006
H      91.21611857      83.41716847      89.00533406
C      88.59884761      82.57057108      86.44853435
N      86.32739659      82.08680114      85.71532054
H      85.84362665      82.31734775      83.88228602
H      85.25025260      81.00398797      86.85860496
N      90.17487936      82.98631087      84.60983065
H      89.56260803      83.25843146      82.82214956
H      91.68477069      84.13715419      84.80636219
C      86.15543150      78.74198557      99.49331509
O      83.86886266      78.17506768      99.74653842
N      87.65965365      79.50543500     101.36414414
H      89.47001144      79.87771108     100.88793311
C      87.14942754      79.36181580     104.10046784
H      85.88898009      77.81790940     104.61069395
C      89.64197655      78.73820612     105.50453449
H      89.09962509      79.07835685     107.46040123
H      91.40320146      79.70007681     105.04155155
C      90.19755607      75.90928583     105.50075504
H      88.64420105      74.88505416     106.38325723
C      90.66053903      75.00032747     102.75120326
H      91.59406383      76.45163728     101.62492637
H      88.78026134      74.51655753     102.06334288
H      91.93799402      73.38461147     102.69262174
C      92.80726811      75.45764124     106.75364359
H      92.93010032      76.18518587     108.67738497
H      94.28314436      76.30612835     105.59524136
H      93.11151406      73.42051627     106.76309222
C      86.15543150      81.97152784     105.14737622
O      84.77026211      82.05845525     106.96151348
N      86.75447474      83.99920417     103.71496368
H      87.93555369      83.84613634     102.22207989
C      85.69811773      86.46907646     104.13637264
H      84.82128472      86.42939221     105.99964279
C      87.80138311      88.48730417     104.29699938
H      86.91699121      90.25797772     104.86769673
H      88.42499279      88.62336446     102.33924292
C      89.91787659      87.63692732     106.09979828
H      90.93832880      85.97018872     105.45540161
H      89.05805111      87.19662109     107.91960472
C      91.84350769      89.77420778     106.33412435
H      93.34961956      89.09201659     107.55866700
H      91.17454458      91.50897654     107.22040599
C      93.33639148      90.37136130     103.97007673
H      91.93421457      90.73418875     102.50553884
H      94.28125465      88.73107886     103.15938414
N      94.89730542      92.64470205     104.24030759
H      95.93476517      93.21539940     102.74175462
H      96.13318643      92.43116298     105.67838931
H      93.82016142      94.07900433     104.89604262
C      83.58918316      87.10780396     102.27121277
O      83.53438110      85.89082021     100.33046385
N      82.11330691      88.99753027     102.84002039
H      82.58006932      89.92538589     104.44061858
C      80.63176148      90.54899557     101.04100094
H      79.27871744      89.32067347     100.08668915
C      79.11242153      92.51620067     102.58490734
H      80.50137036      93.80688374     103.39371020
C      77.56473567      94.12057830     100.73486528
H      76.88632393      95.68716142     101.88759833
H      75.96791694      92.95083772     100.17361657
H      78.70613038      94.67237839      99.11159038
C      77.47969799      91.18394361     104.53888435
H      78.69857147      90.49986269     106.05255512
H      76.44034853      89.62491941     103.68283833
C      75.82429774      93.14925898     105.88247976
H      74.18212558      93.61980083     104.73352616
H      76.70679993      94.97473460     106.25097639
H      75.38777097      92.59934862     107.81944923
C      82.46290629      91.84723755      99.00009652
O      84.29405107      93.18705351      99.57268360
N      81.76748699      91.53543271      96.56234958
H      80.28216212      90.36569212      96.29778790
C      83.19989954      92.33856639      94.30034718
H      84.33751478      93.96373102      94.85214727
C      84.79671828      89.98207768      93.40839636
H      85.96645886      89.13737002      94.88049316
H      86.04960682      90.86080041      92.02889616
C      83.22068653      87.94873217      91.94574820
C      83.07706733      87.73330337      89.29068273
H      84.36208122      88.80477819      88.12283187
C      81.89409867      85.55066948      88.14361886
H      82.12842473      85.33146122      86.12728088
C      80.60719504      83.76109866      89.67051772
O      79.28249689      81.91105660      88.56124837
H      79.82673807      81.61059011      86.85671524
C      80.70168136      84.06156514      92.40306197
H      79.59052229      82.78411015      93.54445666
C      81.99614388      86.10624901      93.51044159
H      82.03393841      86.21207368      95.54756655
C      81.27804788      93.08689801      92.37471607
O      79.22391538      92.13825540      92.45408458
N      82.03582814      94.72718045      90.62482951
H      83.84996539      95.29787780      90.78167679
C      80.73569643      95.31110588      88.28156888
H      78.70424064      95.49251961      88.56691755
C      81.70890549      97.81499325      87.16096117
H      80.90199234      97.93782546      85.26934513
H      83.75925854      97.78475763      86.97576800
C      80.83207248     100.16770251      88.51967439
H      81.69189794     100.00140659      90.38483426
H      78.79494750     100.15636415      88.81636142
C      81.55772737     102.49017615      86.96631936
H      80.85474919     102.53930903      85.03123962
H      83.60430098     102.73017139      86.94175292
C      80.39176624     104.89768747      88.08503734
H      81.49725614     106.38868153      87.18930707
H      80.67900465     104.85044431      90.12405203
N      77.64599390     105.19059505      87.52000917
H      77.19245960     105.02807858      85.67563629
H      76.93734654     106.85544393      88.13039077
H      76.57829854     103.77141059      88.22487709
C      80.97191222      93.08311856      86.43908572
O      82.95801457      92.64659178      85.41485406
N      78.83463176      91.79243549      85.93263907
H      77.16789316      92.07022526      86.82270016
C      78.64565912      89.94050370      83.94086754
H      80.39743542      88.86146998      83.84449149
C      76.54995265      88.11880753      84.87250261
H      74.83219143      89.23374606      85.09171086
H      77.27749728      87.35157865      86.64128644
C      76.17767656      85.81901061      83.12639550
O      78.06551316      84.83635293      82.07003849
O      74.01582966      84.89115499      82.70876598
C      78.25637550      91.26331212      81.38028838
O      78.30361867      93.54232205      81.04769655
N      77.62142746      89.75342080      79.42253192
H      77.54205896      87.87503284      79.74756485
C      77.88787887      90.53387776      76.81848906
H      79.86831206      91.08189839      76.69187740
C      77.56473567      88.23408084      75.08749976
H      77.20568767      88.98808164      73.20344263
C      80.09507921      86.87347789      74.92498330
H      80.50137036      86.34624425      76.87329113
H      81.60874999      88.01298286      74.11807016
H      79.94012165      85.11792215      73.85917766
O      75.48981618      86.66749773      75.82449302
H      73.93457143      87.38181427      75.22544978
C      76.06051353      92.62769452      75.92842797
O      76.55562183      94.02231254      74.22200511
N      73.86465155      92.86202058      77.14352199
H      73.46213986      91.55244025      78.47388931
C      72.29050953      95.04843392      76.69754658
H      72.53995341      96.08967312      74.93632165
C      69.43891254      94.27742559      76.97533635
H      68.48838019      96.05376832      76.54447875
H      69.18379948      93.75019195      78.95010034
C      68.32208429      92.20628555      75.35773062
H      68.58853569      92.84879250      73.41887143
H      66.36999700      92.17416020      76.01913483
C      69.19135839      89.48318993      75.61284368
O      70.53684352      88.62903364      73.90453109
O      68.34665072      88.21329385      77.42131176
C      72.64010891      97.45405552      78.33215984
O      71.18124020      99.21905990      78.36239546
N      74.69991058      97.38602537      79.76835184
H      75.83563611      95.85534706      79.80803609
C      75.65044292      99.48551131      81.37083975
H      75.01360515     101.23161842      80.47888893
H      77.70646516      99.54220310      81.25934590
C      74.67345441      99.49307021      84.13172989
O      75.02683323     101.19382389      85.68508492
N      72.92734730      97.77908845      84.56258749
H      72.43412874      96.68682664      83.07726261
C      71.31163131      97.62035144      86.85671524
H      71.29084432      99.48362158      87.73354825
C      68.69436036      96.59800950      86.14050896
H      67.58131156      96.48651565      87.87149827
H      69.10254124      94.65348113      85.59815751
C      67.10510053      97.97750971      84.20542922
C      65.95614693      96.55454580      82.41963785
H      66.27362095      94.55332563      82.17397343
C      64.53507275      97.67515350      80.55447798
H      63.48627465      96.69627527      79.10316818
C      64.09287679     100.28486554      80.62817731
O      62.39968201     101.26752322      78.79892224
H      61.87811756     102.95693854      79.20521340
C      65.08309338     101.80042604      82.57648514
H      65.00750432     103.83755101      82.48010910
C      66.75550116     100.61178819      84.33015116
H      67.96681573     101.68326301      85.57359107
C      72.39633421      95.83833952      88.87116349
O      73.46025013      93.89570087      88.38172437
N      72.20169241      96.77375405      91.22387275
H      71.01683400      98.26285838      91.38072003
C      73.22781378      95.43393809      93.50099295
H      75.24415176      95.24496546      93.13060660
C      72.71380824      96.96461641      95.86126112
H      73.19757816      95.78542719      97.47886684
H      70.69369081      97.18760411      96.19763240
C      73.84008511      99.60078461      96.10881527
C      72.53239450     101.61523286      97.14816474
H      70.70502916     101.30531775      98.00610048
C      73.58686178     104.02841336      97.42406478
H      72.57963766     105.59310675      98.27066217
C      75.92256351     104.53674974      96.31668516
O      76.81829378     106.96693778      96.10692554
H      75.50115455     108.20848797      96.20897076
C      77.33796852     102.49395560      95.27355624
H      79.04628111     103.05709404      94.30790609
C      76.27783206     100.14880524      95.14694457
H      77.38143222      98.61245775      94.37782596
C      72.15444924      92.67871713      93.67673750
O      69.92835164      92.19872664      93.55201556
N      73.87598992      90.78143191      93.92618137
H      75.68445800      91.31811418      94.22286841
C      73.49993437      87.92038627      93.69185531
H      71.53083956      87.46496223      94.08491838
C      74.22369955      87.01709709      91.10670972
H      76.22303000      87.20418000      90.65695485
C      73.48481657      84.43384122      90.35459864
H      74.50526878      82.98442114      91.40339675
H      74.09519816      84.12392611      88.41195999
H      71.47036832      84.01243226      90.24499452
O      72.80829454      88.64226172      89.53067797
H      73.50371383      90.31089006      89.38705877
C      75.18934970      86.54655524      95.60236861
O      76.92978763      87.68794994      96.70218933
N      74.84730923      84.08046240      96.22975775
H      73.36765354      83.23953419      95.36993228
C      76.30995741      82.47230531      97.96830596
H      78.17133782      83.29622598      98.27255189
C      75.01360515      82.37970872     100.57423854
H      74.85864759      84.40927478     100.88415366
C      72.33397324      81.22508594     100.29077960
H      71.27572650      82.33813474      98.91694857
H      71.54595738      81.33657980     102.18995454
H      72.37554723      79.29378565      99.57646305
C      76.66900540      81.25910102     102.80600532
H      77.51371307      79.41472814     102.45451622
H      75.33674835      81.27043938     104.37825761
C      78.86486738      82.84647112     103.80944999
H      79.83051753      81.79389357     105.29288515
H      78.17133782      84.57557070     104.68817273
H      80.27460321      83.20551912     102.35247100
C      76.77860954      79.76054805      97.00076609
O      75.63343538      79.25032195      95.09781169
N      78.51904746      78.32057660      98.07224091
H      79.94579083      79.01221643      99.13615682
C      79.13320851      75.79212279      97.43162368
H      77.69701652      74.41073286      97.95696760
H      80.81317520      75.30268368      98.51821631
C      79.96468809      75.61448852      94.62160066
O      81.85063496      76.45541673      93.67106832
N      78.28661112      74.60537467      93.03989973
H      76.84474995      73.66429097      93.86382041
C      78.29228031      74.54868288      90.33759111
H      79.68500860      75.85070431      89.55335469
C      78.91211053      71.93141194      89.05446694
H      77.42867539      70.65017750      89.68752525
C      78.91022082      72.05613387      86.10460416
H      79.14643661      70.31380621      85.03123962
H      80.48247310      73.27500735      85.56792189
H      77.21891577      73.07847581      85.52256846
C      81.35741638      70.95442343      90.15428765
H      80.95301496      70.37616718      92.08936740
H      82.71046042      72.50588874      90.10137532
C      82.45534738      68.61683198      88.84092787
H      81.06828826      67.09749203      88.71242648
H      83.96145925      68.12361342      90.15806711
H      83.34540847      68.97776971      87.01734197
C      75.69012718      75.45197206      89.32091835
O      73.76827551      74.12916364      89.36627178
N      75.42934494      77.78767378      88.60849153
H      76.71813828      79.14071782      88.99966488
C      73.47158848      78.73631639      86.98710635
H      73.00671581      77.60248060      85.32792665
H      74.12543378      80.59013790      86.36727612
C      70.86376617      78.99331917      88.13228050
O      69.07608508      79.83613710      86.96820909
N      70.56140996      78.27711290      90.55868908
H      71.94468962      77.36815454      91.50544197
C      68.15956782      78.66450679      91.97598382
H      66.81597240      77.83869639      90.65128567
C      68.22381852      77.03556271      94.35892870
H      69.99638179      77.26610932      95.38316036
H      68.42601923      75.16095421      93.53122857
C      65.88433733      77.22075589      95.83858440
N      63.82264592      75.46520014      95.71764192
H      63.72060071      74.04034650      94.45341502
C      61.94425797      76.08125092      97.42217505
H      60.23972483      74.96442267      97.52988945
N      62.68125123      78.28278208      98.54278276
H      61.67780656      79.12937946      99.92606242
C      65.15301325      78.94796574      97.59980933
H      66.16590655      80.55423310      98.34814095
C      67.73815885      81.52933188      92.48054074
O      68.97215013      82.44962860      94.27200129
N      65.92969077      82.91261154      91.47520635
H      64.98482762      82.26254569      89.94830749
C      65.81630718      85.69428868      91.90606395
H      67.60020883      86.47474564      91.23710083
C      63.86233018      86.80922720      89.97098420
H      62.10677443      85.84924623      90.46420277
H      64.21570901      85.74909074      88.23999490
C      63.35588352      89.64192694      89.64973073
H      63.02140197      90.36947157      91.54701595
C      65.70292362      91.11402374      88.69541894
H      67.23927111      90.66993806      89.99555064
H      65.23238176      93.11902336      88.73888265
H      66.11866339      90.49041406      86.77734673
C      61.18080854      90.15404277      87.79968867
H      59.64257132      88.91438231      88.38739355
H      61.54363600      89.66082421      85.83059385
H      60.63467764      92.07778416      88.29101751
C      65.06608585      86.34813398      94.63860819
O      63.35777325      85.15004750      95.66472958
N      66.09409695      88.40982539      95.53433847
H      67.18257931      89.40571115      94.32491363
C      65.34198588      89.54366117      97.99098267
H      64.15145831      88.22652193      99.03789105
C      67.61721636      90.23719073      99.63693429
H      66.93313545      91.46173338     101.14493589
H      68.81908230      91.49007928      98.52766495
C      69.13844604      88.00353423     100.63282006
H      69.96236672      86.84324227      99.14371572
C      71.47225805      89.07311932     102.13137303
H      71.04329017      89.91026808     103.96440755
H      72.50971778      90.47718597     101.03911122
H      72.73081577      87.45929305     102.36191964
C      67.51895060      86.34435453     102.46207513
H      68.60743296      84.96674404     103.53921913
H      65.89756542      85.57712564     101.44729210
H      66.69691966      87.59724307     103.87559041
C      63.54674588      91.83023001      97.49776411
O      61.23561060      91.68850054      97.91350389
N      64.48216042      93.75964058      96.27511118
H      66.29440794      93.76719948      95.67984739
C      63.14234445      96.10857039      95.77622343
H      61.18080854      95.70605868      95.29434322
C      63.32186846      97.76586036      98.06279227