 %block lattice_cart
   140.777   0.000   0.000
   0.000 144.511   0.000
   0.000   0.000   162.462
 %endblock lattice_cart

 %block positions_abs
N      92.23562591      39.04639464      84.45865255
H      91.65170047      38.94245969      86.27278981
H      94.13480085      38.98025423      84.29046691
H      91.32288809      37.57240812      83.65929832
C      91.44949976      41.48036214      83.43820034
H      92.46806224      42.77293494      84.67597108
C      92.00507930      41.89610192      80.58093415
H      90.73140376      40.80950929      79.37906821
H      93.92504123      41.21013128      80.29369576
C      91.63280321      44.60974890      79.83827171
H      89.57867071      44.72502222      79.88929433
H      92.14869850      44.83651606      77.85783854
S      92.89514039      47.19489451      81.64673980
C      93.65858981      49.38697703      79.01057159
H      95.40280721      49.01470095      77.98067074
H      93.59055968      51.33717458      79.66630661
H      92.15058821      49.31327770      77.60839466
C      88.57333630      41.91688892      83.87850657
O      87.08045252      40.31818045      83.02246055
N      87.98374170      44.03149266      85.10493895
H      89.41615425      45.02548869      85.88161645
C      85.47040571      45.18233599      85.54335545
H      84.28554731      44.86297224      83.88795519
C      84.46318158      44.32062079      88.19086201
H      82.68683884      45.24847640      88.67085249
H      85.88047631      44.74958865      89.62516429
C      83.99641917      41.36886828      88.13794968
O      85.48930297      39.83252078      89.20564505
N      81.95173530      40.56951405      86.97765773
H      81.64748938      38.70057473      86.72821384
H      80.99553380      41.87909439      85.97421304
C      85.50442077      48.05849943      85.54524517
O      87.45461834      49.29627017      86.03279457
N      83.30855881      49.30949825      85.15596156
H      81.78732912      48.21345699      84.79313411
C      82.81156078      52.04393222      84.83281836
H      83.48997252      52.51825352      82.94687150
C      79.85602882      52.46723092      84.77045739
H      79.20596298      51.11040742      83.36450102
C      78.54833822      52.13085964      87.32158792
H      79.16816845      53.35540228      88.85982513
H      78.83935607      50.17877235      87.91118252
H      76.57735367      52.67699054      87.08348240
C      79.40249452      55.03725870      83.67252640
H      80.51743303      56.44132535      84.68730942
H      77.39938462      55.52291837      83.74244627
C      80.00531720      55.19032653      80.79636296
H      79.04155678      56.79848363      79.94031693
H      79.13226364      53.49902149      80.01401626
H      82.02732436      55.36040190      80.45621221
C      84.06822878      53.51602903      87.02301116
O      84.81656039      55.73834717      86.50144669
N      84.47074049      52.44644392      89.18863751
H      84.01531644      50.60962996      89.44186083
C      85.55733312      53.69555303      91.45630909
H      84.89781864      55.63630194      91.64717144
C      84.56711653      52.45967202      93.83925397
H      85.02820974      50.45089294      93.88082794
H      82.51865321      52.54470970      93.65028134
C      84.98096659      53.54626465      96.31101599
C      83.96996302      55.95944514      96.83824963
H      83.04966629      57.12918574      95.43796242
C      84.07011850      56.74557128      99.41394658
H      83.17249851      58.46900169     100.03755628
C      84.92238508      55.16009091     101.38871059
H      84.66349256      55.74212661     103.32568005
C      86.38692296      53.05871526     100.80856461
H      87.03698882      51.79826781     102.27499223
C      86.15448663      52.07983702      98.31223615
H      86.68172028      50.14475727      97.93429088
C      88.37680477      53.84106194      91.07269465
O      89.42749260      55.60039715      92.13661056
N      89.58622962      52.35951652      89.44186083
H      88.59979248      50.95922932      88.60093263
C      92.15814712      52.73557205      88.64628605
H      93.39402813      53.29304131      90.19586163
C      93.21072469      50.19200043      87.47654547
H      95.17037086      50.52459227      86.93986320
H      92.12413206      49.91799013      85.74744589
C      93.17293016      47.78637884      89.11304846
H      93.92882069      46.24436216      87.97543322
H      91.20572506      47.24780684      89.39083823
C      95.07966400      48.07550697      91.31646933
O      97.07143554      46.83017733      91.33725632
O      94.18582346      49.24524755      93.21942373
C      92.25830262      54.76324838      86.59026382
O      93.93260014      56.32038286      86.89262003
N      90.71628594      54.68765933      84.64006628
H      89.34245492      53.36296119      84.69297861
C      90.97706817      56.22022738      82.33082072
H      92.89514039      56.03692392      81.60327609
C      88.82655963      55.24323888      80.62061841
H      87.07478335      55.10717857      81.69398295
H      89.23285080      53.29682076      80.07826696
C      88.34467942      56.84005760      78.17909201
H      90.15881669      57.04603778      77.22478022
H      87.71729029      58.77135790      78.52302220
S      86.39637160      55.05426624      76.07771634
C      84.33656991      57.49957208      74.83616617
H      83.30855881      58.34239003      76.40841846
H      82.92494436      56.87407268      73.47367349
H      85.46284680      58.95844081      73.91775918
C      90.84667707      59.03969903      82.71254544
O      92.22239782      60.65352531      81.70154186
N      89.09301104      59.92976013      84.22432649
H      87.90059374      58.64663597      84.97832729
C      88.48640889      62.64907630      84.33771007
H      88.59034385      63.14796404      82.34215908
C      85.65937833      63.02324211      85.26745540
H      85.21340292      65.03391089      85.23533006
H      85.58567901      62.53002353      87.26678585
C      83.65248899      61.68153641      83.67063667
H      84.33468018      59.79747929      83.19253592
C      81.16560917      61.84972207      85.32981638
H      81.05978448      63.77157373      86.06680963
H      81.45851674      60.42297869      86.78868508
H      79.61792331      61.32248842      84.07881756
C      83.11958617      62.99489620      81.21399246
H      81.93472777      61.64752135      80.20109917
H      84.78443506      63.44654079      80.09149504
H      82.02543463      64.72588551      81.42942127
C      90.37235576      64.24400529      85.60571641
O      90.67282225      66.49466933      85.19186636
N      91.91626215      63.01190374      87.20442488
H      91.40981550      61.19209730      87.47843520
C      94.16692620      64.03235595      88.44975451
H      93.64347201      65.88806719      89.17540942
C      95.24595993      62.24845431      90.47932058
H      96.30420666      63.33315721      91.87393859
H      96.40814160      60.80848287      89.56847250
C      93.34489525      60.67620203      92.09692631
H      92.48884922      59.27402509      90.84970694
H      91.82744503      61.87428851      92.81124285
C      94.79809479      59.31181962      94.17751498
H      95.93193057      60.59494378      95.32646858
H      96.09066759      57.91909132      93.38382993
N      93.05954657      57.65452964      95.53811792
H      91.94838750      56.46211235      94.54601160
C      92.53987185      57.82649474      97.98909295
N      93.63213364      59.49701280      99.31001163
H      93.19182742      59.71433132     101.15438453
H      94.44471597      60.98422740      98.43695809
N      91.14336409      56.01424720      99.12292874
H      91.36635181      55.66275812     100.98430916
H      90.65770443      54.60073192      97.93618062
C      96.35711900      64.64840674      86.62994808
O      97.86323087      66.43797754      86.97009882
N      96.60467313      63.15930239      84.57392585
H      95.25918800      61.83649397      84.28101828
C      98.15235900      63.95487718      82.36672552
H      99.65280169      65.17186091      83.08482152
C      99.66036059      61.88562686      80.97021778
H     100.51451689      62.84371811      79.36017096
C     101.74094926      60.89352055      82.69364817
H     100.97183064      59.53102787      84.03535386
H     102.41936100      62.53002353      83.74622573
H     103.05808850      60.17164510      81.28958152
C      97.99551170      59.85984026      79.68520388
H      96.52152519      60.96910959      78.77246608
H      97.33599722      58.47278113      81.05903491
C      99.34099685      58.40475100      77.65563782
H     100.83199090      57.28225356      78.52491192
H     100.25373466      59.65952926      76.30070406
H      98.02007814      56.94399256      77.04714595
C      96.82955057      65.50067329      80.30692383
O      98.10511584      66.77434883      78.76868662
N      94.35400911      65.76901444      80.31826220
H      93.28442401      64.63517864      81.41997263
C      92.96883972      67.17497081      78.43987423
H      93.86456999      67.08615367      76.58794245
C      90.19850093      66.10349600      78.04870089
H      88.98718638      66.86316597      79.53213605
H      90.28920781      64.04936349      78.18476119
C      88.90214869      66.76112074      75.43709913
O      90.12291189      66.53057413      73.34895156
O      86.65526411      67.48866537      75.39552514
C      92.81577189      70.02845755      78.89529828
O      93.52252952      71.47787762      77.29092064
N      92.29420742      70.72009737      81.24611781
H      91.81799639      69.39161978      82.52924198
C      92.22617727      73.25611008      82.26468030
H      93.69071517      74.15750954      81.13084450
C      89.49930221      74.26522393      82.10783302
H      88.70750688      74.84159046      83.91819083
H      88.20106023      72.75533261      81.57493020
C      89.12702612      76.25321601      80.17653273
H      87.21462310      77.00910655      80.29180602
H      89.32922684      75.33480904      78.34538793
C      90.81833117      78.51899786      80.48833756
O      90.46117290      80.12337551      82.13239946
O      92.58144581      78.83269244      78.97844624
C      93.13324590      73.83814580      85.03690880
O      93.33922607      76.01511050      85.82681440
N      93.59055968      71.75188794      86.40885010
H      93.26741648      70.09837741      85.51500956
C      94.68660094      71.71976259      89.02423132
H      96.40436216      72.84414975      88.86360458
H      95.39713803      69.85838218      89.54579578
C      92.89325066      72.58336751      91.08214327
O      90.91470722      73.83058689      90.68341102
N      93.73606860      72.11849484      93.34414567
H      95.22706265      70.94875426      93.58414092
C      91.97484368      72.51533738      95.74598782
H      90.07188928      72.28479076      94.99387674
C      92.60412254      70.33837266      97.55256617
H      94.59022490      70.36293911      98.09680735
H      92.24318480      68.45998471      96.78722702
C      90.84478734      70.53868364      99.89771652
H      90.86746405      72.37927708     100.82179269
C      88.07255883      69.83192601      99.09269312
H      86.92171552      69.55602597     100.78021871
H      87.84579168      68.14251068      97.93618062
H      87.14848267      71.40795776      98.13838133
C      91.64414156      68.57525800     101.94617985
H      93.54331652      69.22910332     102.40160389
H      91.58556006      66.59104539     101.39815921
H      90.36857631      68.69242105     103.56000611
C      92.53798212      75.26488915      96.88927223
O      94.55054064      75.52756111      98.02688747
N      90.74274211      76.98076065      96.78344756
H      89.21017407      76.46675509      95.76866452
C      90.66526334      79.45630211      97.96641623
H      92.62679925      80.04967619      98.19129366
C      89.45205904      81.59547230      96.29211872
H      89.58622962      83.38315339      97.30123256
H      87.49808203      81.40460995      95.67228848
C      91.03375997      81.85247509      93.83736423
H      91.25107850      80.07424263      92.82447093
H      92.89325066      82.58379916      94.33814172
C      89.73551799      83.72897331      91.92118175
H      89.54465563      85.53177221      92.89817025
H      87.79287935      83.16205541      91.53189814
N      91.25296823      84.05211651      89.75177594
H      92.73262392      85.19729065      90.13539040
C      90.87880241      83.19607049      87.55213453
N      89.26875560      81.38382295      87.05513649
H      89.28765286      80.49943104      85.36383145
H      88.20483968      80.74131601      88.50455659
N      92.28097933      83.93684321      85.75311508
H      91.83311420      83.12426089      84.08637647
H      93.77764258      85.09524544      86.00633840
C      89.60701660      79.57346516     100.64793787
O      87.40737517      78.94229656     101.12414890
N      91.07911341      80.83391260     102.35058127
H      92.88569175      81.14382771     101.81956819
C      90.74463185      80.94918591     105.05288991
H      89.22151244      79.59425214     105.35713585
C      93.18048907      79.96841794     106.13570309
H      92.76096981      79.84180628     108.15015134
H      94.61290161      81.42539694     105.87114139
C      94.14613920      77.53256074     105.06611799
H      94.64124750      77.87271147     103.09324371
C      96.57065807      76.46108592     106.41916202
H      96.03775524      75.61637826     108.22196093
H      97.80464935      78.07491218     106.75742304
H      97.43048354      75.06646789     105.17194267
C      92.34334030      75.30268369     105.14548650
H      90.74841129      75.72787210     103.91527466
H      91.48162511      75.09292407     107.00497719
H      93.09356166      73.63594507     104.19306443
C      89.76575362      83.51732397     106.08845992
O      89.33678574      83.79133429     108.32589588
N      89.33111657      85.28799753     104.44061858
H      89.61835496      84.74375635     102.63404023
C      88.14814789      87.70117802     105.04155155
H      87.25808679      87.80889243     106.89726279
C      90.33267151      89.56633790     105.27398788
H      91.70272309      89.12603166     106.74797441
H      89.59567825      91.33890117     106.01854006
C      92.05988136      89.77798724     102.77199025
H      90.92037640      90.77576274     101.37548249
H      92.82522051      88.05455685     101.94429013
C      94.48062076      91.47874093     103.22363484
H      94.24818443      93.29287819     104.16849799
H      95.24973938      91.91904715     101.36414415
C      96.34578063      89.95940096     104.70329054
H      96.74451289      88.10935890     103.88503905
H      95.57855176      89.54933035     106.56845040
N      98.74384333      91.29732720     105.06233854
H     100.10633599      90.03310029     105.49886531
H      98.54164262      92.72407057     106.31522709
H      99.26351806      91.99085676     103.36158485
C      86.18283252      88.46273773     103.06111838
O      86.20550924      87.25142317     101.09202355
N      84.69561791      90.55466476     103.56000611
H      84.70506655      91.47307174     105.23241391
C      82.83801695      91.28598884     101.53232979
H      81.76843186      89.58901460     101.06178794
C      81.07301258      93.34012135     102.65671694
H      82.31834222      94.52686947     103.78677328
C      79.60469523      94.82355649     100.68195295
H      78.53322040      93.57066796      99.44418221
H      80.93884200      95.78164774      99.44040276
H      78.42928547      96.28809438     101.53044006
C      79.17761709      92.08912252     104.49164118
H      80.42294673      91.31433473     105.93917154
H      78.16094433      90.55844421     103.56000611
C      77.48631203      93.99585637     105.99775307
H      76.26176939      94.94071952     104.63715011
H      78.78644374      95.46606345     106.62325248
H      76.42428584      92.99997060     107.45284233
C      84.26098087      92.06266636      99.07190612
O      86.27353939      93.17382542      99.29867329
N      83.26320537      91.47496147      96.84580852
H      81.53221607      90.68127642      96.94407430
C      84.11358222      92.25352871      94.38349515
H      85.43639063      93.83145018      94.49309927
C      85.90693248      90.25419827      93.22887237
H      87.25997652      89.73074408      94.69341026
H      86.95573058      91.05544223      91.64717144
C      84.78443506      87.77676708      92.22353796
C      84.37247471      87.57267663      89.55146496
H      85.02065085      89.01453782      88.26078189
C      83.49942116      85.26910026      88.60282236
H      83.40115540      84.87225774      86.60349192
C      82.75486899      83.30000544      90.18263355
O      81.76843186      81.10036401      89.30769026
H      81.82323392      81.01910577      87.49544274
C      83.24619784      83.43795546      92.76588942
H      82.90982655      81.76365795      93.88460739
C      84.10035412      85.72263458      93.88838685
H      84.50664529      85.83034897      95.88393784
C      81.84213118      93.13792062      92.69974899
O      79.67272537      92.17416020      93.13438605
N      82.06700862      94.67993730      90.79301514
H      83.81878491      95.42826891      90.67207267
C      80.19617957      94.95772707      88.72565457
H      78.25165119      94.78198252      89.38327932
C      80.30767341      97.58255691      87.65040028
H      79.16060954      97.77341928      85.95153634
H      82.23708398      97.88491312      86.99277553
C      79.30989793      99.64802778      89.41540467
H      80.64971388     100.17904086      90.88750147
H      77.38237709      99.23228798      90.00499928
C      79.23052942     102.12545897      87.92819006
H      77.80945524     101.93270688      86.45042408
H      80.97285708     102.52986040      86.90395839
C      78.53322040     104.34021821      89.64217182
H      79.89382335     104.55186756      91.17285014
H      76.85703317     103.86400718      90.74388226
N      78.38960121     106.72694254      88.12472160
H      77.18017637     106.73072200      86.64884535
H      80.13003914     107.05386519      87.40284615
H      77.83402168     108.29352565      89.06202584
C      80.49664605      92.85446168      86.76600838
O      82.59235252      92.25163898      86.00255895
N      78.44629300      91.67905192      85.87594728
H      76.73231123      92.37636093      86.34648914
C      78.43495465      89.59846325      84.02779495
H      79.80500622      88.16416097      84.57959503
C      75.93862619      88.19250687      84.12795045
H      74.35692526      89.50019747      83.93897781
H      75.88193440      87.48385949      86.06114046
C      75.65894669      85.98719625      82.29491591
O      73.89772177      85.86058460      80.74534035
O      77.21419144      84.33746519      82.41963785
C      79.01699034      90.59812847      81.26501508
O      79.13415337      92.89225620      80.96643832
N      79.00565199      88.96540493      79.32804560
H      78.74864921      87.12292178      79.75323403
C      79.10769721      89.60791188      76.58605273
H      80.73664129      90.86646960      76.51802258
C      79.85602882      87.29677660      75.12718402
H      79.66516646      87.84668694      73.15242001
C      82.69628748      86.72041007      75.74701425
H      84.13058974      87.92227600      74.88718877
H      83.03832793      84.71541045      75.42009160
H      82.94762108      86.91316216      77.78224948
O      78.31968133      85.30500506      75.81315467
H      76.90238661      85.41838864      74.68687779
C      76.83624617      91.04221415      75.72055808
O      77.17072773      92.68627603      74.09350371
N      74.60636914      90.60190791      76.82226851
H      74.39471979      89.27909949      78.18287147
C      72.19696808      92.12124786      76.43487462
H      72.28956468      93.00375006      74.57727365
C      69.87071499      90.34490514      76.80904044
H      69.40584232      90.11057908      78.80270169
H      70.23354244      88.47029664      76.03047319
C      67.56713862      91.19717170      75.32560528
H      67.22320842      93.17382542      75.79236768
H      65.96087124      90.03499002      75.88496427
C      67.77311878      91.05544223      72.45322128
O      66.32936788      89.56255845      71.30615740
O      69.23576694      92.57667191      71.42332043
C      71.91917831      94.30577149      78.25657079
O      69.91417870      95.61724155      78.48333795
N      73.85803752      94.81788732      79.78535938
H      75.42084118      93.74641249      79.54536413
C      74.00732589      97.11390478      81.34627331
H      72.86782093      98.54820706      80.40141016
H      75.98586934      97.67326378      81.43320071
C      73.27222235      96.96839586      84.12417099
O      73.83914024      98.79954065      85.45075887
N      71.80579474      95.06544146      84.89517933
H      71.14250080      93.77853784      83.65362914
C      70.66062059      94.87835856      87.40851532
H      70.33180821      96.81154857      88.03779418
C      68.32302913      93.14736926      87.20631461
H      67.55391052      92.69761439      89.06391558
H      68.87293949      91.28787856      86.51089533
C      66.15362333      94.03932008      85.64918013
C      65.12183276      92.20817528      83.97299288
H      65.90795891      90.32789759      83.86716821
C      62.93352970      92.77698290      82.57459542
H      61.94142338      91.37858543      81.46532606
C      61.94142338      95.17882504      82.48010910
O      59.79847374      95.66070526      81.20454384
H      59.39407232      97.38602538      81.59571719
C      63.02423656      97.09878697      84.04480248
H      62.23055150      98.97528521      84.13928879
C      65.11238413      96.51675127      85.55469380
H      65.83236985      97.97939944      86.78112619
C      72.26310851      93.99396665      89.61949510
O      73.66906488      92.18927802      89.30202109
N      72.05334889      95.15047914      91.85126189
H      71.03856586      96.73973897      92.14983864
C      73.47631279      94.26797697      93.98287317
H      75.50398913      94.49096467      93.71453203
C      72.85648257      96.34667591      96.13905089
H      73.45552581      95.49818880      97.91917308
H      70.84203432      96.77186432      96.13338171
C      74.04323068      98.94882903      96.03889539
C      72.67128939     101.20516226      96.10503582
H      70.63038497     101.29586911      96.09936663
C      74.15094509     103.41992150      96.01243923
H      73.26655317     105.25862520      95.96141661
C      76.71719343     103.50117972      95.91795290
O      77.93606689     105.78585883      95.61748643
H      76.77577494     107.15968986      95.84803304
C      78.20062857     101.21461089      96.00677004
H      80.22830491     101.43003968      96.08802827
C      76.75120850      98.91481397      96.15038925
H      77.52599629      97.06288217      96.51699615
C      73.07947026      91.51275599      94.66884382
O      70.82124733      90.71718122      94.92773632
N      75.23564800      90.08979208      94.79734520
H      76.87215097      91.06300114      94.67829245
C      75.39438501      87.27221015      94.67073354
H      73.65961624      86.38214906      95.33213775
C      75.91972892      86.50498126      91.95330710
H      77.59402644      87.48008004      91.25221864
C      76.47719817      83.67228152      91.38260976
H      78.29322516      83.14504788      92.19897152
H      76.67561944      83.42094793      89.34737452
H      75.02966783      82.55923272      92.33125237
O      73.68418268      87.06434025      90.47554113
H      73.55379158      88.85958025      90.25255343
C      77.62993124      86.42939222      96.22408857
O      79.34391299      87.86558422      96.94407430
N      77.58268808      84.01621171      97.06879624
H      76.05956867      82.98253142      96.56423931
C      79.48186302      82.89749374      98.69585059
H      81.28088247      83.74976030      98.16483750
C      78.84124580      83.33213079     101.52666060
H      78.11937035      85.26154135     101.53988868
C      76.85703317      81.59547230     102.67183475
H      75.09013907      82.10947787     101.74586885
H      76.65483246      82.19829499     104.63148094
H      77.11214623      79.55267817     102.54522309
C      81.35458180      83.42094793     103.05922864
H      82.66227240      84.53210699     101.91783395
H      82.07834698      81.52555244     103.42016638
C      81.59835648      84.72863853     105.64059478
H      81.27521329      86.76009432     105.55366738
H      83.45595746      84.58312961     106.51742780
H      80.19051038      83.87448223     106.88025525
C      79.59902605      80.12904468      98.11192515
O      78.08535527      79.10103358      96.63604890
N      81.63615101      78.89883285      98.93962529
H      82.92305463      79.93629261      99.89582680
C      82.11614150      76.12093517      98.86781569
H      80.47585906      74.94930486      99.29489383
H      83.45217801      75.65417278     100.36258919
C      83.07801219      75.58614263      96.27133173
O      84.95828988      76.76533184      95.34347611
N      81.83835172      73.85515333      94.90883906
H      80.37759329      72.97454086      95.76866452
C      82.25976069      73.51689232      92.05913177
H      83.49564170      75.09103433      91.57158238
C      83.38414785      70.91095974      91.28434398
H      81.93661750      69.48988554      91.64528172
C      84.10602331      70.92229808      88.47432097
H      82.67550049      71.74243931      87.23843995
H      84.39137197      69.04579986      87.67685646
H      85.85213042      72.01078044      88.43463671
C      85.55733312      70.15317949      93.11359906
H      84.92994398      69.45776019      94.94852331
H      86.86124426      71.70653451      93.47264706
C      87.28265323      67.99700175      92.01944753
H      86.22062705      66.39451385      91.28245427
H      88.55254932      67.36394344      93.51233132
H      88.58845412      68.63006007      90.55679936
C      79.66516646      74.03467732      90.72687473
O      78.25165119      72.29234966      90.25633287
N      79.13415337      76.50265989      90.15995684
H      80.45885153      77.76499706      90.70230829
C      76.91372496      77.26610933      88.93163473
H      76.77388522      76.20408313      87.17229954
H      77.01577018      79.26355004      88.43463671
C      74.33613827      76.99020928      90.40940070
O      72.45397086      76.03211803      89.36438205
N      74.16795262      77.54578882      92.81880176
H      75.86114740      78.03900738      93.54823612
C      71.77177966      77.74798953      94.27578074
H      70.34881574      76.75588322      93.16273194
C      71.94941393      76.56691058      96.96297155
H      73.22875864      77.56846554      98.22719847
H      73.04923464      74.84914936      96.66628453
C      69.60048412      75.97920570      98.28955944
N      68.31547023      73.66240125      98.21019093
H      68.90128540      72.17896609      97.16328255
C      66.28212473      73.86838141      99.71819253
H      64.79868957      72.52856546     100.11881451
N      66.18763841      76.25321601     100.62904061
H      64.73254914      77.04501135     101.57768322
C      68.26444763      77.68373883      99.64638293
H      68.66695932      79.68117955      99.76732541
C      70.95352816      80.47297488      94.29467801
O      71.97398037      81.87515179      95.81401797
N      69.09025802      81.22886540      92.83202984
H      68.24744008      80.01188165      91.62449473
C      68.01122429      83.73086303      93.09848125
H      69.48143136      85.06500981      92.55424007
C      65.93441508      83.84424662      91.09537135
H      64.34704498      82.67261630      91.69063515
H      66.76022547      82.85969920      89.48532453
C      65.01978754      86.47474565      89.87838762
H      66.62038573      87.36102729      88.93163473
C      62.86738927      86.03443942      87.95086678
H      61.13073079      85.46563180      88.89950939
H      63.31147495      84.42061315      86.74900084
H      62.68975500      87.64448623      86.67908096
C      64.21854358      88.66115898      91.52244950
H      65.75678080      89.79121532      92.29345783
H      63.25289344      87.92605546      93.18729838
H      62.95431668      90.05010782      90.67585211
C      66.97376456      84.39793643      95.67039877
O      65.30324649      83.01276705      96.68518180
N      67.82414139      86.46529702      96.79289619
H      68.92774155      87.73330337      95.88960701
C      66.76589465      87.10780396      99.33268836
H      66.29913226      85.44484481     100.45329606
C      68.86349087      88.13959453     101.09391328
H      67.94319416      88.81422682     102.80978477
H      69.84047937      89.82145095     100.41361181
C      70.73243018      86.03821887     102.06145316
H      71.40895221      84.68139537     100.66494540
C      73.02466820      87.41016017     103.05733892
H      74.54211844      86.08735175     103.48630679
H      72.67506884      88.37014114     104.84502002
H      73.70496968      88.69328433     101.59847021
C      69.73087525      84.56423234     104.24597676
H      71.04423503      83.15071707     104.96974195
H      68.06224690      83.59669247     103.52788077
H      69.23198749      85.82090035     105.80122153
C      64.58515049      89.00319945      99.24009177
O      62.75211597      88.97863301     100.71596802
N      64.68341626      90.85324152      97.51288192
H      66.33125761      90.88536686      96.54723178
C      62.78424132      92.97729388      97.17462091
H      60.92853007      92.10990951      97.39193944
C      62.83148447      95.02953666      99.29489383