 %block lattice_cart
   140.777   0.000   0.000
   0.000 144.511   0.000
   0.000   0.000   162.462
 %endblock lattice_cart

 %block positions_abs
N      90.50369173      42.14176635      83.57048118
H      89.75347038      40.85297300      82.37995360
H      89.73079368      41.83941014      85.28824240
H      92.37641051      41.80539506      83.72354901
C      89.89142040      44.77793455      82.72955297
H      91.20100075      46.04027173      83.69520312
C      90.25424786      45.07273186      79.93653748
H      89.17710386      43.72535700      78.81026060
H      92.29704200      44.87053114      79.77780047
C      90.06149577      47.79771720      79.04647639
H      88.03948862      48.18133163      78.97277706
H      90.91565207      47.82417337      77.17375761
S      91.75091111      50.25247168      80.92486434
C      90.47912529      52.91131660      79.37906822
H      90.82494520      53.08706114      77.35517134
H      91.28603843      54.63474700      80.16519436
H      88.42310306      52.84517617      79.48489289
C      87.08328710      45.06139350      83.11505714
O      85.61874921      43.60630424      82.13995836
N      86.29905068      46.93978146      84.57581558
H      87.53682142      48.13408848      85.40351570
C      83.73469208      47.60118566      85.52445819
H      82.26070556      46.61285880      84.47754981
C      83.50225574      46.85852322      88.41762917
H      85.01781624      45.54327371      88.86927376
H      81.67678012      45.96090323      88.74833128
C      83.77626605      49.04115712      90.23932534
O      81.78638426      49.97846137      91.05946656
N      86.00425338      49.95011547      90.81758159
H      86.37086028      51.22001155      92.19519207
H      87.55193923      49.14887152      90.04090408
C      83.06572896      50.36396553      84.79124438
O      84.78915936      51.72456848      83.90685246
N      80.71112998      51.05182591      85.02368072
H      79.46769006      49.61185445      85.16729991
C      79.56973528      53.59917697      84.61172038
H      79.95901890      53.90909210      82.61238994
C      76.68601293      53.28548241      84.74022177
H      75.96224775      51.93621782      83.36261129
C      75.86587171      52.25747130      87.41796395
H      74.01393992      51.35985130      87.45008930
H      75.77705457      53.77492153      88.81258197
H      77.22080547      50.84773546      88.06614008
C      75.17234215      55.55504372      84.30558472
H      75.32918944      57.11217820      85.64729040
H      73.26371858      54.79537374      84.44353474
C      75.26304901      56.69454868      81.68453432
H      77.14332670      57.49012346      81.39918565
H      73.94779950      58.25546261      81.39540619
H      74.85486813      55.32827656      80.19731971
C      80.70168134      55.52669782      86.34648913
O      80.60908475      57.79436940      85.67941575
N      81.77315616      54.95600048      88.59904290
H      81.98858497      53.08706114      88.92974500
C      82.95423511      56.84383706      90.26956096
H      81.72024383      58.46522223      90.56813772
C      83.33595982      55.71000127      92.96242096
H      84.45278808      56.98556654      94.13405127
H      84.24302846      53.86184894      92.90194971
C      80.82451355      55.26402585      94.33625199
C      79.03494274      57.25768712      94.52711434
H      79.35619621      59.05481685      93.61248681
C      76.95057461      56.84194734      96.18440432
H      75.83563609      58.45766333      96.73809413
C      76.50837866      54.41931820      97.19540790
H      74.79628662      53.98657088      98.21774983
C      78.32818509      52.51447408      96.86470579
H      78.23558851      50.84395602      98.03066693
C      80.50892926      52.99257483      95.60992752
H      81.95645962      51.56205201      95.78189262
C      85.36741561      57.75090568      89.04123886
O      85.76992731      59.99023136      88.76155936
N      86.93777818      56.02936502      88.20597983
H      86.58817881      54.17932296      88.52723330
C      89.32450251      56.53959113      86.83781798
H      90.64731093      57.79247967      87.79968867
C      90.45833830      53.95255580      86.18208295
H      91.79626453      54.34750860      84.66652244
H      89.07505864      52.80549193      85.17485882
C      91.46745215      52.59195286      88.39873191
H      90.16354099      53.00769264      89.93696913
H      93.12663185      53.59350780      89.09604092
C      92.10617964      49.94822575      87.88850581
O      94.37196149      49.46634554      87.52945781
O      90.53581708      48.18700082      88.20409010
C      88.86907847      57.81137693      84.35093815
O      90.37330061      59.37984977      83.68386476
N      86.70156239      57.41453441      83.22655099
H      85.51292454      56.26558080      84.18275251
C      85.94000268      58.58616472      80.82092940
H      87.49335772      58.36884620      79.48678262
C      83.64398522      57.07249395      79.82693335
H      82.02448976      57.25768712      81.08549108
H      84.13342434      55.07505323      79.71732923
C      82.93911730      57.95499613      77.05281513
H      84.41688327      57.30493028      75.77347041
H      82.87486660      60.00912864      77.19076515
S      80.00248261      56.70210759      75.81504439
C      81.09474443      55.69299374      72.66487063
H      79.82673807      54.22656612      71.96378217
H      82.95990430      54.82938881      72.54581787
H      80.98703002      57.42587277      71.55749101
C      85.46757110      61.47555624      81.15163150
O      86.59006854      62.75301124      79.62473264
N      84.09185035      62.29758720      83.08860097
H      83.46446122      60.95399178      84.29424636
C      83.38887216      64.97154993      83.66307777
H      83.13753856      65.71988154      81.76201310
C      80.82451355      64.90540950      85.21832253
H      80.42956075      66.87261460      85.67941575
H      80.93978687      63.78480181      86.94175292
C      78.59652623      64.06826076      83.57426063
H      79.36753457      62.56025916      82.39885087
C      76.20602245      63.29158324      84.90273823
H      76.73703554      62.16719609      86.54680012
H      74.99848733      62.08215840      83.75756409
H      75.45769083      65.12461777      85.47343558
C      77.92945285      66.13373162      81.54469457
H      77.69512678      67.95731750      82.47066047
H      76.25704506      65.71043292      80.41841769
H      79.58863255      66.59671456      80.41463824
C      85.59796222      66.40774193      85.11060813
O      85.40143068      68.64895734      85.61516505
N      87.58217485      64.95265267      85.81358631
H      87.67288171      63.19709693      85.07470333
C      89.99157590      66.09026791      86.80002345
H      89.42087856      67.80235995      87.79401949
C      91.15186785      64.46321356      88.90328884
H      93.07938869      65.10005132      89.25288820
H      91.15753703      62.52435435      88.20786955
C      89.60985118      64.82037182      91.22198302
H      87.61430020      64.84871771      90.71931582
H      90.20133552      66.61750155      92.04023452
C      89.90653821      62.87584345      93.26666689
H      88.97679288      61.13162606      92.69030037
H      89.06561000      63.52968876      95.02789182
N      92.68254617      62.41097078      93.70697312
H      93.61418124      63.86606004      94.51766571
C      93.91464772      60.34361019      92.87360382
N      92.83939345      58.19310164      92.10259548
H      93.96944979      56.66620279      92.28967839
H      91.05738154      57.85484064      92.69785927
N      96.36562275      60.23589579      92.44841540
H      97.17442561      58.80537297      91.48087553
H      97.38796469      61.77602274      92.93407506
C      91.75091111      67.13528655      84.77801629
O      92.91120306      69.06658684      85.08793141
N      91.49390832      66.16396724      82.46310156
H      90.48479448      64.54636150      82.35727689
C      92.81860647      66.87639405      80.21621697
H      94.70455332      67.47543730      80.79825268
C      93.35906819      64.46510328      78.68931811
H      91.65642478      63.31237023      78.79892224
C      94.33416698      64.70131907      76.01157593
H      95.95744188      65.94286926      76.26668898
H      92.92632086      65.71610209      74.90041686
H      94.77447320      63.01001402      74.91742439
C      95.32249383      62.78702632      80.24267314
H      94.57227248      62.57915641      82.14751727
H      97.08371875      63.85283195      80.28046767
C      96.05003847      60.22644716      79.15230106
H      96.93254065      60.42864788      77.30225900
H      94.34739505      59.06615521      79.15419079
H      97.43520786      59.41008539      80.44298413
C      91.34839940      68.84737860      78.71010510
O      92.55026533      70.40262336      77.37973778
N      88.78970997      68.92485738      78.85750376
H      87.77114749      67.46220920      79.53780523
C      87.29115700      70.87316520      77.64429946
H      88.11696740      71.35315568      75.81882384
C      84.59640727      69.82436710      77.02824868
H      83.37375435      71.36827350      76.43109517
H      83.73658181      68.81903271      78.60805988
C      84.77215182      68.08959834      74.89663740
O      86.01181228      68.65084706      72.92376313
O      83.11864130      66.40207274      74.78703328
C      86.93777818      73.18996967      79.28269218
O      87.32517207      75.13260831      78.17720228
N      86.56928155      73.12571897      81.82626379
H      86.08929106      71.37394267      82.41585840
C      86.36708083      75.34236793      83.54402501
H      86.16488011      77.13760794      82.55569815
C      84.14287296      74.99087884      85.24855815
H      84.18255721      76.39494550      86.75655974
H      84.05972500      73.20319775      86.26901036
C      81.44812324      74.70553016      84.18086278
H      80.06484358      74.06680267      85.56603217
H      81.47835886      73.08792444      82.90529752
C      80.49759090      76.99587845      82.68042009
O      81.92433427      78.47742389      81.40674455
O      78.16188918      77.27366822      82.69553790
C      88.72167982      75.68440839      85.32981638
O      89.45489363      77.83113748      85.61138560
N      89.67032242      73.63972452      86.46176244
H      88.77270243      72.02967771      85.97043360
C      91.49390832      73.66996015      88.54802029
H      93.26647160      74.61860276      88.10204488
H      92.01736252      71.69519615      88.80124361
C      90.26558621      74.58080824      90.96309052
O      87.95634066      74.93796650      91.16718096
N      91.80949261      75.19874874      92.88116272
H      93.69921892      75.02678364      92.67707228
C      91.13486032      75.80913033      95.47008777
H      89.13930933      75.42551589      95.79890015
C      92.73167906      74.15561981      97.24643051
H      94.67431770      74.82647266      97.39571889
H      92.94710785      72.22998870      96.54912150
C      91.85673577      73.87971977     100.02810764
H      92.12129745      75.66740086     101.01643450
C      89.15064769      72.89517235     100.17550629
H      88.86151956      71.22465429      99.00576571
H      87.66721253      74.29168011      99.88259871
H      88.65553939      72.35471064     102.10113741
C      93.77858743      72.35849008     101.38682086
H      95.58516579      73.33736831     101.24131193
H      93.72378537      70.51033775     100.47786250
H      93.22300789      72.13928183     103.35780540
C      91.46556243      78.67773487      95.92551181
O      93.52158465      79.74354052      95.37182201
N      89.50213678      79.80401176      96.93651539
H      87.86941325      78.87615615      97.28422503
C      89.40765047      82.48931286      97.41650588
H      91.35028912      83.04489238      97.81901758
C      88.08673177      83.94818156      95.27166651
H      87.73146323      85.85302569      95.96897552
H      86.34440411      83.04678212      94.64994655
C      90.02559098      84.26376586      92.94163397
H      90.32416773      82.27766350      92.48054075
H      91.61863025      85.39004274      93.59925872
C      88.61774487      85.70751677      90.79490488
H      90.06527522      86.37270043      89.48721427
H      87.46123237      87.24008481      91.53756732
N      86.81494598      84.03699871      89.34737452
H      86.38030892      82.42884161      90.27334041
C      85.53182180      84.24297886      87.17607899
N      85.48079919      86.37459015      85.97799250
H      84.69089359      86.36703124      84.24322375
H      86.42377262      87.87314312      86.69419878
N      84.69656277      82.16239020      86.09137608
H      83.87642155      82.29656077      84.37550459
H      84.52081822      80.50132077      87.01545225
C      87.95634066      82.74064645      99.81645829
O      85.64331565      82.57057109      99.91283434
N      89.32828197      83.25276228     101.93862094
H      91.22745691      83.30756435     101.77043530
C      88.34562428      83.43606573     104.50108982
H      86.61274525      82.35703201     104.77132069
C      90.20700470      82.27388405     106.48908190
H      89.40009156      82.38726762     108.38069794
H      91.84350768      83.51732397     106.34546270
C      90.81738630      79.48275828     106.04121677
H      91.33139185      78.87426641     104.14204182
C      93.09072706      78.60781500     107.70417592
H      94.80281909      79.66606173     107.27331832
H      93.51213602      76.59903593     107.55488755
H      92.57294204      79.14827672     109.62224813
C      88.48924348      77.80657104     106.74797441
H      86.97368298      78.02766902     105.36847420
H      87.92421531      78.61537391     108.55644249
H      89.00135932      75.85448376     107.16182447
C      87.51036525      86.11569765     105.40437900
O      87.52737279      86.60891621     107.64370468
N      86.91699119      87.76731845     103.74897875
H      87.03037477      87.28165878     101.90649560
C      85.64331565      90.14081469     104.17794662
H      84.71923948      90.22207292     106.01665033
C      87.51603443      92.21384446     104.68061382
H      88.81616613      92.29888214     103.08757454
H      88.68199556      91.75275124     106.31522708
C      86.49936167      94.89536610     105.19839883
H      84.96490391      94.74985717     106.56278123
H      85.62063894      95.31110588     103.38237185
C      88.65931885      96.65470129     105.92783319
H      89.94811219      96.71706227     104.32345555
H      89.50402651      96.07077587     107.71362456
C      87.49713717      99.34756129     106.29444009
H      86.33306577      99.23039826     107.99141432
H      86.28960205      99.87101548     104.70895972
N      89.63252790     101.36956844     106.37002915
H      88.84451203     103.10244747     106.51364835
H      90.85140137     101.32610474     104.90171180
H      90.73990752     101.30531774     107.92338418
C      83.88964963      90.75497574     102.05011480
O      84.36586066      90.01420303      99.92984187
N      81.79772261      92.01164375     102.46774431
H      81.54071983      92.65037123     104.24975622
C      79.98547507      92.86768976     100.54778238
H      79.16533386      91.14614909      99.76543568
C      78.09952821      94.63458386     101.75531749
H      78.96502286      96.12368819     102.88726355
C      76.30617795      95.99896627      99.76732541
H      77.45891099      97.21217056      98.56734920
H      74.92667773      97.21972947     100.68762212
H      75.49926480      94.59678934      98.49176015
C      76.41767179      93.06800076     103.62236709
H      77.58174320      92.18549856     105.07556662
H      75.36887369      91.65070601     102.55656145
C      74.44290779      94.43427288     105.31745159
H      72.82530207      95.12780244     104.24786650
H      75.33674834      96.05376832     106.22452022
H      73.47914738      93.07366992     106.52687643
C      81.19301018      94.18671872      98.25176491
O      83.04683170      95.43015865      98.45963480
N      80.18011688      93.67460289      95.92362209
H      78.68723309      92.48785477      95.94440908
C      80.83963136      94.99363186      93.53122858
H      81.90354729      96.68115747      94.04901359
C      82.66510698      93.43838711      91.89850504
H      84.46790590      93.53287342      92.88683190
H      83.03360361      94.36246328      90.09381641
C      82.00181305      90.61702572      91.52622896
C      81.00403755      89.74208244      89.20564505
H      80.87931562      91.09134703      87.67874618
C      80.26704429      87.19851082      88.84848677
H      79.49981542      86.27821410      87.19497625
C      80.60152585      85.47319069      90.89317064
O      80.37664842      82.93150880      90.49254866
H      79.89854766      82.47041559      88.80313334
C      81.97346715      86.20829424      93.17407030
H      82.71612959      84.94973652      94.60081367
C      82.58006930      88.79721929      93.44241144
H      83.69500782      89.22051798      95.09970142
C      78.53416526      95.61535183      91.86826942
O      76.53672455      94.35868383      92.27834003
N      78.71179954      97.18760411      89.87082871
H      80.28405183      98.21561522      89.53445742
C      76.68979238      97.73940419      88.05291199
H      74.86809623      97.22539864      88.86738404
C      76.95435406     100.46816900      86.95120155
H      78.41511250     100.47383817      85.49800202
H      77.83118707     101.69460137      88.35526820
C      74.32952423     101.52641572      86.09704526
H      73.42812476     101.66625548      87.94519760
H      73.20702679     100.11101071      85.10682867
C      74.28417079     103.97172158      84.69864779
H      74.97014144     103.65235782      82.78246531
H      75.42934493     105.50995879      85.45264859
C      71.44958132     104.78430389      84.30558472
H      70.85809698     105.44759783      86.16507541
H      70.17401605     103.25929476      83.76890244
N      71.28706485     106.89701791      82.55380842
H      71.44769159     106.18837054      80.78880405
H      72.67790342     108.15557563      82.91285642
H      69.45403033     107.43370018      82.53869061
C      76.99970750      95.78542719      85.91941099
O      79.18612084      95.50385797      85.03123962
N      75.03061268      94.64025305      85.04635743
H      73.31096173      95.25630383      85.59815751
C      74.91911883      93.13792062      82.75222969
H      76.47247385      91.79054576      82.90340779
C      72.47570270      91.74141288      82.77868586
H      70.93935521      93.00752951      82.24578304
H      72.11098552      91.08000867      84.69486834
C      72.49459997      89.24508442      81.25745617
O      72.94246510      89.20162071      78.96143870
O      71.50627310      87.38937319      82.33082072
C      75.23470312      94.71773183      80.32960055
O      74.86431676      97.05721300      80.40141015
N      75.86209227      93.52909397      78.11673104
H      76.02649845      91.62613957      78.14318721
C      75.67122990      94.70639346      75.61284368
H      76.23247861      96.67170882      75.87362591
C      77.45702126      93.56310905      73.63430023
H      76.85041913      94.41537562      71.85984722
C      80.30483882      93.77097893      74.38452157
H      81.42355680      93.46862272      72.68187816
H      80.98136084      92.55021575      75.89819235
H      80.65254846      95.62480046      75.21222170
O      77.01671503      90.86457986      73.36973854
H      78.35842073      90.12758661      72.39652949
C      73.02183361      94.84245376      74.54325858
O      72.47381298      96.57533279      73.12029467
N      71.25304979      93.31555489      75.55048271
H      71.71036356      91.79432522      76.60872944
C      68.50538773      93.88814197      75.58071833
H      68.12366300      94.91237363      73.83272149
C      66.85376693      91.56188887      75.78669850
H      64.85443648      92.03998964      75.91708961
H      67.42446428      90.84379288      77.63107138
C      67.47737661      89.37925498      73.83461122
H      66.05441269      87.89393011      73.92531808
H      69.31985977      88.57045213      74.27113799
C      67.14856423      90.23908047      71.16631766
O      65.29285300      91.63747793      70.78837240
O      68.60554321      89.67972148      69.41832082
C      67.60398827      95.84211898      77.57060014
O      65.39678793      96.39391907      77.78791866
N      69.29340360      96.94382942      79.10127845
H      71.14344565      96.50541291      78.92364418
C      68.77561859      99.30220786      80.71321500
H      67.35832385     100.25651964      79.56048194
H      70.51794624     100.39257994      80.82848830
C      67.83453488      98.68048791      83.35883183
O      67.52461976     100.32832924      84.86872316
N      66.95392243      96.35612453      83.80669697
H      66.70258882      95.08433873      82.40640977
C      66.11677366      95.36212850      86.29168707
H      64.56719809      96.46194920      87.08726185
C      65.42891328      92.62202534      86.14995760
H      64.34421038      92.23652118      87.85827018
H      67.15801287      91.50519708      86.19153158
C      63.87933772      91.74897179      83.80858670
C      64.28751859      89.34523992      82.73522215
H      65.61032701      88.04510821      83.58748872
C      62.75684028      88.61580556      80.67353074
H      63.21982322      86.72041007      80.07259778
C      61.01451262      90.38269966      79.64174018
O      59.35533292      89.97451878      77.82571319
H      58.67692118      91.55055053      77.23611858
C      60.92002630      92.95083772      80.51479373
H      59.70304255      94.41159616      79.77969020
C      62.29763678      93.49318917      82.74845023
H      62.12567169      95.26953191      83.73488737
C      68.23137741      95.70794840      88.24755381
O      70.37243732      96.08967312      87.45953793
N      67.78351227      95.25819355      90.66640349
H      65.99016201      94.82733595      91.16340151
C      69.79796052      94.64970167      92.53912226
H      71.60642860      95.14480997      91.69252487
C      69.63355433      95.92904638      95.06946580
H      71.04895935      94.91804282      96.17306596
H      67.76461500      95.57377784      95.84992276
C      70.18346469      98.78442284      95.11103977
C      68.19358288     100.40391830      95.60425834
H      66.29251822      99.65747641      95.62693506
C      68.73026515     102.97583581      96.19196322
H      67.28651426     104.30998259      96.74565303
C      71.26816759     103.96227294      95.66095013
O      71.87854919     106.40946852      95.51544120
H      70.55385105     107.58676801      95.91417346
C      73.20891651     102.28230626      95.04489935
H      75.11565036     102.95126937      94.77277876
C      72.71569794      99.64235859      94.63104929
H      74.20480228      98.29309401      94.27200129
C      69.97559479      91.79810467      93.14572441
O      68.11232465      90.58301065      93.79579026
N      72.32830405      90.88347713      93.52933885
H      73.68512755      92.14014514      93.05690727
C      73.11820966      88.20195549      93.74476765
H      71.46280941      87.04733272      94.15672799
C      74.24637626      87.21929782      91.31835906
H      76.26082451      87.64070678      91.32780770
C      74.00638102      84.46785630      90.83458913
H      72.05051428      84.13904393      90.28278904
H      74.74148455      83.29622599      92.36337771
H      75.24415175      83.95196101      89.27178547
O      73.19568843      88.41738430      89.16218134
H      74.43723862      88.09991028      87.88094690
C      75.18934969      87.75031090      95.65528095
O      76.65199785      89.35468855      96.22408857
N      75.21013668      85.46374206      96.75888112
H      74.10086733      84.01621171      96.19385295
C      77.45891099      84.83446320      98.42750945
H      78.93289751      86.15727162      97.86248129
C      76.86364720      85.06123037     101.24320166
H      75.96791693      86.91127242     101.36225442
C      75.08352501      83.06945882     102.37514772
H      76.07941078      81.27232911     102.22585934
H      73.32041037      82.97308279     101.31690099
H      74.61109344      83.47197053     104.34046309
C      79.37698321      85.44484481     102.74931353
H      80.54294434      86.67694636     101.57957294
H      80.31806690      83.61558974     102.81734368
C      79.28249689      86.75064568     105.30422351
H      78.25637550      88.53832678     105.24375226
H      81.22891498      87.20606972     105.80500098
H      78.57007006      85.45996261     106.74419496
C      78.27527276      82.20396418      97.85870183
O      76.96569243      80.79800780      96.61904137
N      80.36342034      81.40838940      98.95852255
H      81.42544652      82.70285193      99.87692954
C      81.01537591      78.82324381      98.98308899
H      79.42044690      77.75176899      99.72764116
H      82.61408437      78.37726840     100.20385219
C      81.78449452      77.76499706      96.43762765
O      83.05439060      78.89127396      94.84458836
N      80.81884437      75.37071382      95.97275497
H      80.04027713      74.36348971      97.39571889
C      80.81884437      74.20664243      93.49343405
H      82.21535212      74.90017198      92.14983864
C      81.44623351      71.41551666      93.60114845
H      79.87587094      70.24388634      94.23798622
C      81.91110618      70.54624255      90.79112542
H      80.30294909      70.96576179      89.57792113
H      82.37597886      68.54691211      90.96498024
H      83.60241123      71.31725088      89.90295406
C      83.90287772      70.85237822      95.14883430
H      85.22190668      72.42274079      94.96742057
H      84.91010184      69.33870744      94.17562525
C      83.82350922      69.96231712      97.79445114
H      82.05283566      68.93997519      98.05334364
H      83.41721807      71.63094545      98.93017665
H      85.37308479      68.79446627      98.48420124
C      78.25259604      74.68852263      92.11582357
O      76.56129099      73.12382924      92.41251060
N      77.92000421      76.93162777      90.98576723
H      79.40343937      78.11270670      90.76844871
C      75.45958055      77.54389908      89.85760062
H      75.19501887      75.84881459      88.71809566
H      75.72225251      79.24654249      88.72754429
C      73.14844528      77.78011488      91.49599334
O      71.11132030      77.43807441      90.40562125
N      73.25804940      78.19396495      94.01688824
H      74.82274278      79.18040207      94.48554036
C      71.11132030      78.17317795      95.72520083
H      69.91701328      76.58013866      95.19796718
C      71.89933618      77.62326760      98.46152453
H      73.06340760      79.18607126      99.12670819
H      73.08797404      75.94141118      98.53711358
C      69.43324334      77.46831004      99.92228297
N      67.52650949      75.71653374      99.61803703
H      67.76083555      74.05735405      98.70529922
C      65.42702356      76.45730646     100.76888036
H      63.74705687      75.31591177     100.58935636
N      65.95236748      78.70230131     101.97263602
H      64.61633097      79.79078368     102.79277724
C      68.48460074      79.34669799     101.41327703
H      69.28017551      81.12304073     102.02743808
C      69.64867214      80.76399273      95.57402272
O      70.55385105      82.73497728      96.45085573
N      67.36021358      80.83202288      94.36648761
H      66.94069434      79.14071782      93.58603064
C      65.97315446      83.15638624      93.81846698
H      67.19202793      84.60958577      93.01155384
C      63.94547814      82.48553340      91.80401873
H      62.84376769      80.85658932      92.41817978
H      65.01317350      82.00932237      90.10704450
C      62.19748130      84.57746042      91.13694534
H      61.36789144      85.30500506      92.87738327
C      63.38233969      86.80166830      89.59303894
H      64.07775897      86.42372303      87.69008454
H      64.70136865      87.65204514      90.92907544
H      62.08598743      88.33801579      89.13761490
C      60.02240631      83.69495824      89.41351494
H      58.52385333      85.07445845      89.73476841
H      59.27218496      81.85058535      89.93696913
H      60.65924408      83.78944455      87.45575848
C      64.75050154      84.17116927      96.21652967
O      63.33131708      82.97308279      97.59791960
N      65.38355986      86.59379841      96.84580853
H      66.79707514      87.40449100      95.84992276
C      64.31775421      87.91093764      98.99064789
H      63.61477602      86.44451002     100.25487480
C      66.35865863      89.61547078     100.34936111
H      65.36844204      90.56600312     101.88381888
H      66.97092996      91.13670046      99.10025202
C      68.47704183      87.82778968     101.30934208
H      69.29529333      86.64293129      99.83535556
C      70.68046271      89.45106459     102.01232027
H      72.32452460      88.21140413     102.12192440
H      70.35165034      90.68505587     103.62803627
H      71.01872373      90.73607849     100.43628852
C      67.77406364      86.23097096     103.58835201
H      69.38411045      85.44862425     104.60880422
H      66.72337581      84.62659332     102.83435122
H      66.56274907      87.24008481     104.91493989
C      61.92347098      89.26020223      98.27066217
O      60.00917822      88.65926927      99.24954040
N      61.95748604      90.99686071      96.44329682
H      63.64879109      91.39748270      95.65339123
C      59.91847135      92.61257671      95.55512546
H      58.28574783      91.36157790      95.42284462
C      59.37234045      94.63458386      97.51855110