 %block lattice_cart
   140.777   0.000   0.000
   0.000 144.511   0.000
   0.000   0.000   162.462
 %endblock lattice_cart

 %block positions_abs
N      93.25702297      44.99619794      82.26468030
H      95.12029313      45.14359659      81.87917613
H      92.60506740      43.95873819      80.80203213
H      92.89230581      44.18928480      83.95598535
C      92.04192896      47.45851132      81.94720628
H      92.29326255      48.60746492      83.63851133
C      92.90742361      48.59423684      79.43009083
H      92.55593452      47.05977907      78.10350296
H      94.92376158      48.97029237      79.63229154
C      91.51280560      51.05655022      78.70443592
H      89.65331489      50.36113094      78.16397420
H      92.39719750      51.81244075      77.00557197
S      91.43721654      53.59067321      81.00990203
C      94.57794168      54.72261927      80.84549584
H      95.25446369      55.42181800      79.02757912
H      95.84405831      53.43571565      81.83004325
H      94.89352596      56.43471131      81.94720628
C      89.24891347      47.15237566      82.09460493
O      88.23790990      45.20217810      81.31225824
N      87.82217010      49.04021225      83.21710236
H      88.77648190      50.51797822      83.95409562
C      85.24647314      48.69817178      83.83504286
H      84.23169010      47.52843120      82.47632964
C      85.13119984      47.06733797      86.25767200
H      86.00803285      45.22485482      85.97421305
H      83.12808994      46.59301667      86.33893023
C      85.84740611      48.72084850      88.60093262
O      84.44144972      50.38191793      89.21509368
N      87.91665642      48.18416623      89.74988622
H      88.31349895      49.21406707      91.30702071
H      88.81049696      46.56089132      89.29635191
C      83.98224624      51.30221464      84.09771482
O      85.28615740      53.22595603      84.15062716
N      81.54071984      51.40425986      84.18842168
H      80.54105461      49.78287469      84.28857718
C      79.98736480      53.74941022      84.17897305
H      81.01159648      54.63191241      82.62561802
C      77.22647466      53.05021148      83.79913806
H      77.19245960      51.61212976      82.32515154
C      76.16444848      51.67827018      86.04791238
H      76.25137589      52.98785051      87.63528248
H      77.31718152      49.98696513      86.28601789
H      74.20102284      51.11135228      85.79468905
C      75.44635247      55.21205838      83.03568863
H      75.38210179      56.65580929      84.50400598
H      73.51694192      54.50530074      82.89773861
C      76.06996217      56.71439080      80.62439786
H      74.64888797      58.02208141      79.90819158
H      76.41767180      55.22906592      79.23922847
H      77.59119184      58.04097867      81.03257874
C      80.48814228      55.78464546      86.20098021
O      80.24436759      58.00507387      85.66240821
N      81.45190270      55.13457961      88.37983465
H      81.84874523      53.28453754      88.63305797
C      82.31928708      56.99218057      90.26767123
H      80.78104986      58.23939994      90.84214803
C      82.77849058      55.65614407      92.83580929
H      83.49658657      57.01296756      94.20775060
H      84.04271748      54.03664862      92.70163872
C      80.26137513      54.63758158      93.68240668
C      79.80217163      52.08078188      93.46697788
H      81.14009785      50.65592824      92.88116272
C      77.34174798      51.17749271      93.87893822
H      77.00159724      49.16682391      93.93374028
C      75.38588123      52.93871763      94.58758558
H      73.42812478      52.39825590      94.79923493
C      75.95090941      55.44638445      95.02411236
H      74.58652700      56.73895724      95.81968714
C      78.45479676      56.37424007      94.61215203
H      78.89888246      58.36223215      94.70663834
C      84.61719428      58.49829244      89.22832176
O      84.54727440      60.86422979      89.36438206
N      86.37275003      56.95060659      88.29857641
H      86.05905546      55.06843918      88.30802505
C      89.05238193      57.71783548      87.51811945
H      89.64197655      58.99529046      89.02234159
C      90.87029865      55.46717144      87.48977355
H      92.47656602      55.96039000      86.29735625
H      89.98023756      53.81744037      86.63750699
C      91.86996387      54.82655422      90.20342054
H      92.60128794      52.90281283      90.26956096
H      90.27881430      54.91726108      91.50733169
C      94.00346488      56.84856137      90.78734597
O      96.22389329      56.25140786      90.28089932
O      93.37796547      58.92159114      91.67929679
C      88.95789561      59.28819804      85.18052800
O      90.27881430      61.23839560      85.05391634
N      87.44989401      58.34333488      83.39662636
H      86.77526172      56.62746339      83.88795520
C      86.89431448      59.53764191      80.99100476
H      88.66498803      59.54520082      79.93653748
C      85.23513478      57.53075257      79.81748472
H      83.49847630      57.28319842      80.89840817
H      86.10629862      55.68448996      79.56237167
C      84.37152986      58.50207189      77.29470009
H      85.87764173      58.10144992      75.94921496
H      84.23169010      60.55053522      77.13218363
S      81.50103558      57.15847649      76.20243829
C      81.49158696      58.05231703      73.01069054
H      79.99870316      57.07154908      71.98456915
H      83.24336324      57.88602112      71.94110545
H      80.96624304      60.03652966      72.82738709
C      85.69244855      62.21349437      81.33115550
O      86.45211853      64.11644877      80.28991630
N      83.76114825      62.46293825      82.93742286
H      83.26981942      60.96438528      84.01456686
C      82.44778847      64.80997833      83.48733322
H      82.14921172      65.71515723      81.66185760
C      79.97224700      64.43203307      84.87250261
H      79.61319900      65.94948329      86.21987747
H      80.12720456      62.82387597      86.14995760
C      77.75181858      64.16747138      83.03379891
H      78.33007484      63.04119450      81.40863428
C      75.39721959      62.85978077      84.22054703
H      75.67122991      60.98517227      85.02746017
H      73.79851113      62.66135951      82.93553314
H      74.58274755      63.89913024      85.80224796
C      77.13387807      66.77718342      82.06436931
H      75.25549012      66.82064712      81.21777192
H      78.65888721      67.58031710      80.93620270
H      77.15088561      68.07920485      83.65929832
C      84.19956477      66.72616081      84.81770055
O      84.12397571      68.99383238      84.28668745
N      85.80394241      65.87011479      86.64506589
H      85.84551638      64.03141109      87.15718172
C      87.44800430      67.64834725      88.00944829
H      86.34629385      69.30941668      88.52534357
C      88.32861675      66.14790456      90.43585687
H      89.29237717      64.38101045      89.99555064
H      86.66187815      65.62256064      91.52811868
C      90.12952594      67.45370544      92.23109687
H      89.19222167      69.16768721      92.89250108
H      91.97389881      67.91101921      91.43930155
C      90.38652871      65.85310725      94.58191641
H      88.59884761      64.92525163      95.00899455
H      90.96289524      67.18158485      96.04645430
N      92.41609476      63.97849875      94.53845270
H      92.10051047      62.40624646      93.50477241
C      94.52124989      63.98794738      95.67039876
N      95.24312534      65.85688671      97.05745788
H      96.94198929      66.19136826      97.86059156
H      93.81071279      66.87166974      97.80578950
N      96.29381317      62.30798069      94.94663358
H      98.05314836      62.33443686      95.68929602
H      95.55115072      61.01540789      93.75421628
C      89.60418202      68.63478439      86.38617339
O      90.83061439      70.40923739      87.20253515
N      90.30527048      67.36488830      84.28479773
H      89.54182105      65.64712708      83.94086754
C      92.03059061      68.42880422      82.36294607
H      93.57071754      69.43602834      83.28891196
C      93.11340377      66.42758405      80.41841769
H      91.46556243      65.26729210      79.98756009
C      94.23590121      67.42724927      77.96555294
H      96.04058984      68.29841310      78.44932287
H      92.96600512      68.74627824      77.02446923
H      94.47022727      65.80586409      76.71833357
C      95.14296984      64.89879546      81.95476518
H      94.45510947      64.61533652      83.87472712
H      96.94387901      65.87956342      82.13428918
C      95.23934589      62.26451698      80.82848830
H      96.20310631      62.25317863      79.00868186
H      93.39686273      61.35177917      80.69620746
H      96.32215906      60.98517227      82.02846451
C      90.66242875      70.60198948      80.88140064
O      91.91909675      72.43124455      80.00078817
N      88.13208522      70.27317710      80.42597659
H      87.04171313      68.97871457      81.31225824
C      86.56928156      71.83220131      78.60805988
H      87.51792416      72.62021718      76.95643908
C      84.50947987      70.24672093      77.62729193
H      82.99769883      71.30685739      76.71455412
H      83.65154413      69.35854956      79.27513327
C      85.54127044      68.29841310      75.72244780
O      87.73713242      68.66124055      74.86451206
O      84.11452707      66.73749917      74.69632641
C      85.63764649      74.12632905      80.08771558
O      85.48457865      76.22770471      79.11828599
N      84.96868337      73.81263448      82.46499129
H      85.06127996      72.04763011      83.18875646
C      84.32239698      75.95369440      84.12039154
H      83.57406536      77.62232273      83.16985920
C      82.27771311      74.95780863      85.98933086
H      81.82228905      76.55651709      87.20442488
H      82.83140291      73.31752619      87.10237966
C      79.96279836      73.97515095      84.51345461
H      78.62298241      73.18146589      85.86271920
H      80.23302922      72.48604661      83.11505714
C      78.54739335      76.21636635      83.13395440
O      79.37320376      78.48025848      83.40796472
O      76.68412321      75.61732311      81.72043912
C      86.71101103      77.07241237      85.52634791
O      86.55983292      79.33252504      86.23310555
N      88.79159970      75.64566901      85.58681916
H      88.59128872      73.97326122      84.69108888
C      91.12919116      76.01038618      87.18741734
H      92.17420981      77.68846315      86.60349191
H      92.40475641      74.43057499      86.84537688
C      90.53392736      76.09731360      90.04279380
O      88.47034623      75.34709225      90.78923570
N      92.37263106      77.05351511      91.53567759
H      93.87307375      77.75460357      90.58703498
C      91.85106660      77.74893439      94.27578074
H      89.82905944      77.49382134      94.57057805
C      93.14552912      75.50016008      95.75543645
H      95.08438833      75.38488678      95.06946579
H      92.35373381      73.73893516      95.03545072
C      93.00568938      75.71936833      98.69585059
H      93.63118879      77.47303435      99.57835278
C      90.29015266      75.36598951      99.66150073
H      89.16387579      77.07619183      99.45363084
H      90.08795195      74.59120172     101.56067568
H      89.36040732      73.88066463      98.57868756
C      94.52124989      73.44035840      99.57268360
H      94.24346012      73.16256863     101.59469075
H      96.52813923      73.56697006      99.13048764
H      93.89952992      71.70558964      98.65049716
C      92.67687700      80.46447110      95.08269388
O      94.92376158      80.86887254      95.14694457
N      90.91943152      81.95924462      96.05968238
H      89.24513402      81.05784517      95.90850428
C      91.19155211      84.48202925      97.18784899
H      93.18710311      84.70879640      97.64894221
C      89.95945056      86.26593089      95.23576171
H      89.52292379      88.02526608      96.21463994
H      88.20389481      85.45334857      94.52522462
C      91.73579329      86.87442276      93.05690727
H      92.35940297      85.10752866      92.20275098
H      93.34395038      87.91755168      93.81279780
C      90.41487460      88.58084562      91.12371725
H      88.53837637      87.83440373      90.71742610
H      91.49579805      88.54683055      89.37194096
N      90.28259377      91.19622684      92.03078588
H      90.31471910      91.53826730      93.90917384
C      90.65675957      93.22390317      90.72120555
N      90.50747119      93.52814911      88.20220037
H      90.94210825      95.17788018      87.34993381
H      90.49802256      91.99369134      87.06458513
N      91.41642954      95.34228637      91.91929203
H      91.97011935      96.70666876      90.70419801
H      90.90431372      95.61440696      93.73531902
C      89.67032244      84.50281624      99.61236785
O      87.29493647      84.12676070      99.58402196
N      90.92132125      84.76548819     101.88003943
H      92.76380441      85.25870676     101.77421475
C      89.86118479      84.58596419     104.38203706
H      88.34751402      83.22536125     104.06078359
C      91.91342758      83.47102567     106.08279075
H      91.33328160      83.45590786     108.05944447
H      93.56126891      84.70690668     106.08845993
C      92.67120782      80.80462184     105.23052418
H      93.39308327      80.59675195     103.31245197
C      94.89730542      79.73125730     106.75175386
H      96.49979334      81.02571982     106.78576893
H      95.63618840      78.05129060     105.81822906
H      94.25668819      79.10197843     108.60557537
C      90.52447872      78.86954210     105.74452974
H      89.71378615      79.38165793     107.56811563
H      91.34084049      76.99682332     105.47996805
H      89.12608126      79.01883048     104.24030759
C      88.70089284      87.05961594     105.48374751
O      87.34595907      87.10685909     107.41315807
N      89.42843747      89.17232995     104.36880898
H      90.82305548      88.85296621     103.10269235
C      88.24735852      91.78771117     104.73919534
H      87.42721730      91.88408721     106.62703192
C      90.49046365      93.76625462     104.31400692
H      91.73579329      93.29949222     102.73797517
H      91.83405907      93.74924709     105.87303113
C      89.49457788      96.46667352     104.03810688
H      88.31349895      96.97123045     105.64815369
H      88.44200034      96.53848312     102.26932305
C      91.63941725      98.41120190     103.93039248
H      92.86395991      98.08994843     102.30711757
H      92.61451603      98.07672034     105.71429412
C      90.72856918     101.20610712     103.69039723
H      89.60040256     101.65019280     105.35713584
H      89.70244779     101.66342088     101.96507711
N      92.79592976     103.04103137     103.65827189
H      94.09039228     102.95977313     102.25987442
H      93.76913880     102.95032450     105.29855433
H      92.00791388     104.76824122     103.48063761
C      86.03637873      92.05794203     102.84568957
O      86.09496026      90.99591585     100.77832899
N      84.04271748      93.35807374     103.77165547
H      84.24680792      94.16309715     105.48941668
C      81.88842947      94.20656085     102.29011004
H      80.95490469      92.39431332     101.99153328
C      80.30294910      96.32494405     103.58079311
H      81.62764725      97.81404838     104.10613702
C      78.21669126      97.58539150     101.89137778
H      77.58930211      99.27102737     102.89671218
H      76.54617319      96.41943037     101.57957294
H      79.05572973      98.12018405     100.08857888
C      79.17100305      95.45566995     105.99964279
H      80.63743066      94.83961917     107.30922312
H      78.02960834      93.74357791     105.87492085
C      77.84252545      97.43421340     107.53788001
H      76.10775668      98.06916144     106.62514220
H      79.17856194      98.96678144     107.85724375
H      77.44001373      96.38352557     109.26320013
C      83.00525774      95.23457197      99.84291446
O      84.49814152      97.04870923      99.90338570
N      81.98480552      94.36340814      97.67350865
H      80.52404709      93.14453466      97.83791484
C      82.45723709      95.34606582      95.14694457
H      83.26415024      97.24146131      95.21875417
C      84.51892851      93.64909159      94.00177043
H      86.32172741      93.59617925      94.99765619
H      84.83451281      94.73001504      92.27834003
C      83.86508321      90.97512886      93.39138883
C      83.76114825      90.17766435      90.88939119
H      84.30538943      91.59684881      89.52311907
C      82.82762345      87.79660920      90.21286917
H      82.76526248      87.14087417      88.28345860
C      82.11141718      85.95412604      92.12905165
O      81.10419305      83.81306613      91.39205839
H      81.68433903      83.51070992      89.70075334
C      82.68589399      86.57962545      94.60081367
H      82.38542750      85.30594992      96.16361733
C      83.39265162      89.03626966      95.23765144
H      83.71201537      89.46523753      97.20674625
C      79.94390110      95.65220148      93.46319843
O      77.86142270      95.69377546      94.42695885
N      80.24625731      95.93188098      90.94419325
H      81.80150206      96.32305432      89.91051296
C      77.90299669      96.22289883      89.30580054
H      76.14744094      96.02825702      90.36593700
C      77.98992410      98.73056565      88.01511747
H      76.61231362      98.55482110      86.49766724
H      79.82862780      99.17465133      87.19497625
C      77.58930211     101.17020232      89.53634715
H      78.67400502     102.68198337      88.65384496
H      78.20535290     100.88296392      91.48276525
C      74.90589076     101.87129078      89.32847726
H      73.76638578     100.38218644      90.17696437
H      74.30684752     101.87318050      87.35749271
C      74.10275707     104.27313292      90.73632336
H      75.28572574     105.69798656      89.83492391
H      74.71124894     104.12384454      92.69974900
N      71.42690461     104.92130905      90.40751098
H      71.02439290     106.18175650      91.78323174
H      70.25149484     103.53802939      90.99710559
H      70.95825249     105.77168589      88.76533881
C      77.81795901      94.07805946      87.48410437
O      79.90043739      93.55649500      86.50711587
N      75.48603673      93.33161757      86.79435427
H      73.95724814      93.72468064      87.86960854
C      75.08919420      91.85763105      84.50967516
H      76.36475947      90.24758423      84.66463271
C      72.14878006      91.06772545      84.35849705
H      71.00738537      92.75525104      84.05614084
H      71.78406288      90.05483214      86.11594252
C      71.53650873      89.10618953      82.29869537
O      70.90911961      89.96034583      80.21243752
O      71.47981694      86.77615699      82.73522215
C      75.77516485      93.34862511      82.15507617
O      75.97358612      95.72968026      82.15318644
N      75.65611209      92.05794203      79.99700872
H      75.99059365      90.18900271      80.19920944
C      75.54839770      93.06516616      77.40052477
H      77.39466031      93.94577862      77.15297062
C      75.28383602      90.96945968      75.36528953
H      74.82841197      91.64409197      73.47367349
C      77.72347269      89.50870124      74.95332919
H      79.37320376      90.71623635      75.19899361
H      77.78016448      88.66399358      73.07305151
H      77.82929735      87.94022840      76.28369652
O      73.16734254      89.19311694      75.69788136
H      72.60042465      89.31216970      77.41753230
C      73.76827551      95.11929866      76.77502536
O      74.45991534      96.98445853      75.55237243
N      71.46847858      94.72812532      77.72933715
H      71.06029770      93.14831412      78.71955373
C      69.47670705      96.64430780      77.48367273
H      69.78284272      97.67231891      75.72433753
C      66.83486967      95.20244662      77.50256999
H      65.24560984      96.46856325      77.84272072
H      66.97281969      94.08372864      79.22789011
C      66.36999700      93.39208881      75.24245732
H      64.43113780      92.75525104      75.51268818
H      67.71926158      91.85763105      75.50323955
C      66.69502993      94.76969929      72.77447475
O      68.55263088      94.07805946      71.45922524
O      65.53284824      96.79926535      72.39463976
C      69.54851666      98.70033003      79.60961483
O      67.96870545     100.41431179      79.52646687
N      71.08864361      98.37340737      81.62784253
H      72.27728145      96.88619276      81.48233360
C      71.30218267     100.18376518      83.63473187
H      70.97714975     102.08671958      82.92230505
H      73.27694668      99.91920350      84.15440661
C      69.62221598      99.79637129      85.87783701
O      69.10632069     101.67286952      87.12505637
N      68.87766382      97.54759697      86.45987271
H      69.28206524      96.26825226      85.10115949
C      67.65501090      96.79170645      88.79179498
H      66.28495932      98.19010392      89.43619166
C      66.02228736      94.49946843      88.22487709
H      64.85821594      94.37285677      89.91996159
H      67.17313068      92.79304557      88.16062639
C      64.39145354      94.39742321      85.95153633
C      64.38956383      92.24502494      84.36038678
H      65.64245236      90.76536924      84.99722455
C      62.76628891      92.12786191      82.25334194
H      63.10077047      90.62175004      80.91730544
C      61.05986606      94.19144304      81.76201310
O      59.55753363      94.07994919      79.55670249
H      58.66369309      95.65409121      79.40741411
C      61.10332976      96.30793651      83.28135305
H      59.82398505      97.84428401      82.86939272
C      62.67369232      96.42320982      85.46209722
H      62.69069986      98.23356763      86.40507065
C      69.76583519      96.08683853      90.68908020
O      71.70469438      95.02103289      89.99744037
N      69.52961939      96.88241331      93.14383468
H      67.84398352      97.56838396      93.72020121
C      71.49682449      96.07361045      95.14694457
H      73.21269598      97.00335580      94.48931982
C      70.98659837      97.37941133      97.71319291
H      72.20358212      96.24368582      98.93017665
H      69.06285700      96.98256881      98.33302314
C      71.93524098     100.03069735      97.87948882
C      70.10976537     102.03758669      97.97208541
H      68.10665547     101.66153116      98.08924844
C      71.00927510     104.44131856      98.33113341
H      69.59953927     105.87184138      98.68640196
C      73.67000975     104.88162479      98.17050667
O      74.54873247     107.39496079      98.34247177
H      73.19757816     108.47021506      98.89427185
C      75.32729973     102.99567793      97.70374427
H      77.27182810     103.59850063      97.55067644
C      74.56007084     100.53714400      97.70563400
H      76.05106489      99.15764379      97.49398465
C      71.67634849      93.21445454      95.41150626
O      69.83008587      92.00313997      95.85181249
N      74.01771939      92.20156123      95.48898504
H      75.40099905      93.51492102      95.42284461
C      74.82841197      89.52759850      95.75165699
H      73.03695142      88.66021412      96.28267009
C      75.74303950      88.29549695      93.30446142
H      76.72947665      86.55694874      93.80145944
C      73.43190422      87.71346124      91.46197826
H      74.08574954      86.98591661      89.64973073
H      72.52105615      89.52759850      91.12371725
H      72.06941156      86.52104394      92.44463595
O      77.26993837      90.05483214      91.87960778
H      78.96691259      90.09640612      92.51644555
C      76.87876503      88.90965800      97.82846621
O      78.06929261      90.67466237      98.73931429
N      77.15088561      86.49080832      98.53522385
H      75.88665871      85.17744853      97.96830596
C      79.25415100      85.75381505     100.24164671
H      80.79238822      87.07284402      99.86748090
C      78.49070156      86.00892811     103.04600056
H      77.36820413      87.73613796     102.99497795
C      76.98647942      83.80739695     104.13637264
H      75.89988680      84.27037990     105.82200852
H      78.35464128      82.30128508     104.45006721
H      75.63154565      83.22347152     102.69829092
C      80.82829301      86.71190630     104.63715012
H      82.10007882      87.88920579     103.52221159
H      82.17377815      85.21335333     105.06611799
C      80.24436759      88.01392773     107.25631079
H      82.15677061      88.08573732     108.02353967
H      78.91211053      86.81962070     108.27865272
H      79.42233665      89.90176431     107.30166422
C      80.03460797      82.96268929      99.63126511
O      78.55117282      81.54350483      98.52199577
N      82.35141243      82.29183645     100.41172208
H      83.38698245      83.64299076     101.27910646
C      83.45123315      79.70102167     100.19440356
H      82.14165281      78.33852900     101.01265505
H      85.32395191      79.60275591     101.04667012
C      83.85941403      78.91111608      97.47886684
O      85.94000270      79.30228942      96.41117148
N      82.04905621      77.39366585      96.64360781
H      80.53160598      77.07241237      97.75476688
C      81.81284043      75.93101768      94.30601636
H      83.32462148      76.54706846      93.05312782
C      82.41377340      73.14178164      94.82947055
H      80.87364645      72.21770547      95.83858440
C      82.40810421      71.62244169      92.37093662
H      82.25692611      69.61933179      92.83014011
H      83.98791542      72.05140956      91.12182753
H      80.77160122      72.09676299      91.21064466
C      84.93088884      72.78840282      96.35258996
H      84.71168060      73.82208311      98.12137379
H      86.50692059      73.60476459      95.30568158
C      85.78882459      70.01806405      96.99509691
H      85.92299515      68.81619811      95.32835830
H      84.42255246      69.18469474      98.28955943
H      87.70500707      70.16357297      97.73775935
C      79.33540924      76.49982530      93.02667165
O      77.55906649      74.91434492      93.06824563
N      78.94234615      78.84119620      92.06102150
H      80.24436759      80.19235052      92.41062087
C      76.58963689      79.32118669      90.68908020
H      76.33452385      77.96436319      89.16029161
H      76.73325610      81.16366984      89.78012184
C      74.18779475      79.49882096      92.49187910
O      72.01649923      79.80117717      91.59803856
N      74.53550440      79.57818946      95.01277400
H      76.37042865      79.58196892      95.53622819
C      72.40956230      79.65188879      96.81746263
H      71.07163607      78.26860913      96.08235910
C      73.14655556      78.79395304      99.49709455
H      74.14244132      80.35297725     100.40227345
H      74.26716325      77.07052265      99.62748566
C      70.67479354      78.46892012     100.78399816
N      68.91167889      76.65856231     100.09613779
H      69.03262137      75.29606964      98.76766019
C      66.74605253      77.30484871     101.39249004
H      64.97726871      76.30896294     101.16194343
N      67.10321081      79.31362778     102.93639644
H      65.81252774      80.40399986     103.82267808
C      69.51450159      80.16967380     102.50364911
H      70.38944487      81.92145009     103.07434646
C      71.17935046      82.28994672      96.88360305
O      72.51538697      84.01148739      97.49398465
N      68.78695695      82.45057346      96.17873514
H      67.72682048      80.86509308      96.11448445
C      67.41690537      84.88076150      95.98598306
H      68.40523223      86.32829185      94.89939043
C      64.89034129      84.47258061      94.63671847
H      63.62800412      83.47291539      95.92362209
H      65.05852694      83.15166192      93.06446618
C      63.40501641      86.94056318      94.13972045
H      62.91179785      87.80038865      95.94440908
C      64.46326314      88.88698128      92.18007426
H      66.33220248      89.44256082      92.84903738
H      63.35210407      90.55371989      91.70386323
H      64.91490773      87.79849893      90.49065894
C      60.85388588      86.18089320      92.99832576
H      61.33954556      85.23036087      91.23710083
H      59.88445629      87.93455922      92.51644555
H      59.95059672      84.88076150      94.31546500
C      67.11832861      85.91633152      98.71474785
O      65.99394147      84.61431009     100.26621315
N      67.64556226      88.32951202      99.18151025
H      68.71136789      89.30650052      97.93618061
C      66.70069910      89.52948823     101.44540237
H      66.19803190      88.07817842     102.81923340
C      68.63577885      91.21323437     102.84946902
H      67.91012395      91.68566595     104.71651862
H      69.34631595      92.79115584     101.72886132
C      70.98848811      89.54838549     103.38615130
H      71.86910056      88.83406894     101.66650035
C      72.94813430      91.43433235     104.62203231
H      74.40322355      90.26837122     105.49508586
H      71.92012318      92.39431332     106.12814418
H      73.52072136      92.65320582     103.06489782
C      70.52739489      87.48669408     105.23619336
H      69.44647144      88.32384284     106.77632030
H      72.26783282      86.56261792     105.83145715
H      69.50316323      86.01081783     104.23085896
C      64.21381927      91.05638709     101.03722149
O      62.47338133      90.47435138     102.40160389
N      64.06075144      92.81572229      99.30434246
H      65.51773044      92.97823875      98.08168954
C      61.68914491      94.18010468      98.47097316
H      59.98272205      93.02737163      98.42184027
C      61.11844757      96.40053310     100.35503029