 %block lattice_cart
   140.777   0.000   0.000
   0.000 144.511   0.000
   0.000   0.000   162.462
 %endblock lattice_cart

 %block positions_abs
N      90.89297537      41.72224710      82.11917137
H      92.62774412      42.41955610      81.73933638
H      90.56605271      40.16133317      81.06848354
H      90.61518559      41.62020188      84.00511823
C      89.32261279      43.93322688      81.28769179
H      89.94811221      45.57161960      82.36672551
C      89.74402176      44.95556882      78.57782426
H      89.05427166      43.39276516      77.42698093
H      91.74524192      45.13509281      78.12051049
C      88.31349894      47.33851370      77.98822965
H      86.34062467      46.78104443      78.17342283
H      88.59884762      47.85251926      76.01535538
S      88.74246682      50.16365454      79.88740459
C      91.45989325      51.62441297      78.06570843
H      91.55248984      53.58783861      78.67797975
H      91.03470483      51.32772594      76.07015744
H      93.24001545      50.79293340      78.68553866
C      86.54093567      43.48536175      81.68075486
O      85.59607250      41.64854777      80.76423760
N      85.07450804      45.19556406      82.76167831
H      85.82661911      46.75647799      83.56292227
C      82.32495625      45.23146886      82.96765848
H      81.37631365      44.66077151      81.23100000
C      81.61063971      43.36252953      85.18808690
H      82.23613912      44.20345774      86.96065018
H      82.59329740      41.56351009      84.98210673
C      78.80439613      42.94112057      85.36383145
O      77.43056510      43.38709597      83.52890720
N      77.92378368      41.79972587      87.34804408
H      76.06996216      41.37642718      87.50678109
H      79.12753933      41.18745456      88.69919839
C      81.63142670      48.05094051      83.55536337
O      83.18289201      49.73279693      83.74433600
N      79.19934893      48.52337209      83.93519835
H      78.01071108      47.05505476      83.65551886
C      77.91244532      51.04993617      83.79724833
H      78.77038107      51.87763630      82.11917137
C      75.13076818      50.82316902      83.03757836
H      74.88510376      49.68177433      81.33871440
C      73.84008511      49.30193934      85.17107936
H      72.02216839      48.72557282      84.38873267
H      73.70213509      50.59640187      86.76600837
H      74.90967020      47.58795758      85.57170134
C      73.86654129      53.34973310      82.43664539
H      74.14622077      54.47789972      84.13739907
H      71.83886495      53.11162758      82.17208370
C      74.76038182      54.91820594      80.17086354
H      75.38021205      53.62374341      78.69309756
H      76.43845880      55.83472321      80.93809242
H      73.44891176      56.33928013      79.46410590
C      78.77416052      52.86029398      85.97610277
O      79.15021605      55.12418610      85.54713490
N      79.25982017      51.60362598      88.10960378
H      79.03683248      49.71200995      87.98866130
C      80.55050324      52.62974737      90.45664386
H      79.42611609      54.24546337      91.06891519
C      80.38798679      50.62096831      92.59581405
H      81.20245883      51.30504923      94.36081842
H      81.50670476      49.08462081      91.80212900
C      77.91433505      49.27359345      93.07202508
C      77.68945762      46.70356566      92.36148798
H      78.96880233      45.77004086      91.07269464
C      75.60886895      45.32784491      93.19296756
H      75.38399151      43.40221379      92.55990925
C      73.67189948      46.46923960      94.64994655
H      72.19602321      45.19745378      95.26221787
C      73.78528304      49.05060574      95.02411236
H      72.42279038      49.95011546      96.25054474
C      75.95279913      50.54726897      94.29845745
H      76.22869918      52.48234872      94.88427261
C      83.21312762      53.70311193      90.09381641
O      84.26003600      55.35662244      91.40339674
N      84.47546481      52.72423369      88.05669144
H      83.78193524      51.09339988      87.34237490
C      87.04738231      53.43855023      87.15151254
H      87.87508243      54.37207503      88.78990525
C      88.69333393      51.12363550      86.88695085
H      87.67288172      49.88775449      85.59248833
H      88.62152434      50.08995522      88.66707304
C      91.50335695      51.69433285      86.03468429
H      92.55215506      52.63352683      87.53890643
H      91.41642954      52.82627892      84.31692307
C      92.94143869      49.24713728      85.51689928
O      92.76002496      47.69378224      87.19119679
O      93.97133952      48.75202898      83.45709760
C      86.88864531      55.14875256      84.87061288
O      88.32294758      56.87974186      84.55124913
N      85.14253819      54.78025593      82.98655574
H      84.29216135      53.07950223      83.15096193
C      85.15009710      56.07849789      80.54313962
H      86.96234462      55.85739992      79.59260729
C      83.04872144      55.00135389      78.61750851
H      81.21946636      54.77080729      79.53402577
H      83.76681744      53.12107622      78.18287146
C      82.57817958      56.66620278      76.29314514
H      84.16365996      56.55470892      74.97978536
H      82.09818910      58.63718732      76.64463424
S      80.07051276      55.40764506      74.51491268
C      81.76181782      53.31382831      72.34172742
H      80.34452308      51.95133562      71.72756637
H      83.38131326      52.56549668      73.37162826
H      82.60463576      54.42120793      70.82238747
C      84.68522443      59.00568395      80.78691432
O      85.95323078      60.65541502      79.79102855
N      82.88620497      59.83149436      82.42152758
H      81.92244455      58.50301676      83.40040581
C      82.34574324      62.45443447      83.12450577
H      82.07929183      63.30481131      81.26690480
C      79.78138465      62.54703106      84.61361010
H      79.40910855      64.48022108      85.22210197
H      79.75870793      61.32815759      86.27467953
C      77.55717677      61.55870420      83.10938796
H      78.12220494      60.04314371      81.83382269
C      75.38021205      60.61573078      84.67786080
H      75.81295938      58.98111751      85.85327056
H      73.93457143      60.13385057      83.29269141
H      74.30306806      61.79492000      85.97988222
C      76.73703556      63.84716278      81.47288497
H      78.29794949      64.56336905      80.33526973
H      75.92634297      65.21721435      82.77868585
H      75.31218191      63.17630992      80.14629710
C      84.53593604      63.71488193      84.52479296
O      84.78537991      65.90318499      84.20353949
N      86.18566712      62.46010365      85.93074934
H      85.93433351      60.57793625      85.74366644
C      88.63286270      63.19898665      87.12316664
H      88.35696265      65.14351502      87.74488660
C      89.07316893      61.45476926      89.42485329
H      91.07249936      61.37918020      89.91807186
H      88.46845651      59.53480733      88.98076761
C      87.67855091      62.55836942      91.75866529
H      85.67733073      62.31459474      91.33536660
H      88.33806538      64.44998546      92.23487632
C      88.45522841      61.15619250      94.17940470
H      87.78815503      62.23900568      95.80078987
H      90.49991228      61.18264867      94.42317939
N      87.32706180      58.62017979      94.14727935
H      86.58061991      58.02491600      92.49376883
C      87.50658580      56.93265419      96.06913101
N      88.94277780      57.20288505      98.05901282
H      89.01080795      55.84984101      99.40260823
H      90.16543074      58.66742294      98.02499774
N      86.54660484      54.74813058      96.07857964
H      86.85651996      53.61996396      97.58658124
H      85.59985195      54.46089217      94.44585611
C      90.77392260      63.41252572      85.19564580
O      92.62396466      64.71076770      85.85893974
N      90.35062390      62.51868518      82.93931259
H      88.79915861      61.42075418      82.76734749
C      91.99279608      63.21221472      80.73967116
H      93.65764495      64.17786487      81.46910552
C      92.71278180      60.86517464      79.15419078
H      90.97801305      60.10550468      78.34160847
C      94.95210748      61.38295965      77.21911104
H      95.60406306      59.65008063      76.31771159
H      96.53569813      62.24656459      78.21688653
H      94.39085876      62.55081051      75.61662312
C      93.50457712      58.79025515      80.95887941
H      93.58583536      56.90430829      80.13873819
H      92.04003923      58.42931744      82.36294606
C      95.88185283      59.45921827      82.41207895
H      96.08216382      58.06271052      83.91063191
H      95.87807337      61.36217267      83.20009482
H      97.42764895      59.37418059      81.05147600
C      90.67187738      65.16619173      79.07104282
O      92.05515704      66.67041389      77.90886114
N      88.15287220      65.32870819      78.91797499
H      87.14375835      64.03424567      79.89118404
C      86.89053502      67.26945713      77.29658982
H      87.79571394      67.64929211      75.48434228
C      84.20145448      66.33782205      76.58038354
H      83.07328788      67.49055510      77.85972826
H      83.87453183      64.31770463      76.81848906
C      83.48713795      67.02190297      73.88374410
O      82.45345764      65.47799657      72.48345690
O      83.40587970      69.19886768      73.06549260
C      86.94155764      69.95097877      78.64018523
O      87.40265086      71.86338179      77.32493571
N      86.85840968      70.06058289      81.22722055
H      86.78093090      68.34282167      82.05114122
C      86.77337199      72.50210929      82.48388855
H      86.92643982      74.03467732      81.11761642
C      84.13531406      72.97454086      83.77835107
H      84.46601617      74.39750478      85.22777115
H      83.53438109      71.26244882      84.75344985
C      81.97535688      73.83058689      82.07381794
H      80.27649293      74.03656704      83.22088181
H      81.71646438      72.42652023      80.59038278
C      82.56684122      76.34014342      80.91730543
O      83.55516808      78.08625053      82.16830425
O      82.47802408      76.58958730      78.53436055
C      88.65175995      72.71375863      84.60038202
O      89.51914433      74.80001649      85.10682867
N      89.31127444      70.48766104      85.90429317
H      88.32861676      68.90784983      85.47343557
C      90.79470960      70.54057337      88.27400997
H      92.43121257      71.78023383      88.11716268
H      91.21422884      68.58092718      88.74455182
C      89.22056757      71.56291530      90.47365140
O      87.51603443      73.06146827      90.31302466
N      89.69866834      70.54624254      92.78667640
H      91.32383297      69.54657733      92.85092710
C      88.08484205      71.12260907      95.10348086
H      86.05905545      71.15662414      94.73876369
C      88.68577502      68.84926832      96.93651539
H      90.71723081      68.66596486      97.21430516
H      88.23224071      67.08237422      95.97653442
C      87.18722206      68.97021080      99.47819728
H      87.31005427      70.90907000     100.16038848
C      84.47924425      68.24833535      98.95663282
H      83.56083727      69.66185063      97.77366414
H      83.56839618      68.39951345     100.79533652
H      84.28271272      66.31136589      98.28011080
C      88.29649141      67.43575303     101.60602911
H      87.49902690      67.98566340     103.42205609
H      90.33739582      67.70976335     101.52099142
H      87.94500232      65.41941506     101.40004894
C      88.79915861      73.69830604      96.26188309
O      91.04037401      74.02900814      97.06879623
N      87.08706656      75.56157618      96.40172284
H      85.35796698      75.10426241      95.74031863
C      87.62941801      77.98420531      97.45807985
H      89.67599161      78.23553891      97.47697711
C      86.44078017      80.00054329      95.76677480
H      85.89086982      81.69562779      96.79856537
H      84.78349020      79.14260754      94.89561097
C      88.16799001      80.59202763      93.61248680
H      88.60073734      78.81946435      92.65817501
H      89.95945056      81.41594831      94.20586087
C      86.76770282      82.35136282      91.76433447
H      86.40487537      84.12392610      92.74888188
H      84.99702927      81.36114623      91.39205839
N      88.09807015      82.79733823      89.32280807
H      89.45111418      84.14282337      89.32658753
C      87.83350845      81.83546755      87.02112142
N      86.24613835      79.95330013      86.64506589
H      85.92299515      79.45252266      84.83281835
H      85.28237793      79.42984594      88.20597982
N      88.95789562      82.73497726      85.02557044
H      88.60640653      81.75231958      83.43064143
H      90.31849856      84.07101377      85.11627730
C      86.59195827      78.20341356     100.12070422
O      84.35074287      77.75743816     100.50809812
N      88.17743864      79.06701849     101.94617984
H      89.94811221      79.56401651     101.43406401
C      87.56138788      79.26543976     104.64281929
H      86.07228353      77.89538819     105.02643373
C      89.88953069      78.81190544     106.11491609
H      89.45489363      79.51866309     108.00275268
H      91.56949739      79.73409188     105.35902556
C      90.73990753      76.03589748     106.59679630
H      89.38686348      75.21386655     107.91204581
C      90.81171713      74.36726916     104.31022746
H      91.49390833      75.36126520     102.64159913
H      88.98057234      73.44508271     104.09668839
H      92.10617966      72.89706209     104.94706523
C      93.39875245      75.79023306     107.75330880
H      94.88785678      76.17573723     106.38514695
H      93.61418126      73.87783004     108.48841234
H      93.58583536      77.08847504     109.34067891
C      86.44078017      81.93373331     105.30611323
O      85.11608202      82.16994911     107.20339845
N      86.90187338      83.82723907     103.72252258
H      87.53115224      83.28866707     102.00287163
C      86.39542674      86.56923195     103.98141508
H      85.79827323      86.94528750     105.91460510
C      88.83695313      88.06967466     103.36347458
H      88.55727364      90.03121056     103.92472329
H      88.90687300      88.18305822     101.30556262
C      91.46745215      87.11158340     104.25731512
H      91.70555767      85.28043861     103.34835677
H      91.59406383      87.26843069     106.30766817
C      93.42709834      88.71974050     103.18206085
H      93.08883733      90.69072504     103.68094860
H      93.34584011      88.63848228     101.12603862
C      96.30893098      87.88826092     103.93228220
H      96.85506187      86.31033945     102.72474708
H      96.45821936      87.17583410     105.85980304
N      98.12117850      90.08412289     103.59591091
H      99.72177669      89.70617764     104.56723024
H      97.38040580      91.69794917     104.29321992
H      98.49345460      90.33356677     101.74019968
C      84.29405107      87.27976906     102.12948330
O      84.05783529      86.17616888     100.07913025
N      82.72935768      89.05044261     102.96285260
H      82.99013991      89.39626252     104.82234329
C      80.71301972      90.23908045     101.42083593
H      79.21446675      89.02209671     100.70273993
C      79.30328389      92.29321296     102.78521833
H      80.67522518      93.48563026     103.75275820
C      77.57040485      93.70294878     100.75187281
H      76.15311012      94.92560171     101.61358801
H      76.56129100      92.45383969      99.46118974
H      78.65699749      95.12402298      99.73520006
C      77.48536716      91.33134226     104.60313504
H      78.58896734      90.46773734     106.11302636
H      76.31562658      89.87247355     103.74141984
C      75.73359088      93.16626651     106.03743731
H      74.02527829      93.83711935     105.10013306
H      76.91278009      94.68560648     106.77254085
H      74.92289829      92.19683691     107.66260194
C      82.02071033      91.40504160      99.11536983
O      83.71957427      92.95461717      99.20418696
N      81.18167184      90.87402849      96.86470579
H      79.96090864      89.40571115      96.89872086
C      82.06795347      92.00219510      94.39672322
H      83.30950366      93.58956521      94.82947055
C      83.72335373      90.16538113      92.91139834
H      85.44489440      89.85924547      93.99988070
H      84.38853739      91.00252989      91.15206314
C      82.50636998      87.63125814      92.14794891
C      82.13787336      86.99064092      89.52878824
H      82.84652071      88.10935890      87.97732294
C      80.72624780      84.63793166      89.06202584
H      80.55617242      84.05400624      87.11371801
C      80.14610182      82.82946358      91.00466449
O      79.10108317      80.61848380      90.28845822
H      79.36942430      80.15361112      88.55557919
C      80.75648341      83.49842669      93.46130870
H      80.47302447      82.16427993      94.98064865
C      81.97346716      85.82467979      94.05090331
H      82.36086105      86.04388805      96.04456457
C      79.88720932      92.85068222      92.68274146
O      77.69512679      92.17793966      93.19485729
N      80.32562581      93.96562074      90.44719523
H      82.16999870      94.25285915      90.04846298
C      78.55684199      94.36435299      88.37416546
H      76.60097526      94.18293927      88.99966487
C      78.68534338      97.05532326      87.29135229
H      77.82740763      97.19705274      85.42619242
H      80.70168136      97.42381989      87.10237965
C      77.31529180      99.05276398      88.96753953
H      77.49292607      98.98284410      91.01789258
H      75.30462300      98.62946528      88.81258197
C      77.95212957     101.76641096      88.03779418
H      77.89732750     101.91003016      85.98555140
H      79.91933467     102.11223089      88.54613056
C      76.21358137     103.74873386      89.14706353
H      76.93356708     105.67625470      89.07903338
H      75.95279913     103.50684890      91.17473986
N      73.67378920     103.64479892      87.82614483
H      72.65711644     102.04420073      88.05669144
H      73.63788439     104.04731062      85.96287469
H      72.42279038     104.74650936      88.75777990
C      78.97069206      92.27431569      86.28223843
O      81.10419305      92.13447594      85.39028762
N      76.84286023      91.11024428      85.40918488
H      75.14777573      91.73007451      86.03657401
C      77.05261985      88.99941999      83.58181953
H      78.96880233      88.26431646      83.39851608
C      75.42745522      86.93583886      84.85171562
H      73.53394944      87.53677183      85.40918488
H      76.44790743      86.55978332      86.60160218
C      75.02494351      84.53777617      83.37017019
O      77.03561231      83.32646160      83.07915233
O      73.07852540      83.86314387      82.23066522
C      76.26649370      89.83467902      80.87195200
O      75.84508474      92.08912251      80.28991630
N      75.99248338      88.05833629      79.06915310
H      76.39310536      86.23664012      79.47166480
C      75.64477375      88.75375557      76.39330064
H      77.32474043      89.76664888      75.76780123
C      75.55973606      86.48608400      74.66609079
H      75.23848258      86.90182378      72.67431925
C      78.21291181      85.33713040      74.67931887
H      78.12031522      83.88582059      73.21856043
H      78.24503714      84.36014189      76.49345613
H      79.65477297      86.77710185      74.38263184
O      73.81362895      84.45273848      75.27647239
H      72.24704583      84.72863852      74.40152910
C      73.36576381      90.60568736      75.98889921
O      73.61142822      92.26297734      74.41853664
N      71.14155593      90.51309077      77.32304598
H      70.75416204      89.11091384      78.56081672
C      69.14222549      92.48974449      77.19265487
H      69.26694743      93.42515902      75.36339980
C      66.51928538      91.20851005      77.12084527
H      65.19269750      92.77887262      76.99801306
H      66.22637779      90.33734622      78.96332842
C      66.11866339      88.98808164      75.26135458
H      66.65345594      89.70617764      73.40564334
H      64.08720761      88.68194597      75.10072784
C      67.66634924      86.58434976      75.85094919
O      69.24805018      85.79822362      74.25602018
O      67.24116083      85.48074960      77.87862552
C      69.20458647      94.56277427      79.21277230
O      67.42257455      95.97062037      79.52079769
N      71.41367652      94.97284487      80.39952042
H      72.93301648      93.89570088      79.97622173
C      72.06185265      97.15169932      81.91697065
H      71.24738061      98.81654819      81.01935065
H      74.10653652      97.40114318      82.00200834
C      71.24171144      97.37846647      84.54935941
O      71.71981218      99.10000713      85.91185208
N      69.81685780      95.32055451      85.50178147
H      69.53528858      93.79176592      84.39440185
C      68.76050079      95.44338672      88.08314761
H      68.33720209      97.38602538      88.62171961
C      66.08086887      94.21884407      88.31936340
H      65.22104340      94.88024828      90.07113969
H      66.46259359      92.22518281      88.66707304
C      64.31019532      94.61001742      86.07436854
C      63.44848012      92.58801026      84.53613132
H      63.93036033      90.62647435      84.82147999
C      62.05764155      92.96406580      82.33837962
H      61.60977641      91.39181351      81.11761642
C      61.08065304      95.37535657      81.77335145
O      59.66902750      95.68149223      79.72110868
H      59.15880138      97.39169456      79.40363466
C      61.56442299      97.40681236      83.57048118
H      60.66869271      99.22472907      83.32670648
C      63.17446981      96.88146844      85.63595204
H      63.58643014      98.32332962      87.01923170
C      70.56140995      94.34923518      90.01066845
O      72.12232389      92.81477743      89.31902862
N      70.14944963      95.05977228      92.31991400
H      68.50349800      95.99896625      92.55990925
C      71.56485463      93.93538512      94.43829720
H      73.55095698      94.02420226      93.89783548
C      71.24738061      95.48496070      96.80423455
H      71.87665947      94.51742083      98.51065741
H      69.25560907      95.91770802      97.10848048
C      72.73648495      97.84522886      96.60014410
C      71.52517037     100.41525665      96.61904137
H      69.49371460     100.55509641      96.75510166
C      73.01238499     102.52041176      96.34314133
H      71.96358689     104.24762161      96.63793863
C      75.67689909     102.37112338      96.01432895
O      77.04884040     104.53863947      96.06535156
H      76.03972655     106.03341298      95.87448920
C      76.82774241      99.94282508      96.20330158
H      78.84408039      99.89747164      95.88960701
C      75.40666823      97.74129392      96.32802351
H      76.37987728      95.96306146      96.06724128
C      71.02250317      91.18583334      94.93907467
O      68.85687683      90.39214828      95.30379185
N      73.15600419      89.89704000      95.34347611
H      74.81329417      90.84568260      95.37560145
C      73.21080624      87.06245053      94.97875893
H      71.41178680      86.16294080      95.42473434
C      73.60386933      86.43317166      92.08369822
H      75.56918469      86.69206416      91.52622895
C      73.20891653      83.63637671      91.40150702
H      74.55629139      82.34758337      92.27645030
H      73.51127274      83.56834657      89.36627178
H      71.32485938      82.91828073      91.81346735
O      71.78595261      87.61614033      90.40562125
H      72.32830406      89.29043784      89.96342529
C      75.23470313      85.94751200      96.70974823
O      76.61609307      87.53299237      97.64705248
N      75.10998119      83.50220615      97.49965383
H      73.65867138      82.61592451      96.63226945
C      76.61420334      82.14349293      99.40449795
H      78.50203992      82.96741360      99.36481370
C      75.38210179      82.58757861     102.01420999
H      75.02494351      84.59635769     102.29199976
C      72.70246987      81.50854489     102.34113264
H      71.47036832      82.58946835     101.09391328
H      72.14311088      81.35736678     104.31589664
H      72.68357260      79.52811171     101.77043530
C      77.18301095      81.90916687     104.06078359
H      78.37920772      80.29156115     103.61102873
H      76.02271900      81.62003875     105.73697083
C      79.06328865      83.96896855     104.84313028
H      78.06173369      85.76609827     104.73919533
H      80.55806215      84.06345486     103.42961500
H      79.88720932      83.59480274     106.69317234
C      77.00726642      79.27677811      98.53333412
O      75.54461825      78.30734852      96.92328730
N      79.13887769      78.07113272      99.10025202
H      80.53349571      79.07079794      99.93551105
C      79.35052705      75.32913985      98.69585058
H      77.69512679      74.28034175      99.32512945
H      80.87175673      74.43340957      99.75409732
C      79.89854768      74.55435205      96.00299059
O      81.87709112      75.25355079      94.97686920
N      78.10519741      73.23532309      94.86159590
H      76.58963690      72.67218465      95.87259947
C      78.06929260      73.19941830      92.00243998
H      79.50170514      74.46931437      91.24088028
C      78.63998994      70.48010213      90.92907544
H      76.91089038      69.36138415      90.88561173
C      79.35619622      70.93930563      88.27023052
H      79.46957979      69.10816082      87.33292626
H      81.06639853      72.08070032      88.13605995
H      77.87087134      71.93897085      87.24977831
C      80.78482931      69.08548410      92.38227497
H      80.05161551      68.77178954      94.28144992
H      82.48558299      70.22876852      92.58447569
C      81.86953221      66.74789266      91.19363712
H      82.49881107      65.43453288      92.65061611
H      83.21879681      67.27701602      89.72909923
H      80.40310460      65.64051304      90.26389178
C      75.43879358      74.09514857      91.20308575
O      73.58119261      72.61360313      91.46386799
N      75.19690861      76.29101054      90.16184656
H      76.75215336      77.38516207      90.00310955
C      73.01238499      77.51177373      89.01667241
H      72.33964241      76.29290027      87.50111191
H      73.44135286      79.34858771      88.18519283
C      70.63510928      77.82735804      90.66451375
O      68.62821994      78.39805538      89.60626702
N      70.70124971      77.67806966      93.13627577
H      72.44546709      77.37382372      93.84870259
C      68.57908706      78.09191972      94.83513973
H      66.94447379      77.24154287      93.91295329
C      69.36332348      76.81635445      97.34280654
H      70.64077847      77.91995463      98.52577522
H      70.46314420      75.13260831      96.89683113
C      67.24683000      76.13983244      99.01710406
N      66.43613741      73.65106289      99.71252334
H      67.17502040      72.09392840      98.89805130
C      64.45570424      73.76255673     101.32257016
H      63.53918699      72.21487088     102.28444085
N      64.01728773      76.18896532     101.71752296
H      62.70770741      76.84281062     102.94206561
C      65.65757017      77.65161348     100.35880974
H      65.73882840      79.69062818     100.38526591
C      68.01783835      80.90383248      95.14883430
O      69.51261185      82.30600939      96.18629404
N      65.82953527      81.67106135      94.23042731
H      64.76561935      80.45029815      93.22131346
C      65.08876256      84.27132477      94.30601636
H      66.55519018      85.42972699      93.44052171
C      62.86644441      84.57557069      92.51266609
H      61.51717982      83.04489238      92.80935312
H      63.64123221      84.27510421      90.62671923
C      61.35088390      86.95662585      92.48432019
H      60.57231667      87.17394437      94.37593623
C      63.17258007      89.25453305      91.84559270
H      64.34421038      89.76097970      93.46130870
H      61.81764630      90.76253465      91.48654470
H      64.08720761      88.96729464      90.02200681
C      59.13423495      86.99442037      90.79301514
H      58.05142177      88.67438707      91.29946180
H      58.07976766      85.28421806      91.24277001
H      59.81264669      86.83568336      88.85604567
C      64.22137817      84.94406732      97.04045033
O      62.89856975      83.62125890      98.21774983
N      65.00750432      87.25898206      97.86059155
H      65.97126474      88.23786029      96.53400368
C      64.10988432      88.43817128     100.20763164
H      63.28407393      87.15504712     101.59091130
C      66.40212235      89.60980159     101.40382839
H      65.80118938      90.66237915     103.06867727
H      67.21659439      91.00064016     100.12259395
C      68.54507198      87.81456160     102.26365386
H      69.47481733      86.88292653     100.67817349
C      70.76550041      89.31122483     103.32945950
H      71.41178680      90.52064968     101.79311201
H      72.40956230      88.11880754     103.66772051
H      70.37054761      90.45828871     104.99430839
C      67.84209379      85.90404829     104.33290418
H      66.63833813      84.49242273     103.43339445
H      66.87833337      86.71663061     105.96373798
H      69.63544407      85.12359132     104.98108030
C      62.05575183      90.41104556      99.85425281
O      60.08665700      90.14648386     100.97675024
N      62.35054913      92.37447119      98.35381012
H      64.03240554      92.65037123      97.49587438
C      60.47972007      94.23963106      97.69807509
H      58.68448008      93.24752474      97.51099219
C      60.09610564      96.22762314      99.72386170