 %block lattice_cart
   140.777   0.000   0.000
   0.000 144.511   0.000
   0.000   0.000   162.462
 %endblock lattice_cart

 %block positions_abs
N      87.54343547      41.58996625      82.97332766
H      86.18850170      40.60730857      82.05681040
H      87.40548545      41.43689842      84.87061288
H      89.30843985      41.04572508      82.49144745
C      87.27698406      44.30361324      82.31381318
H      88.28987736      45.31650654      83.79346889
C      88.37302532      44.92911265      79.73055730
H      87.49430259      43.90866044      78.17342282
H      90.34589959      44.34140777      79.71354977
C      87.88547593      47.72401787      78.93687225
H      85.84268179      47.99613846      78.94443116
H      88.96828911      48.20022890      77.24934666
S      89.10245968      49.72712776      81.49556168
C      92.08255807      50.61907858      80.21999643
H      92.92348628      52.01369660      81.48233361
H      91.95216696      51.13308413      78.23200435
H      93.34111580      48.98824477      80.14251764
C      84.46696103      45.18422570      82.66341254
O      83.00431287      44.81572907      80.96643832
N      83.83012327      46.04783063      84.89328959
H      85.01687139      45.75114360      86.35782749
C      81.29222083      47.01726023      85.70965136
H      79.83902129      46.27270806      84.45676281
C      81.01821051      46.22168545      88.44786479
H      82.22196617      47.44811782      89.58170057
H      81.54733388      44.24314200      88.65951413
C      78.29322517      46.41443753      89.37005124
O      77.53355519      48.38920153      90.19586163
N      76.60758930      44.69100713      88.90706829
H      74.81612875      44.77415509      89.56280331
H      77.01010100      43.25292541      87.72220988
C      81.12025573      49.87452641      85.50556092
O      83.00809232      51.15009167      85.81547603
N      78.68061906      50.86663272      85.42808214
H      77.13860239      49.76114283      85.22399171
C      78.39338066      53.64264068      85.11816702
H      79.32123628      54.27380927      83.38906746
C      75.62493161      54.24546337      84.48321899
H      75.11470551      52.87730152      83.03001946
C      73.82780189      53.90720236      86.75655975
H      74.44007322      55.02969979      88.37416547
H      73.89394231      51.94377672      87.37261051
H      71.87760434      54.08672636      86.11783224
C      75.16572812      56.92320556      83.27946332
H      75.39060555      58.19310164      84.88384096
H      73.20230248      57.10083983      82.68042009
C      76.78144412      57.57327141      80.93431298
H      76.48853654      56.11818215      79.50567987
H      78.77510538      57.66208855      81.43698018
H      75.85925768      59.23623056      80.14062792
C      79.53288563      55.23001078      87.24221940
O      80.61380908      57.32004808      86.84537687
N      79.62170277      54.10184417      89.52689851
H      78.95840883      52.32361171      89.73287869
C      80.57601455      55.14686282      91.87771804
H      79.80689594      57.03280968      92.18763316
C      79.76721169      53.25524678      93.91673274
H      80.92939337      51.58283900      93.61437653
H      77.75087372      52.94344194      93.63327380
C      80.25476108      54.01113731      96.65683590
C      79.22674997      56.30715478      97.70941346
H      78.24976146      57.73578787      96.63037973
C      79.46107603      56.89485966     100.26243371
H      78.55778685      58.53136265     101.07879546
C      80.91238584      55.32260737     101.94051067
H      81.02387969      55.75913415     103.93228221
C      81.90260243      53.05682552     100.94840436
H      83.02887931      51.82850342     102.12948329
C      81.50198045      52.39920076      98.38593547
H      82.35991619      50.64742447      97.78878195
C      83.44839855      55.54937453      92.01944753
O      84.30066512      56.86273432      93.80523888
N      84.86191383      54.75568948      90.12216230
H      84.29499594      53.58216944      88.72754428
C      87.59823753      55.24701832      89.88972596
H      87.97429307      56.59628291      91.40150701
C      88.96828911      52.78470493      90.65695486
H      88.08389720      52.22912540      92.43329758
H      90.91659694      53.07572278      91.25410837
C      88.84167745      50.61151967      88.81447170
H      89.87346801      50.95167041      87.06458513
H      86.88203126      50.22034633      88.31369423
C      89.90937281      48.16621382      89.91618213
O      92.21294919      47.72212814      89.61193621
O      88.43160684      46.52404166      90.70419800
C      88.42971711      55.88763554      87.12505637
O      90.47062153      56.79470417      86.68475015
N      86.70061753      55.41898341      85.26934514
H      85.31733787      54.17365377      85.69453355
C      86.66093328      56.32416232      82.70687625
H      88.42782738      55.71756017      81.84138161
C      84.58412406      54.93332375      81.20076438
H      82.76053817      55.62307385      81.86594805
H      84.62569804      52.96611866      81.81492543
C      84.65782339      55.10528884      78.29625504
H      84.22885552      53.21367281      77.60083575
H      86.45306339      55.78748004      77.54981315
S      82.39960045      57.40886522      77.23422885
C      80.95773927      55.77425196      74.56782502
H      80.42105700      53.88074619      75.18009635
H      82.51865320      55.41331423      73.27525223
H      79.31934656      56.80982198      73.87051601
C      86.56266751      59.23056139      82.59160295
O      87.84957113      60.59116433      81.13273423
N      85.01120221      60.39463279      84.29046690
H      83.60524583      59.25323810      84.89517932
C      84.44806377      63.08749279      84.59471283
H      84.41404870      63.80369906      82.66341254
C      81.95362504      63.76779426      85.87783701
H      82.05567026      65.68775620      86.61294054
H      81.63993047      62.46577283      87.44630985
C      79.42517123      63.90196483      84.33204088
H      79.11525611      62.27491048      83.10749824
C      77.25765515      64.26668201      86.06680963
H      75.58713709      64.77501839      84.97265810
H      78.07968609      65.70476373      87.29324202
H      76.94396058      62.53002353      87.12694609
C      79.55367262      66.09782681      82.54058033
H      81.30544891      65.99200213      81.46532606
H      79.42139178      67.88928735      83.54591473
H      77.88504428      65.97310487      81.33871440
C      86.75730932      64.42163957      85.88350618
O      87.01053265      66.74222348      85.58870888
N      88.61302056      63.08938252      87.02679061
H      88.34656915      61.20154593      87.08159266
C      90.72195513      64.24778475      88.46298261
H      89.98685159      65.96365624      89.33225670
C      91.55910389      62.31270500      90.50010757
H      93.17670961      63.04024963      91.54512622
H      92.28097934      60.58927461      89.63272319
C      89.62402414      61.64752134      92.48243046
H      88.08389720      60.64785612      91.54701594
H      88.85112608      63.41252572      93.20430592
C      90.42337837      59.99212109      94.79167602
H      91.56855252      61.18831785      96.01621868
H      91.59689841      58.55970854      93.89216630
N      88.45617328      58.80537297      96.25999336
H      86.93305387      58.15719684      95.31135076
C      88.34845888      58.15908657      98.62593072
N      90.02842557      58.80726269     100.26810288
H      89.60134742      58.67498185     102.12570385
H      91.84634228      58.93765381      99.70496443
N      86.30755446      57.24445903      99.54811715
H      86.50408600      57.10272956     101.44162292
H      84.83545766      56.58305482      98.52955467
C      92.92726574      65.01690336      86.61860972
O      94.71683655      66.15829805      87.47276601
N      92.72128557      64.12684226      84.35093814
H      91.08478258      63.26134761      83.88039629
C      94.39747281      64.54069233      82.21932686
H      95.63713327      66.07703982      82.81459065
C      95.79020110      62.17097553      81.24422809
H      97.20182666      62.83237974      79.89496349
C      97.38513011      60.58549515      83.13773385
H      98.58321659      59.10017027      82.36294606
H      96.00751963      59.71811077      84.39818131
H      98.33377272      61.77602273      84.52290324
C      93.98551247      60.09416631      80.17275327
H      92.60790199      61.02013220      78.95387980
H      92.99718561      59.35339360      81.82248433
C      95.31021062      58.03814408      78.62506741
H      96.44026695      56.95911036      79.96677310
H      96.42703887      58.93009490      77.14163226
H      94.04787344      56.71533566      77.67453509
C      93.05009795      65.81814731      79.99889845
O      94.22739744      67.21276533      78.55703726
N      90.52542359      65.33248765      79.60772510
H      89.81488650      63.89440593      80.63951567
C      88.81900073      66.87072487      77.80681592
H      89.83567349      66.92363721      76.01724511
C      86.40204078      65.20776571      77.41186312
H      85.38536802      65.27390613      79.20143394
H      86.98974566      63.27835515      76.99045416
C      84.68994874      65.95609733      75.10450729
O      85.65181943      65.54791645      72.89919668
O      82.44117442      66.46254399      75.38040734
C      88.18027324      69.69019653      78.60428042
O      87.85713004      71.27945636      76.99234388
N      88.24263421      70.20042263      81.08360135
H      88.26342120      68.77745872      82.35538715
C      87.72106974      72.65895657      82.19853987
H      88.18405269      74.11782528      80.82092940
C      84.93183371      72.77800932      83.27001469
H      84.74853025      74.18018625      84.77045738
H      84.61058023      70.87505493      83.99000041
C      82.97218752      73.41862654      81.27635344
H      81.19773451      72.62116204      81.95287545
H      83.24052866      72.47187366      79.46599563
C      82.88526011      76.27400300      80.97399723
O      83.80744655      77.19429972      79.04647639
O      81.86480790      77.59870115      82.61427966
C      89.57300153      73.21831555      84.35471760
O      91.04320860      75.03245282      84.09771481
N      89.46906658      71.75944684      86.41829874
H      88.38625341      70.19097400      86.50900559
C      90.64447635      72.33203391      88.75777991
H      92.10334506      73.77200536      88.56313809
H      91.58744978      70.59915489      89.34737451
C      88.82089046      73.36193475      90.71553636
O      87.87413757      75.49732549      90.41695960
N      88.39759176      72.08070031      92.83202983
H      89.31221930      70.41207198      92.96242095
C      87.17871829      72.70997918      95.26410760
H      85.13781387      72.82525248      95.01277401
C      87.62847315      70.44608705      97.15761337
H      89.53898646      70.32325484      97.91350389
H      87.60201699      68.62628061      96.19385295
C      85.89937358      70.41774116      99.42906440
H      86.07700785      72.32258528     100.19251382
C      83.24052866      69.65429173      98.63348962
H      82.26165043      69.14217590     100.37203783
H      83.37280950      67.99133257      97.42406478
H      82.31834221      71.11505017      97.51288192
C      86.75352987      68.51856621     101.43217429
H      88.43916574      69.02123341     102.50175938
H      86.77053741      66.64584744     100.57801800
H      85.33056596      68.38061619     102.91371971
C      88.28987736      75.18741037      96.29400845
O      90.47629071      75.34992684      96.98186882
N      86.95951004      77.27366822      96.45274545
H      85.24552827      77.09792368      95.63260424
C      87.65681905      79.74731997      97.59980932
H      89.70717210      79.69629736      97.77177442
C      86.58345450      81.92050523      95.81401795
H      86.58345450      83.80267263      96.65116671
H      84.59357270      81.48586817      95.51166174
C      88.18405269      81.97152784      93.29879224
H      88.22184722      80.13660359      92.36148798
H      90.14747833      82.52521765      93.57847173
C      87.18816692      83.67606097      91.33725632
H      85.19450566      83.48141916      90.85726585
H      88.42782738      83.19229103      89.76500404
N      87.58500945      86.28766274      92.22164824
H      87.68705467      86.70151280      94.08302865
C      87.59823753      88.31911852      90.71931581
N      87.50186149      88.06400547      88.27212024
H      87.47351560      89.61925023      87.16474063
H      87.75130536      86.32167781      87.54268588
N      87.96862389      90.60568736      91.53189814
H      87.53398684      92.15715266      90.50766648
H      88.29743627      90.89859494      93.38949909
C      86.64203602      80.05723508     100.29266932
O      84.61058023      79.03111369     100.90116119
N      88.02153623      81.48775790     101.90649559
H      89.69205429      82.15483129     101.26965782
C      87.64926014      81.53122161     104.73352615
H      86.26975994      80.07046317     105.19461938
C      90.14369888      80.65816805     106.15271061
H      89.79787896      80.34258375     108.15771023
H      91.59500869      82.11514704     106.01476059
C      91.50052237      78.18073685     105.13603786
H      92.14113959      78.49821087     103.20284785
C      93.63969256      77.29823466     106.80277646
H      92.83844860      76.96186338     108.67171580
H      95.10045100      78.74954447     106.77254085
H      94.41825980      75.53323029     106.08279075
C      89.57111180      76.03022831     104.92816797
H      90.55565921      74.24821640     104.61636312
H      88.40704040      76.39872494     103.26898826
H      88.57711576      75.90739610     106.72907714
C      86.79510385      84.15038228     105.68783794
O      86.83856756      84.61903440     107.97440678
N      85.97118318      85.73208320     104.09668838
H      85.96929345      85.26721053     102.24475660
C      85.02632002      88.29833153     104.80155630
H      83.73563695      88.23786029     106.40593394
C      87.33367585      90.19561675     105.37792282
H      88.40515067      89.28854812     106.88781416
H      86.49274764      91.91715742     106.13192362
C      89.23096107      90.72851957     103.31056224
H      88.29932600      92.01164374     101.99720246
H      90.11157353      89.05611178     102.48853130
C      91.33989563      92.37636092     104.44817749
H      92.47562115      91.23307650     105.72941192
H      90.48384961      93.99207691     105.39682010
C      93.34300552      93.34579051     102.54711281
H      92.34145058      94.85190239     101.56445512
H      93.89480561      91.93605469     101.15060507
N      95.63524354      94.53442837     103.74897874
H      96.74640261      93.21728913     104.57289943
H      95.06643592      95.65692580     105.18139129
H      96.68593137      95.53031413     102.50553884
C      83.14604234      89.24508442     102.76443134
O      83.08935055      88.60257747     100.55156182
N      81.50387017      91.01575797     103.49953487
H      81.68339417      91.73385397     105.25887008
C      79.59902605      92.20439582     101.86303188
H      78.25165119      90.80410862     101.18084068
C      77.93039772      93.92404677     103.42016637
H      78.89604786      95.51519632     104.30455828
C      75.84413987      95.03142639     101.68917706
H      76.60758930      95.93660529     100.00165147
H      74.80856985      96.46950811     102.73986490
H      74.45330130      93.58578576     101.21296603
C      76.68317835      92.65793014     105.83145715
H      78.22141557      91.95873140     107.01064636
H      75.20163292      91.35590871     105.24186253
C      75.45485625      94.46261877     107.63425605
H      76.84758454      95.86857514     108.20495339
H      74.64983284      93.54232205     109.28965629
H      73.73331557      95.23740655     106.80466620
C      80.68561868      93.66515426      99.58024251
O      82.00086819      95.59645455     100.02621791
N      80.21129738      92.76564454      97.27666612
H      79.04344651      91.26709157      97.08958322
C      81.03332832      94.02420226      94.94474385
H      82.05755998      95.76652992      95.34914528
C      82.83612722      92.01542319      93.75421628
H      84.17783291      91.51086626      95.23198225
H      83.78288011      93.02642677      92.23109687
C      81.60780512      89.68350092      92.65250583
C      81.35080234      89.28854812      90.03334516
H      81.87425653      90.95150728      88.96753953
C      80.41538782      87.03032518      89.02801077
H      80.15082613      86.91505187      87.00789334
C      79.72185826      85.02721528      90.79301514
O      78.53322041      82.85025057      90.11082394
H      78.22519502      82.96174442      88.32503259
C      80.18295148      85.39571192      93.35737375
H      79.85791856      84.04077815      94.84647809
C      81.16182971      87.61047115      94.30790608
H      81.32245645      87.77865680      96.33558242
C      78.72219304      94.59678933      93.03612028
O      76.50932353      93.79365565      93.51422103
N      78.98297527      96.03676078      90.95175216
H      80.72341321      96.72273144      90.58514525
C      76.99687292      96.72840061      89.17729915
H      75.15438976      96.57155333      90.08436778
C      77.32379557      99.51007775      88.56124837
H      76.11437073      99.74062436      86.90962758
H      79.27399312     100.02597303      88.14928804
C      76.46397010     101.26752322      90.67963156
H      77.60725452     100.79887109      92.32558318
H      74.65928147     100.62501627      91.43741181
C      76.44885229     104.10967159      90.09381641
H      76.71152424     104.35533601      88.06614007
H      78.06456828     104.86178267      91.12560698
C      73.92417793     105.45893618      90.87427338
H      74.26243894     107.13323369      92.02700642
H      72.80545995     104.43659425      92.26700167
N      72.68073802     106.30364384      88.70297784
H      73.83347107     106.49072675      87.19119679
H      72.05334888     108.09321466      88.93541418
H      71.15383916     105.21705121      88.34392984
C      77.35592092      95.04276474      86.74144194
O      79.47052466      94.94071952      85.70587191
N      75.31879595      93.71239742      86.05736100
H      73.61804227      94.06955569      86.84915634
C      75.45296652      92.24219035      83.75378463
H      77.08380033      90.98741208      83.82181478
C      73.19474358      90.57734147      83.54213529
H      71.59792484      91.68472109      82.85616463
H      72.54089827      89.75153107      85.31469856
C      73.25143536      88.09424109      82.10594328
O      71.34092206      86.71096143      82.26468030
O      75.22430964      87.66338349      80.81148076
C      76.06523784      93.79743510      81.39540619
O      75.43784871      95.97817927      81.40485483
N      76.67939890      92.45006024      79.34127369
H      76.84758454      90.56411338      79.60205593
C      76.83057700      93.14736925      76.73723083
H      78.39338066      94.42293451      76.31771159
C      77.11592567      90.88158740      75.07805113
H      77.10269759      91.50330736      73.11651521
C      79.82012403      89.79310505      74.83238671
H      80.83679679      90.39214829      76.51991230
H      80.67239060      90.31466951      73.03147752
H      79.63493085      87.74086227      74.78892300
O      75.26399389      88.94461793      75.56182107
H      75.06935208      88.42683292      77.28903092
C      74.55534652      94.61568660      75.68276355
O      74.74998833      95.77597855      73.66075639
N      72.42373524      94.61190714      76.97911579
H      72.61648732      94.13947557      78.81970922
C      70.07858489      96.00841489      76.34227803
H      70.45464042      97.04587464      74.60372982
C      68.01689348      94.19427763      75.33505390
H      68.79168127      92.74485755      74.09350371
H      66.52400969      95.24118601      74.37507293
C      66.93219057      92.75241645      77.69343234
H      65.65284586      94.04498925      78.66286195
H      68.48365588      92.27053624      78.95765925
C      65.45442460      90.36758185      77.03013841
O      66.48243571      88.83501381      75.62796148
O      63.21131946      90.24663936      77.65374809
C      69.17907516      97.95483299      78.38129273
O      67.06636114      99.05843316      77.90319196
N      70.72676101      98.58789131      80.23322451
H      72.49176539      97.97750971      79.84205116
C      70.69841512     100.60800874      82.01712614
H      69.34537108     101.98939867      81.31036850
H      72.60136951     101.39791433      82.03791313
C      69.98409857     100.09211345      84.76100876
O      70.33936712     101.88735345      86.22554665
N      68.86916005      97.95861244      85.56603216
H      68.38727984      96.60556840      84.30747443
C      67.65217630      97.80743434      88.04157363
H      67.52934409      99.60645379      89.03934913
C      64.88183752      96.95327805      87.65040028
H      63.96720999      96.87957872      89.49288344
H      64.70798270      94.99363186      87.04379815
C      63.46076334      98.57277350      85.92130072
C      63.03179546      97.78475762      83.48733322
H      63.69886885      95.93849502      82.92419477
C      61.65418498      99.24551606      81.74311583
H      61.20254039      98.34978579      79.96488337
C      60.60538688     101.55476162      82.51601389
O      59.32037299     103.12701391      80.87006228
H      58.77424208     104.63690523      81.71476993
C      61.09104654     102.35222612      84.99533482
H      60.18964709     104.07754625      85.60571641
C      62.48566456     100.88957796      86.64317616
H      62.94297833     101.67003492      88.47243123
C      68.98821280      95.99518681      89.89350543
O      70.59259044      94.38325026      89.08092311
N      68.46097916      96.26730739      92.36337771
H      67.26100295      97.66003569      92.87738326
C      70.09181297      95.18638394      94.30979582
H      72.10248177      95.43771754      93.94318890
C      69.58347659      96.32966836      96.97808936
H      70.39227945      94.99552159      98.31979505
H      67.59170506      96.56777388      97.44107231
C      70.81746787      98.88835779      97.26154831
C      69.39639369     100.98595400      97.92295252
H      67.36682763     100.80643000      97.79634086
C      70.43574316     103.35000162      98.29900807
H      69.19419297     104.96571761      98.40672247
C      73.03600657     103.67881399      97.93996007
O      74.22842387     105.96160338      97.95696760
H      72.86026202     107.15024123      97.87192992
C      74.54589789     101.46594448      97.56012508
H      76.56790504     101.72861644      97.47130793
C      73.48198198      99.03008726      97.14249556
H      74.70652463      97.41248154      96.90250031
C      69.85559718      92.27431570      94.35514925
O      67.83170030      91.11402374      94.27767046
N      71.96642147      91.05733195      94.90505960
H      73.53867376      92.12880677      95.03923018
C      72.28767495      88.38903840      94.68018217
H      70.46408905      87.43283688      94.73309450
C      73.54056349      88.05077739      92.01188862
H      75.48509187      88.61580555      92.38983389
C      73.33647305      85.27476943      91.10104054
H      74.55912597      84.12392611      92.29534756
H      74.16039372      85.43161672      89.21887312
H      71.36737823      84.71730017      90.85726585
O      72.63727431      89.66838311      90.08625750
H      73.66717515      91.15181827      90.25066369
C      74.18496016      87.32512248      96.68896125
O      75.85925768      88.60068774      97.42973395
N      73.76733065      84.89682417      97.44674149
H      72.34625646      83.77432674      96.84769826
C      75.71563848      83.59669247      99.03789105
H      77.59024698      84.42628232      98.82624171
C      75.10903633      83.90093840     101.92539285
H      74.85581300      85.93239419     102.13704221
C      72.45775031      82.54600464     102.48475185
H      70.87793912      83.43417600     101.50776335
H      71.97964956      82.33624502     104.47652337
H      72.49743457      80.59391735     101.81578873
C      76.94774003      82.98820059     103.96062810
H      76.93451195      80.93406809     104.09479866
H      75.98964879      83.30378489     105.75586810
C      79.61414386      84.07857268     103.64882325
H      80.39838028      83.39449175     101.86870107
H      80.78199472      83.33591023     105.17572211
H      79.67272538      86.12136682     103.91149522
C      76.33735843      80.82635369      98.14782995
O      74.84825410      79.83802683      96.62471054
N      78.34235805      79.56779597      99.01521433
H      79.49887056      80.36526047     100.30778713
C      79.08313077      76.92028940      98.33491287
H      77.68662302      75.64094469      99.14182600
H      80.90293721      76.27022355      99.04544996
C      79.44217877      76.84281062      95.52866929
O      81.09757902      78.26766426      94.56301914
N      78.10803199      75.29134532      94.14916908
H      76.69073725      74.28412120      94.93151578
C      77.91716963      75.15339530      91.42418373
H      79.18328626      76.47620372      90.48121030
C      79.01510062      72.61171341      90.42640825
H      77.82268332      71.02623303      90.97820832
C      79.09635885      72.71942781      87.54457561
H      80.56089674      74.07436157      87.02868033
H      77.38804626      73.65862179      86.87939195
H      79.44784795      70.80891451      86.85671523
C      81.68528390      72.25455514      91.44119127
H      81.76465240      72.38305652      93.49532378
H      82.84368613      73.74554920      90.62105006
C      82.66983131      69.62972529      90.58892471
H      82.93628272      69.81680819      88.55368946
H      81.29033110      68.10282643      90.69663911
H      84.54066036      69.34626634      91.40339675
C      75.20163292      75.75621799      90.57758634
O      73.51032787      74.11593555      90.86293502
N      74.80290067      78.09569917      89.61004647
H      76.25232075      79.29756510      89.29068273
C      72.50688320      78.91395066      88.23999489
H      72.14594547      77.64783403      86.65451452
H      72.96608669      80.69596258      87.31402901
C      70.12960750      79.27299866      89.97287392
O      68.04712910      79.34291854      88.81447170
N      70.28645478      79.38449251      92.58069624
H      71.96453175      79.11993083      93.45374979
C      68.12082843      79.41850759      94.30223691
H      66.40117748      78.63427117      93.48020597
C      68.95986691      77.94263134      96.73620440
H      70.36582328      79.01977534      97.79067169
H      69.40017314      75.95463926      96.41495092
C      66.74888712      78.02955875      98.45207590
N      65.35993828      75.87149130      98.90749994
H      65.91362809      74.09892802      98.46152452
C      63.52501403      76.49321126     100.64415841
H      62.15118300      75.28567614     101.54744759
N      63.53068321      79.02544451     101.00887560
H      62.38361934      79.89849807     102.26176413
C      65.59237462      80.00810220      99.77677403
H      66.23110211      81.94507167      99.85047336
C      67.31013584      82.19829499      94.75577122
O      68.76333537      83.58724383      95.93873989
N      65.28056978      83.07512800      93.68051696
H      64.48310527      81.80334219      92.50132773
C      64.37539087      85.82845924      93.52933884
H      66.00811441      87.03977381      93.18918812
C      62.42897277      86.23097095      91.37883031
H      61.51434523      84.39982615      91.14072479
H      63.45698388      86.41238467      89.60248756
C      60.55058482      88.50053225      91.31268988
H      59.40919012      88.74619667      93.00966411
C      61.69008978      91.24063540      91.15395287
H      60.84160267      92.52753902      92.52022500
H      61.30080616      91.77164850      89.19997586
H      63.67430241      91.07056003      91.67929678
C      58.74022701      88.13203562      88.99777514
H      57.24734322      89.54366117      88.83336895
H      57.74056179      86.34246480      89.20753476
H      59.84760663      88.04132875      87.26300639
C      63.43430717      86.32734699      96.21841939
O      61.82615008      85.01209747      97.14060584
N      64.37161142      88.33990551      97.27666612
H      65.79646506      89.33012210      96.47920163
C      63.48344005      89.16571591      99.79567130
H      62.80880776      87.54055128     100.86903584
C      65.76056026      90.38080993     101.17706123
H      65.05002317      91.30488610     102.87592520
H      66.52589942      91.62991902      99.72953089
C      67.74099344      88.44384046     101.93673122
H      68.54223739      87.64070678     100.21897000
C      69.69308072      89.99719549     103.35780540
H      70.42062535      91.59779368     102.28444085
H      71.19541314      88.68761515     103.87936987
H      68.99955116      90.52631886     105.22296528
C      66.56558367      86.40860522     103.74708903
H      68.12082843      85.25587217     104.45195693
H      65.25789306      85.22941600     102.67750392
H      65.64528696      87.27976905     105.37036392
C      61.36127740      91.19906142      99.58402195
O      59.55091960      91.04221414     101.03155230
N      61.67686170      93.05855212      97.94373952
H      63.33415167      93.07744938      96.99887635
C      60.09894023      95.30354697      97.83224566
H      58.12606596      94.82733594      97.47319766
C      59.99122583      97.01752874     100.31534604