 %block lattice_cart
   140.777   0.000   0.000
   0.000 144.511   0.000
   0.000   0.000   162.462
 %endblock lattice_cart

 %block positions_abs
N      95.26769178      43.31528637      80.06220428
H      95.34139111      43.05450414      81.95193059
H      97.11206466      43.51559737      79.61244942
H      94.47400673      41.84507930      79.13812811
C      93.54615111      45.39398533      79.39891034
H      93.86362512      47.06072393      80.56676120
C      94.29070327      46.62608687      76.90258188
H      94.25101901      45.23146886      75.39080083
H      96.17665013      47.45000755      77.02352437
C      92.70333317      48.89564818      76.13535300
H      90.86651919      48.43833441      75.32655014
H      93.72756483      49.78948872      74.58577742
S      92.02870087      51.01025192      78.71671914
C      94.90297459      52.68832889      78.94915548
H      94.58361085      53.96200443      80.53652558
H      94.87462870      53.91287155      77.29186550
H      96.60750773      51.53748556      79.05686988
C      90.70589245      44.77037565      79.67670011
O      89.81016218      42.72380204      78.94537603
N      89.41520938      46.29727451      81.21682706
H      90.36196226      47.66732607      82.14846213
C      86.79793843      45.91177033      82.01807101
H      85.95889995      45.09540856      80.32487624
C      86.59006855      44.08062553      84.22149189
H      87.69744816      42.38365131      83.84543636
H      84.58317920      43.62142205      84.11377749
C      86.99824943      45.47902301      86.71404090
O      85.19922998      46.42199643      87.74961092
N      89.37930458      45.53382507      87.64567597
H      89.59473339      46.13853749      89.44280570
H      90.77959179      44.63998453      86.70648200
C      85.38820261      48.39109125      82.43759025
O      86.65053979      50.40742923      82.51695876
N      82.82573372      48.36652481      82.63979097
H      81.87709112      46.71490402      82.75695400
C      81.49347668      50.80049230      82.53774575
H      82.03393841      51.46378624      80.66313725
C      78.55306254      50.26003058      82.49617177
H      78.00315217      49.02792902      80.94092701
C      77.56473568      48.93722216      84.82242486
H      77.95212957      49.99735863      86.54585526
H      78.46424540      47.13442326      85.24383383
H      75.51438262      48.74069062      84.87155775
C      76.97136162      52.76769739      82.06720390
H      76.82207324      53.90909209      83.77551648
H      74.95880308      52.33495007      81.98783539
C      77.73292131      54.43821545      79.81087068
H      76.24381698      55.81582593      79.45749186
H      78.14677138      53.33272557      78.12145536
H      79.53572021      55.32260738      80.27763308
C      82.33440488      52.78470493      84.42747206
O      82.41944258      55.02025117      83.99283501
N      83.23958380      51.83417259      86.58742924
H      83.35485709      49.93310793      86.72726898
C      83.82350923      53.44988860      88.77384258
H      82.49314190      54.99379500      88.47148637
C      83.22068652      52.20833840      91.25505323
H      83.91043663      53.42343243      92.76683428
H      84.42822165      50.54726897      91.40245188
C      80.43334022      51.55260338      91.68780056
C      78.59274679      53.10028922      92.86698978
H      79.18423112      54.98623609      93.37532615
C      76.22869918      52.22912539      93.81563238
H      74.96447227      53.60295643      94.63955306
C      75.68256827      49.65720788      93.35831862
H      73.86465155      48.93911189      93.94224405
C      77.59497129      48.03960217      92.36621230
H      77.37954250      46.04405117      91.99204649
C      79.88909904      49.02414957      91.59709369
H      81.33284994      47.75614321      90.91112304
C      86.57117128      54.56860658      88.69636380
O      87.33084125      55.99912939      90.34042570
N      88.06972425      54.02814484      86.76884296
H      87.34217961      52.65431381      85.66335307
C      90.39786707      55.22623133      85.98649627
H      90.44511023      56.85139596      87.25261290
C      92.76569413      53.50091120      86.29641139
H      94.47211699      54.41175929      85.58965374
H      92.43499203      51.76803218      85.23249547
C      93.05104281      52.76958713      89.10643441
H      91.31060487      51.93054865      89.81886123
H      93.83527922      54.41553874      90.06830511
C      95.05982188      50.81183067      89.50894612
O      97.19521262      51.15009167      88.66045900
O      94.48723481      49.09406945      90.97915319
C      90.25802731      56.59628290      83.33332053
O      91.51658504      58.48222976      82.90624238
N      88.64987023      55.57205124      81.67036137
H      87.63508720      54.02058594      82.12578541
C      87.68799953      56.76635828      79.39135144
H      89.40576075      56.42809726      78.30286908
C      85.64898485      55.09395048      78.22161085
H      84.22224148      54.79537373      79.67481038
H      86.50125141      53.27603378      77.76618681
C      84.34507368      56.19755066      75.84244542
H      85.57528551      56.22211710      74.19271435
H      83.59485234      58.11184341      75.97661599
S      81.78827398      54.27758873      74.68782264
C      80.54483407      55.71189100      71.85134345
H      79.10297289      54.43821545      71.11623991
H      82.09629938      55.72322936      70.49640968
H      79.71902367      57.59783785      71.93638113
C      86.95289600      59.59338883      79.86189329
O      87.91098723      61.25823773      78.58821775
N      85.22379642      60.17731428      81.48138874
H      84.42255246      58.62773870      82.25617653
C      84.26192572      62.73600369      82.07476280
H      83.67044140      63.57504219      80.28897144
C      81.85819385      62.64718656      83.70181716
H      81.58985273      64.47644164      84.60888579
H      82.06039458      61.17320003      85.12667080
C      79.33351950      61.89129603      82.33743476
H      79.66611134      60.18676290      81.23194487
C      77.17167260      60.94643287      84.06653434
H      78.03149808      59.45543881      85.20037012
H      75.96602721      59.93353957      82.73805674
H      76.31751630      62.39018379      85.25895164
C      78.16566865      64.21187994      81.02029552
H      79.47335925      64.63517864      79.48772748
H      77.98047547      65.89562609      82.19381556
H      76.47247387      63.57882163      80.03385838
C      86.21212328      64.35171969      83.45993219
O      86.05716573      66.69687006      83.14812735
N      88.00736327      63.23489145      84.83754267
H      88.25113798      61.34705485      84.71660019
C      90.26936567      64.65407590      85.83342844
H      89.60229229      66.43041865      86.63278267
C      91.24257472      62.94576331      87.94047328
H      93.26080243      63.18197910      88.26172675
H      90.92888016      60.96533014      87.46237252
C      89.80827246      63.51457093      90.51239079
H      87.77870640      63.28591405      90.24971883
H      90.13708483      65.50634247      90.92624085
C      90.60951642      62.06326114      92.90478430
H      90.39030816      60.09605604      92.33219723
H      89.42465802      62.51112627      94.52994893
N      93.28158942      62.69065027      93.32241382
H      93.85228677      64.51423615      93.29784738
C      95.16186710      61.02013220      93.40367205
N      94.85006226      58.57104691      93.46981247
H      96.44310154      57.52980770      93.62665975
H      93.12663187      57.75090568      93.54918097
N      97.51268663      61.74956656      93.37343643
H      98.92431218      60.46644240      93.29406792
H      97.80559422      63.62606480      93.18824325
C      92.20444542      65.39106917      83.90401787
O      93.57638672      67.21465506      84.30463985
N      92.21578378      64.32148408      81.63067712
H      91.12352197      62.80403384      81.24328322
C      93.47623122      65.31170067      79.31198293
H      95.29603767      66.14129051      79.79953232
C      94.10362037      63.00812428      77.50918403
H      92.41798450      61.82326588      77.47138950
C      94.33416697      64.00401005      74.78419869
H      95.81382268      65.42886370      74.63680003
H      92.56160370      64.81092318      74.11334585
H      94.98423282      62.55458997      73.47272863
C      96.51680086      61.45476926      78.39924512
H      96.11995835      60.96533014      80.36078104
H      98.22889291      62.59238450      78.29153072
C      96.80214954      58.87718256      77.10289287
H      97.51268663      59.05292712      75.17726176
H      95.07493970      57.78681049      76.82510310
H      98.07771480      57.79247967      78.30286908
C      91.80004399      67.44520168      78.16302933
O      92.96600513      69.29713346      77.31076277
N      89.25647238      67.43197359      78.07232247
H      88.29460167      66.15829806      79.11734112
C      87.74091187      69.48232664      76.66636609
H      88.74624626      70.03601645      74.95616378
C      85.16143546      68.32770385      75.94638037
H      84.00492295      69.92641232      75.36056521
H      84.15799078      67.26945713      77.40335936
C      85.32206218      66.44931590      73.90547595
O      86.79982817      66.89151186      72.02897772
O      84.26759491      64.36494778      74.04909515
C      87.65020501      72.06180305      78.03641767
O      87.89586943      74.05924377      76.87234626
N      87.14753781      72.05046470      80.47038516
H      86.94344736      70.36671856      81.34532845
C      86.79415898      74.32380545      82.00862238
H      86.56361237      75.84314541      80.63479135
C      84.62853263      73.90050675      83.93047404
H      84.58506893      75.72409264      84.89045501
H      85.04805187      72.20542226      85.02273585
C      82.03582814      73.53767930      82.42436217
H      80.65065875      72.63061067      83.65079455
H      82.19645486      72.07881058      80.97872154
C      80.98891976      76.03967694      81.43981476
O      82.27960283      77.25099151      79.90535699
O      78.91966945      76.80690583      82.36767038
C      89.20733949      74.83403155      83.61488975
O      89.87441287      77.02422436      84.07409324
N      90.56227326      72.82147303      84.47660495
H      90.03314989      71.04513030      84.02307063
C      92.13641527      73.16162377      86.80285804
H      93.25513326      74.86993636      86.54396553
H      93.53859220      71.65929134      86.91624162
C      90.65864930      73.29390461      89.26706115
O      88.31916813      73.47909779      89.28217896
N      92.00035497      73.86838141      91.33631146
H      93.89764020      73.74365948      91.17190527
C      91.01202811      74.24065750      93.86476527
H      88.96167507      74.07058213      93.94791323
C      92.17609953      72.12038456      95.48615045
H      94.22834231      72.29612911      95.45780455
H      91.82838989      70.22498907      94.75860582
C      91.37296585      72.36604899      98.35097554
H      91.74524192      74.24065750      99.12009415
C      88.46278732      72.26211405      98.72136189
H      88.13019549      72.27534212     100.75281768
H      87.61807966      70.61427269      97.81807272
H      87.63319746      74.01955951      98.03350152
C      92.95844622      70.59537544      99.94590454
H      94.89352597      71.29457417     100.04794977
H      93.08883733      68.76234091      99.01426947
H      91.95122209      70.17774592     101.69390138
C      91.70744741      76.85792844      94.89088666
O      93.87496348      77.39839016      95.62032101
N      89.85551562      78.46230608      95.32363398
H      88.10562905      77.87082174      94.83986405
C      90.26180677      80.93595781      96.56140472
H      92.23657077      81.47830928      96.78628215
C      89.16198605      83.04489238      94.87954830
H      88.55916336      84.64549057      96.02472244
H      87.58028513      82.25687652      93.81941184
C      91.26147199      83.93306376      93.00305007
H      92.33861598      82.30978884      92.33030750
H      92.42554340      85.28610780      94.03295091
C      90.24290951      85.24453381      90.52939833
H      91.75469055      85.75287019      89.22548717
H      89.32639224      87.03788409      90.96592510
N      88.42499280      83.56456712      89.31997349
H      87.96389957      82.13593402      90.49727298
C      87.37997415      83.61370000      87.05041218
N      87.43477620      85.55633866      85.58587429
H      87.12864054      85.52043386      83.70181716
H      87.93366396      87.19284165      86.43247168
N      86.42377262      81.47641954      86.28507303
H      85.59796224      81.40838940      84.56542208
H      86.66565759      79.94763096      87.40379100
C      88.62719351      81.10981263      99.00482084
O      86.34629385      81.11737154      98.98970303
N      89.95756084      81.44996337     101.15154993
H      91.85673578      81.48775790     100.97202593
C      88.76892298      81.65027437     103.56850989
H      87.17021453      80.35392212     103.64031949
C      90.71723081      80.77722080     105.67933418
H      89.87252316      80.97186262     107.54827350
H      92.28948310      82.09436005     105.48091291
C      91.79248509      78.21664166     105.39209578
H      93.13608049      78.15050124     103.83118184
C      93.25135379      77.36626482     107.78637902
H      94.87462870      78.61726364     107.97157220
H      93.70866757      75.37071382     107.56150159
H      92.05704676      77.61570869     109.44744845
C      89.62496900      76.37982768     104.87053132
H      89.26025183      76.44407838     102.84474471
H      87.85429544      76.56313114     105.90421161
H      90.60762669      74.56946987     104.83840597
C      87.70500706      84.21652269     104.33762850
O      86.45589797      84.30345010     106.29727468
N      88.09429069      86.22719149     102.76537620
H      88.90876274      85.78499554     101.09674787
C      86.88864531      88.63848228     103.23402833
H      86.00614312      88.44573019     105.08407039
C      89.04293330      90.65670997     103.45701603
H      90.05393688      90.66048943     101.66177604
H      90.33739583      90.01987220     104.92722311
C      88.26814552      93.42137956     104.01637502
H      86.85651996      93.47240217     105.51681771
H      87.51981389      94.42860370     102.38176176
C      90.39408761      94.98607295     105.15965944
H      92.05893650      94.95016816     103.95023460
H      90.60195751      94.25663859     107.07395220
C      89.70433751      97.76208091     105.60752458
H      87.85807490      97.93404600     106.50325485
H      89.42654774      98.82032765     103.86330719
N      91.79626454      99.19449345     106.80561106
H      91.34650967     101.02185879     106.48435759
H      93.44410588      98.68237763     105.99302875
H      91.83783852      98.99796192     108.70478600
C      84.98380117      89.22051798     101.12509376
O      85.41276906      88.42116375      98.96891604
N      83.11108240      90.78332164     101.67689385
H      83.04305225      91.34079089     103.50047974
C      81.23269444      91.71873616      99.91566892
H      80.08941003      90.11813797      99.31284623
C      79.30139415      93.75208167     101.00415128
H      80.32562581      95.47740180     101.46146505
C      77.09419382      94.52309001      99.29583869
H      77.48536717      95.40370248      97.47603225
H      75.85264363      95.77786828     100.35975461
H      75.83563610      92.91682264      99.01426947
C      78.27527277      92.50297258     103.50236947
H      79.71146476      91.97951839     104.88186967
H      77.49670553      90.70584286     102.86175225
C      76.32696494      93.88247279     105.25036630
H      77.11876026      95.67015389     105.90043216
H      75.83752583      92.56722328     106.75836790
H      74.53928384      94.21695435     104.28093671
C      82.40243503      92.69005549      97.54406240
O      84.18822640      94.24718997      97.74815284
N      81.25915062      91.94739304      95.36331824
H      79.83429698      90.68505586      95.52016552
C      81.63709587      93.33634188      92.88210759
H      82.51392889      95.13914078      93.35831862
C      83.23202489      91.80377384      91.02072717
H      85.11986147      91.65637519      91.82953003
H      83.38131326      92.77698290      89.21225909
C      82.63487137      89.09579604      90.41979420
C      81.93945208      88.41360484      88.03873905
H      82.01504114      89.87058382      86.61388541
C      81.39899037      85.84546678      87.50772595
H      80.75459370      85.18973175      85.68602979
C      81.47457941      83.92361512      89.49193858
O      80.73758616      81.50854489      88.97226384
H      79.93256275      81.47264010      87.34709922
C      82.25314665      84.65115975      91.99204649
H      82.36653023      83.46819108      93.65122620
C      82.78793921      87.18150329      92.32463832
H      83.57028590      87.82778968      94.09342215
C      78.99903794      93.82956046      91.80874304
O      77.05639930      93.04343431      92.95958637
N      78.78927832      95.03520583      89.55240982
H      80.49948063      95.53409359      88.86454944
C      76.84286023      94.81977704      87.57575610
H      75.21580586      94.00719473      88.54329597
C      76.14744093      97.45405553      86.48916347
H      75.58430250      96.94571914      84.57487071
H      77.68567816      98.82221738      86.44758949
C      73.71914262      98.55009679      87.65512460
H      74.13677215      98.85434272      89.64878586
H      72.24326637      97.11390479      87.60977117
C      72.95002401     100.84989370      86.16791000
H      70.93368605     101.06721223      86.52695800
H      73.19379872     100.53997859      84.14590284
C      74.52038659     103.19882352      86.75561488
H      76.32885466     103.30653792      85.77673665
H      74.87187568     103.14591117      88.78518094
N      73.09364322     105.54775332      86.40601551
H      71.71225329     105.73294650      87.70992667
H      72.37932668     105.66869580      84.64101114
H      74.27094271     106.98961449      86.82931421
C      77.76126722      92.98107334      85.57264621
O      79.79650245      93.30043708      84.58620907
N      76.18901492      91.22551759      84.68258511
H      74.54684276      91.07811894      85.64445581
C      76.50837867      89.38681390      82.69081358
H      78.38109744      88.53265760      82.70782112
C      74.48826124      87.30433550      82.91947046
H      72.66089590      88.22463221      83.15568625
H      74.95502364      86.47096618      84.74305636
C      74.54873248      85.40138110      80.80297699
O      72.77616919      85.63948661      79.25151169
O      76.35153139      83.89904868      80.62345299
C      76.27405261      90.82489562      80.17558786
O      75.65233265      93.13603090      80.04519674
N      76.86175748      89.67216257      78.02696904
H      77.83118709      88.02810068      78.05153548
C      76.61231362      90.92316139      75.49095633
H      77.41355756      92.81855687      75.38891111
C      78.03905697      89.51531528      73.44627246
H      77.63087609      90.28254417      71.57733313
C      80.91899987      89.90648863      73.68815743
H      81.54071984      89.40004198      75.58544264
H      81.45379242      91.84534783      73.24596147
H      81.91677538      88.76131448      72.29542913
O      77.56095623      86.79410938      73.72595195
H      76.11720532      86.43128194      72.68849221
C      73.80418031      91.37858542      74.90325144
O      73.41300696      92.98485279      73.24785119
N      71.95035879      90.11246879      76.12212492
H      72.41712119      88.68950489      77.30698331
C      69.24993990      90.78521136      75.88590913
H      68.91545834      91.06300114      73.87335060
C      67.56430402      88.54399595      76.78730858
H      65.73882840      89.48318993      76.93848668
H      68.22570823      88.07912329      78.68081434
C      67.36021358      86.10057984      75.14891587
H      65.84465309      84.94784678      75.93693174
H      69.19702756      85.17272422      75.20560765
C      66.70636828      86.52576826      72.33889284
O      68.03484588      85.35035849      70.77042000
O      64.78451662      87.82589995      71.65292219
C      68.47704183      93.34390079      77.19171001
O      66.45314495      94.30955094      76.77785995
N      70.06063248      94.07522488      79.04364180
H      71.81240877      93.33067270      79.19481990
C      69.75260710      96.34667590      80.60833518
H      68.68302200      97.71861721      79.50095556
H      71.53272928      97.17626576      81.22627569
C      68.14633973      95.85723678      83.00639787
O      68.17846507      97.53531376      84.61266524
N      67.07486492      93.54988096      83.45804246
H      66.79140596      92.24219034      82.09932924
C      66.50605730      92.81855687      86.07342368
H      65.41946466      94.33033792      86.95403614
C      64.86955431      90.36947158      85.94114284
H      63.87555827      90.13514552      87.72882393
H      66.08842777      88.76131448      85.52729278
C      63.00439444      90.39214829      83.69803771
C      62.96282045      88.47596581      81.94437169
H      64.17224530      86.86402926      82.25617653
C      61.44159078      88.44573019      79.91858508
H      61.57009216      86.89237515      78.60333557
C      59.68981447      90.42238391      79.50662474
O      58.03819369      90.46206817      77.47327923
H      57.25206754      92.00786428      76.93470723
C      59.82020560      92.54265684      81.03541333
H      58.56731705      94.09034268      80.59321737
C      61.27151541      92.45006025      83.28985682
H      61.04474825      94.01286391      84.58242962
C      68.87577409      92.52564930      87.77039791
O      70.93179631      91.79243548      87.07497863
N      68.43546785      92.76375481      90.34042570
H      66.63833813      93.24752475      90.75238603
C      70.49526954      92.51620066      92.27172599
H      72.23570747      93.25319393      91.45158477
C      69.97937426      94.22262353      94.50160304
H      71.24360115      93.41382067      95.91322859
H      68.07453012      93.95617212      95.23481685
C      70.38944487      97.06855135      94.03295091
C      68.29751784      98.65592145      93.70035908
H      66.44936551      97.80743435      93.51516590
C      68.33720209     101.29208967      93.84208855
H      66.73849363     102.55253712      93.68524127
C      70.77116958     102.39757956      93.94224405
O      71.12076895     104.88634911      93.99704611
H      69.49371460     105.66869580      93.82508102
C      72.98970826     100.88579850      94.06696598
H      74.75660237     101.89302263      94.23704135
C      72.76861030      98.21561523      94.33530712
H      74.41078246      97.05721300      94.69813457
C      70.84297918      89.78365641      93.07485967
O      68.98159877      88.57990075      93.70035908
N      73.19568843      88.87280834      93.33186245
H      74.79817636      89.76664888      92.80462881
C      73.78339332      86.27443466      93.82319129
H      72.14500061      85.18595230      94.43546262
C      74.70935922      85.13303996      91.34764982
H      75.94335050      83.50409588      91.62166014
C      72.33964242      84.21274324      89.65823450
H      70.95447304      83.11292253      90.71270178
H      73.02183361      83.19984994      87.99905479
H      71.36076418      85.93239420      89.08753715
O      76.14177177      86.85458064      90.07208456
H      77.85953298      86.67883609      90.63333327
C      75.89610734      86.02688051      95.85464708
O      77.15088561      87.92038627      96.50849238
N      76.44034852      83.75731921      96.51227183
H      75.34241753      82.33435529      95.86409571
C      78.53227555      82.89560400      98.23381250
H      80.20657306      83.98408636      97.73303503
C      78.00126245      83.40960956     100.99281292
H      77.46835964      85.39949137     100.95312867
C      75.86398199      81.67295109     102.06806719
H      74.13677215      81.89782852     100.96824648
H      75.24226204      82.14160320     103.97669077
H      76.30995741      79.66228229     102.04728020
C      80.42578131      83.59291302     102.74458921
H      81.72213357      84.91950089     101.85074867
H      81.35930612      81.75609904     102.73325086
C      79.82106889      84.66627757     105.44689784
H      78.63243105      86.34057508     105.28627110
H      81.49536640      85.39571192     106.39743018
H      78.98580986      83.22063694     106.65254323
C      79.16533387      80.07802208      97.56106994
O      77.82551790      78.87993560      96.09842177
N      81.23647389      79.05001096      98.60419886
H      82.52904670      80.27455361      99.29394897
C      81.96968771      76.51399824      98.29995293
H      80.38798679      75.32347067      98.87254000
H      83.45690232      75.91495500      99.58685654
C      82.75581386      75.97542625      95.53339360
O      84.36586067      77.23209424      94.57530236
N      81.48213832      74.08003075      94.35798384
H      80.08563058      73.20130801      95.31985453
C      81.84496577      73.14272650      91.84842729
H      83.21123790      74.18018625      90.70514287
C      82.36841997      70.27412197      91.74638207
H      80.69223272      69.27256702      92.40400683
C      82.66510700      69.32925880      89.01194810
H      84.68522443      69.10816082      88.67935627
H      81.75803837      70.40640280      87.51150540
H      81.77126645      67.47732702      88.90801315
C      84.64176072      69.28390538      93.32241382
H      84.64365044      70.43096925      95.03450586
H      86.32550686      69.87727944      92.29440270
C      84.53026687      66.44931590      94.11987832
H      86.39542674      66.02223775      94.88143803
H      84.12964489      65.08871295      92.62699453
H      83.17911255      66.16396722      95.65055663
C      79.22202566      73.65862179      90.81096755
O      77.54016924      71.99755235      90.71081205
N      78.72502762      75.92251391      89.88311193
H      80.30861828      76.96942229      89.66957285
C      76.42145125      76.62927156      88.64723092
H      75.77516486      75.21008710      87.30174578
H      76.67278486      78.21664166      87.36032730
C      74.11976461      77.27555795      90.34042570
O      72.13177253      77.84814503      89.36154747
N      74.29739887      76.91084077      92.84998224
H      76.08130052      76.55557223      93.42823849
C      72.16578760      76.68974280      94.63955306
H      70.96014221      75.28756587      93.72681525
C      73.09931239      75.91873446      97.38343566
H      74.18212558      77.53634019      98.05428850
H      74.15566940      74.15373009      97.51382678
C      71.09809223      75.58425290      99.17867566
N      69.42757417      73.60759918      99.26749280
H      69.50694268      72.10904622      98.08830358
C      67.51328141      74.22553969     100.81517865
H      65.95236748      72.92729771     101.03438690
N      67.82319653      76.57069003     101.70712947
H      66.55330045      77.69129774     102.59341111
C      69.91134411      77.45886141     100.58085259
H      70.72770587      79.29000620     100.97202593
C      70.74471342      79.31457264      95.01749832
O      71.71792247      81.09847428      95.90566969
N      68.32775345      79.45063294      94.44869070
H      67.47737661      77.76310734      94.18223929
C      66.69502993      81.64271546      94.49593386
H      67.54729649      83.08835609      93.30162683
C      64.12878158      80.90005301      93.33942135
H      63.47493628      79.25410141      94.39010918
H      64.45570424      80.24998717      91.41190051
C      61.92725044      82.88615538      93.32619327
H      61.88945590      83.35858696      95.33119289
C      62.53007313      85.06123036      91.57063752
H      60.99183591      86.41994358      91.75205125
H      62.53196286      84.31478847      89.65067559
H      64.27429052      86.12325655      91.83141976
C      59.37800964      81.67862025      92.76116510
H      58.72416434      80.75454409      94.48270577
H      59.44037060      80.26510497      91.26639159
H      58.04008341      83.09402526      92.09409171
C      66.23204698      82.82568414      97.21336030
O      65.65757018      81.41783802      99.03883591
N      66.37377645      85.34846875      97.36642813
H      66.88022310      86.24230931      95.75827103
C      65.49316398      86.85647035      99.46213461
H      64.93191527      85.92672502     101.21391090
C      67.69469514      88.56100350     100.28038610
H      66.98037860      89.97451878     101.59563562
H      68.23893632      89.82523040      98.74781806
C      69.99638180      87.30622521     101.47847258
H      71.01116483      86.07034422     100.18023061
C      71.71036356      89.64570640     102.47813780
H      73.42056587      88.86335971     103.31906601
H      70.68991134      90.90048467     103.75370306
H      72.41523148      90.86080041     100.97391566
C      68.93624533      85.92483529     103.84063048
H      67.53595814      87.12670123     104.75336828
H      70.43668802      85.52043386     105.19367452
H      68.12555274      84.13148501     103.22835915
C      63.30108147      88.61958501      98.84986328
O      61.56442299      88.58556993     100.38054160
N      63.27273557      90.06900509      96.77116434
H      64.69569949      90.08601262      95.49937853
C      61.14490375      91.75464097      96.33841701
H      59.44415006      90.63970244      96.65967049
C      61.07120442      93.99963582      98.28483512