 %block lattice_cart
   140.777   0.000   0.000
   0.000 144.511   0.000
   0.000   0.000   162.462
 %endblock lattice_cart

 %block positions_abs
N      91.29643193      43.78110391      81.96326895
H      90.25897218      43.77732446      83.56575686
H      93.11434864      43.46740936      82.44514915
H      90.68605033      42.29010985      80.93903728
C      90.59723319      46.15837962      80.54219477
H      91.36446208      47.85913331      81.41713805
C      91.78965050      46.17349743      77.85500394
H      91.36446208      44.54833281      76.66258665
H      93.83811382      46.29443991      78.04964576
C      91.05643669      48.53187587      76.49629072
H      89.00419391      48.68494370      76.44715784
H      91.69516418      48.37313887      74.54420344
S      92.22239782      51.58945304      77.74917927
C      90.08511736      53.62846774      75.99173379
H      90.64825580      55.60323174      76.12590436
H      88.22373694      53.19383068      76.76274213
H      90.19094204      53.26753001      73.96594719
C      87.70406221      46.09412892      80.42692145
O      86.65337438      44.16282863      79.46127132
N      86.33212090      48.01409087      81.21304760
H      87.26564570      49.49185684      81.97838676
C      83.64870954      48.10101828      81.38123325
H      82.72841283      47.40937845      79.67292065
C      82.71707447      46.70262080      83.77362676
H      83.46162663      44.83746092      83.31442326
H      80.65916251      46.74608450      83.66969180
C      83.48241362      47.50386475      86.40790523
O      84.85057547      49.45406231      86.64223129
N      82.60747034      46.24530703      88.21070413
H      82.97407725      46.77254067      90.00783387
H      81.48119346      44.70895953      88.10676919
C      82.85502449      50.94694610      81.67225110
O      84.57089598      52.51352921      81.87067236
N      80.40027001      51.68582908      81.68358946
H      79.10769721      50.28554189      81.58154423
C      79.52721645      54.39758635      81.77618605
H      80.15838504      55.41425910      80.09999880
C      76.53200025      54.52608773      81.82153948
H      76.08413511      53.29209645      80.23227965
C      75.40572336      53.37335468      84.18747681
H      75.88949330      54.45805758      85.87311270
H      76.00665633      51.42882631      84.49739193
H      73.38560593      53.27130946      83.79630348
C      75.11470551      57.09800524      81.20926815
H      75.36792884      58.30931981      82.85710950
H      73.08136000      56.78997985      81.13178938
C      75.97831044      58.39624722      78.77908011
H      76.10492210      56.96950385      77.29753468
H      77.89449292      59.14268911      78.91514040
H      74.98620412      60.11967763      78.24239783
C      80.70073649      55.97172836      84.02685009
O      81.28655165      58.15625198      83.86055416
N      81.40749413      54.82655421      86.20570452
H      81.00687215      52.98029161      86.47026621
C      82.64337514      55.94716192      88.41101513
H      81.46607565      57.52697312      89.01005836
C      82.49408676      54.08956095      90.62199491
H      83.52965678      54.93237889      92.19046775
H      83.60902529      52.44927851      90.06641537
C      79.78610896      53.60957047      91.28150940
C      78.68250879      51.33811944      90.54829559
H      79.60658496      49.90003772      89.43146734
C      76.34680707      50.56522139      91.47426148
H      75.50776858      48.84179098      90.77884220
C      74.98620412      52.20172437      93.20336105
H      73.27789153      51.63291674      94.15956257
C      76.07279675      54.58844870      93.72492553
H      75.17706648      55.72417421      95.16678669
C      78.57668412      55.23473510      92.95580692
H      79.61981304      56.88446618      93.55862960
C      85.34379404      57.10367443      87.89511985
O      85.97874208      58.86678907      89.23682553
N      86.93683332      56.07188385      86.21137370
H      86.21495787      54.43160141      85.55185922
C      89.22529189      57.00918812      85.16635504
H      90.37424549      57.99940469      86.55908335
C      90.85801542      54.71317064      84.67313648
H      92.58144582      55.40481047      83.77929593
H      90.02275639      53.44327455      83.28229791
C      92.03342519      53.39603140      87.01450739
H      92.75908009      51.49118728      86.73482788
H      90.44983454      53.18249232      88.31463909
C      93.95905630      55.23851455      88.23338086
O      93.33922607      56.71817025      90.02484140
O      96.13791074      55.41236937      87.29418688
C      88.72262469      58.40002667      82.81175606
O      90.17771395      60.27085572      82.42814162
N      86.87447236      57.69704848      81.13556883
H      85.95228592      56.03408933      81.30942365
C      86.33967981      59.13513021      78.87167670
H      88.05744103      59.47150149      77.78697379
C      84.31200348      57.91625674      77.41469771
H      82.46763059      58.10711909      78.31231772
H      84.86380356      55.94716192      77.17281274
C      84.11925139      58.97450347      74.70105072
H      85.89181467      58.38868831      73.82610744
H      84.11736167      61.02863598      74.83522129
S      81.37347906      57.77641699      73.07021692
C      82.39015182      58.67970617      69.96350686
H      80.77443582      58.10333964      68.81833271
H      84.15326647      57.85767523      69.29076430
H      82.49219704      60.70738250      69.61012805
C      85.68961396      61.94515323      79.69559738
O      86.83100865      63.69692953      78.58821775
N      83.95862466      62.30042178      81.52863189
H      82.99486424      60.82454553      82.26373544
C      83.27076428      64.94036944      82.22783064
H      83.38603758      65.91168877      80.41558309
C      80.60625018      65.33532225      83.27662874
H      80.37381384      67.23638691      84.03251926
H      80.27176862      64.20715563      84.96793378
C      78.58046357      64.82509615      81.14501745
H      79.11714584      63.26040276      79.91669536
C      76.04823031      64.16558165      82.45270806
H      76.59814067      62.59521909      83.66402264
H      74.73109107      63.43803702      81.04486196
H      75.19218429      65.75862093      83.43725548
C      78.50487452      67.09087799      79.45560213
H      76.99120374      67.11166497      78.06098411
H      80.39838028      67.23071773      78.65435817
H      78.11370117      68.77462413      80.57620983
C      85.27954335      66.11577922      83.92858431
O      85.38914747      68.45148093      84.12700557
N      87.04832718      64.60588789      85.03218448
H      87.19194638      62.73694856      84.67313648
C      89.30843985      65.75106203      86.22838124
H      88.43538629      67.32142461      87.23182590
C      90.48951879      63.96716040      88.20314523
H      90.69738869      62.13034641      87.29418688
H      89.22907134      63.68937062      89.80941261
C      92.93860409      65.12178317      89.40501116
H      92.47751087      66.78096288      90.53506751
H      94.03086590      65.70003942      87.75716983
C      94.57510708      63.22827741      90.82041617
H      93.49229390      62.23806081      92.26416708
H      96.01696826      64.19770700      91.92968552
N      95.63524354      61.35555864      89.03840426
H      94.84344822      59.63212823      89.25383307
C      97.40591710      61.67870182      87.31308415
N      98.39991314      63.78196721      86.71026144
H      99.98350379      63.58732541      85.66524279
H      98.31298573      65.23138729      87.95181163
N      98.05409322      60.01574267      85.65012498
H      99.34099684      60.36534204      84.28574259
H      97.34733558      58.24317939      85.73705240
C      90.91659694      67.02473756      84.33298575
O      91.86901900      69.13178240      84.94336734
N      91.41359496      65.79074628      82.19948473
H      90.77675719      64.01440356      81.91980524
C      93.09734110      66.74694780      80.19070566
H      94.69982902      67.40079310      81.30942365
C      93.72095079      64.51518103      78.27641292
H      91.96917450      63.60055349      77.68870803
C      95.10423045      65.28429963      75.93882146
H      94.00818919      66.77529369      75.03364256
H      95.27997500      63.91802751      74.40814314
H      96.88246291      66.28963404      76.22039068
C      95.36123323      62.47616633      79.74661998
H      94.22928717      62.02830119      81.40957914
H      97.17348076      63.28118974      80.30786869
C      95.71650177      60.04408856      78.23294921
H      96.59900396      60.48250507      76.42259139
H      93.92504123      59.03875418      78.09877864
H      96.97505950      58.61734520      79.01907535
C      91.73673816      69.11288514      79.14001784
O      92.84411778      71.16701765      79.17781236
N      89.38213917      68.77462413      78.18570604
H      88.62435892      67.02473756      78.28775126
C      87.93460882      70.67190935      76.68715309
H      88.98529665      71.18213545      74.99206858
C      85.41182419      69.57775781      75.79898171
H      84.17972263      71.09520804      75.14891586
H      84.56522680      68.60265904      77.40524909
C      85.49497215      67.74283356      73.62768618
O      86.71195589      68.23038295      71.66803999
O      84.37814390      65.70381887      73.76185675
C      87.46217724      73.15312000      78.07232247
O      87.40926490      75.34142307      76.95360450
N      86.90470798      72.96225764      80.54786394
H      86.93872305      71.25772451      81.40579969
C      86.02220579      75.06363330      82.18814638
H      85.25119745      76.58486299      81.03163388
C      83.76209312      74.18869002      83.85488498
H      83.00998205      75.88188480      84.75628443
H      84.40837952      72.65423225      85.06808928
C      81.56245169      73.17579672      82.21271283
H      80.48341797      71.91156981      83.43158629
H      82.27487851      71.89267256      80.76707219
C      79.63682058      75.02772850      81.22816542
O      80.04311173      77.42957064      81.53241134
O      77.59213671      74.23782291      80.35133240
C      88.16893488      76.22770472      83.70559661
O      88.32767189      78.46136121      84.13078502
N      89.94716734      74.63466544      84.69203375
H      89.89803446      72.85643298      84.00228365
C      91.84445256      75.36221006      86.50995045
H      93.28064456      76.36943419      85.42902700
H      92.74207256      73.64444884      87.20725946
C      90.93549420      76.61698834      88.91179260
O      88.83033909      77.43146038      89.23871525
N      92.48129033      76.89855755      90.89789495
H      94.35022965      76.51872257      90.82230591
C      91.54587580      77.72625767      93.36209806
H      89.48985357      77.65444808      93.30540627
C      92.78364654      75.83464165      95.15166888
H      94.70549820      76.15589511      94.48270577
H      92.22995673      73.89956190      94.71892156
C      92.36223757      76.23337389      98.09019330
H      92.70049858      78.23459406      98.44546185
C      89.46150768      75.76661149      98.66089066
H      88.32011299      76.80785069      97.30028770
H      88.96639938      76.38455199     100.56195532
H      89.18371791      73.72570708      98.59663996
C      93.79276039      74.56096610      99.92133810
H      95.81854700      74.87466068      99.73236546
H      93.27308565      72.56919457      99.82118260
H      93.40725622      75.28662101     101.81106442
C      92.02019711      80.54950879      93.83452965
O      94.10456523      81.53594592      93.47359192
N      90.16259614      82.06884874      94.86254077
H      88.50719589      81.15611094      95.10631545
C      90.41392974      84.70690668      95.72614569
H      92.43215744      85.00170398      96.02094299
C      89.52575837      86.63442751      93.73059470
H      89.74118717      88.56194835      94.42601398
H      87.49808204      86.42655763      93.44335631
C      90.83155926      86.47758024      91.16245664
H      90.39125302      84.57840529      90.49727297
H      92.86868422      86.40388090      91.45914368
C      90.24574410      88.45612368      89.10265495
H      88.26342120      88.42588806      88.54518569
H      91.39658742      87.91377223      87.48315951
N      90.86935378      91.07150490      89.96248044
H      92.20728001      91.30205152      91.30607585
C      89.94149816      93.22012372      89.10265495
N      88.89458978      93.36563264      86.87655736
H      87.95350608      94.92087740      86.29452166
H      88.83033909      91.79904953      85.78618528
N      90.04732284      95.23268224      90.41979420
H      89.49930220      96.87863386      89.62043997
H      90.17771395      95.04370961      92.31329996
C      89.18371791      85.33996500      98.33585773
O      86.85368537      85.04705741      98.47758719
N      90.54432086      86.16199595     100.31062173
H      92.33200195      86.72135492      99.95535317
C      89.62024469      86.07128907     102.94112075
H      88.30310545      84.49147788     103.04694542
C      91.80098885      85.14154373     104.78549363
H      91.10934902      85.18500744     106.72624255
H      93.35623361      86.47758024     104.62108745
C      92.54554102      82.42033784     103.97480104
H      92.97450889      82.29183645     101.96413225
C      94.91903727      81.71358020     105.38264714
H      94.34456047      81.75137472     107.35930086
H      96.48184093      82.99103519     104.96690735
H      95.37446131      79.74637510     104.98580462
C      90.52542359      80.46636084     104.44345316
H      90.01519749      80.71391499     106.42199661
H      91.29265248      78.59742151     104.04094147
H      88.83222882      80.60809031     103.27938176
C      88.22184722      88.39187299     103.98235994
O      86.71951480      88.01959691     105.71712870
N      88.51475480      90.73702334     102.92600293
H      89.39725698      90.75781034     101.23280816
C      87.05966553      93.13130659     103.27749203
H      86.04866196      93.04815862     105.07084230
C      88.75097058      95.35551446     103.30205847
H      89.71851046      95.37252199     101.48414177
H      90.12480161      95.20433635     104.83084707
C      87.58123000      98.09372788     103.65165784
H      85.96173455      97.93121141     104.91399502
H      87.02754019      98.95355335     101.86397676
C      89.24985833     100.20644189     104.78738336
H      90.11157353      99.31071162     106.42955552
H      88.07633829     101.80137090     105.35241153
C      91.38524907     100.79603651     102.98269472
H      90.70116814     102.03758670     101.48792122
H      92.11279370      99.09150338     102.08318500
N      93.31843908     102.26435385     104.42455591
H      92.83655887     104.01424042     105.01604024
H      94.95683180     102.27758194     103.44945713
H      93.89291588     101.06626737     105.79460749
C      84.98285632      93.37886074     101.14399102
O      85.44394954      92.99146683      98.99348248
N      82.83423750      94.52970405     101.77326988
H      82.72463337      94.73379449     103.66866537
C      80.67050087      95.18732882     100.03094222
H      79.63682058      93.49413404      99.47725242
C      78.64093481      97.05626813     101.17611637
H      79.51209864      98.89119238     101.50681847
C      76.64160437      97.53625861      99.01237975
H      74.94274042      98.30348750      99.88921275
H      76.34680707      95.80337959      97.93901519
H      77.52410656      98.86284649      97.70657887
C      77.48253258      96.11140497     103.69890101
H      78.99431363      96.03581592     105.09540874
H      76.60003039      94.26325264     103.46457494
C      75.59280627      98.02191828     104.85919295
H      73.85992724      97.74223878     103.78015923
H      76.17673170      99.99668227     104.87997995
H      75.03344728      97.40019832     106.74136036
C      81.69851198      96.61407218      97.76893983
O      83.35580196      98.24490599      98.05995769
N      80.74797965      95.89975563      95.54851142
H      79.58768769      94.39175403      95.40111276
C      81.29222083      97.28681475      93.29973710
H      81.59268731      99.20677668      93.98570775
C      83.78854929      96.25124472      92.19046775
H      85.43072145      96.40053310      93.42634877
H      84.46129185      97.54759698      90.73726823
C      83.61658419      93.76625463      90.86954907
C      83.16871906      93.62641487      88.26739592
H      82.84179640      95.30638156      87.15623686
C      82.90037792      91.21890355      87.13922933
H      83.03832794      91.06772544      85.10777354
C      82.86447312      88.97579842      88.63022338
O      82.73408200      86.75348028      87.40379100
H      82.50542512      86.84229742      85.60855101
C      82.90982655      89.26870600      91.29284775
H      83.11769645      87.50937081      92.30574105
C      83.40115539      91.66298923      92.36432257
H      83.54099514      91.82361597      94.39199891
C      79.02643898      97.26224830      91.54985053
O      77.27088323      95.77881315      91.77283823
N      79.19273489      98.86284649      89.63555777
H      80.67994950     100.05715353      89.55052009
C      77.29922913      99.20110750      87.72126503
H      75.55690147      98.25624434      88.27873428
C      76.78333384     101.91853393      87.09198617
H      75.69485149     101.98656408      85.34587905
H      78.62203755     102.79725667      86.78396077
C      75.34147267     103.12228960      89.39934199
H      76.36570433     102.75946215      91.14922856
H      73.40072374     102.43064976      89.42012898
C      75.20541237     105.99656332      89.03273508
H      76.89860715     106.91497032      88.30141101
H      74.73109107     106.81292509      90.86387988
C      73.09269836     106.73544632      87.22804645
H      71.20486177     106.31970653      87.94047327
H      73.24954564     105.82459823      85.38745302
N      73.19285385     109.58704332      86.79907858
H      74.91250479     110.22010163      86.26806548
H      72.72798118     110.69064348      88.28629319
H      71.94374476     110.29947013      85.54430031
C      78.13070871      97.72901070      85.28918726
O      80.11870079      98.21278064      84.23849942
N      76.45830092      96.18888375      84.21582272
H      74.83880547      95.90920426      85.18714203
C      76.80790029      94.84339862      81.66847165
H      78.50298479      93.67365804      81.75728878
C      74.61014858      93.06705589      81.04864141
H      73.24198673      93.89475601      79.74850971
H      73.67473406      92.57761677      82.81553551
C      75.24509663      90.40254178      80.06031455
O      73.83347107      88.61486070      80.61967354
O      77.15560993      90.09829586      78.72994722
C      77.09702841      96.76336055      79.42158706
O      76.66428109      98.98378897      79.48961721
N      77.76599153      95.72212135      77.25407097
H      78.23086420      93.87207929      77.27674770
C      78.08913473      97.12618801      74.84278020
H      79.47619384      98.60584371      75.19615902
C      79.04533624      95.59928915      72.64313878
H      79.44217877      96.84839824      71.05387895
C      81.58512841      94.32939307      73.41603683
H      82.82289914      95.54448709      74.52530619
H      82.56589636      94.25947319      71.60756875
H      81.45473729      92.37163660      74.04531569
O      77.38615654      93.62074569      71.98362428
H      77.68095384      93.19744701      70.24507608
C      75.66461587      98.39230464      73.89224787
O      75.88004467      99.91731377      72.00063182
N      73.41584156      97.95577787      74.95994323
H      73.40261347      96.60840299      76.31109754
C      71.12927272      99.42787465      74.54042399
H      71.39950358     101.03981120      73.28564571
C      68.96364636      97.72334152      73.39336012
H      67.38572489      98.87607458      72.74518399
H      68.34948531      96.25691391      74.70294046
C      70.07669516      96.41754065      70.98584880
H      71.32580425      94.83583971      71.41670640
H      71.28423027      97.69499563      69.91248426
C      67.90162017      95.67865765      69.14336564
O      67.15328855      93.44122169      69.16226291
O      66.97376455      97.40964695      67.78843188
C      70.11071023     100.66753511      77.10478259
O      67.86004619     101.53869894      77.20115863
N      71.77744884     100.47667277      79.14001784
H      73.45363608      99.69243635      78.67514517
C      71.42407002     101.79759146      81.58910313
H      69.96709103     103.20921701      81.22438597
H      73.18340522     102.74623406      82.08799089
C      70.39416918     100.27447204      83.83787746
O      70.29968286     101.32893932      85.97515792
N      69.53812316      97.94632922      83.55819795
H      69.81213348      97.12429828      81.85555454
C      68.26444763      96.47612215      85.56130784
H      66.79613028      97.70822372      86.31719838
C      66.86793988      94.21411976      84.54274537
H      65.42040952      93.54137719      85.84476679
H      68.33058805      92.76280995      84.59565771
C      65.60182325      94.57883693      82.02185046
C      66.16874114      92.99524628      80.00551248
H      67.44241668      91.40031728      80.01307139
C      65.19931155      93.60373816      77.57910391
H      65.72465546      92.52092498      75.93126255
C      63.63839761      95.71456245      77.22005591
O      63.06770027      96.37029748      74.92970761
H      62.33826591      98.02947719      74.85033910
C      63.04313382      97.40586751      79.23639388
H      62.22488233      99.22756366      78.80742600
C      63.90862847      96.69344068      81.67414082
H      63.37383593      97.99168266      83.15568626
C      70.07291571      95.73534944      87.64945542
O      72.25554960      95.23835143      87.02017656
N      69.29056901      95.75991588      90.01350304
H      67.40462215      95.97912413      90.19113731
C      70.86849049      95.48590556      92.27928489
H      72.69018665      96.33061324      91.81630194
C      69.78189786      96.78603727      94.50349277
H      70.91573364      96.30982624      96.15511355
H      67.79012632      96.27203171      94.62065580
C      69.90661979      99.61495756      94.19357765
C      67.76178043     100.99634749      93.36776725
H      66.09693154     100.05526380      92.66100961
C      67.86004619     103.61739789      93.18446379
H      66.12527744     104.54525351      92.64022261
C      69.95764240     105.04225153      93.91956734
O      69.99354720     107.57826424      93.81374265
H      68.71609221     108.29636025      92.74415756
C      72.07035642     103.68353831      94.72270101
H      73.72575667     104.76068231      95.23481685
C      72.08547423     101.02469339      94.87576885
H      73.84480943     100.07227133      95.27639082
C      71.37493714      92.73257433      92.69691441
O      69.73843415      91.02426175      92.31707941
N      73.81835326      92.20723041      93.15044872
H      75.05045482      93.64720186      92.92368157
C      74.88037945      89.68633551      92.67045823
H      73.38182648      88.28226886      92.84998223
C      76.25421048      89.55594439      90.17035032
H      77.90961073      90.78048705      90.22326266
C      76.70396534      86.82906932      89.35587828
H      77.75843262      85.86530890      90.84120316
H      77.52788601      86.76859808      87.46804170
H      74.85392328      85.94845686      89.16312620
O      74.82179793      90.56694798      88.19936578
H      74.45519103      92.23557632      88.81541655
C      76.96852702      89.31594915      94.67734759
O      78.14771624      91.16032203      95.53528332
N      77.20096336      86.97646798      95.64677718
H      76.16728307      85.53460680      94.94190926
C      79.23052942      86.28671787      97.58374665
H      80.93317283      87.24102966      96.92423217
C      78.50865397      87.11441801     100.26148883
H      77.48442231      88.89831965     100.15755390
C      76.60003039      85.24547868     101.39154518
H      75.50209940      86.28671787     102.78994264
H      77.41072298      83.75637434     102.56317548
H      75.43595898      84.41210938      99.90999974
C      80.84813514      87.55850368     101.98869869
H      82.44117443      88.53927164     101.12509377
H      81.92905860      85.86152945     102.42522547
C      80.14515696      88.83406894     104.51148331
H      81.79110857      88.62052988     105.72846706
H      78.51243342      88.17644420     105.58106840
H      79.78421923      90.78804596     103.96346268
C      79.93728706      83.30661948      97.36264868
O      78.32346079      81.76838226      96.71825201
N      82.27865796      82.60175157      98.20357688
H      83.46540609      84.01148740      98.69868518
C      83.21974167      80.07518749      98.22625360
H      81.86291817      78.97725649      99.31851540
H      85.09246044      80.08841557      99.08796879
C      83.73563695      79.01127157      95.58819567
O      84.87892137      80.20368887      93.93279541
N      82.79644297      76.56218628      95.26694219
H      81.93283805      75.92156905      96.84486366
C      83.00242314      75.17512715      92.87454869
H      84.47451994      75.91967933      91.63866767
C      83.61280474      72.28762536      93.18257407
H      81.96307367      71.39756425      94.03295091
C      84.19861990      71.24827588      90.40278667
H      85.02065084      69.36421875      90.30641062
H      85.39292693      72.42179592      89.20281045
H      82.51676348      70.82497718      89.29540704
C      86.06000032      72.05707874      94.75293663
H      85.71607013      72.62588636      96.70313419
H      87.65114987      73.21548097      94.14444477
C      86.98218676      69.48138178      94.94190926
H      85.33434541      68.34187680      95.41434084
H      88.42971711      69.48516122      96.41022661
H      87.81366633      68.90501525      93.14666926
C      80.52688167      75.48882172      91.24938406
O      78.78266428      73.89389271      91.10198539
N      80.20373847      77.75082412      90.12121744
H      81.77221131      78.83552703      90.17601950
C      77.98519978      78.25538104      88.47904528
H      77.61103397      76.45447187      87.55307938
H      78.51243342      79.48748260      86.91624161
C      75.51910694      79.02638939      89.71870573
O      73.69930050      79.56118192      88.36755142
N      75.23186854      79.33063531      92.28684380
H      76.90805578      78.96402842      93.12210282
C      72.90939490      79.68023469      93.73248442
H      71.67540362      78.17412282      93.05974185
C      73.11159562      79.21158257      96.54439718
H      74.12070947      80.71013552      97.53083431
H      74.07157659      77.42201174      96.88832737
C      70.74565827      79.16811886      97.99759671
N      68.89183676      77.26705418      97.81240353
H      68.90884430      75.79684711      96.59541979
C      67.05502279      77.88310497      99.46024489
H      65.32592321      76.83808631      99.75126274
N      67.70319891      79.99203952     100.63754438
H      66.57692203      80.77060678     101.96791169
C      69.95575268      80.92178488      99.75882164
H      70.84770350      82.60553103     100.49014572
C      71.84358926      82.22569603      93.28650902
O      72.94340998      84.26660044      93.73626387
N      69.53434371      81.93089872      92.34920476
H      68.97120527      80.11487173      92.15456295
C      67.97154005      84.10597372      91.84275812
H      69.01277925      85.55350406      90.81285727
C      65.87205411      83.35197292      90.01728249
H      64.85916081      81.68334457      90.68057644
H      66.76400493      82.97213792      88.19936578
C      63.81981134      85.49492256      89.60910161
H      63.06203109      86.09585553      91.42512859
C      64.95931630      87.85708044      88.35621306
H      65.76433971      87.24102966      86.56475252
H      66.23110211      88.97579842      89.52595365
H      63.41163045      89.11563816      87.83842806
C      61.47655071      84.51793405      88.10298973
H      59.83059909      85.71413080      88.41479459
H      61.15907669      82.52805224      88.52250899
H      61.90173913      84.74659094      86.09987985
C      66.73376931      84.81462107      94.33341739
O      65.45820405      83.24236878      95.45024564
N      67.01155908      87.29016255      95.14599971
H      68.17374076      88.35029902      94.06507626
C      65.79646506      88.28037914      97.44201717
H      65.43363761      86.76103919      98.78372286
C      67.42540914      90.39120343      98.64955230
H      66.11582881      91.43244262      99.85330795
H      67.95831196      91.62897417      97.09052808
C      69.69686017      89.39720739     100.01204497
H      70.77400417      88.29171750      98.64766256
C      71.35037069      91.52692894     101.17422665
H      72.25177015      92.23179685      99.46024489
H      72.85081339      90.77292814     102.36664396
H      70.38850000      93.12185795     102.05105965
C      68.99388198      87.62653384     102.18145078
H      70.63227470      86.84796660     103.15654954
H      67.81847222      85.97869248     101.79972606
H      67.82036194      88.65076550     103.53071535
C      63.14895850      89.44634027      96.93179108
O      61.35938768      88.87186347      98.29806319
N      63.03368519      91.01292338      94.97781406
H      64.81380738      91.43811180      94.42979343
C      60.81892595      92.31872427      93.79862485
H      59.26179147      91.03371037      93.39233369
C      59.56603741      94.20656085      95.61087238