 %block lattice_cart
   140.777   0.000   0.000
   0.000 144.511   0.000
   0.000   0.000   162.462
 %endblock lattice_cart

 %block positions_abs
N      87.73807728      40.11220029      80.49589646
H      87.00297375      38.81017886      81.68453432
H      89.50875084      39.51882622      80.09716421
H      86.78187577      40.28983455      78.85561402
C      88.00263897      42.45735063      81.96421381
H      89.18938709      42.08885401      83.60827570
C      89.24796861      44.63620507      80.39385125
H      88.44861438      44.63998453      78.49467630
H      91.25485795      44.28471598      80.10283340
C      88.99474528      47.18166643      81.52012812
H      90.50463661      47.32717535      82.91096669
H      87.08990116      47.41032330      82.26657002
S      89.56544263      49.84807025      79.28269217
C      92.36412730      48.79360296      77.64240974
H      91.90303408      47.06828284      76.61439861
H      93.82299601      48.36274537      79.03135857
H      93.08033357      49.92932847      76.07960607
C      85.38914748      43.09229868      83.07348315
O      83.51075952      43.46457477      81.68831377
N      85.31733788      43.53827408      85.57548080
H      86.88581072      43.11308566      86.57703574
C      83.04777657      44.06928719      86.84726660
H      81.64937910      42.93356166      85.84949112
C      83.26509510      43.37386790      89.59114920
H      84.94506179      44.26203926      90.39428290
H      83.79421847      41.38776555      89.72343005
C      81.06734340      43.85763783      91.53378785
O      79.26454450      45.11241611      91.07647410
N      81.36969961      42.83907535      93.77500327
H      79.93350761      43.20568225      94.97875892
H      82.73975119      41.52760530      93.97909370
C      82.28243742      46.91332528      86.39373228
O      83.83201299      48.58384334      86.45609325
N      79.82012403      47.33662398      86.10082471
H      78.63526563      45.84185047      86.13295006
C      78.65605262      49.94633601      86.04602264
H      79.30044930      50.70789573      84.24322374
C      75.78366863      49.99546891      86.17074458
H      75.19218429      48.58195362      84.79313411
C      74.71219381      49.16020986      88.71620592
H      74.98053494      50.60018133      90.16562601
H      75.39249528      47.29316027      89.25477792
H      72.66939966      49.00903177      88.48187986
C      74.64794311      52.62785765      85.44697941
H      75.37548774      53.96578389      86.83403852
H      72.59192088      52.73935151      85.47343557
C      75.39438501      53.46500641      82.82403928
H      74.10559166      54.91253676      82.12106109
H      75.13927195      51.85684931      81.56170210
H      77.37859764      54.00735787      82.72199406
C      79.82390348      51.70756094      88.06802981
O      80.11492134      53.94877634      87.53134753
N      80.20940765      50.77403615      90.37538563
H      80.01476584      48.89375846      90.64939595
C      81.16749889      52.41620830      92.45219485
H      80.11303161      54.17743324      92.29534756
C      80.25476108      51.23134991      94.99387673
H      81.08435094      49.38508730      95.36615283
H      78.21007721      50.99135467      94.91828768
C      80.91994475      52.65242410      97.24454077
C      79.60847468      54.87474225      97.98342376
H      78.29700462      55.78936977      96.71541740
C      80.23775355      56.04826228     100.25298506
H      79.33257464      57.84917146     100.55345156
C      82.16149493      55.02025116     101.88381888
H      82.76809708      55.98590131     103.57701366
C      83.55800268      52.95289057     101.12792835
H      85.03198920      52.24046376     102.34491209
C      83.07990192      51.84740069      98.73364512
H      84.42349733      50.42443678      98.15916831
C      84.05689043      52.98690566      92.49754827
O      84.91860562      54.61018055      93.97720398
N      85.36836049      51.93243838      90.66262402
H      84.35168773      50.90631699      89.41540466
C      87.88736566      52.69777752      89.79523965
H      88.55254932      54.24168393      90.98387751
C      89.89236528      50.61907859      89.91240268
H      91.66114911      51.41276363      89.21320395
H      89.34056520      48.90320709      88.91651691
C      90.33645096      49.61563392      92.64683665
H      91.79154022      48.17377274      92.43518732
H      88.52420343      48.67077075      92.90005998
C      90.89769968      51.67921504      94.65561572
O      89.62780360      51.61685407      96.65683590
O      92.76474928      53.11729676      94.38349514
C      87.89681429      54.12830034      87.19308652
O      89.18938709      56.08416708      86.92474538
N      86.40393051      53.17587829      85.36383144
H      85.44961872      51.57339038      85.76634315
C      85.95795510      54.47412027      82.91096669
H      87.72862865      54.28136817      81.87917612
C      83.68272462      53.27603378      81.52201786
H      81.89504352      53.32516666      82.53869060
H      84.17594318      51.27670335      81.50123086
C      83.21407249      54.33050106      78.80270168
H      84.01909590      52.92076523      77.53658505
H      84.36302609      56.01991639      78.53058110
S      79.98264049      54.85206553      77.97500156
C      80.63648580      55.86117937      74.73034148
H      81.44339893      54.30971408      73.64563859
H      82.16905384      57.23690013      74.76813602
H      78.82045881      56.48856851      73.98578932
C      85.45717762      57.33327618      83.13206468
O      87.16549021      58.71466610      82.46688101
N      83.49375198      58.26869070      84.51912379
H      82.33723948      56.98367681      85.33170610
C      82.74731009      61.02580139      84.62116900
H      82.76242790      61.66074943      82.66152282
C      80.07334736      61.09383153      85.72287944
H      79.61603359      63.09316198      85.91374181
H      80.13948778      60.42108897      87.66929755
C      77.89449292      59.78236148      84.25456210
H      78.48219780      57.84539201      83.87850657
C      75.47942269      59.69732380      85.80224795
H      73.84858888      58.99812506      84.75533957
H      74.76132669      61.48500489      86.53168231
H      75.72886656      58.42175853      87.39906669
C      77.27844214      61.03902947      81.71288021
H      78.98486500      61.28847334      80.58471360
H      76.58113313      62.97032977      81.86405831
H      76.07279675      59.80125873      80.59038279
C      84.84301657      62.68498109      85.84382193
O      85.31733788      64.81659237      85.09549032
N      86.09779484      61.63807271      87.77701194
H      85.80866672      59.75212586      87.87716744
C      88.33712052      62.59616396      89.16218133
H      87.93082937      64.43486766      90.00121981
C      89.16482065      60.70643765      91.30513097
H      89.89236528      58.96410999      90.48121030
H      87.35257312      60.17542454      92.12527220
C      91.22840178      61.64941108      93.27044635
H      90.10590435      62.63017903      94.68963081
H      92.63246843      62.78891603      92.28400920
C      92.59467391      59.53102787      94.61971092
H      94.01196864      60.49667803      95.75732616
H      93.53764734      58.37640510      93.19674701
N      90.91281749      57.79247967      96.00110086
H      90.90903804      55.99912940      95.34725556
C      89.78654061      58.20444001      98.08168954
N      90.02275640      60.29636704      99.39315959
H      89.12891585      60.58549516     101.05422902
H      91.51375046      61.43209255      99.03978077
N      88.00263897      56.65675416      98.79222662
H      87.41304436      56.95533091     100.58179745
H      87.68894440      54.93710320      98.02877720
C      90.43093728      63.17630993      87.35182352
O      91.51186073      65.17375064      87.56725232
N      91.25485795      61.44154117      85.63784176
H      90.08322764      59.98645192      85.24666841
C      93.13702536      62.21065978      83.86716820
H      94.44093652      63.48055586      84.83470808
C      94.53542283      59.91275260      82.85427490
H      95.98673264      60.61573078      81.57304046
C      95.88846687      58.70332776      85.03879853
H      97.07521500      60.13007111      85.93452880
H      97.11300952      57.15186244      84.45865255
H      94.57699681      57.95499614      86.43908572
C      93.02364178      57.93231942      81.32548632
H      92.08066835      59.10206000      79.91197103
H      91.81799639      57.00446379      82.71443515
C      94.55243037      55.84795130      79.98944982
H      96.06988060      56.71344595      78.89718801
H      93.51308090      54.61207029      78.71199483
H      95.44816064      54.55159905      81.31603768
C      92.07688890      63.78669154      81.54280485
O      93.65292064      64.79769511      80.13684846
N      89.59945770      64.02101760      81.26690480
H      88.44672465      63.51457095      82.69931734
C      88.37680478      65.66130004      79.43576000
H      89.20261518      65.06225679      77.64807891
C      85.53276668      65.15674311      78.96710788
H      84.35546718      65.81814732      80.52424236
H      85.18694676      63.12906677      79.05214556
C      84.55766790      66.11294462      76.44810270
O      85.66504752      65.41563561      74.53192022
O      82.60558062      67.45842975      76.42920544
C      88.96261993      68.37305729      79.72299840
O      90.65959416      69.38595059      78.51924274
N      87.72862865      69.65807119      81.58626854
H      86.18283253      68.69997994      82.16830426
C      88.10657391      72.43218942      81.97177271
H      89.47095631      73.26177927      80.66975128
C      85.55166394      73.94774992      81.80925626
H      86.11858183      75.89227830      82.18153233
H      84.14003838      73.52067178      83.24922771
C      84.41026925      73.94586019      79.01057159
H      82.46385114      74.61671304      79.01624076
H      84.19295072      72.02967771      78.28680640
C      85.90504276      75.60503990      77.31548709
O      87.61713480      74.68285346      75.79614713
O      85.32867623      77.99554367      77.34383297
C      89.43883097      72.88005455      84.50022652
O      90.04165366      75.10426243      84.94809165
N      89.90937282      71.01111522      86.17452403
H      89.72606936      69.18941907      85.63595204
C      91.34745454      71.54212832      88.63683743
H      92.73073420      73.01611485      88.22865653
H      92.05988136      69.80358011      89.47965536
C      89.90937282      72.72887644      90.85348638
O      88.09523556      74.02333896      90.41695960
N      90.71628595      72.54935245      93.20619565
H      92.36412730      71.74432903      93.73720875
C      89.12135694      72.91973881      95.35670419
H      87.23163063      73.03690184      94.54223214
C      89.26497614      70.37238773      96.88171332
H      91.22462233      70.33648293      97.51288192
H      88.77931648      68.75100256      95.70819328
C      87.64926015      70.26845278      99.30623218
H      87.77587181      72.00322155     100.41172208
C      84.78065560      70.14184113      98.64293825
H      84.27987813      71.47409817      97.15383392
H      83.53721569      70.37427745     100.27188233
H      84.30066512      68.36360866      97.71886208
C      88.33145135      67.96865586     101.01076531
H      88.16893488      66.28679944      99.83346582
H      87.09746006      67.89117709     102.65860667
H      90.25897218      68.26534290     101.67027981
C      89.97362351      75.21953573      96.92895648
O      91.55721416      75.12882887      98.67884305
N      88.93427404      77.37382372      96.19763241
H      88.10846364      77.20374835      94.48743008
C      89.58056044      79.81346039      97.24265106
H      91.61579568      80.12526524      97.22942296
C      88.80955210      81.75987850      95.19985690
H      89.13080558      83.66094316      95.92551181
H      86.84612646      81.48397845      94.64049791
C      90.53487223      81.69751752      92.73187434
H      90.50652633      79.76432751      92.02322698
H      92.52286431      82.19829499      92.93407505
C      89.55788372      83.23386501      90.55868908
H      87.57556082      82.85214031      90.15050819
H      90.79943391      82.70852110      88.99966488
N      90.22306739      85.94373255      90.93285489
H      90.99407572      86.38214906      92.62415995
C      89.72606936      87.74842119      89.36816150
N      88.42404794      87.37425537      87.31780846
H      88.26342120      88.80666791      86.06491991
H      87.85146086      85.66405306      86.69419877
N      90.57077703      90.01798249      89.72531978
H      90.61990991      91.32189364      88.33259148
H      91.31154974      90.49041407      91.41851456
C      88.30121572      80.04778645      99.86559117
O      86.01653661      79.66039256     100.30778713
N      89.88669610      80.94540646     101.67783870
H      91.59689841      81.48964764     101.03155230
C      89.66937758      81.21941677     104.47274393
H      87.96862389      80.22353101     105.06989744
C      91.97484368      79.89282890     105.58012354
H      91.80854776      80.22353101     107.60591016
H      93.58678022      80.94540646     104.84879946
C      92.34523003      77.02989354     105.05100017
H      92.72695475      76.84470036     103.03655192
C      94.42014953      75.62393715     106.42672093
H      93.93260014      75.49354604     108.42227192
H      96.03397580      76.75588322     105.82956741
H      94.57132763      73.73232111     105.62736670
C      89.82811459      75.63338579     105.25887008
H      88.49207808      76.43274002     103.90960548
H      89.27631450      76.04345639     107.19961900
H      90.19094204      73.61137863     105.10769196
C      89.21584326      83.81590073     105.36469475
O      89.20072545      84.42439260     107.61346905
N      88.76797812      85.60736127     103.62236709
H      89.37458027      85.07634817     101.89326750
C      87.55099438      88.01865205     103.97385618
H      86.44361476      87.93361436     105.70862493
C      89.45961795      90.16538113     104.50297954
H      90.03598448      89.81011259     106.44750792
H      88.43349657      91.94928278     104.56345078
C      91.91815189      90.00286468     103.00631630
H      91.53264772      89.88570165     100.98808861
H      92.79120544      88.24541920     103.63181571
C      94.04220426      91.99652593     103.51843213
H      94.40503172      92.38958901     105.50831394
H      93.15214317      93.76342003     102.95151424
C      96.33066283      91.85668619     101.99153327
H      97.17914994      93.73318442     102.03310726
H      95.87712851      91.50330737     100.01487955
N      98.16558708      90.01231330     102.94206561
H      97.55331575      88.20762468     102.99686768
H      98.58510632      90.37136130     104.76943095
H      99.77185444      90.00853385     101.91027504
C      85.88614550      88.72918914     101.75531749
O      86.02220579      87.54244102      99.72008224
N      84.07956714      90.61135655     102.12192440
H      83.95673493      91.32756281     103.88692876
C      82.07456752      91.17638472     100.33235357
H      81.22985986      89.35090909      99.88448844
C      79.99019940      92.81477742     101.59091129
H      80.84624542      94.48340577     102.44317786
C      77.94173608      93.71050769      99.85047336
H      76.13326800      93.27209120     100.73297555
H      78.04189157      92.91871238      97.95318814
H      78.13637789      95.76086075      99.85992200
C      78.77888483      91.30866556     103.75653765
H      80.18673094      90.39592774     104.95084468
H      77.38237709      89.83656876     103.40693828
C      77.24253734      93.02642678     105.58390299
H      76.72286260      92.15337321     107.37536354
H      75.43028981      93.39303367     104.67872410
H      78.16661351      94.83867431     105.90893593
C      83.15927043      92.38203011      97.98342376
O      84.99797413      93.83145018      98.24609573
N      82.08023670      91.80566358      95.70441383
H      80.81412007      90.37892021      95.64772204
C      82.88148066      93.08311857      93.34603540
H      84.11736167      94.71395237      93.59169981
C      84.50097611      91.20095116      91.83236461
H      86.15448663      90.61513600      92.91139835
H      85.35324268      92.05321772      90.16184655
C      83.23485948      88.79910901      91.05568711
C      82.39204154      88.52320897      88.48754905
H      83.00431287      89.97073933      87.18552761
C      81.69284281      86.05333667      87.69953317
H      81.31867700      85.71507567      85.72098973
C      81.74764487      83.97085828      89.31524916
O      81.42828112      81.57279560      88.59148400
H      81.51520853      81.17406333      86.82270016
C      82.31456277      84.33935492      91.82102625
H      82.47518950      82.75009508      93.08903262
C      83.03832794      86.76576349      92.77533804
H      84.06822878      86.81678611      94.53467324
C      80.42483645      94.10357078      92.10259547
O      78.43117519      93.31933435      92.67707228
N      80.73853102      95.60212373      90.13916984
H      82.52999156      96.12935738      89.75177594
C      78.77699511      96.17471081      88.30424559
H      76.92317359      95.77975801      89.11115872
C      78.89604786      98.91670369      87.53134753
H      77.82079359      99.37401746      85.83626302
H      80.73097211      99.64424833      86.93608374
C      77.86236757     100.85556289      89.57414167
H      78.81478963     100.32266007      91.32213852
H      75.87437549     100.61934709      90.06169106
C      78.66928071     103.54653315      88.95809089
H      80.71774403     103.61834276      88.75777991
H      77.86236757     104.93170255      90.24877396
C      77.69229220     104.55375728      86.55813847
H      78.12881898     103.21394133      85.05580606
H      78.69762660     106.34521782      86.41073983
N      74.79912122     105.02429914      86.69230905
H      74.28889511     105.81420474      85.03123962
H      74.18496017     105.86711708      88.29101750
H      74.00732589     103.28764065      86.65262480
C      78.93195266      94.26041806      85.99688976
O      81.01065161      93.82956046      85.06714442
N      76.82112837      93.38358504      85.05958552
H      75.22997882      93.88436251      85.99122059
C      76.65105301      91.77542795      82.83348792
H      78.29511490      90.53576749      82.82025984
C      74.33802800      89.96507014      83.12639549
H      72.63349486      90.83056479      83.89740382
H      74.91628425      88.64037200      84.59282311
C      73.69552105      88.62714392      80.78691431
O      71.66028581      89.06745015      79.62095318
O      75.35659048      87.28921769      79.90441212
C      76.39216050      93.40437203      80.42408686
O      75.79878644      95.65881552      80.61683894
N      76.69451671      92.35557393      78.23389406
H      76.93073250      90.46206817      78.16964337
C      76.45263174      93.74830223      75.73945534
H      77.44662778      95.55110113      75.82260329
C      77.31623667      92.14581431      73.51146801
H      76.84380509      93.20217132      71.80693487
C      80.13003915      91.74330260      73.37918717
H      80.55333784      89.99908522      74.39019074
H      81.20907287      93.47240218      73.68343311
H      80.50609468      91.26142240      71.41387180
O      76.12003991      89.80633313      73.38485635
H      76.55467696      88.96540493      71.83906022
C      73.79189709      94.64781195      75.14041209
O      73.43851827      96.25029986      73.62863104
N      71.81335364      93.78042758      76.50668422
H      72.03067217      92.72785002      78.08271597
C      69.26600257      94.83867431      76.24590198
H      68.96364636      95.15047914      74.23334346
C      67.38194544      92.73162946      76.93187263
H      67.71453727      92.39714792      78.93687225
H      67.78634687      90.99497099      75.90197180
C      64.59459913      93.35901860      76.17031293
H      63.94075382      95.21661958      76.77880480
H      63.55713938      92.03621018      77.35895078
C      64.30736073      93.18705352      73.32627483
O      64.87616835      94.80843868      71.78236843
O      63.35493867      91.22362788      72.49101580
C      69.05435323      97.33500277      77.72744742
O      67.39139407      98.79198175      77.26446447
N      71.01399941      97.96806108      79.32993533
H      72.37649209      96.63013485      79.37150930
C      71.23320767     100.14313606      80.97399723
H      69.79890539     101.53397463      80.47510948
H      73.06435246     101.01807935      80.61872867
C      71.17840560      99.49684967      83.81425587
O      72.28011604     100.91981359      85.30713965
N      69.84236910      97.54287267      84.59093338
H      68.65184152      96.75674652      83.32292702
C      69.25088476      97.06855136      87.24410912
H      69.02600733      98.85245299      88.24944353
C      66.84904262      95.62102100      87.18174816
H      66.32936788      95.61913128      89.17729915
H      67.14761938      93.70861798      86.47876998
C      64.64940119      96.76052596      85.68886438
C      63.38328456      95.15803805      83.83882231
H      63.76500928      93.15870761      83.99189014
C      61.35938768      95.93849503      82.37050497
H      60.51845947      94.55143591      81.13084450
C      60.63184305      98.54064816      82.50467553
O      58.66652768      99.76519081      81.24611781
H      58.39440710     101.35445064      82.08137684
C      61.98677682     100.19415868      84.18653195
H      61.48410962     102.17270213      84.23566483
C      63.76311955      99.28709005      85.81358632
H      64.94041904     100.57210395      86.87183304
C      71.17462615      95.68338196      88.96376008
O      72.80168051      94.31522011      87.98299212
N      70.84014459      96.04242996      91.38827893
H      69.38694506      97.19894247      91.82858516
C      72.33869756      94.86135103      93.28367442
H      74.26999785      95.09945654      92.60715240
C      72.26310851      96.21817451      95.85748166
H      73.16450796      95.02008804      97.26910721
H      70.37527192      96.60745814      96.58124685
C      73.71441831      98.69182625      95.95385770
C      72.31791057     101.04831498      95.84236386
H      70.28267533     100.91981359      95.88582755
C      73.61615255     103.33866327      96.14472007
H      72.70908392     105.14713134      96.41306119
C      76.41861667     103.19126461      96.10314608
O      77.81890387     105.35122179      96.03700567
H      76.80412084     106.83276721      95.78189262
C      77.70174084     100.90091631      96.20141186
H      79.73886580     100.89902660      96.29022898
C      76.42806530      98.62190638      96.01432894
H      77.30867776      96.78131296      95.97086524
C      71.93240640      92.05510745      93.67484777
O      69.93496569      91.03087579      93.89783547
N      74.04512042      90.74741683      93.91673274
H      75.61359326      91.81700194      93.70130395
C      74.24543141      87.96007052      93.63705325
H      72.50121402      87.11725259      94.34192117
C      74.78211368      87.26465125      90.78734596
H      76.42050639      88.39470758      90.26200206
C      75.40194391      84.63037277      89.75744513
H      73.89961149      83.32268215      90.29034795
H      77.18584555      83.87637197      90.45475414
H      75.77422000      84.74564606      87.73354825
O      72.63916404      88.10746919      89.47209645
H      72.22720371      89.84034820      89.82925472
C      76.40538858      86.95851558      95.34914528
O      78.05134020      88.23786029      96.25999336
N      76.31846117      84.55289398      96.07668992
H      74.82557739      83.61747947      95.34536583
C      78.20251831      83.25087256      97.71508263
H      80.01665557      84.15038229      97.33146819
C      77.33324420      83.51354452     100.37014809
H      76.97419620      85.53744140     100.50242894
C      74.71030408      82.33057584     101.03722149
H      74.81990821      80.27644334     100.90494065
H      73.18151549      83.02599513      99.84480418
H      74.14527591      83.04111294     102.88348410
C      78.95273965      82.56490190     102.61136350
H      79.13037393      80.55990228     102.18050590
H      78.00031759      82.82568413     104.41983158
C      81.63426129      83.71763495     102.84191011
H      81.54544416      85.36358657     104.07779113
H      82.42227716      84.38470835     101.06178793
H      82.90604710      82.44395943     103.84724451
C      78.76187730      80.64682970      96.71163795
O      77.25198597      79.63204666      95.25276924
N      80.83868651      79.41094868      97.66783947
H      82.09535451      80.35770157      98.74687320
C      81.32056672      76.79367774      97.06501678
H      79.64248976      75.68629813      97.51666137
H      82.94195190      76.19274477      98.18373475
C      81.77410104      76.21164204      94.17940469
O      83.71107051      77.03745244      93.08147371
N      80.09413435      74.85292882      92.99643603
H      78.64093481      74.14806090      94.01121905
C      80.19995902      73.93074239      90.35459865
H      81.91394079      74.70741989      89.51556016
C      80.75931801      71.06969674      90.38672399
H      79.11525612      69.98688356      90.98576722
C      81.58512841      70.21365073      87.65417973
H      81.70229144      68.15951822      87.75433523
H      83.45784718      70.91284946      87.16285089
H      80.37003439      70.90907000      86.14050897
C      82.82667860      70.35915965      92.24054551
H      81.98764011      70.31947540      94.12271290
H      84.48585830      71.55913585      92.03645506
C      84.01153699      67.60393869      92.00432971
H      82.57723472      66.13940080      91.81913653
H      85.01498167      67.17875026      93.75421628
H      85.22663101      67.46976811      90.34703974
C      77.74709427      74.75277332      88.89572992
O      76.71908315      73.29390462      87.40662560
N      76.53577970      76.82769282      89.50233207
H      77.37859764      77.98231559      90.76466926
C      74.35314581      77.81224023      87.99999966
H      73.59725528      76.59336676      86.52412340
H      74.82935684      79.56401651      87.02868033
C      72.15539411      78.61159445      89.74043758
O      70.25432944      79.53567062      88.85793541
N      72.50877293      78.59080747      92.24432495
H      74.23031360      78.15239096      92.93785451
C      70.62093634      78.99331918      94.16239716
H      69.04112514      77.74798953      93.71075257
C      71.51477689      78.25443619      96.89683113
H      73.07380109      79.40716923      97.59791960
H      72.31602084      76.37793795      96.62093110
C      69.35481971      77.93507243      98.82435197
N      68.62916481      75.64850359      99.88259872
H      69.36993752      73.93452183      99.48386645
C      66.58826039      76.14739134     101.29800371
H      65.22009854      74.81513430     102.01420999
N      66.17818978      78.63994035     101.35658523
H      64.85538136      79.63393640     102.30522784
C      67.91106881      79.74543024      99.71063362
H      67.97154005      81.71074562      99.16450271
C      69.92551706      81.77121686      94.06791085
O      70.89872611      83.19984995      95.56646381
N      68.12838733      82.55923272      92.53156336
H      67.41029133      81.27421883      91.31457961
C      66.87360906      85.04233311      92.51644555
H      68.23799146      86.56356278      92.24243523
C      65.04813344      85.01776666      90.23554588
H      64.15240317      83.17528351      90.02956571
H      66.39172885      85.28421807      88.69541893
C      62.92030161      87.17772383      90.16184655
H      61.95087202      87.20795946      91.97976327
C      64.16185180      89.63814749      89.49855263
H      63.00911875      91.25953268      88.96376008
H      65.26356224      89.15059811      87.82803455
H      65.52812393      90.32222842      90.87805282
C      60.92097118      86.56923197      88.06425035
H      61.52757332      87.11158342      86.17452403
H      59.39407231      87.84668694      88.59526345
H      60.19720600      84.63982140      88.04724282
C      65.79268561      85.46374206      95.17906991
O      64.23744085      83.92739457      96.06724128
N      66.52400969      87.52921292      96.40361257
H      68.17752022      88.36447195      95.95385770
C      65.63016915      88.26620619      98.86403623
H      65.05191290      86.60513676      99.93740077
C      67.87894346      89.62869886     100.09424806
H      67.27801049      90.61513600     101.79878120
H      68.85026279      90.85135178      98.75065265
C      69.85559718      87.71251638     101.06367765
H      70.30346232      86.28388329      99.65016238
C      72.38594072      89.06367070     101.69106679
H      73.67473406      87.60480198     102.36191963
H      72.13838657      90.72285039     102.88537382
H      73.18907440      89.79877423      99.94306995
C      68.95608746      86.25931685     103.39182048
H      70.50377331      85.27854890     104.33290418
H      67.55768999      84.83635294     102.87025601
H      68.25499900      87.62747870     104.76187205
C      63.11872288      89.88759136      98.72608621
O      61.15340751      89.25075360      99.93551104
N      63.02612629      91.94928278      97.23320241
H      64.47176692      92.35368421      96.05401320
C      60.94364789      93.70861798      96.99320718
H      59.18620242      92.67304795      96.72486604
C      60.87372802      95.45850454      99.21552532