 %block lattice_cart
   140.777   0.000   0.000
   0.000 144.511   0.000
   0.000   0.000   162.462
 %endblock lattice_cart

 %block positions_abs
N      91.12541170      46.74608450      81.91508093
H      90.38463898      46.13570290      83.56481200
H      92.89419553      47.46229077      81.95287545
H      91.14808841      45.27209799      80.70565609
C      89.50024707      48.72840740      80.69242800
H      89.62307928      50.44238917      81.82815352
C      90.21834307      49.34067873      77.98256047
H      89.59284366      47.74574972      76.83927605
H      92.23090159      49.68082946      77.71043988
C      88.85774012      51.56677632      76.93187264
H      86.90754257      51.22662560      76.36495475
H      89.63063819      51.62913729      75.02513879
S      89.19789086      54.58844870      78.45499205
C      92.48034547      55.26308099      77.98256047
H      92.90175443      55.46339199      75.97378140
H      93.70677784      53.81177118      78.78002497
H      92.66364892      57.01107784      79.05214556
C      86.75447474      47.85157440      80.93998215
O      86.11007806      45.65193297      80.64140539
N      85.07639777      49.75263906      81.46910552
H      85.78126569      51.51953317      81.61650417
C      82.45912683      49.39548079      81.96799326
H      81.53694039      48.29566009      80.49022729
C      82.20401378      48.12180526      84.60794092
H      83.10541323      46.27743237      84.77612657
H      80.28027239      47.65126341      85.18430745
C      83.08084678      49.69216782      86.88128168
O      83.41343862      51.92960378      86.74522138
N      83.23580434      48.42416147      89.04879776
H      83.90854691      49.51075410      90.46609249
H      83.25470161      46.52687625      89.24721902
C      81.19489992      51.94472159      81.93397819
O      82.40810422      53.88547052      82.01523642
N      78.62487214      51.99952365      81.95476518
H      77.90488641      50.25719599      82.25145221
C      76.94490545      54.30498976      82.25145221
H      77.26804865      55.33489059      80.49778619
C      74.19157421      53.55665813      82.40074059
H      73.96480705      52.41904289      80.69809718
C      73.56229535      52.00519283      84.77801629
H      73.90055636      53.21650741      86.40885010
H      74.49015097      50.18916584      85.07092387
H      71.51572175      51.77464622      84.72510395
C      72.21681021      55.77141737      82.37050497
H      72.46814381      56.97139359      84.02590522
H      70.28362019      55.06088028      82.42719676
C      72.72892604      57.29075734      80.00834708
H      71.34186693      58.78742057      79.73433676
H      72.88010415      56.11534757      78.32271121
H      74.54495303      58.26018692      80.09338476
C      77.86709189      56.07377358      84.44164501
O      77.79717201      58.41514448      84.13550935
N      78.83652149      55.08166728      86.62238917
H      78.67211530      53.18438206      86.72632412
C      79.72658258      56.88446618      88.58959426
H      78.30172894      58.33388625      88.92029637
C      80.04405660      55.47095090      91.18985767
H      80.55050325      56.80887712      92.67518255
H      81.49914586      54.01019246      91.15395287
C      77.48536717      54.23129043      92.06480095
C      77.38332195      51.56488660      92.65628529
H      79.01604549      50.35168230      92.48243047
C      75.10620174      50.62191317      93.49343405
H      75.01360515      48.62069300      93.87515876
C      72.94057539      52.21684218      93.46319843
H      71.12454840      51.32867081      93.73531902
C      73.07096650      54.84923094      93.00588466
H      71.40044844      56.01708179      92.92651615
C      75.40666823      55.84889615      92.41817977
H      75.69390663      57.84633686      92.11204411
C      82.06984321      58.26207666      87.69953317
O      82.25314666      60.52974823      88.09637570
N      84.04649693      57.05076208      86.67719124
H      83.84429621      55.20260975      86.24444391
C      86.40298564      58.12223691      85.66618766
H      87.00958779      59.61890014      86.94553237
C      88.70089284      56.26652566      85.70776164
H      90.29771157      57.11501278      84.72132450
H      88.30594004      54.81143641      84.30180526
C      89.55882859      55.06654947      88.20597982
H      91.18399321      53.83255817      87.93196951
H      87.91098724      53.96672874      88.77478744
C      90.39975679      56.78431068      90.29223767
O      91.71311658      55.74496120      91.90606394
O      89.98968618      59.16158638      90.22231780
C      86.05338627      59.73795291      83.25867634
O      87.47446046      61.53319290      83.04702699
N      84.37341958      58.96316511      81.51445895
H      83.48524822      57.29453678      81.77335145
C      83.53060165      60.16503106      79.12773462
H      85.14442792      60.21416394      77.84838990
C      81.35174721      58.53608697      78.07326733
H      79.84563534      58.47183628      79.47733398
H      82.06984321      56.63124284      77.75201386
C      80.58451832      59.50740629      75.31804637
H      82.20590350      59.18615283      74.08783454
H      80.34452308      61.54264154      75.51835736
S      77.84441517      57.79531426      74.64719353
C      77.87843024      57.38146419      71.18521492
H      76.61609307      55.84889615      70.64097374
H      79.79272300      57.23406554      70.43877303
H      77.16600342      59.22583708      70.60884840
C      82.53471588      62.78797117      79.72866758
O      83.34162902      64.76273517      78.62317769
N      80.73191698      62.97127462      81.48422333
H      80.03649769      61.32910246      82.16452480
C      79.68878805      65.48461063      82.26468030
H      79.20879757      66.67891765      80.65841293
C      77.18868014      64.93847971      83.72732846
H      76.85608831      66.65246149      84.82148000
H      77.33985825      63.28685892      84.94809166
C      74.95880309      64.36589265      81.84705078
H      75.28950520      62.83899378      80.50534510
C      72.74026440      63.23394658      83.29458114
H      73.39221998      61.53319290      84.25267238
H      71.15100457      62.79930953      82.05681040
H      71.89933619      64.44715088      84.73077313
C      74.03661665      66.64868204      80.42975605
H      72.19035404      66.36900253      79.55670249
H      75.24793122      67.29685815      78.89340855
H      73.92890225      68.13211718      81.85083023
C      81.36497529      67.21937937      84.02401549
O      81.50103559      69.44736671      83.83504286
N      83.01092691      65.93625521      85.44697941
H      82.98258102      64.02952136      85.35249309
C      85.13875874      67.30819651      86.65640425
H      84.63231209      69.10154679      87.53134753
C      85.98724585      65.67358325      88.91462719
H      87.35918716      64.32053921      88.18708256
H      84.29027162      64.73249956      89.60815675
C      87.13430973      67.32142461      91.14450424
H      85.78693486      68.85399265      91.42418373
H      88.81994560      68.23983158      90.39239317
C      87.86752354      65.89468124      93.49343405
H      86.31605823      64.99706123      94.50821708
H      88.85396067      67.21371020      94.73120478
N      89.76480875      63.88779188      93.20997510
H      89.77425739      63.10166574      91.47142689
C      91.75469056      63.22449795      94.60459312
N      92.43877149      64.30920086      96.64927699
H      94.08283338      63.81976175      97.48642575
H      91.28225898      65.54319215      97.53177918
N      93.23434626      61.43870658      93.88649712
H      94.37952041      60.83210444      95.29056377
H      92.69388454      60.12156734      92.61660104
C      87.29115701      68.00550552      84.70998614
O      89.18844223      69.31130641      85.59059861
N      86.93210901      67.34788076      82.40640977
H      85.43544577      66.23861143      81.99444943
C      88.40609553      68.47415765      80.23322451
H      90.02181153      69.34154202      81.17052876
C      89.56827722      66.50506283      78.36995436
H      88.06972425      65.11422426      78.12051049
C      90.19566635      67.57275820      75.80181630
H      91.31249460      69.29996805      75.91331016
H      88.60829625      67.89590140      74.53192022
H      91.43343709      66.16302237      74.95143946
C      91.69232959      65.04619411      79.88362514
H      91.06871991      64.46604815      81.75823364
H      93.23056681      66.38412034      80.18031217
C      92.55215507      62.56309374      78.64585441
H      93.65953468      61.17414490      79.68898333
H      93.66142441      63.32843290      77.08683020
H      90.93076989      61.51807510      77.92586868
C      86.99258025      70.60765865      78.88773937
O      88.22657153      72.52951032      78.63262632
N      84.74569567      70.28640519      78.02791390
H      84.09185036      68.49494465      78.08460569
C      83.28115777      72.16290341      76.61439862
H      84.67010661      72.73738022      75.20655252
C      81.02482456      70.84009499      75.38040734
H      79.66989079      72.21959520      74.66798052
H      79.97602645      69.65523659      76.69754658
C      81.83362742      69.09965707      73.32816456
O      83.54571946      69.64389823      71.72567665
O      80.56940051      67.19103348      72.81793846
C      82.40243504      74.45325170      78.25846051
O      82.37786860      76.68123902      77.33438434
N      81.85630413      74.11121124      80.64329512
H      81.60874999      72.28573563      81.14407259
C      81.57662464      76.22203554      82.26279057
H      80.92655879      78.01916525      81.48800278
C      79.58863256      75.69858135      84.31881280
H      79.80784081      77.19713431      85.71343082
H      80.25003677      73.93357696      85.15218210
C      76.88443420      75.02205932      83.62906269
H      75.87909981      74.33419894      85.28824240
H      77.14521644      73.44224812      82.33082072
C      75.46713947      77.07997128      82.11728164
O      76.43089989      79.19268529      81.89051449
O      73.26560831      76.77572535      81.22533082
C      84.10696817      76.90989591      83.51189966
O      84.54727440      79.21914147      83.77268189
N      85.76047870      75.14111209      84.23188539
H      85.14253819      73.36854880      83.88417575
C      88.06594480      75.58708749      85.73610753
H      88.83695313      77.37098914      85.05391633
H      89.37741486      74.04507083      85.35438282
C      87.45934265      75.58519777      88.51400521
O      85.58284442      74.34742704      89.33792588
N      88.92388054      77.12721443      89.88405679
H      90.28259376      78.16467418      89.03556967
C      88.30027086      77.77350083      92.54857089
H      86.27070480      77.59775630      92.83958874
C      89.63819709      76.11621086      94.39105405
H      91.66398370      76.10109306      94.02066769
H      89.26025183      74.16034412      93.86382040
C      89.05616139      76.44502324      97.21808461
H      89.44544501      78.41411805      97.68484701
C      86.39731646      75.62866148      98.03444638
H      86.39731646      75.18646552     100.04511517
H      85.94567187      74.05074000      96.79289619
H      84.95734501      77.06296374      97.68862646
C      90.96100551      74.92757302      98.64104852
H      90.55660408      75.10709701     100.65360705
H      92.82238593      75.81007519      98.63915880
H      90.95911578      73.01894943      97.86626074
C      88.93332918      80.53250125      93.11548878
O      91.10462471      81.24114862      93.52177994
N      86.91510147      82.04239258      93.53878748
H      85.15954573      81.49248223      93.03801001
C      86.97179326      84.44612445      94.83325000
H      88.93899835      85.02627043      95.02033291
C      85.68111019      86.49836723      93.26855662
H      84.69278333      87.84574209      94.47231228
H      84.03704830      85.51759927      92.50510719
C      87.38186387      87.56039341      91.23899056
H      88.08106261      85.84452193      90.34137056
H      89.17143469      88.11030376      92.10070575
C      86.11196779      89.26492655      89.29635191
H      84.37530931      88.35407846      88.67085250
H      87.34595907      89.13831488      87.65229001
N      86.07984244      92.00125024      90.07869860
H      86.36708084      92.54171197      91.88527695
C      85.82661912      93.80971833      88.51778466
N      85.21812724      93.06138670      86.12350143
H      84.86474842      94.35206978      84.76289848
H      84.73246758      91.25858780      85.72476917
N      85.98346640      96.20022212      89.04123885
H      85.39198207      97.48145655      87.75811469
H      86.19511575      96.69533040      90.87427338
C      86.01559175      84.38943266      97.56768398
O      84.35830177      82.97591737      98.05523337
N      86.88675558      86.01270756      99.14182600
H      87.94122286      87.48291463      98.53522385
C      86.42377263      85.69523355     101.97452574
H      84.82128472      84.42344773     102.20696208
C      88.90498328      84.76359847     103.12158961
H      88.75947436      85.00926290     105.16060430
H      90.47156639      85.92766987     102.46207513
C      89.54560050      82.05184121     102.37514772
H      89.39631212      81.83074323     100.33235357
C      92.16854062      81.33374521     103.05733892
H      93.58583536      82.66222280     102.36758881
H      92.53514753      79.47425452     102.25420523
H      92.38963860      81.08808079     105.09068443
C      87.76736804      79.87298677     103.58457256
H      87.79382421      79.65188879     105.63303588
H      88.42688252      78.01349608     102.99308822
H      85.81717049      80.19612997     103.00253685
C      85.63386703      88.22368735     103.12347934
O      84.39420657      88.09707568     105.10769197
N      85.93433352      90.34018081     101.78555311
H      86.83384324      90.35529862     100.10369669
C      84.65120935      92.71178735     102.26365387
H      84.19578531      92.65320582     104.27054321
C      86.66565760      94.83395000     102.06901206
H      87.76358859      94.57883693     100.34558166
H      88.13964412      94.64308764     103.49764515
C      86.17621849      97.52869971     101.97641547
H      85.37875398      97.94821895     103.83023698
H      84.61719428      97.95199841     100.69896048
C      88.50814076      99.33716779     101.56067568
H      89.43788610      98.86473621      99.78244322
H      89.74402176      99.06882666     103.18584031
C      87.66154337     102.07349149     101.24698111
H      86.11196779     102.29458948     102.58490734
H      86.86974804     102.52513608      99.39882878
N      89.74213204     103.86306232     101.88570860
H      91.23690555     103.15441494     100.93517627
H      90.36196227     103.91030548     103.69039723
H      89.14686825     105.57515435     101.27721673
C      82.19267542      93.16910111     100.89549202
O      82.03771786      92.68155172      98.65238688
N      80.20090388      94.41065130     102.08412987
H      80.30105938      94.74891231     103.96251782
C      78.03338780      95.40653707     100.47408305
H      76.95624380      93.73790873      99.93173160
C      76.14933067      96.93910511     102.07846069
H      77.07907601      98.62663070     102.81167450
C      73.96480705      97.78003331     100.42872962
H      72.43979792      98.70788893     101.45485100
H      72.88199387      96.24368583      99.58969113
H      74.63188044      98.95166363      98.86970541
C      75.08730448      95.36307336     104.29888910
H      76.60097526      94.79993491     105.57823382
H      74.12165433      93.76247517     103.43717391
C      73.25238023      96.91264893     105.89948729
H      71.48170668      96.90886948     104.84690974
H      74.16889749      98.75891154     105.90515647
H      73.10876103      96.32494406     107.86858211
C      78.77227079      96.60273383      97.86626074
O      79.87587096      98.73812455      97.69996482
N      77.75748776      95.62952476      95.79323097
H      76.80128625      94.02514712      96.19007350
C      78.36220018      96.40431255      93.25343881
H      79.03494275      98.35262038      93.24399017
C      80.48625256      94.70355887      92.20842015
H      81.94701100      94.41254102      93.63138407
H      81.38009310      95.84684329      90.74766171
C      80.08752030      92.08817766      91.08214327
C      79.57540447      91.76125501      88.41951890
H      79.77760519      93.35051484      87.15718172
C      78.74959408      89.28571353      87.58992905
H      78.30739812      88.67911140      85.69264383
C      78.74014544      87.25614748      89.39461767
O      78.08252069      84.90343821      88.65195523
H      77.59875075      85.03760879      86.90773785
C      79.41855719      87.71346124      91.91740230
H      79.58296338      86.12609115      93.19107784
C      80.15366073      90.07750886      92.70730790
H      80.80183685      90.30994520      94.62915956
C      76.08696970      96.26258308      91.47142689
O      73.94402006      95.95833715      92.42762841
N      76.32696494      96.82572153      88.97131898
H      78.01449054      97.28492501      88.20786955
C      74.22747901      97.15831335      87.13639473
H      72.51538697      97.02981196      88.27589970
C      74.50526878      99.92865213      85.96098496
H      73.13143775      99.94565966      84.42652720
H      76.46491496     100.23478779      85.40918488
C      73.52261109     101.97900519      87.82425511
H      74.42023109     101.99790244      89.67807662
H      71.56296491     101.56515512      88.30613532
C      73.60953850     104.52824598      86.39373229
H      72.61365274     104.46210555      84.59282311
H      75.52572099     104.83438163      85.70020273
C      72.41334175     106.71087987      87.83748319
H      73.30718229     106.63529081      89.69319443
H      70.41779076     106.51812778      88.30424559
N      72.72325686     109.10138366      86.60538164
H      72.17523623     110.49222223      87.79401949
H      71.48926558     109.40940904      85.18430745
H      74.43534890     109.36216588      85.80413768
C      74.25393518      94.79237602      85.28824240
O      76.22680945      94.05160330      84.34715869
N      72.01083004      93.89097656      84.72510395
H      70.52361543      94.60718284      85.68508492
C      71.41556625      92.25447357      82.55569815
H      72.70246987      90.67088293      82.83159819
C      68.71514735      91.23591110      82.66530227
H      67.69847460      92.95745177      82.17208371
H      67.99516163      90.93733434      84.57392585
C      68.08586849      89.09107173      80.77557596
O      67.71170268      89.51437043      78.48711740
O      67.82886571      86.93678372      81.57304046
C      72.02027867      93.41098608      79.96488337
O      71.97681497      95.79393096      79.76835184
N      72.58530684      91.91054339      78.09027487
H      72.61743219      90.04916296      78.51168384
C      72.54940204      92.64375720      75.39930460
H      74.14622078      93.88719711      75.02702852
C      72.50404861      90.34585000      73.77413997
H      72.35664996      90.93544460      71.80504515
C      74.89833185      88.86430456      73.71177900
H      74.65644688      86.93867345      73.02391862
H      75.52005181      88.70556755      75.66953546
H      76.46491496      89.79027046      72.74234940
O      70.43479830      88.68289085      74.23145374
H      69.41245636      89.24980873      75.61851285
C      70.36109897      94.42198966      74.70199559
O      70.77683876      95.76369533      72.87274052
N      68.25972331      94.34451087      76.04748073
H      68.10287603      92.94989286      77.33816380
C      66.09220723      96.13975088      75.39363542
H      66.56274908      96.97689963      73.57193926
C      63.66201919      94.79426574      74.99112372
H      62.12000252      95.94132962      74.25035100
H      63.05730677      94.17065605      76.85817331
C      64.00972883      92.36029824      73.39241526
H      62.19370185      91.40787618      73.20911180
H      65.44025165      91.26803643      74.39397020
C      64.64656660      92.87052435      70.67687854
O      65.55363523      91.03748982      69.45233589
O      64.39523300      94.90009041      69.59595509
C      65.82953527      98.44899642      77.23233912
O      64.09665624      99.99290282      76.78636371
N      67.49438415      98.74379373      79.01624076
H      68.91734807      97.49846410      79.27702299
C      67.49249443     100.86784611      80.85872392
H      66.67991211     102.62340185      80.14629710
H      69.49560432     101.30059343      81.05525545
C      66.66101485     100.21400081      83.62150379
O      66.93880462     101.95254901      85.17485882
N      65.41757494      98.09183816      84.19220113
H      65.65945990      96.64997697      82.96765848
C      64.21003982      97.46066956      86.58648437
H      63.25194858      99.01402459      87.54079616
C      62.19937103      95.46322886      86.37861448
H      60.74617149      95.93755015      87.75811469
H      63.32564791      93.77381353      86.72443439
C      60.73294341      95.18354935      83.87472711
C      61.19970581      92.94611341      82.48577827
H      62.37322585      91.46456797      83.25678661
C      59.92225082      92.48879963      80.23700396
H      60.17169469      90.75025142      79.19576476
C      58.07598821      94.22923757      79.32804560
O      56.57932497      93.73223956      77.29470009
H      55.38123849      95.04748907      76.94132127
C      57.60922581      96.42132009      80.79069377
H      56.13334956      97.71389289      80.22566560
C      58.98305684      97.03359141      83.05080644
H      58.91313697      98.82505197      84.02590522
C      66.16590656      96.61785163      88.49699768
O      68.12933220      95.66542957      87.62205439
N      65.75961540      96.78603728      90.94041380
H      64.13823022      97.61373739      91.51111114
C      67.56808348      96.01691866      92.78478668
H      69.35954403      96.64808726      91.98921190
C      67.28462453      97.50791273      95.25654870
H      68.94002478      97.12051884      96.41873038
H      65.76906403      96.83517015      96.47731190
C      67.40556702     100.30281794      94.95419249
C      65.23994066     101.69365651      95.07324524
H      63.40123696     100.80926460      95.03923017
C      65.24749957     104.36195007      94.67073354
H      63.64879111     105.61861805      94.84836781
C      67.74382803     105.61105915      94.59703421
O      67.88933695     108.18486640      94.63482874
H      66.11488395     108.56659110      94.61026230
C      69.99449207     104.21644113      94.73309451
H      71.73681973     105.26712897      94.58947531
C      69.77339409     101.49523525      94.72553560
H      71.41178680     100.27636177      94.72931506
C      67.99705135      93.18799838      93.13816550
O      66.14889902      92.05983177      94.04334440
N      70.24393594      92.11652355      92.76588942
H      71.68768684      93.17666002      92.10826466
C      71.12832785      89.51059097      93.38194019
H      69.62977489      88.28037914      94.07735948
C      71.96169716      88.10841404      90.96875969
H      72.85175825      86.33963021      91.53189813
C      69.64300297      87.24102966      89.32658753
H      70.33653253      85.83507328      87.99055102
H      68.67357337      88.76036963      88.33070176
H      68.23893632      86.28671787      90.49443839
O      73.65678166      89.60129783      89.61004647
H      75.30084355      89.46145809      90.36593700
C      73.25049050      89.25547792      95.24710007
O      74.50715850      91.06016654      95.94818853
N      73.65489194      86.87253304      96.21652966
H      72.55885067      85.46468694      95.53811792
C      75.99815256      86.28104870      97.69051619
H      77.58741239      87.26937556      96.82880099
C      75.60319976      87.08040292     100.57612827
H      74.97770035      89.03437994     100.75565227
C      73.36387408      85.51381982     101.54555787
H      72.37554722      86.24514390     103.20095812
H      74.25771463      83.77338188     102.18806481
H      71.89366701      85.30406020     100.12070423
C      77.95401930      87.08607210     102.19751344
H      79.38643184      88.25959214     101.29422427
H      78.80061669      85.21713278     102.36569909
C      77.75937749      88.01392773     104.86580700
H      79.55650721      87.51503998     105.74075028
H      76.58963690      86.72135492     105.95995853
H      77.13198835      89.96790473     105.02643374
C      76.73892528      83.46535650      97.28233530
O      75.07029694      82.14254808      96.67573316
N      79.10297290      82.75859886      97.96263678
H      80.52026763      83.81684559      98.68073278
C      79.63587572      80.07140803      98.03633610
H      78.30172894      79.12654488      99.29111438
H      81.48780750      79.53661548      98.76199101
C      79.57729420      78.97347705      95.31890967
O      80.80372658      80.04495187      93.66161969
N      78.14110220      76.92879318      94.87860343
H      77.31340208      76.00093756      96.32613379
C      78.27527277      75.53039570      92.59203460
H      79.90988603      76.28817595      91.59047965
C      78.81006532      72.74871857      93.12871687
H      77.20757740      72.04007121      94.20964032
C      79.04250165      71.19158408      90.65128567
H      79.01793521      69.17902556      91.09348163
H      80.45790666      71.74338417      89.26233683
H      77.38332195      71.29173958      89.43430193
C      81.17222321      72.36510413      94.81813219
H      80.99080948      73.49327074      96.53400368
H      82.78982893      73.17579671      93.83736424
C      81.84118632      69.48516122      95.47953640
H      82.05661512      68.30786173      93.80523889
H      80.26893403      68.65179192      96.51888587
H      83.47202013      69.23571735      96.71163796
C      75.82996692      76.07841633      91.06324601
O      74.02149884      74.67434969      91.20119603
N      75.58619223      78.43868449      90.16751574
H      76.80506570      79.76905182      90.78923569
C      73.28828503      79.43834971      89.05068749
H      72.54373286      78.13443857      87.64284138
H      73.85898238      81.15044176      88.05858117
C      70.95258331      79.64999907      90.86671447
O      68.89278163      79.73692647      89.79523965
N      71.16612238      79.61220454      93.44052171
H      72.82719181      79.78416964      94.36081842
C      68.98159876      79.83141280      95.07135552
H      67.55674512      78.53506054      94.34003144
C      69.37277211      79.13410379      97.82279703
H      70.50282845      80.61375949      98.70151977
H      70.37432706      77.38421722      98.24231627
C      66.83109022      79.00182294      99.21363560
N      65.33631671      76.81540960      99.36292398
H      65.75583595      75.17701689      98.47853206
C      63.35210408      77.24437747     100.88604338
H      61.96504496      75.88188479     101.50398389
N      63.59587877      79.58952783     101.80256065
H      62.40535119      80.39077178     103.06111837
C      65.77473321      80.81218075     100.71974747
H      66.36621755      82.72647351     101.10336191
C      67.62099582      82.42978647      94.69718971
O      68.83797956      84.31951279      95.36237337
N      65.28151464      82.66033308      93.71264230
H      64.39712273      81.05973489      93.16462167
C      63.96248568      85.10374920      93.47453678
H      65.20970504      86.68733986      93.05690727
C      61.81953604      84.70879640      91.58292074
H      60.51940433      83.28016332      92.29723729
H      62.86077524      84.09841481      89.91240268
C      60.33799061      87.16733034      91.03867957
H      59.28352332      87.79660921      92.69030036
C      61.94047852      89.20256557      89.92185132
H      62.64345671      90.43088768      91.41473510
H      60.68381052      90.39120342      88.80313334
H      63.38989860      88.36163737      88.72187511
C      58.50495608      86.58151519      88.79746416
H      59.62367406      86.11664250      87.13072555
H      57.39757646      88.25959214      88.34770930
H      57.15947095      85.10374920      89.29635191
C      62.91557730      85.85775000      96.02566731
O      61.94047852      84.38565321      97.54689699
N      63.27840475      88.33329148      96.56801876
H      64.04941309      89.47846563      95.24898979
C      62.48660943      89.25547792      99.06812667
H      62.00850867      87.71724069     100.35503029
C      64.72782483      90.85796583     100.12826313
H      64.19870146      91.94644819     101.79689147
H      65.26639683      92.26770165      98.72608621
C      66.92179708      89.16477105     100.98997833
H      67.42635401      87.69645371      99.63693429
C      69.05718782      90.93544460     101.25831947
H      70.68424217      90.10963420     102.21830043
H      68.43924731      92.62674965     102.25798469
H      69.78473245      91.34173577      99.37426233
C      66.27740041      87.89487497     103.48819652
H      64.90923856      86.36608638     103.30867252
H      65.52717906      89.34051559     104.74864397
H      67.94413902      86.97835771     104.28377129
C      59.92792000      90.74836171      98.71663758
O      57.99284025      90.06617051      99.82590692
N      59.96382480      92.75336132      97.13304693
H      61.70615246      92.98957712      96.39227421
C      57.79441899      94.23679648      96.36203859
H      56.15413655      93.01036409      96.14660979
C      57.14813259      96.05093374      98.56923892