 %block lattice_cart
   140.777   0.000   0.000
   0.000 144.511   0.000
   0.000   0.000   162.462
 %endblock lattice_cart

 %block positions_abs
N      89.12324667      40.41739107      78.15169098
H      90.90714830      39.74086906      78.14413207
H      88.73018359      41.03155213      76.38857633
H      87.87224785      39.00009635      78.42381156
C      88.80955210      42.42994961      80.26440499
H      89.15537202      41.74586867      82.17302857
C      90.18905230      44.94895478      80.01685085
H      92.21105947      44.57478896      80.14346251
H      89.67882621      45.99019397      81.71760453
C      89.68260566      46.56278104      77.71516420
H      87.64170123      46.84624000      77.77185599
H      90.21550848      45.62358708      75.96149818
S      91.42871278      49.48996711      77.61122925
C      90.98462708      50.47829397      74.32688492
H      88.98529665      50.46506589      73.83744580
H      92.13924987      49.36335544      73.03620185
H      91.72162034      52.39636617      74.15680955
C      85.95606537      42.98363941      80.52329750
O      84.50097611      42.84002021      78.76396230
N      85.18505703      43.68283815      82.74750537
H      86.52676271      43.88881831      84.09110078
C      82.69061830      44.33290399      83.52040343
H      81.19017561      43.47874771      82.39790600
C      82.27109906      43.57134430      86.13956410
H      83.67894516      44.69006228      87.14489850
H      82.36747510      41.51532207      86.10743875
C      79.80122676      44.37447798      87.38678347
O      79.37036916      46.46262556      88.25794730
N      77.90394155      42.78332842      87.14678823
H      76.39593995      43.36725386      88.15968153
H      78.14960597      41.18084051      86.14145383
C      82.37314427      47.28843595      83.43725547
O      84.20617881      48.70006150      83.44859383
N      80.01665557      48.31833679      83.41079930
H      78.53511013      47.16938319      83.77929594
C      79.35525136      51.03009406      83.42969657
H      80.09035489      51.83511746      81.68169973
C      76.45263174      51.28520710      83.31064381
H      75.73264602      50.40270492      81.59288259
C      75.12793360      50.08334116      85.58965374
H      73.08513945      49.87925073      85.40635029
H      75.43217953      51.26253039      87.25261290
H      75.56446038      48.09156963      85.88067160
C      75.55690147      54.07444315      83.27095956
H      76.08413511      54.96828369      85.05297147
H      73.51977651      54.20861371      82.98750061
C      76.77577493      55.65803379      81.00706743
H      76.59058176      54.49963157      79.31387266
H      78.72786222      56.02275097      81.55130861
H      75.78555836      57.45516351      80.85022015
C      80.46641042      52.72895800      85.66335307
O      81.19206533      54.94182752      85.26462082
N      80.94640091      51.67827017      87.98771643
H      80.35113713      49.87736100      88.19747606
C      82.27676823      52.78376008      90.01161332
H      81.46607564      54.65269939      90.31585925
C      81.98952984      51.05088104      92.34164586
H      83.81122601      50.30443915      92.94824801
H      80.64782415      49.52587191      92.00149512
C      80.64404470      52.54376482      94.42790371
C      78.11559089      53.12202109      94.48837495
H      76.85892290      52.50597031      93.00305007
C      77.04033663      54.59978705      96.56896362
H      75.00321166      54.53364663      96.43479305
C      78.55778685      55.60512146      98.44546185
H      77.84158057      56.68793464     100.01960387
C      81.16938862      55.05710083      98.39632897
H      82.24842234      55.69771805     100.00826551
C      82.17094356      53.42815674      96.40833689
H      84.18728154      53.12580053      96.31574030
C      85.09812963      53.35067797      89.50327694
O      86.26598049      54.74151654      90.87332851
N      86.19417089      52.04298735      87.60410199
H      85.16238032      50.90348239      86.46837648
C      88.81900074      52.24707779      86.79151968
H      89.94149817      53.13146971      88.27306511
C      89.86779884      49.59957123      86.11310793
H      91.78776077      49.80555141      85.39879139
H      88.79632402      48.99674853      84.46148713
C      89.59567824      47.53976956      88.11999728
H      87.64170123      47.12025032      88.61888502
H      90.39692221      48.32022652      89.84720713
C      90.91281749      44.96218287      87.43402662
O      89.70339265      43.43906345      86.09799012
O      92.91781711      44.42928004      88.38077951
C      89.15537202      53.87602189      84.45959741
O      90.61802019      55.73173311      84.47093577
N      87.48485396      53.45650264      82.61144507
H      86.42660721      51.87291199      82.73049783
C      87.27698406      54.79442887      80.18692621
H      88.86435417      54.49207266      78.90947123
C      85.03198921      53.67004171      78.63735064
H      83.28399236      53.85523489      79.71449464
H      85.49119269      51.67260099      78.43326020
C      84.68805901      54.98151178      76.07866121
H      86.27731884      54.53175692      74.84466993
H      84.37058500      57.00540865      76.29975919
S      81.79488803      53.94405203      74.44782740
C      82.53566075      55.40292075      71.45450092
H      84.51987336      55.05899055      71.02175360
H      82.17472302      57.42492789      71.59056122
H      81.19962423      54.88135628      69.97673495
C      86.94817169      57.63468751      80.38534748
O      88.21617804      59.20127064      79.20993771
N      85.24363855      58.39624722      82.12389569
H      84.35924664      57.02430591      83.10844309
C      84.68427955      61.06643050      82.67947522
H      84.67294121      61.78830595      80.75006466
C      82.13314904      61.22894697      84.21582271
H      82.21629699      62.72372047      85.63122772
H      81.77977022      59.28630831      84.79974814
C      80.04878092      61.81098266      82.26751489
H      80.00342749      60.62234482      80.58376874
C      77.39182572      61.77885733      83.50528562
H      75.92728783      62.41191563      82.20704364
H      77.23497843      62.98639243      85.16635505
H      77.17072774      59.86267483      84.23094052
C      80.27554807      64.61344680      81.50973463
H      79.78421922      65.98349837      82.96860335
H      78.60880947      64.87233930      80.32676596
H      82.12559014      64.96493589      80.67258588
C      86.82344975      62.46671769      83.96637884
O      87.06155527      64.74950709      83.53741097
N      88.32011299      61.27241066      85.54619004
H      88.38247395      59.36567682      85.58776402
C      90.60668183      62.54041702      86.78962995
H      90.01330777      64.35077483      87.57953555
C      92.04098409      61.01918735      88.81352683
H      93.12190754      62.50451222      89.74516191
H      93.40914595      59.72661455      87.97448835
C      90.67282224      59.47717067      90.71459150
H      89.13647475      58.47750545      89.77350780
H      89.96795434      60.96060583      91.95614169
C      92.28853825      57.60445189      92.10165062
H      93.87023916      58.46994654      93.09564666
H      93.09734110      56.17959826      90.85065180
N      90.68038115      56.13613455      93.91200843
H      89.75441525      54.61112542      93.23359668
C      90.20228040      56.68226546      96.26471769
N      90.86935378      58.85545072      96.98281368
H      91.03564969      59.27496996      98.83852492
H      91.50808127      60.15558241      95.73937377
N      88.99852473      55.34244949      97.98436863
H      89.05710624      55.91692629      99.80417507
H      88.68105071      53.51319442      97.54784185
C      92.71939585      63.42669867      84.99627968
O      93.97228438      65.20682086      85.56886675
N      92.98017807      62.08499298      82.90813211
H      91.97673341      60.46360780      82.83821223
C      94.65447559      62.60466772      80.83888179
H      96.10578539      63.85566653      81.59477232
C      96.34767036      60.30298108      80.05464537
H      97.51930068      60.97383392      78.49940062
C      98.15424871      59.62456932      82.23916899
H      97.01852321      58.91592196      83.80197265
H      98.98950774      61.34422027      83.00261842
H      99.65658114      58.35656296      81.62689766
C      94.99651604      57.98050744      78.95671438
H      93.43938156      57.25863198      80.09621935
H      96.43648749      56.50841064      78.86411780
C      93.94960768      58.50585134      76.30353864
H      95.51997023      58.97450348      75.05442955
H      92.37357593      59.82677003      76.42070167
H      93.14647399      56.76352368      75.55520702
C      93.29765209      64.04652889      78.62412255
O      94.55243036      64.83643450      76.85155927
N      90.77486746      64.19770700      78.59766639
H      89.99630022      63.36622743      80.13212415
C      89.38402890      65.43547774      76.57376950
H      90.62935853      65.40713184      74.93159734
C      86.73274288      64.12022823      76.28653110
H      85.52898723      64.28841386      77.94949026
H      86.90281825      62.12089778      75.81598925
C      85.25686663      65.28240990      73.97161637
O      86.37558461      65.52429487      71.84945372
O      82.91360600      65.48650034      74.17759654
C      88.93994321      68.12833774      77.51863266
O      89.41048506      69.83098114      75.97472626
N      88.34845888      68.53084943      79.95448988
H      87.61902452      67.08142935      80.96171400
C      88.09334583      71.21426080      80.87667632
H      88.71884524      72.59754046      79.48583775
C      85.40615501      71.75283280      81.56831615
H      85.55544338      73.14367137      83.08009720
H      84.42538705      70.04452021      82.17113884
C      83.96618355      72.99627271      79.34977746
H      81.98952984      73.15878917      79.90535699
H      84.26853977      71.96826160      77.59044226
C      84.74097134      75.73826560      79.03230344
O      85.52331804      76.43368487      76.92714832
O      84.50664528      77.32563570      80.76707219
C      89.85268103      71.58275743      83.20103968
O      91.09423122      73.65389747      83.36733560
N      90.06244065      69.79696606      84.92635981
H      88.88514116      68.29652337      84.89990364
C      91.18871752      70.30530244      87.42646772
H      92.68727050      71.70747936      87.25828208
H      92.15436768      68.64423301      88.16535071
C      89.16671038      71.33331355      89.27462005
O      87.27509434      72.31597125      88.26739593
N      89.68827483      71.45803549      91.77850742
H      91.35690318      70.66057100      92.25471845
C      88.07822802      72.58998155      93.81752211
H      86.28676748      73.04729532      92.90856375
C      87.59067863      70.49994426      95.83763954
H      86.71384561      71.52984509      97.39099457
H      89.54654537      70.16546270      96.39510880
C      85.93716811      68.06030758      95.06096202
H      84.12114112      68.78218304      94.40522699
C      87.34690394      66.49939366      93.08430830
H      89.37458026      66.30097238      93.38288506
H      87.02187101      67.17591567      91.16623609
H      86.66282301      64.55486527      93.14288982
C      85.65748862      66.48805529      97.39288429
H      85.01120221      67.59165545      99.00860029
H      87.43950052      65.57153804      97.86531587
H      84.38192334      64.93092081      96.95068834
C      89.11757748      75.04095658      94.69246539
O      91.37391071      75.24504702      95.11198463
N      87.38847792      76.89288837      95.16678670
H      85.61591463      76.42234652      94.64900169
C      87.88169648      79.50260042      96.12298821
H      89.89425500      79.88243540      96.32329920
C      86.92738470      81.37153973      94.09531188
H      87.19572583      83.24236878      94.91545310
H      84.91671590      80.97280748      93.87232417
C      88.49018835      81.23358971      91.61977041
H      88.32578216      79.38543737      90.72404014
H      90.48007017      81.04083762      92.11865815
C      87.74941563      83.31795784      89.78484616
H      88.10657392      85.27571430      90.31396953
H      85.75386466      83.21969206      89.27839951
N      88.98151720      82.85875434      87.29040742
H      88.32389244      81.47169522      86.15657164
C      91.10367984      83.86408874      86.51750936
N      92.38869374      85.67066709      87.54363075
H      93.60189802      86.56828710      86.37389016
H      91.62146485      86.42088845      89.12155222
N      92.08255808      83.31039893      84.31030903
H      93.66425900      84.24959291      83.80575210
H      91.31910865      81.79861788      83.42780684
C      86.81211139      79.79928744      98.75726669
O      84.62380831      79.08308116      99.27883115
N      88.26720065      80.74226087     100.49392517
H      90.07566873      80.92745405      99.91377920
C      87.73429782      80.91800541     103.24914614
H      86.22062705      79.62165316     103.76315170
C      90.04354338      80.22447587     104.65132306
H      89.83189404      80.67045127     106.65065350
H      91.40414632      81.60208634     103.95212433
C      91.21706342      77.60153573     104.39998946
H      92.50963623      77.71680904     102.79939128
C      92.92726573      76.83052740     106.53726992
H      93.89102615      75.08442030     106.03082327
H      92.14680877      76.63021641     108.43266541
H      94.50329748      78.14766665     106.69033775
C      89.23474053      75.32252580     104.23558327
H      89.99441050      73.46114538     103.78582841
H      87.81366633      75.77228066     102.81450909
H      88.39948150      75.24693675     106.11586096
C      86.75919906      83.53527637     104.10519216
O      85.15293168      83.76204352     105.78704858
N      87.50186150      85.43445130     102.67655907
H      88.65837400      84.90154848     101.25170543
C      86.56266751      88.11597294     102.76159675
H      85.55733312      88.20479008     104.55683675
C      88.66215345      90.06428078     102.98647418
H      89.84323240      90.04916296     104.67399978
H      87.88547593      91.97101462     102.95056938
C      90.61990991      89.79404992     100.75848686
H      89.62969333      89.78082182      98.95001878
H      91.73862788      88.06684006     100.85675263
C      92.34145058      92.05983176     100.60163957
H      93.31843908      92.42832839     102.37987203
H      91.08856203      93.67554775     100.36731351
C      94.10078577      91.89353585      98.36042417
H      93.01608287      91.12441723      96.78628215
H      95.61256682      90.54994043      98.74592833
N      95.34044624      94.39175403      97.85775697
H      94.03464536      95.69944463      97.37587676
H      96.74262316      94.25569373      96.57463280
H      96.02263744      95.16843154      99.46402433
C      84.69183846      88.61297097     100.75281768
O      84.88270083      87.56417287      98.67411873
N      82.72841282      90.17766435     101.21580063
H      82.77187653      90.84851719     103.00348172
C      80.86514268      90.93922405      99.37142774
H      80.07712681      89.22335256      98.54750707
C      78.99053417      92.87430380     100.57518341
H      80.02043502      94.50702733     101.29516913
C      77.00254209      93.84373340      98.70813381
H      77.89071347      94.93599520      97.20580139
H      75.73831520      95.15331373      99.67000450
H      75.79689670      92.33384207      97.99192754
C      77.88882373      91.68755567     102.95812829
H      79.44973767      91.18299875     104.20723738
H      76.83435646      89.95089719     102.62931591
C      75.94240564      93.32405866     104.35841548
H      74.25865949      93.45256005     103.17733654
H      76.70963452      95.18165962     104.80817035
H      75.48698160      92.38297497     106.13286849
C      82.19739974      92.12975163      97.10375617
O      83.90193286      93.71145255      97.44579663
N      81.23930849      91.31527959      94.90978392
H      79.87492610      89.98302254      94.95891680
C      82.28243742      92.17321533      92.62132535
H      83.28021291      93.90798410      93.10131584
C      84.17405346      90.02081707      91.72181563
H      85.44961872      89.41799437      93.22225832
H      85.18694676      91.02048228      90.23271129
C      82.89848819      87.77015303      90.56152367
C      82.57534499      87.40543585      87.84220751
H      83.39170677      88.73202372      86.52317854
C      81.22797013      85.28516292      86.83309366
H      81.06356394      84.89021012      84.83754267
C      80.29444534      83.53905581      88.41857403
O      79.12659447      81.39043700      87.59087391
H      79.43084040      81.21280273      85.81264145
C      80.61947825      83.67322638      91.05285251
H      79.73697608      82.25404192      92.22637255
C      81.86858735      85.86152945      92.09787117
H      82.04811136      86.07506852      94.11987832
C      80.19428984      92.87052434      90.66356889
O      78.05511965      92.06172148      90.82419563
N      80.81034062      94.35773896      88.76439395
H      82.60558062      94.98701782      88.59998776
C      79.22674997      95.00402535      86.57231143
H      77.35592092      95.22323360      87.40946018
C      80.19995901      97.60995794      85.65012499
H      79.36092053      98.30159777      83.89834869
H      82.17094356      97.42098531      85.08509682
C      79.96563295      99.66975962      87.67969105
H      80.98986461      99.04614994      89.35398856
H      77.98897923     100.00046172      88.14456372
C      81.12592492     102.12451411      86.82175530
H      82.94384163     101.56704484      86.03184970
H      81.30355919     103.38496155      88.44125075
C      79.44406850     103.60605953      84.92069063
H      77.79811688     104.40163431      85.86933324
H      78.71841359     102.39852441      83.41646848
N      80.88215021     105.64507423      83.74528086
H      81.46229619     106.91308059      85.05108174
H      79.55178290     106.61261409      82.77774099
H      82.33534976     105.20854744      82.58687863
C      79.25509586      92.83839900      84.61077551
O      81.15616053      91.82361597      83.82842882
N      76.99687292      92.24880439      83.70559661
H      75.54556311      92.70800789      84.85832966
C      76.43184476      90.39309316      81.47005038
H      77.01010100      88.45612368      81.86311345
C      73.57646830      89.86208005      81.52485244
H      72.46152976      91.54582620      81.12045101
H      73.23820728      89.43878136      83.51284453
C      72.92829216      87.50937079      79.92992344
O      72.65995102      87.68700508      77.54319910
O      73.07758054      85.31539854      80.93903729
C      77.42395107      91.47779605      79.01907535
O      78.14771624      93.63964295      78.70916024
N      77.49198122      89.89231567      77.10667232
H      77.12348458      88.06684006      77.52052239
C      77.92472854      90.58962468      74.38546643
H      79.81634457      91.32094877      74.02830816
C      77.17639691      88.24825379      72.79431688
H      77.46552504      89.04571830      70.91592892
C      78.44062382      85.71413080      72.98895869
H      78.49164644      84.60675118      74.72750690
H      80.29255560      85.95790549      72.12157431
H      77.54867301      84.45557307      71.62268656
O      74.63471502      87.59629820      72.85667785
H      74.01677452      87.53015779      74.56121098
C      76.11815018      92.64186746      73.62768618
O      76.91372495      94.35584923      72.17637637
N      73.86559641      92.92154695      74.71616854
H      73.24198674      91.68566595      76.03141805
C      72.25932905      95.21567470      74.38735616
H      73.07758054      96.28148034      72.82644223
C      69.62694029      94.09317728      73.48595671
H      69.92740679      92.92721613      71.81543865
H      68.64806207      95.75802615      72.77352989
C      68.07169554      92.78170721      75.59678100
H      67.77122905      94.21034031      77.04809081
H      68.94474909      91.28882342      76.71738870
C      65.68497121      91.71212211      74.24562669
O      65.74166299      89.48035534      73.42737519
O      63.63083871      93.01981272      74.22861915
C      72.18940918      96.95233319      76.72872706
O      70.46597877      98.38663545      77.04998053
N      74.04134096      96.72367630      78.50884925
H      75.20730209      95.21567470      78.41058348
C      74.48353693      98.62852042      80.45148790
H      73.82213272     100.45021660      79.75795834
H      76.49420571      98.51135739      80.88990440
C      73.07947028      98.00302102      82.95159581
O      73.85047861      98.99890679      84.82053513
N      71.15761861      96.35706939      82.98750061
H      70.18251983      95.62952476      81.51918327
C      69.79701567      96.06983099      85.32509206
H      69.13750118      97.89719634      86.00728326
C      67.48777012      94.33128278      84.90368309
H      66.65818025      94.07994918      86.77073269
H      68.24932982      92.51525580      84.29141177
C      65.52245475      94.99646645      83.03852322
C      64.33381689      93.09729151      81.73083261
H      65.03490536      91.23213164      82.17113884
C      62.22866178      93.48468540      80.13212415
H      61.52757331      91.99936051      78.92080958
C      61.29324725      95.99802139      79.93559261
O      59.59438331      96.53659339      78.14602180
H      59.08415720      98.25246488      78.45026773
C      62.55558444      98.04081555      81.20170924
H      61.88095214      99.96077748      81.06753868
C      64.62294503      97.51925107      82.67758549
H      65.64528696      98.97811979      83.67158154
C      71.45997483      94.95111301      87.48504924
O      72.85081339      93.21823399      87.16190604
N      70.97431515      95.85629192      89.82453041
H      69.24899504      96.65942560      89.98515715
C      72.17996055      94.69411024      92.12243761
H      74.19062934      94.73757394      91.67646220
C      71.81902282      96.42698927      94.35798384
H      72.83758531      95.42921377      95.84519844
H      69.81969238      96.43832762      94.84931268
C      72.99065314      99.10284172      93.98003857
C      71.53934333     101.21744547      94.34097630
H      69.53434370     101.28358590      94.71325238
C      72.74498872     103.50023486      94.36743247
H      71.63193992     105.12917894      94.89088666
C      75.28289115     103.85172395      93.65500565
O      76.42239611     106.19498459      93.63043921
H      75.27911170     107.54991834      94.01594337
C      76.77388522     101.75790720      92.99360144
H      78.65038344     102.02246888      92.22826228
C      75.60792407      99.28614518      93.30918573
H      76.65105300      97.57027368      92.95769664
C      71.37493714      92.00691942      92.83486443
O      69.23009777      91.40787618      93.19202270
N      73.33458333      90.39309316      93.22792750
H      75.10903634      91.09418161      93.18257407
C      73.27033263      87.60952629      92.97281445
H      71.32769398      86.98213715      93.24493504
C      73.98653891      86.86119467      90.23460102
H      75.89516248      87.54716532      89.86988384
C      73.76166147      84.05873055      89.76216944
H      75.04478564      83.00048381      90.97915319
H      74.33046910      83.64865994      87.82708970
H      71.78878719      83.51637909      90.00405441
O      72.37460236      87.94967702      88.43369184
H      73.03033738      89.63342317      88.26550620
C      75.27155279      86.23947472      94.72837019
O      77.16316883      87.51503997      95.51071689
N      74.81801848      84.01904629      95.64677718
H      73.49332033      83.01182217      94.71325238
C      76.54144887      82.53561114      97.10375617
H      78.41038819      83.33496537      96.76738488
C      75.80634535      82.88710023      99.95913263
H      75.15627948      84.78816491     100.40699776
C      73.34781140      81.41311371     100.57707313
H      73.01710930      81.53972538     102.60663919
H      73.46686417      79.43834972     100.00637579
H      71.74721322      82.29183645      99.62654080
C      77.96252306      82.37687413     101.94901443
H      78.51243343      80.39266150     101.98680896
H      77.14427158      83.05339616     103.71401881
C      80.33979877      84.06439973     101.68823220
H      79.73130689      86.02782536     101.56162054
H      81.55111333      83.47291540     100.12731827
H      81.54166470      83.79227914     103.33796327
C      77.01954964      79.90700184      96.20802590
O      75.65516723      78.89410854      94.58475099
N      79.09635886      78.78828386      97.12265343
H      80.43995426      79.63488125      98.18090017
C      79.56312125      76.04818072      96.99982122
H      78.00409705      74.87466068      97.65555625
H      81.23552904      75.58897721      98.11098029
C      80.14515696      75.24126757      94.24271053
O      81.88937434      76.26738896      93.20336106
N      78.60125056      73.75216324      92.89533567
H      76.92506331      73.32508509      93.70224880
C      78.38015258      73.80129612      90.10609963
H      79.73130689      75.19969359      89.42957761
C      79.32879518      71.41457180      88.69258435
H      77.63749014      70.26561820      88.44880965
C      80.39082138      72.10054245      85.98082709
H      82.32968057      72.79407199      85.98271682
H      79.12281501      73.59531595      85.35154823
H      80.21507683      70.27506682      85.04163311
C      81.01821051      69.63633934      90.36121268
H      80.12814941      68.96170704      92.09409171
H      82.70951557      70.72482168      90.79773946
C      81.84591063      67.21559992      88.80407820
H      80.16972340      66.32364911      88.00661370
H      82.68305939      65.80775383      90.05129757
H      82.97407724      67.74283356      87.16379576
C      75.80256589      74.63655515      89.18391319
O      73.91283957      73.34965153      89.55429955
N      75.64382887      76.91367537      88.03495959
H      77.11970512      78.09853376      87.78551572
C      73.30056824      77.56374121      86.72726898
H      72.73365036      75.99148892      85.52540305
H      73.73709503      79.13599351      85.46871126
C      70.95730762      78.06073923      88.36944115
O      69.07702993      78.62198795      87.22426700
N      71.04045558      78.04751115      90.98860182
H      72.75821680      78.02105498      91.81819167
C      68.68396687      78.31585228      92.53628767
H      67.07580978      77.59397683      91.47237176
C      68.90317512      76.55840681      94.99860106
H      70.16551229      77.34264323      96.42345470
H      69.78945676      74.78584353      94.43357289
C      66.51267133      76.11432113      96.32896838
N      65.29001840      73.91278997      96.32140947
H      66.02134249      72.29140480      95.62787992
C      63.09982562      74.09798315      97.65366653
H      61.58615484      72.73549048      97.76327065
N      62.98266258      76.43179516      98.51727145
H      61.53135278      77.25949527      99.43945789
C      65.07269988      77.87554606      97.59130556
H      65.71709655      79.74448537      98.09208303
C      68.16051268      81.04272735      93.08430830
O      69.00711007      82.09908436      95.01182914
N      66.35204459      82.03483368      91.62732931
H      65.71142737      80.90666706      90.22893184
C      65.83236987      84.76170873      91.70858754
H      67.59170506      85.69712327      91.18891281
C      63.86516477      85.40421568      89.66201395
H      62.36850152      84.00203876      89.86421466
H      64.86105054      85.07729303      87.88945067
C      62.73699816      87.82873455      89.55807900
H      61.98299737      88.40699079      91.38544435
C      64.60215804      89.89420540      88.69447408
H      65.57536709      89.12886624      87.04852246
H      65.75489108      90.37419588      90.33097706
H      63.55335993      91.65543032      88.49227336
C      60.54491564      87.84385235      87.70047803
H      58.81770579      87.15032279      88.58675968
H      61.00978831      86.84607687      85.96192983
H      60.18964708      89.73735813      86.98049231
C      64.96876493      85.58751913      94.33530712
O      63.35115922      84.25715182      95.53150388
N      65.82292123      87.73991740      95.42567920
H      67.27234132      88.56761753      94.49971331
C      64.86105054      88.93800389      97.55918021
H      63.96154081      87.53204752      98.76671532
C      67.04179471      90.10585475      99.18434484
H      66.25755829      91.13575559     100.78683275
H      68.18129966      91.32472823      97.97680972
C      69.14506008      88.18589282      99.98180934
H      69.98976774      87.24669884      98.35664471
C      71.40706248      89.52003960     101.21580063
H      71.03100695      90.18711298     103.12631393
H      71.80012555      91.15654258     100.02716277
H      73.04734493      88.27848941     101.11753486
C      68.25121954      86.02215619     101.86586648
H      69.87638417      85.12264647     102.75403784
H      67.38005571      84.41021964     100.91911359
H      67.27612077      87.02560087     103.37386807
C      62.63117348      90.87497337      97.09997672
O      60.56759236      90.55938906      97.82941107
N      63.13195096      93.08028396      95.93023613
H      64.90451425      93.29949222      95.25938329
C      61.09104654      94.70922805      95.04017503
H      59.17864351      93.94766834      94.98537297
C      60.87183829      97.03359141      96.83919448