 %block lattice_cart
   140.777   0.000   0.000
   0.000 144.511   0.000
   0.000   0.000   162.462
 %endblock lattice_cart

 %block positions_abs
N      91.27470007      45.74169497      81.30564419
H      93.00379965      45.99680802      80.53841531
H      90.40542596      44.35652558      80.32298651
H      91.41265010      45.44500794      83.18592188
C      90.01425261      47.95456448      80.39857555
H      90.79848904      49.46445580      81.55697779
C      90.42243351      48.42699606      77.51296348
H      89.66843271      46.98702461      76.25062630
H      92.46711738      48.66888103      77.57154499
C      89.35473813      51.02914919      76.69471198
H      87.34406934      50.63797584      76.50384963
H      90.29393211      51.61118490      74.95427405
S      89.72701422      53.88452565      78.68837324
C      93.13041132      53.94121744      79.09277468
H      93.65008604      55.61929441      80.16991868
H      94.17354023      54.19633049      77.33721893
H      93.82016142      52.22723567      80.00362277
C      87.27792891      47.77315075      81.11667155
O      86.08740135      45.92877787      80.08299127
N      86.26692534      49.35485168      82.77018209
H      87.28926728      50.83261765      83.41646848
C      83.67611057      49.00336258      83.81520074
H      82.43645010      47.79582747      82.69648276
C      83.95012088      47.77504048      86.40601550
H      85.22379641      46.18011147      86.13389491
H      82.12464526      46.98891433      86.95025668
C      84.81183608      49.47768389      88.49983226
O      83.12053103      50.60207104      89.79618451
N      87.16265561      49.82728326      89.16123647
H      87.62374884      50.81749984      90.72592986
H      88.57806062      49.26603454      88.01039314
C      82.34763297      51.57528010      83.87000280
O      83.45879204      53.52358792      83.21237804
N      80.04594631      51.88897466      84.78840978
H      79.18612084      50.28648675      85.37044549
C      78.59652623      54.34561887      84.56353236
H      78.95368450      54.94844156      82.62467315
C      75.71091415      53.76358317      85.07753791
H      75.15155516      52.18566169      83.87756171
C      75.05517912      53.09839950      87.92157601
H      73.03128224      52.73935150      88.07653357
H      75.38399150      54.82182990      89.00249946
H      76.12665395      51.54126502      88.73604805
C      73.75693714      55.72511908      84.07787269
H      73.60764878      57.22556177      85.48004961
H      71.90878481      54.82182990      83.96259939
C      74.34464203      57.09139120      81.58154423
H      76.17956628      58.02869545      81.56264696
H      72.84041989      58.36128729      80.97872154
H      74.51471740      55.53803617      80.24172827
C      79.47902842      56.48478906      86.23216068
O      79.14643659      58.78080653      85.60855100
N      80.80750602      56.03881365      88.37511032
H      81.01915537      54.26247091      89.04029399
C      81.48591776      58.07404889      90.09854073
H      79.98736480      59.48189499      90.00216468
C      81.68622876      56.75501992      92.76305482
H      82.19645486      58.17042493      94.16901121
H      83.06761869      55.22812106      92.78195209
C      79.23525374      55.67031702      93.60587277
C      77.28316644      57.22367204      94.19357765
H      77.46458017      59.23434084      93.87610362
C      74.97581062      56.14463832      94.84931267
H      73.47158847      57.47122619      95.23103740
C      74.69424140      53.48579340      94.76616472
H      72.92545757      52.51258435      95.06852093
C      76.81829378      51.94566645      94.37121192
H      76.42712042      49.94255656      94.33530712
C      79.00659684      52.98690565      93.73815360
H      80.63176147      51.79070889      93.41878985
C      84.08807090      59.17009015      89.21036935
O      84.78915937      61.26579663      90.20247568
N      85.70189717      57.80570775      87.81575134
H      84.92710938      56.09739516      87.45670334
C      88.02437081      58.62017979      86.37011071
H      89.09395591      59.79558956      87.68158078
C      89.47379089      56.26369108      85.48382906
H      90.96856440      56.92887474      84.22905080
H      88.24546879      55.12985529      84.27818369
C      90.69644381      54.87852169      87.64000680
H      89.11852235      54.33050106      88.84565217
H      91.99468579      56.18621230      88.56408296
C      92.15720226      52.55037887      86.72915871
O      91.03470482      50.73813134      85.83531817
O      94.49290398      52.56549668      86.96537450
C      87.50091663      60.03747452      83.88701033
O      88.77648188      61.95743646      83.35221778
N      85.60552114      59.12473672      82.56231218
H      84.81750526      57.45799811      83.05553076
C      84.70034222      60.43431705      80.29275089
H      86.04015818      60.50990610      78.72994723
C      82.68967344      58.70143802      79.31576238
H      81.39521090      58.45577360      80.89935304
H      83.31517284      56.75313019      79.08143632
C      81.44056433      59.39307785      76.79297775
H      82.47802409      58.79025516      75.12056997
H      81.03427319      61.41130555      76.81943392
S      78.29228030      57.81137693      76.48306263
C      77.72347268      58.00223929      73.00974568
H      76.23058889      56.75313019      72.33133392
H      79.49981542      57.65830910      72.02708800
H      77.36631440      59.92409095      72.36534900
C      83.80083251      63.28969351      80.66124751
O      84.82884361      65.01123418      79.53119118
N      82.10385827      63.54291684      82.52451767
H      81.39899035      62.03491524      83.46182192
C      81.23269444      66.10727544      83.23316503
H      80.38231760      67.10127148      81.64201547
C      78.87242627      65.72744045      85.05108175
H      78.70424063      67.50378319      86.07909285
H      79.31273250      64.24778475      86.41168468
C      76.39499508      65.01123418      83.60922057
H      76.77105061      63.67519768      82.08988061
C      74.30306805      63.73755865      85.23060575
H      73.56418506      64.81659237      86.82175530
H      74.97203116      61.92909056      85.96192982
H      72.66278561      63.33315721      84.05519598
C      75.26493874      67.42063523      82.39412655
H      73.41111723      67.00300571      81.59855176
H      76.54617319      68.12739287      80.94470646
H      75.21958532      68.91540874      83.81142128
C      83.28871668      67.87605927      84.69959264
O      83.11108239      70.23632744      84.68636457
N      85.26914985      66.66474470      85.66335306
H      85.44678412      64.79202593      85.34398932
C      87.47823990      67.94219969      86.62144430
H      86.84518159      69.71287325      87.46426225
C      88.76514352      66.48144125      88.73226861
H      89.08261754      64.55203069      88.08220275
H      87.36107687      66.01089940      90.16279142
C      90.89297535      67.89873599      89.96437015
H      90.13897455      69.72232188      90.56152368
H      92.52569888      67.94219969      88.70959188
C      91.46934188      66.80458445      92.49282396
H      89.87630259      66.31892479      93.70602826
H      92.55215506      68.26534289      93.45847410
N      92.89797497      64.38951422      92.30196161
H      91.88886112      62.79269549      92.57408220
C      95.30926574      64.12684227      91.73693343
N      96.80781871      65.90318500      91.03962442
H      98.57471281      65.39862807      90.53317777
H      96.16342204      67.57937224      90.39333803
N      96.37318166      61.98578235      92.06196637
H      98.22133399      61.85917069      91.60087314
H      95.35650890      60.41541979      92.43613217
C      89.20922921      68.89273203      84.45581796
O      89.76858819      71.22843375      84.30275013
N      89.74969093      67.18252971      82.64168070
H      89.12986070      65.38728972      82.84577114
C      90.97423358      68.00456066      80.21905155
H      92.78837085      68.80202516      80.77841054
C      91.11407334      65.85216239      78.24995675
H      89.32450251      64.83359991      78.28775126
C      91.72256520      66.75167211      75.59678100
H      91.97578853      65.13784584      74.34200273
H      93.39686272      67.94408942      75.51552277
H      90.20133552      67.86472091      74.76719114
C      93.07749897      63.96999498      79.14379729
H      92.83183456      63.70732302      81.17147363
H      94.91242322      64.89407115      78.98883973
C      92.68254617      61.42075419      77.90791628
H      90.80604795      60.64029722      78.24806702
H      93.89386074      60.11495330      78.94159658
H      92.95088732      61.48311515      75.86701186
C      89.51725459      70.31947539      79.07576715
O      90.78337122      72.00889072      77.94382108
N      86.96990352      70.35538019      79.18726100
H      86.17621847      68.69242104      79.68236928
C      85.50347591      72.29045994      77.97216697
H      86.28771233      72.67974356      76.10889683
C      82.69156315      71.44953173      77.80776078
H      81.79583288      73.14461623      77.05564972
H      81.71457465      71.07347619      79.58410351
C      81.99047470      69.58626158      75.62512689
O      83.15076665      69.95853767      73.63335536
O      80.22924977      68.10660588      75.86701186
C      85.66221292      74.79623703      79.38757198
O      86.27637397      76.82013391      78.33310470
N      85.19922997      74.83025210      81.85177509
H      84.41499355      73.21453611      82.49428205
C      84.72679840      77.18674082      83.16702460
H      85.11419229      78.81190544      81.96137923
C      81.92811373      77.33413947      84.11755695
H      81.79961233      78.94985547      85.39123247
H      81.44623352      75.81857896      85.42713728
C      79.75870792      77.30012439      82.09366006
H      77.95590902      77.62137787      83.04041294
H      79.67744968      75.46331042      81.16202499
C      79.88909904      79.57346515      80.30219951
O      80.89443343      81.64838464      80.92014002
O      78.88943381      79.23331441      78.15924988
C      86.72423910      77.64594431      85.23438520
O      87.33462070      79.85125492      85.79752364
N      88.01114272      75.78267416      86.33042645
H      87.68610981      74.02144924      85.67469143
C      89.79693409      75.97920570      88.45636855
H      91.02525619      77.59870115      88.12377672
H      90.64353148      74.13483282      88.80974738
C      88.46278731      76.52533661      91.06230115
O      86.22157190      76.63116128      91.07552922
N      90.05771633      76.95241475      93.00116035
H      91.96067072      77.01477572      92.87265896
C      88.90687300      77.26610932      95.55796005
H      86.85274049      77.26610932      95.71480732
C      89.86307451      75.02489391      97.21902947
H      91.91531729      74.84914937      97.18312468
H      88.98624150      73.50744368      96.13621629
C      89.11663262      74.97198158     100.04794976
H      90.14086428      76.41006330     101.10241704
C      86.36519110      75.18174120     100.49959435
H      85.11419229      73.97042663      99.40166337
H      85.55449852      77.05068052     100.19912786
H      86.01937119      74.90962061     102.51215287
C      90.02748071      72.49455038     101.20446227
H      88.41932361      71.23221320     101.45579586
H      90.92510070      72.72887644     103.04316597
H      91.46934188      71.55535640     100.07062647
C      89.45489363      80.02510974      96.79951023
O      91.64886588      80.93406809      96.90722464
N      87.44800428      81.15894553      97.82563162
H      85.72646362      80.33313513      97.82752134
C      87.84106735      83.64960481      99.19379346
H      89.77236765      83.84802607      99.88165385
C      87.21934740      85.88515103      97.31918497
H      86.51447948      87.52732320      98.34152690
H      85.58851359      85.21618792      96.25148959
C      89.36418676      86.51631962      95.55796005
H      89.42276829      84.82690430      94.38066054
H      91.03848428      86.65237992      96.74848762
C      89.23568538      88.77454257      93.81374265
H      91.21044937      89.11469330      93.32997271
H      88.34562428      90.34112568      94.80773869
N      87.80327284      88.19250686      91.51016628
H      87.35162825      86.35002371      91.31174501
C      87.01147751      89.78365642      89.83775850
N      87.41398922      92.25541844      90.06452565
H      87.13241999      93.44594601      88.59998776
H      88.40609552      92.84879250      91.58386560
N      85.86252391      89.13925975      87.72882393
H      85.44867385      90.53198804      86.49105320
H      85.33151082      87.35913756      87.28851769
C      86.02126092      83.69495824     101.43878833
O      83.92177498      82.63293205     101.35753010
N      86.70345211      85.02532556     103.42300096
H      88.33428593      85.99097571     103.19056462
C      85.33340055      84.98375158     105.94200613
H      83.71201536      83.74598085     105.66610610
C      87.23635493      83.81023154     108.00558727
H      86.17621847      82.94851634     109.54571422
H      88.47412567      85.28988725     108.72746272
C      88.87096820      81.58791340     107.04749603
H      90.13897455      82.03199908     105.48658210
C      90.59439860      80.79422835     109.20934293
H      89.27914909      80.90572220     110.78915412
H      92.05515703      82.23419980     109.37185940
H      91.35028913      78.91584039     108.82950793
C      87.40643031      79.24276304     106.45034252
H      86.64298087      78.36970949     108.15298592
H      88.75758462      77.97286696     105.55461223
H      85.77559650      79.84936519     105.34863207
C      84.15232160      87.56889718     106.82072887
O      82.67644534      87.51787457     108.55738734
N      84.67955523      89.67405229     105.49603072
H      85.85118556      89.39059334     104.01259556
C      83.25848105      92.07022526     105.67177526
H      81.61630888      91.97951839     106.90954600
C      84.90632239      94.18860845     106.77537544
H      86.69022403      93.87491389     105.79082802
H      85.24080395      94.32466875     108.80116204
C      84.22980037      96.96272668     106.38609182
H      82.42700147      97.19138356     107.35363168
H      83.96901814      97.25374453     104.36408466
C      86.23857944      98.87701944     107.06261383
H      86.75258501      99.04709480     109.04871619
H      85.24458341     100.60611901     106.55238773
C      88.37963935      98.84300436     105.08029093
H      87.58217485      99.99573741     103.57228933
H      88.60640652      96.97028559     104.25825998
N      90.97612331      99.54031337     106.14231713
H      91.29548707      98.36868306     107.61819338
H      91.42209872     101.35067118     106.55427746
H      92.24412967      98.99040301     104.82706760
C      81.87709111      92.62013561     103.28505094
O      82.59707684      91.53543271     101.35375065
N      79.89098877      94.06766597     103.60441468
H      79.58674283      94.59300988     105.41288277
C      78.17322755      94.40214753     101.40477325
H      77.65922199      92.48218559     100.86053207
C      75.55784632      95.42071001     102.24759119
H      75.84697445      97.25374453     103.14143173
C      74.08197008      96.28620466      99.97236070
H      74.01771938      94.69127565      98.66844955
H      74.99470788      97.65247679      98.72703107
H      72.23948692      96.97217531     100.58274230
C      73.97236594      93.72751523     104.04661065
H      75.12320927      92.95272744     105.56784033
H      73.15411445      92.10801978     103.07340158
C      71.82185741      95.19394285     105.38453687
H      70.29117909      96.03487106     104.29416479
H      72.53617395      96.64525266     106.66199185
H      71.00549564      93.72562551     106.57506444
C      79.64343461      95.72306622      99.14277085
O      81.26481979      97.38791510      99.45268597
N      78.95557424      94.73851881      96.83163557
H      77.91622476      93.14547953      96.98281368
C      79.99114425      95.53787304      94.39577836
H      80.60152585      97.49562950      94.58475099
C      82.20779323      93.81822210      93.71169744
H      83.71390510      93.55555014      95.09119764
H      83.26226051      94.42482424      92.04684855
C      81.37064446      91.14614909      92.93690965
C      80.91333069      90.55655448      90.43491201
H      80.87175672      91.93038551      88.92502069
C      80.12909427      88.07156438      89.67524203
H      79.70768530      87.79377461      87.69858831
C      80.05728467      86.21018396      91.57252725
O      79.58863255      83.77999592      90.85632098
H      79.66989078      83.60236165      89.05163235
C      80.70735052      86.70718198      94.09909133
H      81.00970673      85.24453381      95.48804017
C      81.32151158      89.20728989      94.67356813
H      81.62008833      89.68728038      96.63510405
C      78.01638026      95.80054500      92.27550543
O      75.82240800      94.84812294      92.55896438
N      78.48503238      97.34634112      90.28184418
H      80.16499907      98.25529948      90.31396953
C      76.59530607      97.88302340      88.33164663
H      74.73959483      97.19327329      88.89667479
C      76.27972177     100.83855535      87.81008216
H      77.85575352     101.76830069      86.86143956
H      76.25326560     101.87790482      89.58642489
C      73.93835087     101.49240065      86.21137370
H      72.22625883     100.89902659      87.19025192
H      74.09897761     100.49462516      84.41802343
C      73.84008510     104.44415315      85.76161883
H      71.96925606     104.67281004      84.93202899
H      75.31596135     104.86178267      84.38778781
C      74.05551390     106.03152326      88.27684455
H      75.13643735     104.99217378      89.68847012
H      72.12043416     106.17136300      88.96470494
N      74.91155992     108.66580174      87.81953080
H      74.17834611     109.63901079      86.34932371
H      76.78994788     108.72438325      87.48693895
H      74.44290780     109.78262999      89.29351732
C      77.32096097      96.57722251      85.96381956
O      79.31840168      97.01563902      84.81108651
N      75.59942030      95.09189763      84.92069063
H      74.10653652      94.78954142      86.06964423
C      75.97925530      93.23996584      82.82309441
H      77.97669600      92.82422606      83.10466363
C      74.46558452      90.85135178      83.33143080
H      72.73837466      90.92316138      82.21271282
H      74.08385981      90.86080042      85.35532767
C      75.71658333      88.38525895      82.44325944
O      75.23659285      86.27821411      83.28985681
O      77.46646990      88.69517406      80.89179413
C      75.38966068      94.32655847      80.29464062
O      74.50715849      96.47895674      80.27574334
N      76.03405736      93.11902336      78.24239784
H      76.68034375      91.33512172      78.44837800
C      75.82996691      94.22640298      75.61378853
H      77.13387807      95.81377308      75.45316179
C      76.93167735      92.42360408      73.49540534
H      76.90900063      93.53665288      71.76441603
C      79.56595583      91.39370324      74.01696981
H      79.73792092      90.58679010      75.90480639
H      81.00214784      92.85824113      73.81665881
H      79.92122439      90.06333591      72.48629148
O      75.28761547      90.40537637      73.06643746
H      75.29328464      89.85546602      71.33733788
C      73.20702679      95.21095039      74.69349182
O      73.19946788      96.82666639      72.93226689
N      71.08297441      94.33222765      75.75173856
H      71.28139567      92.78076235      76.84211063
C      68.50916718      95.30354698      75.42859535
H      68.28617947      96.06510668      73.52942042
C      66.73660390      93.02453704      76.00307215
H      64.89034129      93.79365565      76.48873181
H      67.38855947      92.08723279      77.71894364
C      66.21314971      91.03465524      74.03019789
H      66.07142024      89.14681865      74.84089047
H      67.79107117      90.82867507      72.72250727
C      63.93413978      91.86046564      72.37857709
O      62.18803266      90.41482501      71.71717288
O      63.93602950      94.06388652      71.59434067
C      67.82886570      97.44838634      77.35611619
O      65.71426197      98.35167552      77.51107375
N      69.66001051      98.37624196      78.83577189
H      71.24549088      97.31610550      78.74317530
C      69.23482208     100.49840461      80.57054066
H      68.38255551     102.12356924      79.63512612
H      71.04140043     101.14847046      81.31887228
C      68.02539724      99.75196272      83.16891433
O      67.46036908     101.56232053      84.51250975
N      67.75138693      97.31232605      83.66969180
H      68.40901168      96.04809915      82.39790600
C      66.47960111      96.66603965      86.11688738
H      65.64056263      98.25529948      87.12411151
C      64.38389464      94.68938593      85.76917774
H      63.34832461      94.46450850      87.53418211
H      65.30419136      92.89981511      85.32698179
C      62.55463957      95.22039902      83.73583222
C      61.69859354      93.13414117      82.28074297
H      62.60566218      91.30866555      82.34121420
C      59.99972960      93.53098370      80.24361801
H      59.51784939      91.93983414      79.05686988
C      58.88857051      95.88369296      79.89212890
O      57.37112029      96.31266083      77.81909914
H      56.56420716      97.93404601      77.88523957
C      59.52351855      97.94349464      81.58910314
H      58.67125200      99.79353670      81.45493256
C      61.36789144      97.62791034      83.51095480
H      61.66646819      99.19449346      84.78463034
C      68.55641033      95.83833952      88.05952604
O      70.40645240      94.57222289      87.33954030
N      68.10854520      96.76430542      90.33853597
H      66.49849839      97.72617611      90.69569424
C      69.54095775      95.96684091      92.56274384
H      71.50438338      96.52242045      92.28684379
C      68.63577884      97.38224592      94.94757845
H      69.23860154      96.29376357      96.59164033
H      66.60999224      97.01185957      94.94946816
C      69.33308786     100.08266482      95.19135313
C      67.53595812     101.96105278      95.39544358
H      65.54607631     101.50751846      95.38221549
C      68.16523699     104.47627850      95.54851141
H      66.71770663     105.91058077      95.41812029
C      70.71636752     105.09043955      95.23103740
O      71.48359639     107.57731938      95.45402510
H      70.34787088     108.77351614      96.20991562
C      72.58152739     103.26307421      94.72459074
H      74.54684274     103.76574141      94.51483112
C      71.91256427     100.80076082      95.00615996
H      73.44702204      99.46472432      95.14788943
C      69.33497757      93.04154458      93.10698502
O      67.36777249      91.76031014      93.02572679
N      71.51194229      92.01731292      93.78539677
H      73.10120211      93.07178020      93.68713100
C      72.12988280      89.33957073      93.78917621
H      70.37999622      88.26620619      93.97436939
C      73.03884116      88.51565006      91.17001554
H      74.75660236      89.33012210      90.38010995
C      73.38466107      85.50153659      90.67490724
H      74.76038182      84.73808716      92.00338484
H      74.25015571      85.31634341      88.81541655
H      71.57052380      84.52832754      90.60498737
O      71.03384153      88.95028711      89.45225432
H      70.68046271      90.72851957      89.38611391
C      73.95913787      88.62525419      96.00204573
O      75.41233739      90.27687499      96.92612189
N      74.05173446      86.25742712      96.85998147
H      72.68924178      85.06689954      96.25526905
C      76.08130051      85.37870438      98.62498584
H      77.82551790      86.42939221      98.31885019
C      75.19123942      86.05333668     101.32162530
H      74.07819062      87.77865680     101.15721910
C      73.60575904      83.96518910     102.50648370
H      72.72514658      84.48675356     104.29227506
H      74.77549964      82.33246557     102.95623855
H      72.01838894      83.39449175     101.32162530
C      77.47213908      86.72041006     103.00537144
H      78.20724261      88.46462745     102.19089940
H      78.75526324      85.14437832     103.34174273
C      76.46869440      87.50842594     105.64153964
H      75.57296413      86.02499078     106.75458844
H      74.80195580      88.64982063     105.24280739
H      78.00315217      88.30778017     106.76214735
C      76.84286022      82.51576902      98.09586248
O      75.62209703      81.09469483      96.86376092
N      78.99525848      81.61436957      99.19568320
H      80.05161549      82.87103756     100.16700253
C      79.70201613      78.98387054      99.69268121
H      77.98614464      77.99554368     100.25959911
H      81.15332593      79.15205618     101.14777048
C      80.80939575      77.76121761      97.38910483
O      82.58195903      78.79489791      96.33652729
N      79.85130451      75.67684949      96.52172047
H      78.45290703      74.85859800      97.53083431
C      79.88909904      75.00032747      93.78539677
H      81.28749650      76.11715572      92.76494455
C      80.52971625      72.16195855      93.50571727
H      79.13320850      70.97898988      94.45247015
C      80.72813752      71.51945160      90.69569424
H      82.22102130      72.57580861      89.74894135
H      78.95179478      71.96731674      89.75272080
H      81.03805263      69.54468761      90.19869621
C      82.97124265      71.55724613      95.09497710
H      82.38164804      71.53078996      97.06974109
H      84.40176547      73.03879156      95.00049078
C      84.26948462      69.06847657      94.48648522
H      85.67733073      68.67163405      95.93779503
H      85.27292930      69.45587047      92.72903976
H      82.93533786      67.55858525      94.05940707
C      77.36442469      75.64661387      92.41156573
O      75.52572097      74.17829653      92.33597667
N      77.42678564      77.92940326      91.37410598
H      79.15210577      78.73631639      91.49693819
C      75.61831756      78.72497803      89.26328170
H      75.56729495      77.31902166      87.76094928
H      76.20035327      80.52021803      88.43558157
C      72.86876578      79.23520414      90.11743798
O      71.24927033      79.33913909      88.49416308
N      72.26405336      79.48464801      92.50416232
H      73.67945837      79.68684873      93.76838922
C      69.64111323      79.61881858      93.39611315
H      68.47326237      78.36215058      92.25471844
C      69.82819614      78.59647664      96.06629643
H      71.17557100      79.58102405      97.27383153
H      70.27606128      76.58580785      96.02850190
C      67.28651426      78.88182532      97.45146580
N      65.40245712      77.14894629      97.89744122
H      65.45536945      75.39528027      97.14910959
C      63.82642537      77.93696216      99.67756341
H      62.03118538      77.06201888     100.09519293
N      64.47082205      80.18762620     100.29172445
H      63.36155270      81.38382296     101.28194104
C      66.65345593      80.88682494      99.01804893
H      67.70792323      82.61403479      99.27883116
C      68.48082128      82.25498679      93.48870973
O      69.26694742      83.87637196      95.01371887
N      66.59676414      82.55356354      91.77850741
H      66.19614218      81.03044414      90.70325315
C      65.22293312      84.88737554      91.47237175
H      66.53440319      86.45584838      91.21914843
C      63.29730201      84.66438784      89.41257008
H      62.30708542      82.88237592      89.70736738
H      64.03429526      84.24297887      87.53418211
C      61.39434760      86.82434501      89.42579815
H      60.78207629      87.34213002      91.32308337
C      62.48094024      89.29043785      88.85510082
H      63.70737261      89.80822286      90.42735310
H      60.88601123      90.57734147      88.64723091
H      63.60532740      89.25453305      87.12978069
C      58.88857051      86.62025457      87.81764107
H      57.54686483      88.08101301      88.37322061
H      58.09677520      84.87225773      88.56597269
H      59.31186922      86.67883609      85.80319282
C      63.88311717      85.42216809      94.03295090
O      62.63967725      83.70440687      95.04206475
N      64.17980420      87.79377461      94.90033528
H      65.13789544      89.10713440      93.89878033
C      62.94014374      88.78210147      97.05273356
H      62.34110050      87.12481150      98.12042892
C      64.75428100      90.15971195      98.82151738
H      63.64501164      91.04221414     100.31818062
H      65.91457295      91.48063065      97.74437339
C      66.64778675      88.30022126     100.02905250
H      67.78162255      87.14748821      98.75348723
C      68.46381374      90.18805785     101.42556024
H      69.73182010      89.00130972     102.53482960
H      67.50950196      91.53732244     102.65766181
H      69.48615568      91.16693608      99.93078673
C      65.35521397      86.88103680     102.27404735
H      64.47460150      85.15571668     101.57295889
H      64.22893708      88.08668219     103.50803864
H      66.93124570      86.22530177     103.42489068
C      60.53452214      90.39970720      96.41211633
O      58.61078075      89.66082421      97.44012745
N      60.78018656      92.31777940      94.78695170
H      62.38078474      92.57856163      93.77972759
C      58.57298622      93.88436252      94.19168792
H      56.99317502      92.59178972      93.90444951
C      58.07220876      95.56054976      96.44424168