 %block lattice_cart
   140.777   0.000   0.000
   0.000 144.511   0.000
   0.000   0.000   162.462
 %endblock lattice_cart

 %block positions_abs
N      91.11690793      39.60575362      83.91535623
H      92.98395753      39.28072071      84.14401312
H      90.22873656      38.29428357      82.85144032
H      90.31944343      39.29961796      85.62366882
C      90.43660646      42.25703964      82.93080882
H      91.05076751      43.67622410      84.28952204
C      91.75374570      42.76159657      80.43259064
H      90.78998528      41.78460807      78.89624315
H      93.71150216      42.12097935      80.40424474
C      91.44761004      45.61697303      79.62567750
H      89.48229467      45.94389568      79.09844386
H      92.26019235      45.89665253      77.75295873
S      92.70238831      47.99424873      81.89523880
C      92.37924511      50.77970532      79.84299603
H      90.41015029      51.25591634      79.47449940
H      93.41103568      50.46034157      78.08933001
H      93.28442401      52.38975213      80.75573384
C      87.49997177      42.68789724      82.95537527
O      86.09968457      41.76760052      81.20737843
N      86.47574011      43.93133715      84.89801392
H      87.79287935      44.70990439      86.04318806
C      83.72996777      44.61919753      85.26651055
H      82.67361077      44.11086115      83.57142604
C      82.93817245      43.06773223      87.68347050
H      84.17972264      43.71968782      89.19147210
H      83.16304988      41.02115863      87.75528010
C      80.18106176      43.17922608      88.56030351
O      78.51810260      43.57039943      86.94080806
N      79.55556235      42.73891985      90.89033605
H      77.67339494      42.66711025      91.20025117
H      80.88026049      42.62175682      92.25849790
C      83.16116015      47.38953632      85.69925787
O      84.87325219      48.66888102      86.38522852
N      80.76309746      48.20778780      85.80697227
H      79.39682534      46.88119993      85.69169897
C      80.07145763      50.92143478      85.73894212
H      80.98986462      51.55827255      84.00795282
C      77.17828665      51.33339512      85.67847088
H      76.52444134      50.24869222      84.05330625
C      75.79878644      50.04082233      87.94425273
H      73.77488956      50.40553951      87.84976642
H      76.46585983      50.79293340      89.74138246
H      76.09169402      48.00747681      87.81197189
C      76.55089751      54.20199966      85.26273109
H      77.20285309      55.43788067      86.77451214
H      74.53644926      54.54026067      85.53107223
C      77.33513393      55.46244711      82.75695400
H      79.38926643      55.61362522      82.71915948
H      76.32979953      57.21422341      82.36011148
H      76.75498795      54.10184417      81.32454146
C      81.18261670      52.51447407      87.91212738
O      81.90260243      54.62718809      87.32253277
N      81.41883249      51.57528009      90.28751336
H      80.57601456      49.86885724      90.42357365
C      82.58290390      52.72990288      92.47581643
H      81.61725376      54.49112779      92.92935075
C      81.97630176      51.10284851      94.63577361
H      82.50353540      52.08739592      96.36676291
H      83.04588685      49.34351331      94.62065580
C      79.35336163      50.45467239      94.97403462
C      78.51243342      48.14164738      94.28806396
H      79.77477060      46.70167593      93.58130632
C      75.96319263      47.58606784      94.64522224
H      75.22053019      45.75681278      94.11798860
C      74.21141634      49.26414481      95.60709293
H      72.22909343      48.88242010      95.89811078
C      75.08446989      51.55260337      96.60864788
H      73.67095461      52.71100560      97.51949596
C      77.63371069      52.17054389      96.22503344
H      78.37826286      54.04137293      96.55951499
C      85.47229544      53.28170296      92.23771091
O      86.22818596      55.40764505      92.84242334
N      86.81400112      51.55449310      91.05852170
H      86.06189004      49.87452641      90.56152368
C      89.40292617      52.07416784      90.11743799
H      90.52164414      52.99257482      91.58386561
C      90.54432086      49.57405993      89.18769265
H      92.30554578      49.73468666      88.12944591
H      89.36513164      48.88808927      87.64378625
C      90.82022090      47.54260414      91.27017104
H      89.16104120      47.77693020      92.47014725
H      92.54932048      47.84307062      92.34542531
C      90.65581471      44.86675168      90.19113732
O      92.05043273      44.24881118      88.34865416
O      89.04954735      43.39087543      91.15300801
C      89.50497139      54.00546814      87.84976642
O      90.96006065      55.85362046      87.94236301
N      88.13114036      53.48012421      85.72382431
H      87.44327998      51.70567120      85.58020511
C      88.06688966      55.00891280      83.31442326
H      89.82622486      54.72167440      82.28263270
C      85.99008044      53.98846059      81.51918327
H      84.31200348      53.95444552      82.71349030
H      86.48329901      52.02314523      81.14879691
C      85.48930297      55.29426147      79.02852399
H      87.18060802      55.25646696      77.85311422
H      85.20584402      57.29359192      79.44237405
S      82.63014706      54.44766408      77.51485321
C      82.71329502      56.28258833      74.54042399
H      84.13625893      55.46811629      73.29698408
H      83.09124028      58.28380850      74.83522130
H      81.08057148      56.04259310      73.30832244
C      87.84201223      57.83027419      83.78496512
O      89.03442954      59.38173949      82.49995122
N      86.40015105      58.63529759      85.70681678
H      85.26442554      57.32382753      86.50428128
C      85.99952908      61.22233292      86.19058671
H      86.01275716      62.11239401      84.33298575
C      83.37658895      61.73444875      87.47182115
H      83.22352112      63.73188946      87.94803218
H      83.42950129      60.70454791      89.25383307
C      80.92183447      61.13918496      85.91657640
H      80.69695704      59.11339836      85.61610991
C      78.71463414      62.22199815      87.44914444
H      76.91183524      61.50390214      86.76128406
H      78.57479439      64.27235119      87.34143004
H      78.86203279      61.40752610      89.33698102
C      80.91427557      62.36750706      83.27662874
H      81.11836601      64.40463203      83.50339590
H      79.02265953      61.91019329      82.59821699
H      82.21818672      61.64185216      81.85744428
C      88.09334583      62.46388311      87.70803694
O      88.40704040      64.71643687      87.51906431
N      89.70528238      61.06170618      89.06863989
H      89.49552276      59.17386959      88.86832890
C      92.02208684      62.02735634      90.36310241
H      91.51564018      63.60527781      91.58386561
C      93.11056919      59.89763478      92.21314447
H      94.67148313      60.73100408      93.26761176
H      93.89669534      58.25924206      91.24560460
C      91.24729905      58.69198938      94.06318653
H      89.88480638      57.72822896      92.85565142
H      90.40070166      60.19621153      95.18568396
C      92.57010747      56.77013772      95.65622582
H      94.06110153      57.61673511      96.79762051
H      93.29954182      55.46433684      94.24271053
N      90.86179488      55.38118889      97.24548564
H      89.98307214      53.81271604      96.60108897
C      89.67126730      56.25991163      99.23536745
N      90.40448111      58.30648522     100.35030598
H      89.69016457      58.73167365     102.06806720
H      91.78965050      59.36662168      99.57740791
N      87.95350608      54.98812581     100.28794501
H      87.09179089      55.73834717     101.81862332
H      87.37902928      53.56516190      99.15599895
C      94.05732208      63.04780854      88.53195762
O      95.59177984      64.65785535      89.24816389
N      93.78709121      62.36372761      86.16413054
H      92.21294919      61.39618774      85.68225034
C      95.19304759      63.68464630      84.05708571
H      96.36656763      65.15485337      84.89801392
C      97.03742047      61.89129603      82.47349506
H      97.89157676      62.72277561      80.79541809
C      99.16336257      61.20721511      84.34621383
H      98.43770767      59.78047174      85.64256608
H     100.07799011      62.78891603      85.29674617
H     100.74317377      60.32471293      83.36166642
C      95.66736889      59.45165936      81.51351409
H      93.95905631      60.13951974      80.58754820
H      95.33666679      58.36695646      83.23316503
C      97.30765133      57.80759747      79.76929670
H      96.09633677      56.44699453      78.80742601
H      98.62479057      56.85139596      81.02785443
H      98.24117613      58.89985928      78.29342045
C      93.63024393      65.20965544      82.18058748
O      94.43148789      67.24867013      81.29997502
N      91.32666755      64.38006559      81.59099287
H      90.63502772      62.70765780      82.19570529
C      89.51064057      65.88050828      79.90535700
H      90.59912292      66.33026315      78.21783140
C      87.26564571      64.18353405      79.17970209
H      86.02787497      64.09282719      80.82565371
H      88.04421295      62.30136664      78.88112533
C      85.78032082      65.08115405      76.87612572
O      83.45784719      64.86761497      77.04998054
O      86.78187577      65.64429250      74.79364732
C      88.75286031      68.46376416      81.04864142
O      88.17649379      70.30246786      79.61433914
N      88.68483017      68.69997994      83.50150617
H      89.03065008      67.09938175      84.48227413
C      88.03287459      71.07347619      84.88100638
H      88.13491981      72.73076617      83.66024318
C      85.23230019      70.87316520      85.81453118
H      84.84679603      72.29234966      87.25639235
H      85.13781388      69.05902794      86.78585050
C      83.14226289      70.94497480      83.72638360
H      81.60969485      69.87161026      84.58809880
H      83.97374247      70.13050276      82.02562992
C      82.19362028      73.66996015      83.34654861
O      80.24720218      74.44663766      84.48227413
O      83.46162664      75.13449804      81.92547442
C      90.04543311      71.51189270      86.85766010
O      91.18115863      73.61704780      87.00883821
N      90.50841606      69.62027665      88.42046376
H      89.52764810      68.00456066      88.16913016
C      91.90870326      69.94153013      90.76372439
H      93.55843433      71.10938100      90.36121269
H      92.44727526      68.04802437      91.36654708
C      90.47818044      71.09426318      92.91801239
O      88.96450966      72.84226003      92.54384658
N      90.89392023      70.17774592      95.22536822
H      92.21105947      68.80769434      95.40867167
C      89.26686587      70.88828301      97.36264868
H      87.36769093      70.74466381      96.58030198
C      89.56733236      68.85115805      99.30717705
H      91.50997101      69.00422588      99.97425044
H      89.20828436      67.06725640      98.34530636
C      87.85335059      69.26689784     101.60886370
H      87.63792179      71.23221320     102.19089941
C      85.14537278      68.58092719     100.73014097
H      84.45184323      69.76767531      99.19568320
H      83.80177737      68.72454638     102.28538572
H      85.01120221      66.68364196      99.93834564
C      88.61868975      67.68141746     103.82740239
H      87.04076827      67.31292082     105.09918820
H      90.20417012      68.46565387     104.88186968
H      89.27253505      65.88428774     103.06773241
C      89.97740297      73.63972452      98.21491524
O      92.10523479      74.19341433      99.07852017
N      88.11602255      75.39905973      98.35475499
H      86.31700310      74.99276857      97.86153642
C      88.61491029      77.98609504      99.01615920
H      90.60479210      78.13160397      99.52638530
C      87.94594718      79.74354052      96.92801162
H      87.60012726      81.60492093      97.74059394
H      86.23574487      78.84214106      96.21747453
C      89.89614473      80.11014743      94.79640034
H      90.50841606      78.23553892      94.20491601
H      91.53642717      81.08335647      95.57685731
C      88.99663501      81.86192371      92.52494931
H      90.65770444      82.39482653      91.42890805
H      88.13869926      83.49464725      93.44146658
N      87.17493884      80.46541597      91.04151416
H      86.38314352      79.02922396      92.02039239
C      86.05433114      80.80556670      88.77573231
N      86.77053741      82.53655600      87.19403139
H      86.03543388      82.38726762      85.44036537
H      88.49018836      83.29244654      87.53796157
N      84.42727678      79.15205617      87.85165614
H      83.92460958      79.19551989      86.00917299
H      83.89626369      77.74421007      89.02517618
C      87.45650806      78.70230131     101.65232741
O      85.19261594      78.19018549     101.83185141
N      88.80577265      79.82668847     103.50236947
H      90.54243113      80.41817280     102.97324610
C      88.34089998      79.79834257     106.22735481
H      86.74975042      78.52655677     106.53160075
C      90.68605033      78.66261707     107.63898037
H      89.99063105      77.99554367     109.46067653
H      92.30365606      79.93251315     107.51992761
C      91.65359020      76.14739134     106.60530007
H      92.43026772      76.25132629     104.70234568
C      93.76630422      75.30268369     108.39487089
H      94.44849542      73.60193000     107.45189746
H      93.10112056      75.04379117     110.32806091
H      95.22139348      76.76344213     108.40054007
C      89.55032482      74.13483282     106.45790142
H      88.14814789      74.66395618     105.04438614
H      88.47129109      74.22364995     108.21156744
H      90.20983930      72.21109143     106.14231713
C      87.76831291      82.47608476     107.27426319
O      86.29621611      82.60836560     109.00147304
N      88.69427880      84.49431247     106.07806643
H      90.08322764      84.14093364     104.81950871
C      87.61146562      87.14181903     106.20656782
H      86.61935931      87.32512249     108.00180782
C      89.62969332      89.22618715     105.93255751
H      91.16037164      88.70462269     107.20812277
H      88.86246444      91.04221415     106.52593157
C      90.75974966      89.40193171     103.13198311
H      89.39536726      90.11435853     101.76004181
H      91.24351960      87.47252113     102.60285974
C      93.04820822      91.15559771     102.98458446
H      94.32188376      90.72285039     104.54360867
H      92.32633277      93.07555966     103.15843928
C      94.31243513      90.96473536     100.37676215
H      95.07777428      92.79210070      99.81362370
H      92.94994246      90.67371751      98.86120164
N      96.32877310      88.93327958     100.46368956
H      97.89724594      89.40949061     101.44067806
H      96.92970607      88.55911377      98.68923655
H      95.57855176      87.38748345     101.29705886
C      85.60079682      87.51220538     104.19022984
O      85.68394478      86.17238943     102.27404736
N      83.76209312      89.14303920     104.68722786
H      83.67705544      89.99719549     106.39176100
C      81.62103321      89.71751599     102.95056938
H      80.47774879      88.03188012     102.64821317
C      79.78043978      91.64692657     104.28849561
H      80.70640567      93.43838711     104.70612513
C      77.51843738      92.50675204     102.52349124
H      78.10047309      93.06989047     100.62998547
H      77.13671267      94.43238314     103.14332147
H      76.15027553      90.97040455     102.60474947
C      78.68439852      90.68316615     106.93789190
H      80.29633506      90.65104080     108.22101607
H      77.71118947      88.90682341     106.56750555
C      76.66239136      92.28187460     108.07172769
H      74.96352741      92.22518282     106.90954601
H      77.33135448      94.22451326     108.23991333
H      76.07090703      91.63369847     109.93499784
C      82.52810184      90.87213877     100.51093271
O      84.27042950      92.42549381     100.51849162
N      81.50198045      89.98585714      98.38688034
H      80.22074601      88.57990076      98.55317625
C      82.27487851      90.55088530      95.72425596
H      83.51831843      92.18927801      95.83952927
C      83.91138150      88.33612607      94.94379900
H      85.34190432      87.77865679      96.31574030
H      84.96395906      88.87658778      93.25816312
C      82.42983607      86.00798324      94.25026944
C      81.46229620      85.61114072      91.89000127
H      81.28844138      87.10780396      90.51239079
C      80.60436045      83.36614585      91.09820595
H      79.65760757      83.23764446      89.29351732
C      80.39838028      81.30634417      92.70258359
O      79.63493085      78.92906848      91.89756018
H      79.40438424      79.16150482      90.11365854
C      81.41883249      81.54444969      95.16489697
H      81.56245169      79.90038780      96.36865264
C      82.38448264      83.89337950      95.96614093
H      83.38981704      84.17872818      97.71791722
C      80.08279599      91.33323200      93.98003858
O      77.88126484      90.73229903      94.39955782
N      80.65538306      92.66548904      91.99015677
H      82.47518950      92.83556441      91.43835668
C      78.63904509      93.70483852      90.35932296
H      76.71908315      93.42137956      91.05852170
C      78.97730610      96.50352319      90.17790923
H      80.43806454      97.05721299      88.83242410
H      79.49320138      97.34823084      91.98259786
C      76.49042627      97.79987543      89.15745702
H      74.90494589      97.51263704      90.44247092
H      76.24665158      97.21595000      87.19781084
C      77.04033663     100.61934709      89.40690090
H      78.50298479     101.20705197      88.08031303
H      77.69418193     101.04075607      91.31363475
C      74.57235406     101.77208014      88.75872477
H      73.00010177     101.00674098      89.84720713
H      74.10370194     101.03508688      86.89167518
N      74.72542189     104.46305041      88.25605757
H      72.98309423     105.00729159      87.69858831
H      75.84602960     104.85989294      86.76128406
H      75.50398913     105.45515674      89.68847012
C      78.52188206      92.33478694      87.78173627
O      80.39460083      92.17604993      86.33609564
N      76.51310299      91.16315662      87.06364027
H      75.00510139      91.14425937      88.23149113
C      76.37515296      89.60224270      84.71848992
H      77.92283881      88.31911852      84.27440423
C      73.96575192      88.10746918      84.93769817
H      72.31602084      89.32823237      85.08887627
H      73.86748615      86.92261078      86.62333404
C      73.41395183      86.35191344      82.88167594
O      71.84358927      87.03410464      81.35855653
O      74.75943697      84.40360560      82.75506428
C      76.27310774      91.36724706      82.27318407
O      75.88193440      93.67271317      82.46971560
N      76.39593995      90.30900034      79.89779809
H      76.74553932      88.44195074      80.08299127
C      76.21074678      91.69416971      77.41658744
H      77.72441755      93.08122883      77.57532445
C      76.85892290      89.83467902      75.23773300
H      75.08635962      88.85202134      74.86734665
C      77.42962025      91.24063541      72.77352989
H      79.15871982      92.34234585      72.94360526
H      75.81579398      92.38391982      72.19527364
H      77.75843263      89.91026808      71.23529267
O      78.98864446      88.32289797      75.69126732
H      78.59936083      86.59568813      76.08244067
C      73.69363133      92.94705827      76.98384012
O      73.56890939      95.01630858      75.70260568
N      71.55635087      92.03809990      78.18759578
H      71.72453651      90.42049418      79.18726100
C      69.16395735      93.42704875      78.16491906
H      69.06002241      94.34545574      76.32243591
C      67.03990498      91.55055051      78.45971637
H      66.71676178      91.14425937      80.45526735
H      67.58225643      89.74775161      77.62634706
C      64.54357652      92.37069174      77.07832643
H      64.01067370      94.32466874      77.45438197
H      63.16029686      91.35779844      78.21783140
C      64.58137104      91.71684644      74.23428833
O      65.66040477      93.34012133      72.78486825
O      63.71776612      89.68539064      73.40658821
C      69.03545596      95.55299085      80.22472074
O      67.04557416      96.79265132      80.40802420
N      70.97620489      95.84589843      81.71382508
H      72.55601609      94.80654896      81.44548394
C      71.03289668      97.65436651      83.76228840
H      70.00866502      99.35323046      83.20670887
H      72.93585107      98.28175565      84.24038916
C      69.76300060      96.83044584      86.27373467
O      70.05779790      98.12490837      88.26361648
N      68.64806207      94.48340576      86.34554427
H      67.95642224      93.82200155      84.69581320
C      67.86382565      93.37791587      88.68880490
H      66.91896249      94.90859417      89.69035985
C      66.02701167      91.20095115      88.24471922
H      64.98388275      90.87213877      89.99082633
H      67.11549403      89.53421255      87.71937530
C      63.75934010      91.91148824      86.54585526
C      62.63306322      90.26364691      84.75061526
H      63.46454279      88.45328910      84.30463985
C      60.45987796      90.98363262      83.29363628
H      59.46588192      89.62113995      82.14279295
C      59.33738053      93.29854736      83.61300002
O      57.25679186      93.83711935      82.33365531
H      56.73900685      95.57188812      82.45081834
C      60.26523615      94.93316061      85.50272634
H      59.37706478      96.71895198      85.93358393
C      62.37983989      94.17349064      87.00127930
H      63.09037698      95.67015388      88.19180688
C      70.03701091      92.74296782      90.51617024
O      71.96642148      91.84345809      89.64878587
N      69.76489032      93.19083295      93.00493980
H      67.96398115      93.49696862      93.55485016
C      71.56390977      92.35179447      94.96269626
H      73.31190661      92.36313283      93.87232418
C      71.92862695      94.17538036      97.08485891
H      73.38749566      93.31933434      98.26026867
H      70.24677053      94.16215228      98.27538648
C      72.47097840      96.84745337      96.34030674
C      70.51889112      98.42159539      95.43323811
H      68.68774632      97.68649185      94.90789420
C      71.23509739     100.98595400      94.86632022
H      69.67796291     102.00451649      94.02917146
C      73.51032787     102.08388498      95.55796005
O      74.14905537     104.53863946      95.06852093
H      72.76955516     105.71593896      94.97592434
C      75.16572812     100.42092583      96.55384581
H      77.13860239     100.87257042      96.82596640
C      74.74053970      97.85467750      97.06974110
H      76.13515772      96.76241569      98.08641385
C      71.00455078      89.60791187      95.84330872
O      68.84648333      88.86335970      96.17779028
N      73.17962577      88.32289797      96.23259234
H      74.76699587      89.37358581      96.08519369
C      73.58024775      85.61492018      96.20991562
H      71.87571461      84.74375634      96.97525478
C      74.22464442      84.67383646      93.53217344
H      76.08602484      85.29555643      92.90856376
C      73.55946076      81.95263058      92.79518018
H      71.56013032      81.45752229      92.82541580
H      74.50999309      80.65438860      94.08019407
H      73.92795739      81.85058535      90.77128330
O      72.44641196      85.80578252      91.96559033
H      72.98876341      87.44606497      91.41567997
C      75.70807958      84.76643305      97.89933095
O      77.41072298      86.25364766      98.57207352
N      75.62493162      82.42317242      98.72136189
H      73.93740602      81.56901613      98.45680021
C      77.53355519      81.27421882     100.25392993
H      79.27588285      82.15672101      99.60386408
C      77.17639692      82.22097171     103.02615844
H      76.79278248      84.24108914     102.92600294
C      74.98053495      80.89816329     104.22424492
H      73.33647305      81.12115099     103.00159199
H      74.74809861      82.14727239     105.84563009
H      75.43973844      78.92339929     104.58329292
C      79.76343224      82.06412442     104.59463128
H      81.11647628      82.92961908     103.30583793
H      80.15649532      80.07235289     104.94612037
C      79.96563296      83.50598561     107.02481931
H      78.22708475      83.19984995     108.08873523
H      80.30956315      85.47508042     106.52971102
H      81.65882774      82.82379441     107.97724138
C      77.82646277      78.42640127     100.07440593
O      76.34302762      77.19618944      98.80073040
N      79.84091102      77.27177850     100.96068758
H      81.17694753      78.39238621     101.73736509
C      80.42861591      74.66206647     100.79628139
H      78.75431839      73.60948891     101.37453764
H      81.89504352      74.05168486     102.10775145
C      81.09757902      73.73988002      98.10531112
O      82.92494437      74.54868289      96.98092396
N      79.43084041      72.30557774      97.01304931
H      77.86803675      71.83881535      98.00515562
C      79.11714584      72.16006882      94.23515163
H      80.61191936      73.34303750      93.45469466
C      79.80500622      69.59193077      92.97470418
H      78.43684437      68.16329766      93.54540152
C      80.03933229      69.87538971      90.12877635
H      80.01098639      67.93464078      89.43713652
H      81.79299830      70.90151109      89.78484616
H      78.61825810      71.23221320      89.51272557
C      82.32401140      68.55258130      93.98570775
H      82.13881822      68.31069633      96.02283272
H      83.67516571      70.04546508      93.55485016
C      83.41060403      66.18475421      92.99738089
H      84.35924664      65.26256778      94.57530236
H      84.79766314      66.64017827      91.54229163
H      81.94039696      64.97910884      92.20936502
C      76.41105776      72.86304702      93.66445428
O      74.63093558      71.30024334      93.98381803
N      75.90272139      75.17418230      92.61376645
H      77.42017162      76.25888520      92.20369584
C      73.39127512      75.80535087      91.47237176
H      72.85459284      74.37860751      90.08720237
H      73.60859364      77.52122238      90.35365378
C      71.27856110      76.18896532      93.33375218
O      69.19230325      76.52155716      92.66100961
N      71.75477213      76.24943656      95.79228611
H      73.44796691      75.94708035      96.61431706
C      69.76300060      76.80690583      97.69146105
H      68.28523462      75.56913510      96.96391642
C      70.38850000      75.74298992     100.21424568
H      72.05145916      76.72564759     100.92856223
H      71.17462615      73.88349922      99.80228535
C      68.13027706      75.51622276     102.06239802
N      66.45786927      73.56602520     102.05105966
H      66.48432544      71.99566264     100.96824648
C      64.66262928      74.06680267     103.81606403
H      62.97132423      72.97832031     104.15432504
N      65.14073003      76.41384275     104.79116281
H      64.16185180      77.23587370     106.20656782
C      67.39139407      77.30957302     103.81984349
H      68.44208190      78.97442190     104.35085658
C      68.66695933      79.37882333      97.65177680
O      70.13338695      81.04367221      98.63632421
N      66.64684190      80.12904468      96.57085335
H      65.50544721      78.89316368      95.67134363
C      65.57158763      82.60647588      96.52361019
H      66.86416043      83.88393086      95.55418059
C      63.23777564      82.56301218      94.75860582
H      61.63339800      81.58980313      95.60520320
H      63.75556065      81.25154212      93.25816312
C      62.19464671      84.87414745      93.32997272
H      60.15941147      84.60391659      93.15044872
C      62.54235635      87.26654096      94.85120241
H      61.67119252      86.88859571      96.68045748
H      61.69386924      88.88792614      93.90444952
H      64.53790734      87.77109789      94.78506198
C      63.06770027      85.52799275      90.57664149
H      64.97821357      86.29144220      90.53317778
H      61.75056103      86.95662585      89.89067083
H      62.90140435      83.84235688      89.40501117
C      64.95175740      83.73653222      99.25615444
O      63.05258246      82.88237592     100.35219570
N      66.25944801      85.70373731     100.24637103
H      67.67485302      86.26498602      99.09552770
C      65.59048490      87.21740808     102.39498985
H      64.56436351      86.08735175     103.77637978
C      68.15673323      88.26620618     103.47213385
H      67.66351466      89.65515502     104.91021557
H      69.14883954      89.25453304     101.96035280
C      69.77244923      86.22719149     104.72691212
H      70.42440480      84.74186661     103.45890576
C      72.12893794      87.48008004     105.75870268
H      71.64138855      88.75753503     107.29882963
H      73.14561070      88.35880277     104.19778875
H      73.43851827      86.05333667     106.46168087
C      68.63294426      84.91383171     107.06828302
H      69.97842939      83.77054728     108.12841948
H      67.38383517      83.36425614     106.53160075
H      67.60493315      86.18561751     108.31928184
C      63.89351067      89.48318993     101.75815208
O      61.90362886      89.65326530     102.96757692
N      64.35649361      91.01953743      99.76449082
H      65.82670069      90.60568736      98.61742695
C      62.72943926      93.09823636      99.20513183
H      60.81892596      92.42171434      99.57362846
C      63.14706877      95.20150176     101.17422665