 %block lattice_cart
   140.777   0.000   0.000
   0.000 144.511   0.000
   0.000   0.000   162.462
 %endblock lattice_cart

 %block positions_abs
N      91.63469294      40.78021853      82.89301430
H      90.73707294      40.06212254      84.41424398
H      93.53197816      40.60636372      83.01395677
H      91.08100313      39.65394165      81.45304284
C      90.80888254      43.38237167      82.69270330
H      91.86334982      44.33101428      84.18558710
C      91.72162035      44.42550059      80.12645498
H      90.54621058      43.56756484      78.67136572
H      93.70205353      44.04755532      79.70693574
C      91.21895315      47.33000993      79.50095556
H      89.19694600      47.71173466      79.42347679
H      92.07121972      47.68527848      77.66036213
S      92.56443828      49.35201710      81.77429632
C      91.95216696      52.26408533      80.28330225
H      93.23718085      52.51919839      78.69404243
H      92.10334506      53.89302943      81.53430108
H      89.98118242      52.22818053      79.68614874
C      87.96106499      43.64315389      83.14434789
O      86.64014629      41.93295158      82.48672314
N      87.28076351      45.69350694      84.44070015
H      88.71884524      46.78954820      85.05108175
C      84.74664053      46.26798374      85.49894688
H      83.40871430      44.99808766      84.58431934
C      84.64459531      45.41949664      88.29007264
H      86.02976469      46.38703650      89.47115159
H      85.31544815      43.47685798      88.18046852
C      82.06511889      45.69728640      89.61288106
O      81.43961948      47.69661684      90.61254629
N      80.57601456      43.76976557      89.83586877
H      78.96974719      43.84157517      90.86199016
H      81.22419068      42.04822489      89.32753238
C      83.86035889      48.97218211      85.30052561
O      85.72173931      50.43483026      85.19092149
N      81.36403043      49.56744588      85.48760852
H      79.98830967      48.24841693      85.58020511
C      80.37948302      52.20172437      85.47627017
H      80.99175434      52.93682791      83.65268427
C      77.50142984      51.99763392      85.44981399
H      77.02332909      50.83923169      83.81709047
C      76.28255637      50.53876521      87.65890406
H      74.22464442      50.62569262      87.62299925
H      76.74175987      51.49307700      89.42579815
H      77.09135923      48.67171561      87.97826781
C      75.99153852      54.44293977      84.83187349
H      76.25610020      55.80543245      86.35499289
H      73.95252383      54.19349590      84.70337210
C      76.73042151      55.79976327      82.25050735
H      75.25643498      57.21327855      81.96893813
H      76.67939890      54.33144592      80.80486672
H      78.51432315      56.81454631      82.42814162
C      81.49442154      53.90247805      87.59654309
O      82.16905384      56.08322221      86.96915395
N      81.96118394      52.96139434      89.90389891
H      81.42828112      51.18505161      90.35554350
C      83.30477935      54.35223292      91.89756017
H      82.25031207      56.11345783      92.07330472
C      83.33690470      52.91226147      94.39388863
H      84.49530693      53.98184655      95.72047651
H      84.43861514      51.25308176      93.85720636
C      80.75742828      52.20928327      95.10442572
C      80.27743780      49.71673426      95.79228611
H      81.59646676      48.18983540      95.48426072
C      77.80000660      48.96273346      96.42534443
H      77.32568530      46.99741811      96.70502391
C      76.08791456      50.79198854      97.09241782
H      74.47975747      50.14381241      98.17145154
C      76.62459683      53.37335468      96.77872324
H      75.27344252      54.75096516      97.44768636
C      78.88093005      54.20294454      95.58630593
H      79.15683009      56.21172360      95.37087714
C      85.90315303      55.15347687      90.97159428
O      86.92927442      57.23784499      91.27017104
N      87.30532996      53.23729438      89.89445029
H      86.53810107      51.49118728      89.97759824
C      89.97173378      53.61523965      89.02139673
H      90.95628119      54.31065893      90.69002507
C      91.17926890      51.08867557      88.50361172
H      93.07844384      51.47229001      87.80630271
H      90.18905231      50.15704049      86.95592586
C      91.37580043      49.26131022      90.70892233
H      89.47851522      49.07044786      91.48937930
H      92.47373142      50.27987270      92.12054789
C      92.61546090      46.78009958      90.01350305
O      94.32188376      45.97696589      91.43646696
O      91.79531968      45.55933638      88.15401234
C      90.09078654      55.40103102      86.76128406
O      91.75374570      57.08288743      86.62900321
N      88.35034861      55.20638921      84.92258036
H      87.18060802      53.71350543      85.13989889
C      87.78532044      56.94871687      82.81742524
H      89.30088094      56.94304768      81.42469695
C      85.52331804      55.97550782      81.34721818
H      83.97185274      56.14558318      82.68892385
H      85.82000507      53.97050820      80.98439072
C      84.74475080      57.39091283      78.98128082
H      86.23196541      57.19438128      77.56965528
H      84.50664529      59.35433846      79.55575762
S      81.69851199      56.24762841      77.65091351
C      82.46952032      56.77108259      74.37979725
H      83.91327122      55.43693581      73.76563621
H      83.15549097      58.71372124      74.34389246
H      80.85758378      56.58399969      73.10990118
C      87.34879366      59.68315085      83.56197741
O      88.85868499      61.33477164      82.73427729
N      85.47607488      60.32376806      85.06053037
H      84.18350209      59.02363637      85.58587429
C      85.09812962      63.00151024      85.55752840
H      85.33245569      64.02007273      83.78118566
C      82.52243266      63.37378633      86.75750461
H      82.14637712      65.16335715      87.70236777
H      82.56022718      62.04719847      88.33164663
C      80.34546795      63.09788629      85.04541257
H      80.69695704      61.68437100      83.58843357
C      77.99086896      62.20971493      86.56286280
H      76.49420572      61.73539361      85.23060575
H      77.11403595      63.80464394      87.53229239
H      78.53511014      60.56376331      87.67591160
C      79.77666032      65.45437501      83.24450339
H      80.16027477      67.13056224      84.38022890
H      77.83213195      65.20682085      82.60388617
H      81.12970437      65.39957294      81.69303808
C      87.25430735      64.24306043      87.15056768
O      87.76642318      66.61655668      86.98805121
N      88.75852949      62.69348486      88.59242886
H      88.23696503      60.86611952      88.77573231
C      91.02809079      63.64023775      89.88122220
H      90.42148865      65.04997357      91.25316351
C      92.12980123      61.48594974      91.45725395
H      94.15180839      61.75996007      91.73504372
H      92.02019711      59.67937139      90.47648598
C      91.07155450      61.06454077      94.16901121
H      89.17993846      60.25195847      94.22948245
H      90.75785993      62.96182599      94.90789419
C      92.77797736      59.43181724      95.82630119
H      94.01007891      60.43526191      97.13588152
H      94.09700632      58.38490886      94.64144278
N      91.06021614      57.56665737      97.15666850
H      90.77675719      55.82621943      96.42723414
C      89.67693648      58.20727460      99.12765305
N      89.85835020      60.62801399      99.97614017
H      88.66026372      61.12690174     101.37264791
H      90.88636132      61.99428612      99.12765305
N      87.93271909      56.78242095     100.18589979
H      86.66282301      57.42681762     101.45579586
H      87.76453345      55.04009329      99.42056063
C      92.99151643      64.78352216      88.20692469
O      94.29731731      66.43703269      89.13667004
N      93.15970207      64.01251382      85.86366406
H      92.22239782      62.35711357      85.70870650
C      94.92659618      65.11044481      83.82842881
H      96.09444704      66.51073202      84.78652005
C      96.66703411      63.00906915      82.72671838
H      97.95582746      63.86700491      81.36989489
C      98.19015352      61.51051619      84.71848992
H      96.89569099      60.18014886      85.61610991
H      98.77407895      62.75206637      86.25483741
H      99.84555377      60.52407906      83.99094528
C      94.96061125      61.21382915      81.02029552
H      93.70016380      62.28719370      79.79575286
H      93.86834944      59.92692553      82.19948473
C      96.74829234      59.50173711      79.52552200
H      97.54008767      58.21483350      80.92580921
H      98.33377272      60.57510166      78.76207258
H      95.63146409      58.45671847      78.14602179
C      93.47906582      66.48238611      81.66280246
O      94.57888653      67.90535003      80.21149266
N      91.06210587      66.10633058      81.43603531
H      90.30432561      64.71738174      82.50373067
C      89.35757273      67.55386094      79.65213367
H      90.31377425      67.57086847      77.82854778
C      86.86313400      66.20270662      79.15135620
H      85.53087695      66.89812591      80.55920230
H      87.32044777      64.19392756      79.12301030
C      85.66126806      66.92836152      76.59077704
O      83.29911017      66.99072249      76.46983456
O      87.02942991      67.34032186      74.67459455
C      88.90025896      70.28451546      80.51384886
O      89.24796861      72.16101369      79.16458427
N      88.41837875      70.64734291      83.00450815
H      88.52987261      69.12989269      84.15913092
C      87.99319033      73.10965629      84.08543160
H      88.58278494      74.76127709      83.00639788
C      85.09435017      73.42335087      84.37266999
H      84.49908638      74.68568804      85.88634078
H      84.34412882      71.54685263      84.76195361
C      83.95295548      74.51939212      82.03696828
H      81.90638188      74.47592842      82.26751488
H      84.34034937      73.31752619      80.40802419
C      84.39704116      77.28784117      81.47382984
O      83.76209312      78.94135169      82.94592664
O      85.31355842      77.88310497      79.43481515
C      89.45016932      73.80129612      86.46459703
O      89.81488650      76.06896770      86.95592586
N      90.28920780      71.88700337      87.86866368
H      89.89803446      70.19947778      87.07119918
C      91.51186073      72.14967533      90.36688186
H      93.04631849      73.51405773      90.52750860
H      92.37168620      70.30341273      90.68435589
C      89.67882621      72.80730008      92.54573631
O      87.79665880      74.12254961      91.82953002
N      90.12480161      72.10054245      94.94190927
H      91.74429707      71.10276695      95.10631546
C      88.64325619      72.82430763      97.18501439
H      86.64392575      72.97548572      96.72014173
C      88.89836924      70.75505732      99.35442020
H      90.69927841      71.16512792     100.26337856
H      88.70939661      68.81619811      98.68167763
C      87.04265800      70.99127311     101.45768560
H      87.22029227      72.83753570     102.34774669
C      84.29499594      70.75127785     100.63754438
H      83.24808756      71.10465668     102.37609258
H      84.04177261      68.78029331     100.09708265
H      84.04177261      72.19880821      99.19379348
C      87.82122524      69.01461937     103.54016399
H      86.72707370      69.16201802     105.27682248
H      89.75441526      69.43035916     104.12030997
H      87.85146086      67.08142935     102.82773717
C      89.52764810      75.45480665      98.36798307
O      91.68571555      75.66834572      99.38276611
N      87.96673417      77.49004190      98.12609810
H      86.34534899      77.29540008      97.13777124
C      88.57522604      80.05440049      98.94245987
H      90.60290237      80.04306213      99.29016952
C      87.78154099      82.18790150      97.02816712
H      87.27698406      83.94912643      97.96736110
H      86.04866196      81.54917402      96.11353958
C      89.62780359      82.66978171      94.81718733
H      89.93393926      80.83674720      93.92901597
H      91.40414633      83.48425375      95.46914290
C      88.82089046      84.42344773      92.55518493
H      90.37991467      85.22091224      91.47426148
H      87.97051362      86.16010621      93.26761176
N      86.86880318      83.17433864      90.96781483
H      86.11669211      81.52649729      91.56685807
C      86.20928869      83.52393801      88.67935626
N      86.87636208      85.38909788      87.42835745
H      86.25842158      85.53838625      85.62933800
H      87.88925539      86.68167067      88.39967678
N      84.72396381      81.79861788      87.49260815
H      84.19295072      81.80428706      85.65957361
H      84.59357270      80.25660122      88.61132611
C      87.16926966      80.50415535     101.40288353
O      84.91860562      80.41155878     101.56728972
N      88.70372743      81.15422121     103.26237423
H      90.59534347      81.09563970     103.02804816
C      87.83256360      81.42256235     105.95523422
H      86.47574010      79.92022993     106.34073839
C      90.27408999      80.92556432     107.42733102
H      89.61646524      80.87076226     109.37752857
H      91.51941963      82.56206731     107.55961185
C      91.70083336      78.29506530     106.86419258
H      92.52853349      78.35553654     104.97824571
C      93.97228439      78.17412282     108.67832983
H      95.10234072      76.49793557     108.28904621
H      93.35812334      78.09286459     110.64364520
H      95.13068662      79.83330251     108.30416403
C      90.17960368      75.89133342     107.16465906
H      91.55910389      74.36443456     107.05505494
H      88.73396305      75.62488201     105.72279789
H      89.24985833      76.05762934     108.99580386
C      86.66471274      83.90188328     106.65065351
O      85.39859611      83.91889081     108.66888121
N      87.03131964      85.93522878     105.11808547
H      88.14625817      85.57996024     103.61197359
C      86.03732360      88.38053464     105.45823619
H      84.85624465      88.45990314     107.14576179
C      88.34845888      90.19467189     106.01759519
H      89.36513164      89.34051559     107.59173721
H      87.63603206      91.79715980     107.09662891
C      90.01519749      91.08851243     103.85574829
H      88.97584802      92.29037838     102.54616795
H      90.47818044      89.52759851     102.59341111
C      92.31310469      92.68155173     104.63053607
H      93.23907058      91.73479883     106.20656781
H      91.69894363      94.51458625     105.34107316
C      94.33133239      93.31838948     102.67655907
H      95.22139348      95.10040140     103.20001326
H      93.52063980      93.79460051     100.84352455
N      96.28152994      91.40787618     102.69167687
H      97.89157676      91.98235298     101.83752059
H      95.84878262      89.72413004     101.90744045
H      96.62546013      91.10363025     104.54360867
C      84.38759253      89.19500668     103.17922626
O      84.36680554      88.09329623     101.13076295
N      82.72652310      90.99213640     103.88031473
H      82.82478887      91.52125976     105.70956980
C      80.87837077      92.15053862     102.06806719
H      79.60658496      90.58017607     101.66555548
C      79.35147190      94.31616499     103.14899064
H      80.76309746      95.68621656     103.75559279
C      77.73575591      95.66542956     101.13454239
H      78.84691498      96.80682427      99.83063123
H      76.41672694      97.05248869     101.89610210
H      76.56223587      94.20656085     100.27282720
C      77.63371069      93.24657989     105.30894781
H      78.93006294      92.71367706     106.81694941
H      76.58491258      91.68944541     104.45857098
C      75.77610972      95.05693770     106.38042264
H      76.89293797      96.69344068     106.94923026
H      74.92573288      94.33695198     108.11330167
H      74.37771225      95.59928915     104.96879709
C      82.23519426      92.97256957      99.67945314
O      84.18161236      94.25569373      99.85330796
N      81.34891262      91.86518996      97.61209254
H      79.74831443      90.83339938      97.72358639
C      82.26542988      92.75147159      95.03072640
H      83.39737594      94.45411501      95.28583946
C      83.75075476      90.64631648      93.78350703
H      85.41938310      90.03593489      94.82663597
H      84.51042474      91.48157552      92.06007664
C      82.23141481      88.28604832      93.23926585
C      81.28088247      87.87597770      90.86576960
H      81.65882773      89.02115185      89.21981799
C      80.36058576      85.51004036      90.12877635
H      79.96185350      85.05839577      88.17857880
C      79.99586858      83.55417363      91.88622181
O      79.17572736      81.31106850      90.93568948
H      79.34769245      81.46035688      89.13667004
C      80.78199472      84.06439973      94.41089618
H      80.58168373      82.56017759      95.77527857
C      81.86102845      86.33207130      95.00615996
H      82.68683885      86.47758024      96.86565065
C      79.97319186      93.52247993      93.57374741
O      77.88315456      93.29949222      94.45624960
N      80.44184399      94.67143352      91.40056216
H      82.18795110      95.24024114      90.87899769
C      78.42361628      95.32905829      89.52595365
H      76.56979477      95.10607058      90.38955857
C      78.47463890      98.05404363      88.71526107
H      77.12537431      98.31293614      87.18080330
H      80.35113712      98.59639508      88.06141577
C      77.73008673      99.85117336      91.02072716
H      79.25509586      99.83227609      92.40589655
H      75.94240564      99.16709242      91.78606633
C      77.62426205     102.67253473      90.12121744
H      76.48097764     102.93520670      88.42802267
H      79.49320138     103.27157797      89.49949749
C      76.59058176     104.46399528      92.16968076
H      77.72441755     104.46588501      93.88744198
H      74.62337667     103.92164383      92.44747054
N      76.74364959     107.01134636      91.06797033
H      75.49076105     107.16252445      89.63366806
H      78.52377178     107.32504092      90.45569900
H      76.21830568     108.38139793      92.28684379
C      78.59558138      93.53003883      87.22804645
O      80.70640567      92.98957710      86.26239632
N      76.47530846      92.96690039      86.17168944
H      74.91817397      93.74357790      86.95592586
C      76.22397486      91.80849817      83.67914045
H      77.72063810      90.39876234      83.54496988
C      73.67851351      90.50458701      83.67158154
H      71.98153928      91.66109952      83.84543636
H      73.57646829      89.31594915      85.35154823
C      73.32891414      88.96634979      81.18092225
O      71.48454126      89.25169847      79.88268027
O      75.01266029      87.50748108      80.46849544
C      76.40916804      93.74357790      81.68169973
O      76.53955915      96.01880838      82.16169022
N      76.70207561      92.86107572      79.29308567
H      76.49042627      90.97890831      79.05498015
C      76.69829616      94.56371912      77.06698807
H      78.00787650      96.13030224      77.34288812
C      77.60725452      92.97256957      74.80309594
H      76.06523785      91.73479883      74.23050887
C      78.34424778      94.84717808      72.64880795
H      79.79744731      96.07738991      73.43682383
H      76.84758454      95.98857277      71.81732838
H      79.02265953      93.59995870      71.15781390
O      79.83524184      91.49102414      75.50040496
H      79.50453974      89.74113757      75.15458505
C      74.13582728      95.81471794      76.61534348
O      73.74465393      97.42854422      74.92214870
N      72.16862219      95.08339387      78.05909439
H      72.46341949      93.67365804      79.31009321
C      69.68930127      96.23612691      78.25373620
H      69.09214775      96.97312018      76.42637086
C      67.65406603      94.29348826      79.01718562
H      67.31013584      94.11396426      81.03919278
H      68.55357575      92.51903525      78.48428281
C      65.16151702      94.68844106      77.48461758
H      64.45664911      96.53470368      78.06854302
H      63.85571614      93.21823400      78.09877864
C      65.54513146      94.51080679      74.60656442
O      64.57003268      96.14353033      73.16470324
O      66.74510767      92.60407294      73.64091427
C      69.69308072      98.52080602      80.23227965
O      67.72776535      99.83983500      80.13023442
N      71.69997006      98.95166362      81.80264222
H      73.25899427      97.86318128      81.96893813
C      71.73776459     100.86028720      83.81709047
H      70.66440004     102.57426897      83.42402739
H      73.61048337     101.68420787      84.03629872
C      70.77778362      99.95699803      86.46270730
O      71.42218030     101.17209204      88.34676443
N      69.46631356      97.88018881      86.57609088
H      68.97120527      97.14508527      84.88667555
C      68.31358051      96.63107971      88.74360696
H      67.50288792      98.09561761      89.93980371
C      66.11204936      94.91520823      87.94803219
H      65.08214852      94.25947319      89.60721188
H      66.81313782      93.39775799      86.74238680
C      64.09760111      96.14542006      86.15468191
C      62.72565980      94.39364376      84.52006864
H      63.47966060      92.49635854      84.43692069
C      60.70365265      95.26102814      82.92513965
H      59.97232856      94.10451563      81.40957914
C      60.20287517      97.90664497      82.97427253
O      58.47566532      98.74946291      81.22438596
H      58.05992554     100.50123921      81.44170449
C      61.45009454      99.64708291      84.61077552
H      60.95309652     101.62184690      84.48794331
C      63.40974073      98.71355811      86.18491753
H      64.28657374      99.93243159      87.56630747
C      70.14094585      95.30071240      90.48782435
O      72.09870232      94.22923757      89.62232970
N      69.57969714      95.33094802      93.01438843
H      67.83547975      95.88085836      93.56240906
C      71.24832547      94.60151366      95.05907230
H      73.10970589      95.24968979      94.46947769
C      70.51133221      96.04148510      97.41745074
H      71.49021044      94.96812055      98.87820917
H      68.51578123      95.74290835      97.83130080
C      70.98187406      98.81560333      97.30784661
C      69.10348611     100.59761525      96.44046223
H      67.32525365      99.85495280      95.76771967
C      69.54001289     103.22811427      96.27983550
H      68.23421201     104.46777473      95.31796481
C      71.88705297     104.11628565      97.25115483
O      72.38405099     106.58237847      97.11131508
H      70.94596926     107.57826424      96.63132459
C      73.81646353     102.36828880      98.00326589
H      75.69863094     103.09016426      98.32262963
C      73.32702442      99.77747403      98.09586248
H      74.90683562      98.55860055      98.53049954
C      71.17840560      91.64031252      95.40111275
O      69.18663407      90.39498289      95.19135313
N      73.41017238      90.67655210      95.83197035
H      74.93707124      91.80471871      96.02472244
C      73.87126560      87.90999279      95.70724843
H      72.04201053      87.12008719      96.22881288
C      74.67061983      86.82717960      93.14100009
H      76.67750917      87.18244816      92.85187197
C      74.09614303      84.05117164      92.88210758
H      72.19507836      83.82818394      93.64555702
H      75.48887132      83.17811810      94.12176804
H      74.58747187      83.52771746      90.95269701
O      73.11159562      87.86085990      91.23804569
H      73.23820728      89.66365880      91.41190051
C      75.80256589      87.13331526      97.70279941
O      77.29167022      88.62052988      98.69301599
N      75.56257065      84.74092176      98.51349199
H      74.24165195      83.63165240      97.69335077
C      77.63560041      83.44456951      99.95535317
H      79.37414862      84.35541758      99.33552295
C      77.25387570      84.05117164     102.74647893
H      76.66239136      86.00892810     102.99970226
C      75.24509663      82.35230769     103.81984349
H      75.98208989      80.47203002     104.22235518
H      73.59725528      82.39955086     102.58774193
H      74.53455953      83.44456951     105.41666222
C      79.70863018      83.79227914     104.29794424
H      81.28466192      84.32140252     103.08096049
H      79.93728706      81.79861788     104.75714774
C      79.49509110      85.37964924     106.65065351
H      81.21852150      85.06406495     107.73535641
H      77.91339018      84.78627518     107.82606327
H      79.10769721      87.38086941     106.35585620
C      78.01165595      80.59486222      99.27505170
O      76.37704269      79.63110181      97.90311039
N      79.90516171      79.31929696     100.34463679
H      81.25820575      80.27549847     101.29138968
C      80.44940289      76.69824657      99.96291208
H      78.89604786      75.54551351     100.66400055
H      82.23519426      76.45636160     100.96068758
C      80.99553380      76.05196016      97.24548565
O      82.93250327      76.78895343      96.21936426
N      79.34013355      74.54395856      96.07952450
H      77.81134496      73.85231873      96.98659314
C      79.27021367      74.38522156      93.35264944
H      80.57034538      75.76472177      92.55140547
C      80.25098163      71.92479789      92.23582119
H      78.82234854      70.44325247      92.24338010
C      81.43772975      72.43313428      89.56941735
H      82.34101893      70.68513744      88.95525631
H      83.00053341      73.77295023      89.58831462
H      80.11114188      72.91879393      88.06897466
C      82.20117918      70.80041074      94.06318653
H      81.09946874      70.17869079      95.69213061
H      83.65815817      72.22526439      94.36176328
C      83.43328074      68.43258368      93.19769188
H      85.03198920      68.91824333      91.99204649
H      82.25976070      67.10221635      92.15078351
H      84.19484044      67.39890338      94.80773869
C      76.61325848      74.78962298      92.14511433
O      74.87660000      73.28162140      92.55707466
N      76.23720294      76.79651234      90.77695248
H      77.79244770      77.71869877      90.16846059
C      73.60292446      77.55429258      90.00027496
H      72.69207638      76.19935881      88.74360696
H      73.85992724      79.30984833      88.95714604
C      71.62060156      78.00782691      91.96181087
O      69.41151150      78.14577692      91.35331899
N      72.20263726      78.27049885      94.42223453
H      74.01488480      77.91712003      94.90222501
C      70.07480543      78.37065435      96.21180535
H      68.50255314      77.32374597      95.38788467
C      70.59825962      77.18957540      98.71947216
H      71.82469200      78.55962698      99.64921752
H      71.52422552      75.35087171      98.79317149
C      68.29279352      76.99871305     100.26526829
N      66.98321319      74.75182847     100.85864236
H      67.52934409      73.04918505     100.19534841
C      65.05380262      75.27717237     102.32884943
H      63.59115445      73.99026876     102.93545157
N      65.25789306      77.78483920     102.96001802
H      63.96343054      78.82229895     103.90299144
C      67.18730363      78.94135169     101.55973082
H      67.62383041      80.93312323     101.56540000
C      68.99010253      81.16366985      96.34975537
O      70.12393832      82.61120019      97.81051380
N      67.07769950      81.69279321      94.79262089
H      66.40684666      80.40966905      93.55107070
C      65.96654043      84.23258537      94.66034004
H      67.38950434      85.60830613      94.08964269
C      63.79713462      84.03794356      92.82163635
H      62.64251184      82.51482415      93.59075496
H      64.63428338      83.32173730      91.08119840
C      62.31369947      86.42277818      91.92212661
H      61.55213976      85.65932874      90.16657088
C      60.24444915      87.29205228      93.68713100
H      59.06148048      88.52415383      92.53439794
H      60.80947732      88.21423871      95.44079702
H      59.06337021      85.82940410      94.52616948
C      63.99366616      88.82084086      91.47993066
H      64.78357176      89.33295669      93.31296518
H      62.97888313      90.35151917      90.54640586
H      65.54324174      88.12731130      90.31396953
C      65.23521635      85.07162385      97.34564114
O      64.13161618      83.65243940      98.81206875
N      66.03646030      87.41299476      98.05995769
H      67.23454679      88.27848941      96.85053285
C      65.61127188      88.68856003     100.57896286
H      64.69475462      87.40165640     101.89799183
C      68.03768047      89.65232045     101.71657810
H      67.21564952      90.86174528     103.16599819
H      69.11482447      90.73891307     100.33896762
C      69.50410809      87.52448861     103.06017351
H      70.10315133      86.07884798     101.72035756
C      71.87760434      88.58084562     104.14298668
H      71.39761385      90.24569451     105.25603548
H      72.98309423      89.22524230     102.52727069
H      72.87349010      87.16544061     105.26170466
C      67.96020169      86.25081307     105.11808547
H      67.05691251      87.59818793     106.38609182
H      69.13372173      85.01682179     106.27648770
H      66.45031037      85.10941838     104.31117233
C      63.57225719      90.68600073     100.20290732
O      61.55402949      90.63686786     101.24225680
N      63.85004696      92.48313045      98.40577760
H      65.53568283      92.41699003      97.51193706
C      61.85449597      94.15931769      97.80862409
H      60.08382242      93.10674015      97.76327065
C      61.30836507      96.20400156      99.79661617