 %block lattice_cart
   140.777   0.000   0.000
   0.000 144.511   0.000
   0.000   0.000   162.462
 %endblock lattice_cart

 %block positions_abs
N      84.34885314      41.64004401      79.67292065
H      84.15421133      40.58746645      81.25651131
H      86.21212328      41.65327209      79.25151168
H      83.33218038      40.80289525      78.29342045
C      83.42855642      44.23841769      80.10755771
H      84.67577579      45.09446371      81.50406545
C      83.83673731      45.77665490      77.71705392
H      82.48180354      45.20595756      76.27141330
H      85.73213280      45.52910076      76.94982505
C      83.40021053      48.68116425      78.27830263
H      81.37064447      49.01375608      78.41814239
H      84.02948939      49.76397742      76.64368938
S      84.81183609      49.74319044      81.27162911
C      88.19444619      49.21217734      80.47605434
H      89.54182105      50.16837886      81.70626617
H      88.37208046      49.62791713      78.46727527
H      88.49491267      47.18072155      80.62723245
C      80.70546081      44.24030741      80.80675644
O      79.22958456      42.99875722      79.41213842
N      79.95523946      46.01098097      82.43192107
H      81.32907049      47.14292703      83.12167117
C      77.34363770      46.65726737      83.13678899
H      76.09074915      46.09790838      81.59855178
C      76.57640881      44.80911503      85.36666604
H      77.66300144      43.06300792      85.22871602
H      74.56574002      44.43683895      85.10777354
C      77.08096574      46.00153234      87.88378148
O      75.61831757      47.37914282      89.00627891
N      79.19745921      45.58768227      88.89667479
H      79.56217639      46.69506189      90.40656612
H      80.57129024      44.55589171      88.06708495
C      76.84286022      49.47295957      83.58654386
O      78.56440089      50.87324677      84.07598297
N      74.54495303      50.38002820      83.33332053
H      73.08986377      49.24619241      82.84199169
C      73.95346869      53.17682315      83.42969657
H      75.20257778      54.06310479      82.05397582
C      71.33619775      53.89302942      82.46971561
H      71.22092444      53.00107860      80.61400436
C      69.28584470      52.49274222      84.02873980
H      67.40934647      53.25241220      83.64701510
H      69.67701804      52.59667717      86.04885723
H      69.27450634      50.48774260      83.56008768
C      70.80140520      56.75974424      82.11255733
H      71.09998196      57.93326428      83.77740621
H      68.85120765      57.16792512      81.58532368
C      72.50782806      57.95972044      80.02440975
H      72.44546709      56.68037573      78.41058348
H      74.38999547      58.20916432      80.82187426
H      71.80484987      59.83621867      79.55008845
C      74.78116882      54.32955620      85.91468667
O      76.01516010      56.31376883      85.90334831
N      74.84541951      53.03887313      88.04629796
H      74.15566941      51.26064066      88.04062877
C      75.71469361      54.25774660      90.49916271
H      75.07974557      56.18337771      90.87143879
C      74.80006608      52.54565456      92.72903976
H      75.55784633      50.63514125      92.58920001
H      72.76861029      52.39636618      92.43613218
C      75.09864284      53.32233207      95.43134839
C      73.87976936      55.52764268      96.26660742
H      72.37932667      56.52541817      95.30473671
C      74.45802562      56.40069624      98.67978791
H      73.50371383      58.06176567      99.38276611
C      76.09641833      55.15158714     100.25015049
H      76.51593757      55.87535232     102.11342063
C      77.21513631      52.92171009      99.43756816
H      78.56818035      52.10723805     100.73014097
C      76.72191774      52.03920791      97.07352055
H      77.72158296      50.37624875      96.44046224
C      78.67211529      54.38813771      90.48026544
O      79.88531959      55.71094613      92.03739992
N      80.00626207      53.09367519      88.72470970
H      79.22580510      51.81433047      87.54552047
C      82.63676110      53.31477317      88.49227336
H      83.38131327      53.94783148      90.30641063
C      83.73091263      50.62002344      88.15212263
H      82.79738784      49.54665890      86.66112856
H      83.09029541      49.60713014      89.82830986
C      86.54282539      50.32900559      88.13889454
H      87.44989402      51.30788382      89.70736737
H      87.22501659      51.13213928      86.37011072
C      87.47446046      47.60590998      88.19369660
O      87.74280160      46.44939747      90.29507226
O      88.16987974      46.54199406      86.16791000
C      83.42855642      55.28008853      86.46270731
O      85.31828274      56.80509767      86.72726898
N      82.03393841      55.39725156      84.45392822
H      80.60530531      54.15192192      84.22716107
C      82.65754809      56.82021548      82.22027173
H      84.65876825      56.46305720      81.88956963
C      81.05883963      55.66937215      80.07165291
H      79.12564961      56.34589417      80.27385362
H      81.18923074      53.62468828      80.30786869
C      81.94890072      56.40825514      77.36934429
H      83.99358459      56.17203935      77.30887304
H      81.67678013      58.44349038      77.22572508
S      80.69790190      54.70939119      74.69538155
C      77.34174797      55.43504609      74.56876988
H      77.23403357      57.48539914      74.40625342
H      76.43845879      54.94938643      76.35456125
H      76.37231837      54.56010281      72.97573060
C      82.01315142      59.58110562      82.39412655
O      83.57973453      61.13068120      81.59477232
N      80.13287373      60.23873038      83.90779732
H      79.01226603      58.88946579      84.66368786
C      79.65855243      62.82009652      84.56542208
H      79.52816131      63.57598705      82.65301905
C      77.32285071      63.31142536      86.15090245
H      77.29450481      65.33154279      86.54774499
H      77.61575829      62.32687795      87.93669382
C      74.63565989      62.71427185      84.91691117
H      74.74337429      60.87178869      84.00039391
C      72.55885067      62.25506835      86.88033681
H      70.77872849      61.79019568      85.96004010
H      72.25460474      63.92936587      88.04440823
H      73.06529732      60.53730714      87.89889930
C      74.04417555      64.63990296      82.92324991
H      75.32352027      64.60777761      81.31131337
H      73.99504267      66.50695256      83.79063429
H      72.16578760      64.31298031      82.14279294
C      81.96779798      64.10322069      85.73705240
O      82.47802409      66.43325323      85.26084137
N      83.50036602      62.79741981      87.06364027
H      83.10730295      60.93225993      87.15812658
C      85.85496501      63.71393707      88.30519046
H      85.45812248      65.52429488      89.20470019
C      86.98502135      61.84688747      90.13822497
H      88.57239145      62.92781092      90.88466687
H      87.86374408      60.21038448      89.24816388
C      85.18600190      60.87745787      92.18290884
H      83.50981466      60.34833450      91.10765457
H      84.43389082      62.39868755      93.35075972
C      86.47668497      58.73072878      93.75516114
H      87.96200985      59.49795766      94.95702707
H      87.44233511      57.44004571      92.47203698
N      84.74002649      57.34366967      95.24237576
H      83.66666194      56.10022975      94.27105643
C      83.80272223      57.69704849      97.50626787
N      84.67010661      59.32410284      99.09930715
H      84.01626131      59.29008777     100.89265743
H      86.26314589      60.31431943      98.74214889
N      81.71835411      56.64258120      98.33018854
H      81.34985748      56.82021548     100.19534842
H      80.61475394      55.78464546      97.03194656
C      87.85807490      64.67391803      86.40034633
O      89.30182581      66.39923816      87.04096355
N      87.94311259      63.58921513      84.14968229
H      86.75447474      62.15869231      83.71693497
C      89.94622248      64.01251382      82.12578541
H      91.29170761      65.37689622      82.88167594
C      91.28036925      61.52941345      81.39068187
H      92.82805511      62.26262726      80.24550773
C      92.54459616      60.15369269      83.64134591
H      93.06238117      58.22806158      83.12923008
H      91.30304597      60.06487556      85.28351808
H      94.38518959      61.00217981      83.99661446
C      89.50402652      59.75307072      79.87134192
H      88.40042635      60.65824962      78.38790676
H      88.09429069      58.85545072      81.07698730
C      90.84762193      57.91436701      78.44081911
H      92.08161321      56.87501754      79.71827408
H      91.73201384      58.65702945      76.73439624
H      89.38686349      56.56321270      77.91169573
C      88.86718875      65.41091130      79.82787821
O      90.30149102      66.47293748      78.35389169
N      86.32172741      65.63956818      79.74850972
H      85.12364093      64.49817349      80.69904204
C      84.81372581      66.95670742      77.85878339
H      85.72457389      66.67702793      76.03330777
C      82.17566788      65.78318738      77.65469296
H      80.98136085      66.55419572      79.14190756
H      82.27015419      63.74795214      77.95326972
C      80.82640329      66.17247100      75.16592341
O      82.16055007      66.89245673      73.31021216
O      78.52093719      65.89657096      75.13946724
C      84.53593604      69.77806881      78.50318007
O      84.66821689      71.36165946      76.80809557
N      84.46412644      70.53584906      80.90313248
H      84.30538943      69.09209815      82.14279294
C      84.08618118      73.06808232      81.88579018
H      84.67766552      74.44002362      80.46660571
C      81.31395268      73.57641869      82.69081357
H      81.38198283      75.08631002      84.08732133
H      80.71868889      71.83976021      83.62433838
C      79.64910380      74.10554206      80.45148789
H      77.65733226      73.83342147      80.90691194
H      80.30483883      72.97170627      78.86222807
C      79.74925929      76.90800618      79.60489051
O      77.74425967      78.26293995      79.58221380
O      81.75803836      77.73570631      78.79419792
C      85.70378691      73.72192762      84.22149189
O      87.17966316      75.44724774      84.06464461
N      85.54127044      71.90212118      86.02429079
H      84.19011613      70.56986413      85.81831063
C      86.84896105      72.24227192      88.40723568
H      87.98657629      73.95058450      88.22960141
H      88.18499755      70.73616005      88.84943164
C      85.11041284      72.89611722      90.59553874
O      83.12431049      74.01294547      90.04940784
N      85.72835335      72.18369040      92.94068910
H      87.41209949      71.29173958      93.04462405
C      84.21657230      72.53328977      95.18379423
H      82.22669049      72.82241790      94.74159828
C      84.08807091      70.12010927      96.75226707
H      86.00803284      69.44736670      97.07163082
H      83.23580434      68.68202754      95.55040113
C      82.43456038      70.25050038      99.09363798
H      83.12620021      71.73015609     100.34841625
C      79.68500860      70.84954363      98.24515086
H      79.53383049      72.81485899      97.65366653
H      78.37353854      70.59254085      99.81362370
H      79.01415576      69.48327150      96.85620202
C      82.45345765      67.69748014     100.50715325
H      81.55016847      66.16113264      99.47158323
H      81.26670952      68.11888910     102.13987679
H      84.32617642      67.13623142     101.15721912
C      85.08206695      75.02961823      96.58786088
O      87.27981865      75.43024021      96.97525477
N      83.49658657      76.86454248      97.00926985
H      81.67300068      76.57919381      96.51794101
C      84.11263735      79.31173805      98.19412826
H      86.14598286      79.42512163      98.50971254
C      83.53249137      81.43768016      96.35164510
H      83.80272223      83.27827359      97.23792674
H      81.54071984      81.33563494      95.83008064
C      85.23135533      81.35453220      93.96303104
H      84.73246758      79.52716685      93.15233844
H      87.21556796      81.53027675      94.48837496
C      84.37908876      83.20079481      91.97503896
H      84.65498880      85.02627043      92.88777677
H      82.40810422      82.88710024      91.47048202
N      86.00803284      83.35764209      89.64689613
H      87.76169886      84.10597371      89.73382355
C      85.18789162      83.25181742      87.38678347
N      83.03171390      82.49781662      86.88222655
H      82.34763297      82.58285430      85.10021463
H      82.10196855      81.51137948      88.22771167
N      86.45022880      83.86786820      85.34209960
H      85.47701975      83.57874007      83.72638359
H      88.01492219      84.94501219      85.52729278
C      82.93722758      79.60464563     100.79628138
O      80.78671904      79.12087570     101.05517388
N      84.35074286      80.39644096     102.54616795
H      86.14976231      80.91989515     102.17578159
C      83.75358935      80.14510736     105.26548411
H      82.42889120      78.57096534     105.39020605
C      86.15354177      79.32685587     106.64309460
H      85.68488964      78.96780787     108.61785860
H      87.49335772      80.89154925     106.75458844
C      87.45556320      76.93635208     105.70956979
H      88.09618042      77.18957541     103.76882087
C      89.55126968      75.88944370     107.37063922
H      90.51314037      74.33419895     106.42199662
H      88.61774488      75.59086694     109.18099703
H      91.12352197      77.19146513     107.65409818
C      85.47324029      74.82174834     105.50925881
H      86.27826370      72.94147065     105.27115330
H      84.32617642      75.02961823     103.81039485
H      84.11452708      74.85198396     107.05316520
C      82.74447550      82.57718512     106.48435758
O      81.88842948      82.71324542     108.59896133
N      82.90321251      84.53494158     104.95934845
H      83.53249137      84.11353262     103.20757216
C      82.27582337      87.15599198     105.48469237
H      80.93411769      87.17110979     107.04560631
C      84.81561554      88.60163261     105.79649721
H      85.74158143      87.55283451     107.30638853
H      84.34129423      90.46679248     106.53160074
C      86.52959730      88.92855526     103.49103110
H      85.77370678      89.76948347     101.76949043
H      87.14942753      87.01048305     103.06206324
C      88.78026134      90.70867745     104.30172369
H      89.36796623      90.05672187     106.16688357
H      88.25680715      92.70044898     104.25448053
C      90.77203288      90.48757947     102.15121515
H      90.13708484      91.65354060     100.57896285
H      90.63030340      88.61675042     101.30650748
N      93.37607574      91.02048229     102.99214337
H      94.55148550      90.87119391     101.49548013
H      94.02803131      89.86963897     104.36786412
H      93.46300315      92.86107572     103.49103110
C      80.86041836      88.47313122     103.34363246
O      80.62231285      87.38842832     101.25359515
N      79.66044216      90.63308840     103.87086609
H      79.77571546      91.58740018     105.51870744
C      78.04850561      91.75747555     101.88476374
H      76.99781778      90.09073694     101.28005132
C      76.23058890      93.91743273     102.77482484
H      77.48347744      95.51614119     103.10363721
C      74.16700776      94.78103765     100.77360466
H      73.00104663      93.19177782     100.17267170
H      75.45580111      95.56527407      99.37142775
H      73.10309185      96.39864338     101.48225203
C      75.03439214      93.12752713     105.23335876
H      76.41956153      92.63997774     106.67899940
H      73.88921800      91.42866317     105.02548888
C      73.46025012      95.19110826     106.38420210
H      71.58753135      95.09473222     105.53004580
H      74.39188520      97.02603251     106.31617195
H      72.95191374      94.86796506     108.35329691
C      79.57729420      92.60407294      99.61331272
O      81.17600266      94.24435538      99.80984424
N      78.85163929      91.61385635      97.38532538
H      77.27749728      90.54427126      97.55351103
C      79.68311887      92.51903526      94.97214489
H      81.10041361      93.98546288      95.25371411
C      81.46891024      90.57450688      93.47926111
H      82.85030017      89.93766911      94.86820994
H      82.40432476      91.62519471      91.97503896
C      80.23680868      88.16699556      92.41345546
C      79.64532435      88.13675994      89.73382355
H      80.33129500      89.62775400      88.51683980
C      78.08441041      86.23380554      88.79651929
H      77.58930212      86.13931922      86.81797585
C      77.23403357      84.36297649      90.39900722
O      75.76382650      82.46569127      89.50138721
H      75.65611210      82.60175157      87.69480885
C      77.67811925      84.34596895      92.97470417
H      76.82585269      82.93245367      94.17657012
C      79.06706809      86.29994596      94.07452488
H      79.44690308      86.37175556      96.07763478
C      77.50804389      93.53381829      93.45469465
O      75.36698397      92.89131134      93.91578788
N      77.95401930      95.02859180      91.54985053
H      79.75114902      95.59739942      91.25505323
C      76.15122039      95.97534468      89.80563315
H      74.25015572      95.84306384      90.58609011
C      76.68979239      98.72678619      88.82108573
H      76.33830330      98.79859579      86.79151967
H      78.53794473      99.43732329      89.38611391
C      74.74526402     100.54848236      89.99838524
H      74.87754486     100.54848236      92.05440746
H      72.82341236     100.14786038      89.37477555
C      75.35753534     103.21866564      89.18202346
H      75.36131479     103.53613966      87.14678822
H      77.25482056     103.72700202      89.80185370
C      73.53772890     105.09327414      90.31396953
H      72.90845004     104.54903296      92.19802666
H      71.81429850     105.20476800      89.18958237
N      74.72069757     107.76345742      90.19491676
H      75.50115454     108.01101157      88.47148638
H      76.04161627     107.83904648      91.57063752
H      73.31474120     109.01067679      90.53128806
C      76.07752107      94.23301702      87.49071842
O      78.02771862      93.61885597      86.38900797
N      73.79095223      93.52059020      86.66490802
H      72.30940680      94.11774372      87.70992667
C      73.32041038      92.05227286      84.34054466
H      74.78305854      90.61608086      84.14023367
C      70.94124495      90.53482263      84.85077075
H      69.31608032      91.76692418      85.15312696
H      71.40422789      89.50114233      86.56853197
C      70.23826676      88.79060524      82.75884372
O      70.39322432      86.56639737      83.27095955
O      69.58442146      89.53704713      80.61589409
C      72.98781854      93.77192380      82.06153471
O      72.59097602      96.13786115      82.17680802
N      73.49426520      92.85351681      79.77685561
H      73.10309185      90.98835694      79.66158229
C      73.61142823      94.16309715      77.25029152
H      75.31596136      95.29693294      77.47327922
C      73.92134334      92.25636330      74.99773776
H      72.14878006      91.56094402      74.21350133
C      75.30273328      93.54515664      72.84344977
H      74.04039610      94.93599521      71.99874210
H      76.04728545      92.23368658      71.44316256
H      77.00915614      94.46167391      73.54831767
O      75.39910932      90.16632600      75.73851047
H      75.51060317      89.26114709      74.17381708
C      71.27005733      95.79204123      76.67959418
O      71.48737585      97.36429352      75.12434942
N      69.11010015      95.30827129      77.92303409
H      68.92868642      93.73979845      78.99639863
C      66.83486967      96.82950098      77.37879291
H      66.81597241      97.25279967      75.36245493
C      64.38767409      95.30071239      77.89657793
H      62.76061974      96.54604203      77.69815666
H      64.40090218      94.68277188      79.86000356
C      64.14956858      92.87430380      76.26385439
H      65.83520445      91.69133513      76.23550850
H      63.66957810      93.52436965      74.36845890
C      61.80252850      91.43244263      76.98006066
O      59.93358917      91.65354060      75.59678100
O      61.74394698      89.71468141      78.66569653
C      66.92368681      99.28236573      78.90002259
O      65.42891329     100.96044270      78.42948075
N      68.60554323      99.51669179      80.80486672
H      69.98693316      98.19955255      80.82565371
C      68.71703708     101.67853870      82.64168069
H      67.45092045     103.19976838      82.07098335
H      70.64644764     102.40230387      82.63601152
C      68.01216916     101.06437764      85.32887152
O      67.85721161     102.81048476      86.83687312
N      67.49627388      98.74568346      86.02240106
H      67.51517114      97.54003807      84.54463509
C      66.17535519      98.24490598      88.31085963
H      65.64623182     100.02124872      89.21036936
C      63.95303704      96.59517491      87.78551572
H      63.00628416      96.09817689      89.54674064
H      64.33665148      94.67332325      87.15056767
C      62.00850867      97.87640935      86.23594015
C      61.41324488      96.88430304      83.92102540
H      62.50550669      95.25913841      83.34087944
C      59.32320758      97.75357714      82.62467316
H      58.83754791      96.93910510      80.81620507
C      57.81898543      99.61684729      83.67347126
O      55.74028649     100.43131933      82.50751013
H      55.04864666     101.78625310      83.49961644
C      58.54841979     100.85839748      86.00728326
H      57.45804770     102.36450935      86.84443201
C      60.68570025      99.96266720      87.24316426
H      61.28663321     100.59950497      89.08753714
C      67.88744723      96.85217769      90.34987433
O      69.81496807      95.76747479      89.68091122
N      67.52273005      97.32271954      92.75927537
H      66.00150037      98.35073066      93.27895011
C      68.91545834      95.94510906      94.66222977
H      70.81841274      96.01313921      93.87799336
C      68.67357337      97.55893533      97.15666850
H      69.67134887      96.77091946      98.77805369
H      66.68180184      97.46822847      97.67067406
C      69.66756941     100.16864737      96.96958560
C      67.92524175     102.31348674      97.00360068
H      65.94669830     102.00357162      97.39855347
C      68.92868642     104.77202067      96.90344518
H      67.73059994     106.41986201      97.06029247
C      71.59509025     105.13484812      96.95635752
O      72.49082052     107.49133683      96.53494854
H      71.09809223     108.52312740      96.00015601
C      73.34875627     103.19220947      96.81840750
H      75.36887370     103.39063073      96.61053760
C      72.29428899     100.72611663      96.80517941
H      73.49615492      99.08394447      96.66533967
C      68.18413426      93.12752713      95.14788943
O      66.05819216      92.40565168      95.09686683
N      70.25905375      91.72157075      95.53717306
H      71.80862933      92.77981749      95.19324287
C      70.31196609      88.92855526      95.28017027
H      68.47326238      88.14809829      95.78472720
C      70.92423741      88.44667505      92.39644792
H      72.79317673      89.27626490      92.12810678
C      71.02250318      85.64988011      91.60654232
H      71.73493000      85.29083211      89.70925711
H      69.18190975      84.72769367      91.58575533
H      72.31318625      84.56328748      92.79140072
O      69.20647619      89.62964372      90.86010043
H      69.70347421      91.36063303      90.62955382
C      72.11854444      87.74180714      97.15099932
O      74.18401530      88.71312646      97.74248367
N      71.52894983      85.36075198      97.77649873
H      69.92835164      84.48958815      97.20769111
C      73.26560831      83.77905106      99.42245035
H      75.21013669      84.42344773      99.64543805
C      72.07508074      83.45212841     102.13042817
H      71.44202242      85.27571430     102.85419333
C      69.60142899      81.86475830     101.99814732
H      69.96992562      79.91267102     101.45012668
H      68.24271577      82.71135569     100.70368479
H      68.64522748      81.79861788     103.82173321
C      73.70402482      82.62064883     104.41888672
H      73.86843101      80.56840605     104.45101207
H      72.52861505      83.04394752     106.05727943
C      76.29106014      83.95668533     104.65132306
H      77.63654527      82.90977695     103.49481055
H      76.83152187      83.59196815     106.60530008
H      76.21736081      85.98247194     104.27715725
C      73.52828027      81.13721367      98.18278989
O      71.78217316      80.40966904      96.70691364
N      75.36509425      79.68779359      99.11820442
H      76.55184237      80.52683207     100.35219570
C      75.76382650      77.02516922      98.44168239
H      74.06307282      75.99526838      98.97458521
H      77.39466031      76.30329376      99.46969351
C      76.47247387      76.61320888      95.51638607
O      78.60408515      77.13288362      94.71136265
N      74.60731400      75.79873684      94.09531187
H      72.84041989      75.90834096      94.80773870
C      74.62432153      75.69102244      91.39867243
H      75.72603197      77.30106926      90.73537849
C      75.44824220      73.12855356      90.36688187
H      73.92323307      71.78873760      90.01161332
C      76.61798279      73.71058926      87.84598697
H      78.28094195      74.90111684      88.08787193
H      75.22147505      74.72348257      86.72159981
H      77.02238422      71.98715887      86.79151967
C      77.42111648      71.66968484      91.99015676
H      76.60664443      71.23882725      93.83452965
H      79.07462700      72.84320489      92.35676367
C      78.23180906      69.12989268      90.84876207
H      80.14799154      69.10910569      90.08909210
H      76.99025888      68.78407276      89.24249470
H      77.89165833      67.66346506      92.25093899
C      71.96169716      76.22203553      90.38199968
O      70.22503868      74.72159284      90.32530789
N      71.75949644      78.53695027      89.39556254
H      73.25615968      79.71424976      89.52217420
C      69.56741392      79.35898121      87.92724520
H      69.00805493      77.87554606      86.61010595
H      69.80740916      81.21658218      87.07308890
C      67.30730125      79.82763334      89.65823449
O      65.26261738      80.29628546      88.65101037
N      67.48115607      79.85786896      92.13566570
H      69.24238099      79.95046555      92.86510004
C      65.37222150      79.96558336      93.88744199
H      63.69225481      79.39488601      92.84053360
C      66.07330997      78.33285982      96.34219647
H      67.49060470      79.44212917      97.34375141
H      66.71770664      76.45069242      95.81118337
C      63.93413978      78.03239334      98.29806319
N      63.03274033      75.70425052      99.09741743
H      63.53162807      74.02995301      98.32829882
C      61.12033730      76.16534374     100.67533890
H      59.84477204      74.94836000     101.70335002
N      61.03340989      78.73537153     101.07407115
H      59.93736863      79.59519700     102.37987204
C      62.71715603      79.95424500      99.52449558
H      63.02896088      81.96869325      99.40166336
C      64.77884744      82.66789199      94.79451062
O      66.27362095      83.90566272      95.95291284
N      62.45826353      83.56551199      94.47892633
H      61.06175578      82.33530016      94.04995844
C      61.74961616      86.17522402      94.69624484
H      63.27462530      87.28638310      93.87043445
C      59.37423019      86.54561038      93.08808776
H      57.91536147      85.23414032      93.71547688
H      59.89957410      86.32073295      91.10954430
C      58.20259987      89.11941762      93.19580215
H      57.84355187      89.71090196      95.13655107
C      60.21137894      91.02048229      92.14133488
H      59.40635553      92.91587778      92.12621706
H      60.64412627      90.48380002      90.20058595
H      62.03496483      91.19433711      93.08808776
C      55.71383032      89.36319231      91.69346974
H      54.27574859      88.05361198      92.36810202
H      56.00862762      89.00792377      89.68658039
H      54.92770417      91.25102890      91.94480333
C      61.42269351      86.98213716      97.55162130
O      60.32098307      85.58373969      99.10497634
N      62.48849915      89.14209433      98.19601797
H      63.55808424      90.01136844      96.87698901
C      62.16535595      90.21923833     100.65455191
H      61.45481886      88.73769290     101.89799182
C      64.53129329      91.12441724     101.79405687
H      64.14956858      92.26959138     103.46457494
H      65.79363047      92.16565644     100.54683751
C      65.93913940      88.91721690     103.03938651
H      66.39834289      87.58495985     101.53705410
C      68.34665072      90.06050132     103.93133733
H      68.21248015      91.97479408     104.67777924
H      69.61465708      90.03971433     102.30617270
H      69.29340360      88.91910663     105.35997044
C      64.74294264      87.61708520     105.35430125
H      63.06297595      86.65710423     104.65132306
H      64.41601999      88.99847514     106.84718503
H      66.09031750      86.22057746     106.04216163
C      60.27373991      92.36218797     100.70368479
O      58.53330198      92.43588730     102.20034803
N      60.38712349      94.21978894      98.91600371
H      61.84410248      94.18955332      97.68201243
C      58.40669031      96.26447281      98.67789819
H      56.58499415      95.41598569      99.14088114
C      58.51818417      98.44332725     100.69045672