 %block lattice_cart
   140.777   0.000   0.000
   0.000 144.511   0.000
   0.000   0.000   162.462
 %endblock lattice_cart

 %block positions_abs
N      91.12919114      42.97513565      82.75411940
H      90.65675957      43.30961720      84.57203612
H      93.00379965      42.70301506      82.52168307
H      90.36385200      41.30083813      82.24389331
C      90.40920542      45.04060651      81.09682943
H      91.22367746      46.79427252      81.80358707
C      91.28414871      44.67210987      78.33215983
H      90.23346087      43.15276992      77.42131175
H      93.28725859      44.25825981      78.56648589
C      90.93265962      47.07206229      76.78258426
H      89.00891823      47.80149665      76.87896030
H      91.52792340      46.69411703      74.84561478
S      92.59372905      49.84995997      77.98067074
C      91.73012411      52.10062401      75.61284367
H      89.69866834      51.95700481      75.30481828
H      92.60695713      51.35229239      73.90831053
H      92.29326255      54.02436540      76.08527525
C      87.56516733      45.25792503      81.25745616
O      86.12708559      43.58173779      80.35605671
N      86.59384800      47.34796233      82.34026934
H      87.66721254      48.71423446      83.13017494
C      83.87831128      47.97346174      82.20231932
H      82.84841044      47.04938558      80.67919991
C      82.71612960      47.17032806      84.73644231
H      83.82350922      47.81850419      86.34648913
H      82.65187890      45.11430583      84.63439709
C      79.83807642      47.52937606      84.95187111
O      78.46046594      47.73157677      83.09615987
N      78.86108792      47.44622810      87.25166803
H      76.95813352      47.60118566      87.31969818
H      79.80595109      47.27615273      88.89950937
C      83.47013040      50.88552999      81.83760214
O      85.46946084      52.19700005      81.66563705
N      81.10419305      51.93621782      81.69776240
H      79.73225175      50.65120393      82.03791313
C      80.31806692      54.51002506      81.72610829
H      80.78671904      55.19977516      79.84205117
C      77.48914662      54.86151415      82.27601865
H      76.62176224      53.66720712      80.83982665
C      76.80128625      53.89586401      84.83470808
H      77.23403357      55.11473748      86.43908571
H      77.52127197      52.02125551      85.28824239
H      74.74148457      53.94688662      84.82336972
C      76.59152663      57.54303579      81.48989251
H      77.48347745      58.88663120      82.77112694
H      74.56385029      57.69610362      81.82437407
C      77.10364245      58.37262564      78.88773937
H      76.74081501      56.94021310      77.45154737
H      78.96880232      59.21544358      78.65341331
H      75.77327514      59.92598067      78.66097222
C      81.94323155      56.20133011      83.50245102
O      82.88242551      58.15908657      82.67286117
N      82.37786859      55.25646695      85.82870412
H      81.27993760      53.88074620      86.56569738
C      83.93311335      56.70588704      87.61638521
H      83.12808994      58.60128253      87.59181877
C      83.45879204      55.47756493      90.21286917
H      84.28460244      56.70966649      91.64150225
H      84.35452231      53.62752287      90.06547052
C      80.71490943      55.09395049      91.04623847
C      79.53760994      52.69777753      90.89506036
H      80.60719503      51.36174102      89.78201156
C      77.09797327      52.14786717      91.87015914
H      76.31940603      50.26192031      91.90606394
C      75.67311964      54.20010994      92.84147846
H      73.72481181      53.82783386      93.31957922
C      76.76727117      56.62084935      92.70541817
H      75.49359563      58.17042493      93.07958398
C      79.14265714      57.06871449      91.70764268
H      80.00437235      58.91308737      91.57914129
C      86.72990830      57.10272956      87.03812896
O      87.97712766      58.42931743      88.48187986
N      87.86185435      55.92731979      85.10304921
H      86.84707133      54.43632573      84.47754980
C      90.27503486      56.57738565      83.99189014
H      91.51091586      57.44854948      85.39217734
C      91.49012887      54.09050582      83.16230029
H      92.90553388      54.47789971      81.71665966
H      90.02559099      52.74502068      82.63128719
C      92.78837085      52.91887550      85.52067873
H      91.71689603      53.16831938      87.26300639
H      94.66297936      53.77114207      85.58492942
C      92.97356403      50.05216069      85.20509443
O      90.98368222      48.76336734      85.67185683
O      95.05604242      49.01659067      84.55124913
C      89.96889920      58.19310164      81.73933637
O      91.35217886      59.96755465      81.46532606
N      88.22279208      57.59405840      80.08582585
H      87.39698168      55.89141499      80.32393138
C      87.53115224      58.90741819      77.66319672
H      89.05049220      58.95277162      76.27424788
C      85.31072384      57.61673512      76.31582186
H      83.86130375      57.58838922      77.78224948
H      85.82283967      55.65897866      75.93787659
C      84.08618118      58.88852093      74.01224548
H      85.44300467      58.62017979      72.48723635
H      83.86697292      60.90107945      74.39397020
S      81.17033348      57.46555701      72.97478573
C      81.06639853      57.99845983      69.51280713
H      82.73502686      57.18020834      68.62652549
H      81.30828350      59.97133410      68.97423514
H      79.41099829      57.22934122      68.55660561
C      87.03793368      61.67586724      78.09972351
O      88.59506816      63.14229486      77.30414872
N      85.15009710      62.36372762      79.56237167
H      84.28460244      60.91241781      80.45621221
C      84.50381069      64.99044719      80.25590122
H      84.32806614      66.13940079      78.55325781
C      81.91110620      65.35516437      81.59571717
H      82.06228430      67.09938176      82.68230980
H      81.73347193      63.76023536      82.88828997
C      79.59997092      65.40807671      79.84394088
H      79.86642233      64.01156896      78.35483655
C      77.32663016      64.87706361      81.41997263
H      77.53638978      63.28969351      82.71632488
H      75.80162103      64.27424092      80.17275326
H      76.84474994      66.59671456      82.44609402
C      79.07462699      67.97432504      78.57593453
H      77.19056986      68.05936272      77.74256522
H      80.32184636      68.41841072      76.99990278
H      79.18423112      69.45587047      80.00456762
C      86.80360762      66.25089464      81.71288021
O      87.24580357      68.46565388      81.62217334
N      88.39664690      64.79958483      82.98088656
H      88.23035099      62.90418934      82.82781873
C      90.64353148      65.72555073      84.34904841
H      89.98401700      67.25622904      85.56036298
C      91.73579330      63.74511755      86.20098020
H      92.90931334      62.52435435      85.02934989
H      90.15787183      62.54514134      86.76411864
C      93.14930857      64.95265267      88.38172436
H      91.96445019      66.33782205      89.33792588
H      94.82171636      65.94853843      87.70709207
C      93.69354975      62.96655031      90.41318015
H      94.43432247      63.95487717      92.06102150
H      95.07116024      61.55870421      89.80657800
N      91.42776790      61.41319528      91.25410836
H      90.84573220      59.85795053      90.31113493
C      90.14842319      61.74011793      93.28934360
N      90.11629784      63.50890176      94.89561097
H      89.43788609      62.94576332      96.58691602
H      91.25202336      65.03769035      94.77088903
N      88.53648664      59.85606080      93.69563476
H      87.41020976      60.03558480      95.22820280
H      88.41743389      58.44443524      92.41629004
C      92.61073658      66.72143649      82.61238993
O      94.16031215      68.27101207      83.51000993
N      92.52758862      65.93153090      80.14062791
H      91.30493569      64.53313342      79.70599086
C      94.07905392      66.99355708      78.16586392
H      95.71933637      68.00078121      78.90285718
C      94.97478419      64.85816635      76.31393213
H      93.46111343      63.49189423      76.02669373
C      95.79492541      65.68019730      73.67776392
H      96.26168781      64.15896761      72.37196305
H      97.56559898      66.69687005      73.94799479
H      94.45888891      66.89340159      72.68376788
C      97.10450575      63.40874627      77.68398371
H      96.59427965      63.28969351      79.67575524
H      98.70888339      64.58037658      77.13974253
C      97.63740857      60.69131983      76.77124591
H      99.40997185      60.22266770      77.71043988
H      97.65819556      60.76690888      74.71333394
H      96.26168781      59.24567920      77.29658981
C      92.56727287      69.00422588      76.79770207
O      93.76157990      70.79568643      75.79614712
N      89.98968618      68.78312790      76.52180202
H      89.07316893      67.50378319      77.60083575
C      88.63853187      70.67474394      74.90797575
H      89.37363540      70.65584668      72.98423437
C      85.89842871      69.98499384      74.61317845
H      85.14442791      71.77645438      73.92909752
H      84.99891899      69.48988554      76.39708009
C      85.42410741      67.94786887      72.68943706
O      85.19734026      65.71232264      73.33194401
O      85.27481904      68.61116281      70.46333946
C      88.75947435      73.33169914      75.97378139
O      88.88608601      75.22898436      74.67175996
N      88.42877225      73.57736356      78.48333794
H      88.03192972      71.99944209      79.48111343
C      88.50436131      75.96975707      79.93842720
H      89.12419153      77.45697168      78.65341331
C      85.77559650      76.53289551      81.00990202
H      85.85874447      78.02388957      82.42908648
H      84.82695390      74.97765076      81.97177272
C      84.06728391      77.43051551      78.87073184
H      83.69311810      75.82235842      77.64052000
H      85.08962585      78.74387530      77.66130699
C      81.72213357      78.75521366      79.97055255
O      81.76370754      80.98698043      80.49400673
O      79.58296337      77.78956351      79.72488812
C      90.33361637      75.76755635      82.19287069
O      91.80571316      77.43618469      82.55380842
N      90.50747119      73.57736356      83.45520787
H      89.19411141      72.34904145      82.81459065
C      91.61863027      73.24099227      85.93263906
H      93.31182505      74.37482806      86.22932609
H      92.29137284      71.29646390      86.04602264
C      89.74969094      74.08758966      87.91307224
O      87.94500231      75.46708987      87.49922218
N      90.16165127      72.94052579      90.18452327
H      91.86240495      72.15817910      90.56057880
C      88.73112846      73.61137863      92.42951813
H      86.71856994      73.78523345      92.03645505
C      89.04104358      71.46464954      94.33625198
H      90.90809318      71.92574276      95.07324524
H      89.12041207      69.72421161      93.23832099
C      87.03226451      71.38528103      96.48487079
H      86.56739183      73.15217514      97.43918258
C      84.64742989      70.20420209      95.49654393
H      83.37564409      69.67885817      97.02911197
H      85.18033271      68.50911759      94.45719447
H      83.44934341      71.61960710      94.59892393
C      88.30027086      69.54846706      98.27633134
H      89.96700946      70.47065350      99.06056776
H      88.79537916      67.73621952      97.42973395
H      86.97179327      69.11571973      99.79000213
C      89.62307927      76.28534136      93.49910322
O      91.86051523      76.84281063      93.27044634
N      87.99980437      77.90294709      94.55923968
H      86.22157191      77.21508671      94.59703421
C      88.59884761      80.41061391      95.81401795
H      90.59250887      80.57124064      96.31290570
C      87.69744816      82.38537790      93.82035670
H      87.63319748      84.17872817      94.83325000
H      85.80016294      81.94129222      93.15328330
C      89.64008681      82.75765399      91.65662007
H      89.95189165      81.06823866      90.52089455
H      91.34650967      83.47386026      92.55424006
C      88.76703326      84.86658855      89.84815199
H      88.69333393      86.56545251      91.01033367
H      87.01336724      84.34124464      88.90706828
N      90.82872466      85.22563655      87.98299211
H      91.94177346      86.75064569      88.26078189
C      91.70744740      83.57023630      86.38428365
N      90.92699043      81.27232910      85.91563153
H      91.35217886      80.42195226      84.26023128
H      89.18655250      81.06823866      86.67152205
N      93.70110866      84.36392135      85.03690879
H      94.34739507      83.25087255      83.62717296
H      94.37196151      86.13837436      85.24666841
C      87.26092138      80.85280986      98.21963956
O      85.13119983      80.02699946      98.39727382
N      88.24168934      82.26443542     100.13771176
H      89.40576075      83.68928906      99.63504457
C      87.53871115      82.21152308     102.86080737
H      85.95512050      80.90383247     103.02143411
C      89.58339502      81.19296060     104.56156106
H      88.87474765      81.17406334     106.49475107
H      91.20289048      82.46096696     104.46140556
C      90.38274925      78.53222595     103.95873836
H      91.27092063      78.41128347     102.10491685
C      92.49168382      77.66295185     105.64815369
H      94.07716419      78.94607601     105.36280501
H      93.08694761      75.75621800     105.14359676
H      91.71878575      77.73098199     107.55677726
C      88.45900786      76.38549686     104.07779112
H      89.37552514      74.62994111     103.50709377
H      86.97557271      76.75021404     102.69451146
H      87.73902215      76.37037905     106.00720169
C      86.53526648      84.75320497     103.66583078
O      85.14442791      85.01587693     105.47240915
N      87.23257549      86.88481625     102.45829567
H      88.80104833      86.80733748     101.37548249
C      86.15732123      89.35657827     102.72096763
H      85.57339579      89.50397692     104.69195217
C      88.31160922      91.21039978     102.08979904
H      87.34595907      92.98674252     101.70429487
H      89.32639224      90.84568261     100.33613302
C      90.19566635      91.64125738     104.17794661
H      89.13364017      92.20439582     105.85035440
H      91.31060487      93.28720900     103.63370544
C      92.27436529      89.49830774     104.61825285
H      93.14174967      89.09390631     102.79466695
H      91.18966239      87.82778968     105.14359676
C      94.24912929      90.22963183     106.74230522
H      93.44410588      90.25986745     108.63770071
H      94.85762116      92.10235060     106.13570308
N      96.37885084      88.58179048     106.72151823
H      97.56181951      88.87091861     108.18983558
H      97.50512772      88.86713916     105.20595773
H      95.74390281      86.78277103     106.71395933
C      83.88964964      89.71940572     101.00320641
O      83.62697768      88.34368497      99.24576095
N      82.53282615      91.84345810     101.30178317
H      83.19989954      93.07933911     102.59435596
C      80.27271348      92.59556917      99.71819252
H      79.43367499      90.92883056      98.84135951
C      78.09385904      93.91081869     101.17706123
H      78.95179479      95.42826891     102.27688194
C      76.11909504      95.09567708      99.32890890
H      76.90900064      96.76808487      98.41995054
H      74.49582014      95.63802854     100.47408305
H      75.49359563      93.55555014      98.11381488
C      76.91844928      92.19116774     103.21796566
H      78.38109744      91.53354298     104.51431790
H      76.01704982      90.54521612     102.37136827
C      75.13076818      93.50074808     105.06989743
H      75.15911407      92.39714791     106.80844564
H      73.25804940      93.58578576     104.21574114
H      75.69201689      95.43015864     105.52154202
C      81.19678964      94.39647835      97.67161892
O      82.11519663      96.37313207      98.17617584
N      80.63176148      93.76530976      95.30190212
H      79.75114901      92.10801978      94.94852330
C      81.04939099      95.23740656      93.01344356
H      81.74292055      97.09500752      93.56146419
C      83.29438586      93.96184130      91.54134677
H      84.79860801      93.89192142      92.94541341
H      83.94445171      95.05032365      89.91807186
C      82.71801934      91.31433473      90.69285965
C      81.97346716      90.71907094      88.16818530
H      81.74670001      92.24785953      86.83781797
C      81.22324581      88.22841166      87.57292150
H      80.56562106      87.88448147      85.67185683
C      81.55772737      86.22341204      89.34548478
O      80.89443343      83.86503361      89.03934913
H      80.31239773      83.54000068      87.35182353
C      82.46857546      86.82623474      91.78890091
H      82.68967344      85.25209272      93.07013535
C      83.00147827      89.35468854      92.49943800
H      83.55516808      89.71373654      94.42884857
C      78.62298241      95.52275523      91.35804331
O      76.89766228      94.08278378      91.57158238
N      78.54172417      97.39736373      89.62327455
H      79.98169562      98.64647283      89.55713413
C      76.47247386      97.73373502      87.65229001
H      74.83597087      96.79643077      88.48187986
C      75.84130527     100.53430941      87.26678585
H      74.80951472     100.59478065      85.48477393
H      77.67622952     101.44326777      87.05324677
C      74.22747900     101.69271164      89.49477316
H      75.17423188     101.45460613      91.30702070
H      72.42468010     100.69871560      89.50233207
C      73.82685702     104.47060932      88.84470731
H      72.67412397     104.68225867      87.14773308
H      75.69768608     105.27185328      88.53668192
C      72.77238974     106.02018490      91.00277476
H      74.15566940     106.04664107      92.52778390
H      71.12643812     105.03941694      91.75677556
N      72.07697046     108.56942570      90.26200205
H      70.76172095     108.59588186      88.87683266
H      73.72481181     109.39523609      89.77067320
H      71.46280941     109.59932654      91.74732693
C      76.97892051      96.15581355      85.34115473
O      78.97447150      96.32966837      84.26023128
N      75.03250241      94.89914555      84.37550458
H      73.51505219      94.70261401      85.51311982
C      74.91911884      93.57444740      81.87728640
H      76.73892527      92.61257671      81.96043435
C      72.42845955      92.10613006      81.94531654
H      70.88077370      93.45728437      81.78657953
H      72.34909106      91.02142715      83.69520311
C      72.01838894      90.33545650      79.80992581
O      72.37932667      87.99786505      80.21054779
O      71.09053332      91.21795869      77.80681592
C      74.93234692      95.53787304      79.70410114
O      74.53172495      97.71294803      80.19354025
N      75.21769559      94.62324551      77.35895078
H      75.30651273      92.72029111      77.22666994
C      74.85864760      96.15392382      74.98167508
H      76.06807244      97.80365489      75.21411142
C      75.39910932      94.71773182      72.61762746
H      73.80607004      93.46862273      72.24346165
C      75.28950520      96.26541767      70.08728393
H      75.46713947      94.98418323      68.48290629
H      76.80884516      97.64113843      70.31216136
H      73.57930289      97.37090756      69.78681744
O      77.63276583      93.25697338      72.67620898
H      77.53261033      92.17227048      71.22489917
C      72.23381774      97.26130344      74.79270245
O      71.93524099      99.16803729      73.48312212
N      70.22692840      96.18604917      75.94921495
H      70.33086334      94.48907494      76.81470960
C      67.71548214      97.51452676      75.83205192
H      67.54540676      98.44238238      74.00279685
C      65.50450234      95.60590319      76.24968144
H      63.67524727      96.49407456      76.57471436
H      65.76528457      94.40970643      77.90319196
C      65.44592083      93.73129469      73.96500233
H      67.23360192      92.71084248      73.95933314
H      65.38167013      94.99552159      72.34172742
C      63.46737738      91.85101700      74.25035100
O      64.24216516      89.57011734      74.31460169
O      61.22616197      92.42171435      73.91397971
C      67.67201843      99.76141135      77.75957276
O      65.70481333     100.98406428      78.11862076
N      69.65434132      99.91069973      79.29214080
H      71.17746073      98.82410710      78.91419554
C      69.96614617     101.94215552      81.15730067
H      69.30285223     103.79597703      80.54880880
H      72.02216839     102.02152402      81.24989726
C      68.82664120     101.58688697      83.73488736
O      68.04618423     103.35567080      85.00856290
N      68.67357337      99.22661880      84.49077789
H      69.38600019      97.77152954      83.48544349
C      67.53973758      98.48206664      86.91151729
H      67.04651902     100.17337169      87.97732293
C      64.74672209      97.43326853      86.36727611
H      63.83587401      97.24807535      88.20597983
H      64.97159952      95.50196824      85.68319519
C      62.97415881      99.17748592      84.96131974
C      61.88756618      98.47639746      82.60294130
H      62.31842378      96.63580403      81.82815351
C      60.34177005     100.10912099      81.26879452
H      59.53863637      99.47039350      79.50379015
C      59.37045073     102.28419598      82.44609402
O      57.62812307     103.65235783      81.15352122
H      56.91569625     105.03752722      82.07948711
C      60.26996045     103.10055775      84.88006151
H      59.58210008     104.83154705      85.71721026
C      62.04252374     101.49429038      86.02901510
H      62.93825401     102.29931379      87.67685645
C      68.94191450      96.54320744      88.84281758
O      70.36865787      94.87835856      88.23810516
N      68.35987880      96.97028559      91.22198301
H      67.21281493      98.39135977      91.77378310
C      70.00205098      95.85723679      93.27233606
H      71.98248415      96.33533755      92.96997985
C      69.38977965      96.78131296      96.02566730
H      70.48771063      95.62102100      97.32768873
H      67.39233893      96.35045536      96.28644953
C      70.15889825      99.50629830      96.52833450
C      68.17090617     101.14847046      97.19918734
H      66.22259834     100.57588339      97.41650587
C      68.73593435     103.68070372      97.70752372
H      67.17313068     104.88067993      98.23853681
C      71.32296966     104.52730111      97.53177917
O      71.85020331     107.11055698      97.86815046
H      70.33842225     108.10833248      97.98531349
C      73.26371858     102.86812141      96.79478591
H      75.18934970     103.52196671      96.61526191
C      72.66656507     100.25651964      96.45085572
H      74.01393993      98.89591670      95.74031863
C      70.10409619      93.01130896      93.34981484
O      68.18224453      91.73763343      93.36871211
N      72.44357736      91.87936290      93.01533328
H      74.04795501      92.90359456      93.15706276
C      73.02372335      89.06745015      92.50321745
H      71.33052856      88.02432122      93.04367918
C      73.71347345      88.57045213      89.75933485
H      75.24226203      89.85168657      89.24154984
C      74.29550915      85.97018872      89.02045186
H      74.94557500      85.99286543      87.06647485
H      72.83475071      84.52643782      89.18296832
H      75.90933542      85.37114548      90.15050820
O      71.46658887      89.26587141      88.38739354
H      71.02817235      91.00819907      88.63305796
C      75.15722435      88.00542396      94.26633210
O      76.85419859      89.37169608      94.91828768
N      75.03817159      85.64137634      95.06946579
H      73.52072136      84.65871866      94.45530473
C      77.04506093      84.12014666      96.37904612
H      78.80439613      85.06689954      95.88582755
C      76.56129100      84.22975078      99.20229723
H      75.98492447      86.20451478      99.31001163
C      74.19724339      82.60269643      99.86181172
H      72.68924179      83.54189041      98.81868280
H      73.65867138      82.69151357     101.84602434
H      74.47881261      80.62793243      99.34969589
C      78.95557424      83.76865756     100.80289542
H      80.56940051      84.73241798      99.96196721
H      79.48847706      81.78066548     100.89360229
C      78.77793997      84.94028788     103.48441706
H      77.22269521      83.99542472     104.44817748
H      78.73258653      86.98119230     103.21607592
H      80.49759091      84.44328986     104.50486927
C      77.40977811      81.57468531      95.29245349
O      75.89421762      80.46163652      93.94129918
N      79.42233665      80.37470911      96.46786326
H      80.38798678      81.31957226      97.81334839
C      79.97224700      77.74232035      95.96897551
H      78.41700224      76.60281538      96.69085096
H      81.69945684      77.24910178      96.98186882
C      80.59396695      77.25288124      93.11926823
O      82.56495150      78.03333820      92.08747766
N      78.91400026      75.81857896      91.84559270
H      77.60064048      74.82647265      92.81124284
C      78.69479201      75.79968170      89.04690803
H      79.74736956      77.30012439      88.10960378
C      79.71146476      73.25044091      88.08503733
H      78.50959883      71.72543177      88.77289771
C      79.82484834      73.40728819      85.21265334
H      80.79994712      75.10426242      84.56825666
H      77.85008434      73.36193476      84.63628681
H      80.68278409      71.70653451      84.42274774
C      82.33818435      72.71564836      89.12816626
H      82.23424940      72.74399425      91.18418850
H      83.72524345      74.12349446      88.54613055
C      83.47202013      70.32892403      88.34392984
H      84.80616690      69.65429173      89.76311430
H      84.35074287      70.54624255      86.49388778
H      81.98102606      68.91162929      88.37983464
C      75.96791694      76.27022355      88.42518807
O      74.21614064      74.87371581      88.99399569
N      75.47658809      78.55490267      87.42174341
H      76.81640405      79.90983643      87.30458038
C      73.06151787      79.35803635      86.34837885
H      72.54373286      77.56657580      85.47532530
H      73.25238022      81.02288523      85.15218210
C      70.81463328      79.90605698      88.06236062
O      68.76050078      80.04211727      87.17607898
N      71.23982170      79.98920494      90.60971169
H      73.04640007      79.51866309      91.01600284
C      69.30663168      79.86070355      92.45786402
H      67.74571775      78.80812599      91.62638444
C      70.19480305      78.34703277      94.93718494
H      71.47981694      79.59803159      95.95007825
H      70.96770111      76.47242427      94.57435750
C      68.03673560      77.85570393      96.66250507
N      66.54007236      75.73354128      96.59258519
H      66.93313543      74.20286297      95.52111039
C      64.67302276      75.89605774      98.30467723
H      63.24816912      74.49388082      98.70907868
N      64.94136391      78.27900262      99.28166574
H      63.82075620      78.99331917     100.65171731
C      67.04840874      79.42417677      98.35947930
H      67.44525126      81.38382296      98.76577045
C      68.26161303      82.47986422      92.97564903
O      69.33119812      83.73842194      94.51955544
N      66.43802714      83.44362464      91.46197825
H      65.95614693      82.47608477      89.88783624
C      65.21726394      85.88137158      92.01755779
H      66.59865389      87.37992455      91.72276049
C      63.05541704      86.26120657      90.04657325
H      61.85733056      84.58690906      90.11082394
H      63.83965346      86.01932160      88.15684693
C      61.76851342      88.85580080      90.00310955
H      61.06364551      89.25831250      91.89661531
C      63.48816436      91.08000867      89.17540942
H      64.07208980      90.83623397      87.21576323
H      65.26450710      91.04788332      90.22042808
H      62.81353207      92.96595553      89.65351017
C      59.63879187      88.59690829      88.10393460
H      58.74306159      90.44695035      87.97543321
H      58.40858004      87.10213478      88.80691279
H      60.43625637      87.98085752      86.30680487
C      64.34232066      85.93617364      94.77088903
O      63.25572803      84.04833706      95.78189261
N      64.70703785      88.12825617      95.96708578
H      65.94291885      89.29799676      95.10726031
C      63.79430003      88.61958501      98.57679782
H      63.14423418      86.81111693      99.31568081
C      66.01283872      89.72129545     100.09613778
H      65.05852694      90.44506063     101.77232503
H      67.11265943      91.23874568      99.24387121
C      68.00083080      87.71251638     100.68195294
H      68.51861582      87.06622998      98.79600608
C      70.36109898      88.96918438     101.75909693
H      71.95413826      87.79755406     102.33357373
H      69.83197560      90.08223318     103.40882801
H      71.04517989      90.04065920     100.13582203
C      67.06541628      85.65649415     102.67750392
H      68.62066103      84.34691382     103.01387521
H      65.38922904      84.82690430     101.81767845
H      66.78006760      86.50498126     104.53321516
C      61.59465860      90.49041406      98.62215125
O      59.90524328      89.97451878     100.14527066
N      61.56064353      92.33100749      96.92895649
H      62.93447455      92.56911300      95.62693505
C      59.61611515      94.39458862      96.93084620
H      57.75662446      93.52153507      96.77210919
C      59.57454117      96.22951287      99.14371572