 %block lattice_cart
   140.777   0.000   0.000
   0.000 144.511   0.000
   0.000   0.000   162.462
 %endblock lattice_cart

 %block positions_abs
N      88.89647951      40.43156403      83.20954346
H      89.38969808      39.03505628      82.00200833
H      87.61146562      40.03094205      84.56069777
H      90.49707770      40.85297300      84.16385525
C      87.95917526      42.54805750      81.76579254
H      88.70750688      44.07306663      82.93175369
C      88.95128157      43.00915072      79.09560927
H      88.01586705      41.80350533      77.71232960
H      90.93549420      42.48758626      78.90285719
C      88.49774726      45.76059223      78.04870089
H      86.49463737      46.11586078      78.36428518
H      89.01553227      45.87019636      76.05881908
S      90.37046604      48.13408848      79.67197579
C      90.34967905      50.44711349      77.12462473
H      88.34089998      50.52270254      76.68431849
H      91.20005589      49.44366881      75.53914434
H      91.35312372      52.18188224      77.60461521
C      85.04710701      42.79939110      81.87350695
O      83.60524583      41.97358070      80.19731970
N      84.20428908      44.11464061      83.82559423
H      85.63103244      44.82895716      84.87439233
C      81.68906335      44.86108251      84.36416623
H      80.54955839      43.81417413      83.00356328
C      80.92183447      43.92377825      87.04568787
H      81.98386066      44.98202499      88.45920315
H      81.53032634      41.96980125      87.29513175
C      78.11370117      44.21857556      87.38394888
O      76.78711330      44.03905156      85.61894451
N      77.37481818      44.80817017      89.66484854
H      75.52288639      45.02926815      90.06547052
H      78.46896972      45.11430583      91.19930631
C      81.43584003      47.77126103      83.91819082
O      83.28777181      49.11485644      83.98622097
N      79.10013830      48.70667555      83.91252164
H      77.58835725      47.54260414      83.95409561
C      78.66361153      51.38063829      83.55347364
H      80.01854529      52.07038839      82.16641453
C      75.88760357      52.14597744      82.76923722
H      75.58524736      51.12930469      81.00423285
C      74.01677452      50.88741972      84.60605120
H      74.54778762      48.95611943      85.08982113
H      72.06090779      51.07261290      83.98244152
H      74.21330606      51.84551096      86.41829874
C      75.26210416      54.92576485      82.24956248
H      75.51721722      55.96889377      84.00889768
H      73.30434770      55.05048678      81.62217335
C      77.16505856      56.29770615      80.43920467
H      79.02643898      56.55470893      81.28202262
H      76.33357898      58.14018931      80.04425188
H      77.50331957      55.07883268      78.81215033
C      79.48375275      52.95289058      85.93830825
O      80.39460083      55.09772994      85.51311983
N      79.63871030      51.88519521      88.26834080
H      78.81478963      50.17310317      88.47432097
C      80.59680154      53.04926662      90.49065893
H      80.08657544      55.03914843      90.66262404
C      79.93917679      51.42599172      92.74132298
H      80.51554331      49.45500717      92.58447569
H      77.88126483      51.34095403      92.68085174
C      80.38515220      52.62218847      95.32268912
C      79.30044929      54.92198540      95.82157686
H      78.49164643      56.03125474      94.31168555
C      79.69351237      56.03692392      98.25365464
H      78.83179717      57.87751735      98.44262726
C      80.54766866      54.63474700     100.28511042
H      80.92561392      55.57583070     102.05578397
C      81.52276744      52.23290485      99.79000213
H      82.49408676      51.32205677     101.33768797
C      81.68150445      51.35040266      97.27477640
H      82.69628748      49.67988460      96.68518180
C      83.49942116      53.38752763      90.07491914
O      84.59357270      54.87285251      91.51678032
N      84.72963299      52.15164662      88.28912779
H      83.78099038      51.00458275      87.09671047
C      87.41871353      52.54281997      87.67685646
H      88.24830339      53.42910161      89.34170534
C      88.80766237      50.05216069      87.16096117
H      90.72951403      50.41120869      86.50900560
H      87.80043825      49.16965850      85.59626778
C      88.90781787      48.09251450      89.41162522
H      86.97084840      47.83362200      90.05980134
H      90.10023517      48.91832490      90.87427338
C      89.77520225      45.43555930      88.41384971
O      88.27664928      44.09574335      87.14395364
O      92.05421218      44.73636057      88.67841141
C      87.70406221      54.51002506      85.70209245
O      89.01742200      56.25613217      86.04413292
N      86.42093804      54.15475651      83.58181953
H      85.22285156      52.67132136      83.63284214
C      86.29432638      55.50780055      81.17619794
H      88.09334583      55.34528409      80.18976081
C      84.28743703      54.46845108      79.27891272
H      82.42983607      54.85584497      80.08204640
H      84.63892613      52.44266447      79.14852160
C      84.53310145      55.73456771      76.73534111
H      86.53243189      56.02180611      76.33660885
H      83.79988765      57.66019882      76.75423837
S      83.39926567      54.15664624      73.94988451
C      80.36436521      55.58716906      73.51902691
H      79.25887531      54.23790447      72.42298566
H      80.44184399      57.10839874      72.13196781
H      79.58957742      56.32038287      75.28025184
C      85.83134343      58.28380851      81.76390283
O      87.39981627      59.83527381      81.06659382
N      84.09846440      58.90930792      83.54402500
H      83.14982179      57.44665975      84.32448197
C      83.53343623      61.60972682      84.17519359
H      83.27832318      62.54892079      82.35916662
C      81.05222559      61.67964669      85.64918013
H      80.94262146      63.04024964      87.19497625
H      80.88970912      59.89007587      86.65829398
C      78.60314028      61.80814808      84.02212576
H      78.73920058      60.31526429      82.61238993
C      76.30523309      61.50201242      85.66240821
H      76.09736319      63.03835991      87.01923170
H      76.56601532      59.70866215      86.63750699
H      74.75754724      61.56815284      84.30180526
C      78.43117519      64.34982997      82.58215431
H      76.53388997      64.63895810      81.83760215
H      79.74075552      64.46132382      80.99667394
H      78.99053418      65.95042816      83.75189491
C      85.84457152      62.99678593      85.39595680
O      86.01653661      65.27768559      85.03690880
N      87.53776629      61.50390214      86.68097069
H      87.21084364      59.62362446      86.73766248
C      89.87346802      62.39396324      87.79212976
H      89.40103644      64.22510803      88.61038126
C      90.86368460      60.62517941      89.89350543
H      92.22239782      61.68342614      91.02167203
H      91.50619155      58.98111752      88.83336895
C      89.05899597      59.61795528      91.90795368
H      87.82689442      58.52947293      90.66640349
H      88.06688966      60.98989659      93.07958398
C      90.39881193      57.73767760      93.59736899
H      92.06555054      58.48600922      94.54979106
H      91.01675243      56.04637255      92.59581404
N      88.56577741      56.52258358      95.36048365
H      87.80610743      54.81994017      94.95797194
C      88.32389244      57.14052409      97.75665661
N      89.28954258      59.11150863      98.72230676
H      89.07789324      59.58394021     100.55912074
H      90.40826056      60.14329920      97.56957370
N      87.07667307      55.54370535      99.21363559
H      86.81778057      55.86873828     101.07501602
H      86.28298802      54.11696199      98.22719847
C      92.01830738      63.14229486      86.01578702
O      93.79653984      64.41219094      86.79624399
N      92.01830738      62.52624408      83.61583461
H      90.55565921      61.53602749      82.89395916
C      93.72095079      63.36717229      81.73366721
H      95.12312771      64.59738412      82.60672075
C      95.51619079      61.39240829      80.43920467
H      96.71994645      62.21821869      78.98600515
C      97.35678421      60.27180059      82.34782825
H      96.64624712      58.48600922      83.08482152
H      97.63079453      61.53791722      83.94653672
H      99.11800914      60.07715878      81.29525070
C      93.70394325      59.36095250      79.15230105
H      93.03686986      60.39463280      77.49879053
H      92.27531016      58.45199415      80.32204164
C      95.23273184      57.24067958      78.04114198
H      96.54420190      57.82082556      76.56148629
H      94.00629946      55.93109925      77.03013841
H      96.41570051      56.36384657      79.48111343
C      92.43404717      65.19075818      79.80803608
O      93.75685559      66.59482483      78.48144822
N      89.92071117      65.12461776      79.68520387
H      89.04576789      63.85094222      80.80392185
C      88.33901025      66.71387759      78.10917213
H      89.10623913      66.95765228      76.21188691
C      85.67827560      65.50256302      77.68587344
H      84.85246520      65.60460824      79.56993058
H      85.81244617      63.46543806      77.40997339
C      83.97941164      66.79324609      75.69221217
O      84.82978849      67.28457494      73.64941803
O      81.81378529      67.48299620      76.34416776
C      87.97996225      69.52956980      79.14852160
O      88.52042397      71.28701527      77.82004400
N      87.56422246      69.83192601      81.60705554
H      87.10501897      68.32392441      82.68608927
C      88.09901501      72.19030444      83.06592425
H      88.81711101      73.71342385      81.87917613
C      85.50064133      73.17296213      84.20920867
H      86.06000032      74.51655754      85.66618766
H      84.76553779      71.55535640      85.25233760
C      83.71296023      74.43340958      82.40640977
H      81.88559489      74.38994587      83.35694211
H      83.82823354      73.37705257      80.64329512
C      84.42538705      77.23776343      81.78468982
O      85.62347354      77.76499707      79.78157993
O      83.69784242      79.05190069      83.25111743
C      90.02842557      71.79346192      85.24855815
O      91.82744502      73.32980941      85.51689928
N      89.65992894      69.84704382      86.69230905
H      88.59034385      68.36171893      86.15184733
C      90.43660646      69.54090815      89.40028686
H      92.35656839      70.24577607      89.64595128
H      90.70872705      67.59260032      90.01255817
C      88.74341168      70.57269872      91.43363236
O      86.62691821      71.18119059      90.88372200
N      89.50308166      70.45175624      93.83358478
H      91.23785041      69.69208626      94.06791085
C      88.17082461      71.52701051      95.98598306
H      86.14503800      71.78023383      95.71197274
C      88.18216296      69.47287801      97.98531349
H      90.07755846      68.73588474      98.31412588
H      87.31288886      67.84582365      97.07068596
C      86.75730932      69.93397123     100.48353167
H      86.84990591      71.92574276     100.99942696
C      84.10224386      69.10060192     100.23219807
H      83.90949177      67.23544205      99.37426233
H      83.10257864      70.44041788      99.02844242
H      83.18005741      69.14784508     102.07279150
C      88.00641842      68.54124293     102.66805530
H      88.32956162      66.57781729     102.13704221
H      86.94628196      68.65462651     104.43116995
H      89.71284128      69.59571022     103.13103824
C      89.30277067      74.00633143      97.06690651
O      91.62524431      74.46364520      97.06123733
N      87.75508482      75.73921046      97.76799496
H      85.93338865      75.16851311      97.72075181
C      88.40893012      78.06735328      99.00954515
H      90.44794481      77.95774915      99.28733492
C      87.74185673      80.21597210      97.31068120
H      87.22974090      81.84680590      98.45963479
H      86.08456676      79.81346039      96.15605842
C      89.89614473      81.23264485      95.64205286
H      91.22651206      79.73787134      95.15450347
H      90.91848667      82.61214506      96.77966810
C      89.16104120      82.58568889      93.16651140
H      90.92793530      83.26976982      92.35770854
H      87.98752115      84.22975078      93.57091283
N      87.96295471      80.80934616      91.42796318
H      87.86846840      78.99709862      92.01188862
C      87.12013678      81.16461470      89.14895325
N      87.37336010      83.28866708      88.00944829
H      87.28832242      83.47952944      86.11216307
H      87.67004713      84.95351596      88.89761965
N      86.10724347      79.25599113      87.89039553
H      85.37780912      79.73220216      86.19342131
H      85.88425577      77.55334772      88.72565456
C      86.96706895      78.42829100     101.54933732
O      84.98285632      77.23776343     101.95940792
N      88.23129585      79.81723984     103.21040675
H      89.84323239      80.57124064     102.52065665
C      87.54343547      80.33313513     105.80878042
H      86.05433114      78.99898835     106.30388873
C      89.77520225      79.59236241     107.54543892
H      89.24796861      79.78511450     109.52776182
H      91.23785041      81.02666468     107.33756901
C      91.07911340      76.93540722     107.45473205
H      92.32633277      76.91839968     105.81444961
C      92.70805748      76.46864482     109.76775706
H      91.86712928      76.71997842     111.63291693
H      93.98551247      78.01444094     110.24207836
H      93.87212889      74.81135484     109.40303988
C      89.21395353      74.77545004     107.26197996
H      90.39881193      73.08981417     107.24497243
H      88.22940612      74.87371581     105.45540161
H      87.88547593      74.76600141     108.83612199
C      86.50030655      82.97875196     106.09412911
O      84.58034461      83.32646161     107.44906287
N      87.22785118      84.72107963     104.60502476
H      88.89647951      84.40927478     103.73575066
C      86.36235653      87.36102728     104.73541588
H      85.63292217      87.67283213     106.63459083
C      88.66026372      89.09579604     104.26487404
H      90.09834545      88.17738905     105.41760709
H      88.36168696      91.00252989     104.98108031
C      89.46528713      89.21295907     101.53610923
H      88.18972187      90.42805309     100.46841387
H      89.16671037      87.45929305     100.49864949
C      92.21294919      89.96695987     100.96352217
H      92.81010271      89.03532480      99.22497395
H      93.30710073      89.25075360     102.55467171
C      93.11056919      92.68438631     100.81234405
H      92.19783138      93.67271317      99.25520957
H      95.06643592      92.86580003     100.19251383
N      92.49451841      94.13380639     103.17261222
H      92.89136094      93.13414117     104.74864396
H      90.80132363      94.99363186     102.97041151
H      93.41292540      95.80810390     103.14993551
C      84.20617880      87.75409036     102.77954915
O      84.24775278      86.76198404     100.73108582
N      82.44117443      89.45295431     103.26709854
H      82.52243266      90.27687499     104.98674949
C      80.54577893      90.53387776     101.48886608
H      79.22297051      89.05800151     100.92572764
C      79.03966706      92.66926850     102.73797518
H      80.43428508      94.03176117     103.40126910
C      77.15560993      94.00908445     100.82368242
H      78.12503953      94.86890993      99.22308422
H      76.63404547      95.61346209     102.00287164
H      75.78933780      92.57667191     100.25298507
C      77.71118946      91.59590395     105.18706047
H      78.97163692      91.25764294     106.78009975
H      76.73231123      89.79121532     104.99808785
C      75.81012479      93.55177069     106.29444009
H      74.95407877      92.66359932     107.94417117
H      74.41172732      94.21317490     104.93383714
H      76.70207561      95.38480521     106.59112712
C      81.94795586      91.62991903      99.15127462
O      83.50509034      93.37035696      99.32135000
N      81.25064685      90.59434901      96.91572840
H      79.85791856      89.30555566      96.70785851
C      82.25598125      91.51464572      94.43451776
H      83.29344099      93.26642201      94.74632259
C      83.96051438      89.50964610      92.98509766
H      85.68961396      89.18083372      94.05846222
H      84.23641442      90.54332640      91.22387274
C      82.87392175      86.94906695      92.59581404
C      81.77599076      86.15349217      90.31491438
H      81.65504828      87.41393962      88.71431621
C      80.77254609      83.74220140      90.04846298
H      79.91650007      83.36236641      88.23432571
C      80.85947350      82.09058060      92.10826467
O      79.98075077      79.66039256      91.68874541
H      79.57823906      79.32024182      89.95397666
C      81.90449215      82.87103756      94.44774584
H      81.93094832      81.51232435      95.97086524
C      83.00431287      85.35035849      94.69152053
H      83.79610819      85.96451954      96.46975300
C      80.06011927      91.98707730      92.67518256
O      77.82079359      91.28976829      93.25721825
N      80.40971864      93.17004597      90.52845346
H      82.15960521      93.77097894      90.05602189
C      78.45196218      93.96373102      88.61227098
H      76.62837629      93.66137481      89.52122934
C      78.95840883      96.49407456      87.46142765
H      77.80567578      96.77186432      85.77768151
H      80.95207009      96.68871637      86.97954744
C      78.44062382      98.71072352      89.31524916
H      79.30044929      98.51419198      91.17662959
H      76.41861667      98.74851805      89.70453280
C      79.10202803     101.32232529      88.18708256
H      77.83213195     101.54720272      86.58270493
H      81.05033586     101.44137804      87.52945781
C      78.50865397     103.59755577      89.98988146
H      80.08657544     103.89424280      91.28056453
H      76.91561469     103.21016187      91.23710082
N      78.15527515     105.90869105      88.59337371
H      78.79778209     105.71782869      86.80758235
H      79.15494037     107.30141934      89.43241221
H      76.36570433     106.52663155      88.84659704
C      78.25165119      92.16471157      86.37861448
O      80.19240011      91.48063065      85.28068350
N      75.96886180      91.86613481      85.32414719
H      74.62904585      92.88847675      86.21987746
C      75.28100143      90.44695035      83.05836534
H      76.86270235      89.19028236      82.65585365
C      72.86593120      89.01453781      83.66685723
H      71.34092206      90.27309553      84.23755456
H      72.98309423      87.93739381      85.41863351
C      71.70941869      87.23441562      81.62784253
O      69.98031912      88.08479246      80.36361562
O      72.72609145      85.19351120      81.07226300
C      74.90683562      92.14392458      80.81526021
O      74.18684989      94.31710984      81.27635344
N      75.10903633      90.94961755      78.58349343
H      75.57579873      89.11091385      78.78191471
C      75.10525688      92.12691705      76.17220267
H      76.69073726      93.43838711      76.07582663
C      75.77799945      89.97829823      74.31082224
H      75.45485625      90.46206816      72.33416852
C      78.55400740      89.23374606      74.46766953
H      79.03588761      88.83690354      76.43109517
H      79.65571784      90.69450450      73.52280638
H      78.78833346      87.49708758      73.38674608
O      74.37393280      87.88637120      74.67742915
H      75.20352265      86.90938270      75.95866358
C      72.52200101      93.40626176      75.42576077
O      72.63916404      95.17504559      73.92720780
N      70.42251508      92.63903288      76.54447875
H      70.39227945      91.48818955      78.06759815
C      67.88083318      93.89381115      76.19109993
H      68.01311403      94.77442361      74.33538868
C      65.80024451      91.86802454      76.36495475
H      65.19742182      91.76219987      78.33215983
H      66.55235559      90.03687974      75.80937522
C      63.32848250      92.31022050      74.81348945
H      62.65951938      94.08467351      75.62229231
H      61.98488709      90.81166753      75.25190595
C      63.63083871      92.53887738      72.01102533
O      62.68219610      94.37947081      70.89041762
O      64.76656422      90.69450450      70.89419707
C      67.66918384      96.23140260      78.09216459
O      65.66040477      97.24051645      78.28680641
N      69.74410333      97.11957396      79.31859698
H      71.35981933      96.12935738      79.10694763
C      69.71197798      99.08299960      81.37083974
H      68.05468801     100.26596828      81.05525545
H      71.33147343     100.33210870      81.10816779
C      69.86504581      97.99640697      84.12228126
O      70.95919735      99.34756129      85.71532054
N      68.66695933      95.94794365      84.70620670
H      68.08492363      94.89347637      83.22466126
C      67.74477289      95.15803805      87.26867558
H      66.79235083      96.77753350      88.10960379
C      66.00433496      92.84879250      87.03623923
H      65.01600809      92.60312808      88.82769979
H      66.85660152      91.03465524      86.56380766
C      64.02957096      93.26642201      85.01423209
C      62.89573517      91.09890593      83.85205040
H      63.34737976      89.23185633      84.54557995
C      60.88317665      91.36157789      82.09082548
H      59.83626827      89.73263381      81.44453907
C      59.98744637      93.83333991      81.40107538
O      58.02968991      94.02987144      79.85149979
H      57.47977956      95.71739704      79.47544425
C      60.99844995      95.99329708      82.71632489
H      60.38617863      97.87357476      82.21365769
C      62.95431669      95.64369771      84.50022653
H      63.61005172      97.40492264      85.29202184
C      69.89906089      94.45505986      89.13761489
O      72.00799545      94.22829271      88.24944353
N      69.41340122      94.27364614      91.57536185
H      67.63516876      94.56088454      92.20653042
C      71.25777411      93.32122408      93.42162445
H      73.15883878      93.66326454      92.70541818
C      70.94785899      94.69883456      95.91606318
H      72.08358450      93.72751523      97.33335792
H      69.05624295      94.61946605      96.73242495
C      71.81713309      97.42004045      95.93118100
C      70.06346708      99.55543118      95.98787279
H      68.05846746      99.18126537      96.02377759
C      71.06124257     101.98750895      96.19385295
H      69.82536156     103.59755577      95.99165224
C      73.70307995     102.27096789      96.06157210
O      74.63093557     104.66147168      96.14660980
H      73.47820252     106.03908216      95.89527619
C      75.29989869     100.21683539      96.22786803
H      77.14805102     100.76296630      96.90250031
C      74.48920610      97.72428639      96.13905089
H      75.81201452      96.17093136      96.08613854
C      70.85526240      90.57167229      93.86759985
O      68.82380661      89.79310505      94.56301914
N      72.90183600      89.19406181      93.84303341
H      74.62526640      89.98774686      94.05468276
C      72.91884353      86.49364291      94.18696361
H      71.18596451      85.81901061      95.07135552
C      73.06057301      85.23697491      91.50355224
H      73.31190661      83.19418076      91.56213376
C      70.66062059      85.74720101      90.05224243
H      70.52456030      87.71440611      89.46264783
H      69.09403748      85.29177697      91.31457961
H      70.66062059      84.51509946      88.40251136
O      75.06557263      86.41238468      90.22042808
H      75.62493162      87.72952392      91.33725632
C      75.19218429      85.73964211      95.83858441
O      76.87970989      87.19284164      96.55479068
N      74.90116644      83.40205066      96.93273593
H      73.28167099      82.42506216      96.68140234
C      76.81167974      82.31356830      98.65049715
H      78.47463890      83.49842670      98.37837656
C      76.10681182      82.87103756     101.29989344
H      76.01799469      84.91572144     101.53610923
C      73.43284909      81.83546755     102.10491685
H      73.27222236      79.79834258     101.84791408
H      72.11759958      82.96930333     100.99564752
H      73.28734017      82.28333268     104.11180621
C      78.27054845      82.13593403     103.33323895
H      80.21885628      82.37781900     102.70962927
H      77.82646277      80.17817757     103.78488354
C      77.99275869      83.63637672     105.70862494
H      78.15716487      85.64515579     105.28910570
H      79.52721645      83.15449651     106.99552856
H      76.16350361      83.39071230     106.61947301
C      77.12348458      79.47897883      98.20830120
O      75.40383364      78.33569441      97.18973872
N      79.03210816      78.19207521      99.16072327
H      80.46452070      79.09158494     100.04322545
C      79.21919106      75.51433303      99.00387597
H      77.38615654      74.74143497      99.53677880
H      80.62892689      74.84348019     100.34747139
C      80.18484121      74.52600617      96.39794339
O      82.22574563      75.33291930      95.64205286
N      78.62581700      73.05579910      95.11292950
H      77.14049212      72.32069556      96.06157210
C      78.65227317      72.79879632      92.37282635
H      80.13570832      74.01200061      91.62071527
C      79.31934656      70.16073838      91.39016867
H      77.75087372      68.83226079      91.27867480
C      80.21885628      70.57080899      88.67463195
H      78.62392727      71.13961661      87.50489137
H      80.73853102      68.70942858      87.96409485
H      81.64748937      72.04668524      88.50833603
C      81.47552428      69.06280740      93.04178945
H      80.63081662      68.44297717      94.81435274
H      82.76809708      70.58970626      93.52555940
C      82.74164091      66.71198786      92.03456533
H      83.64115063      65.81058841      93.65406078
H      84.30444457      67.30536192      90.83080967
H      81.63426129      65.46854795      90.82136105
C      76.10681182      73.59626082      91.18040905
O      74.33235882      72.09959758      90.92340626
N      75.81390425      76.07369202      90.95553161
H      77.27466269      77.24154288      91.33725632
C      73.67284433      77.16595383      89.53823687
H      73.18907440      76.02455913      87.89417499
H      74.22842387      79.08024658      89.01478269
C      71.34092206      77.60814978      91.06135629
O      69.50599781      78.60403555      90.01633763
N      71.21242067      77.01477572      93.48965460
H      72.89994627      76.59525648      94.27200129
C      68.95608746      77.30579357      95.31513021
H      67.35737900      76.22487012      94.59703421
C      69.58914577      76.24943656      98.00799020
H      70.86660076      77.37760317      99.16450271
H      70.51322194      74.42774040      97.75476688
C      67.01722826      76.03778722      99.31001163
N      65.41663007      74.01011088      99.12481847
H      65.75489108      72.45486613      98.07035117
C      63.30391605      74.60159522     100.33046384
H      61.79213500      73.23910255     100.50431866
N      63.44375580      77.06957778     101.04478040
H      61.91874667      77.98231559     101.74019967
C      65.71331710      77.89349846     100.38148646
H      66.36527268      79.77377614     100.83691051
C      68.26822708      80.17250839      95.40394735
O      69.84425882      81.69940725      96.17306595
N      65.88717192      80.84903041      94.84080891
H      64.64184228      79.53756035      94.23609649
C      64.91207315      83.43039655      94.75955067
H      66.23299184      84.60391659      93.70319367
C      62.26078713      83.32835133      93.43296281
H      60.93986844      82.03388881      94.34003144
H      62.42141387      82.52899710      91.54134677
C      60.93230953      85.86814350      93.33091758
H      60.94175816      86.79410939      95.16962129
C      62.52156936      87.58968417      91.52622896
H      64.21287441      88.31911853      92.44652568
H      61.58804456      89.21295907      90.66829320
H      63.33604140      86.50876072      89.97476366
C      58.26968516      85.89270994      92.45975375
H      57.37584461      84.09558022      92.92084698
H      58.31125914      85.81145171      90.40184179
H      57.28324802      87.58023554      93.10981960
C      64.57948132      84.73997689      97.28233531
O      63.38895374      83.81779045      99.07001639
N      65.48466022      87.04166354      97.66028056
H      66.68085698      87.67472185      96.31479544
C      64.84026355      88.71407132      99.74275897
H      63.90106957      87.52543347     101.13926672
C      67.20620089      90.00664412     100.97675025
H      66.58637066      90.77009355     102.78710806
H      67.89217154      91.58456559      99.84669392
C      69.42284986      88.21896303     101.35658523
H      70.24677053      87.55566909      99.58969113
C      71.51477688      89.63247831     102.82490259
H      71.88138379      91.34646008     101.74397914
H      73.13427233      88.41927402     103.20662730
H      70.90628501      90.29010307     104.68061382
C      68.46097916      86.18561752     103.23308347
H      67.32525365      84.71541045     102.34113265
H      67.35926872      87.11158341     104.70706999
H      70.04834927      85.31067424     104.20629252
C      62.71054199      90.52253941      98.97741980
O      60.63751223      90.36758185     100.06968162
N      63.25100372      92.11368896      97.10848049
H      65.04813344      92.28943351      96.49053998
C      61.48977879      94.17160092      96.36770777
H      59.54525042      93.49507890      96.29022900
C      61.58993429      96.36746289      98.39727382