 %block lattice_cart
   140.777   0.000   0.000
   0.000 144.511   0.000
   0.000   0.000   162.462
 %endblock lattice_cart

 %block positions_abs
N      95.12785203      40.96730143      81.15824553
H      96.98545300      41.02588295      80.72549821
H      94.47022727      39.58780122      80.01685084
H      94.97100475      40.54778219      83.01395677
C      93.64819633      43.14237642      80.16802896
H      94.20377586      44.78076913      81.28485721
C      94.15086353      43.64315389      77.27674770
H      93.18710311      42.17672627      76.19393451
H      96.10861999      43.26520863      76.76085241
C      93.09072707      46.24152757      76.46605511
H      91.10273498      46.06767275      76.97628120
H      93.24379490      46.57978858      74.44026849
S      94.63652319      48.76620193      77.96271834
C      92.27058585      51.10757283      77.15391548
H      91.97200909      51.05088104      75.11679051
H      92.85262155      52.95005598      77.86634230
H      90.58494997      50.44427889      78.13468343
C      90.79470960      42.85702774      80.82565371
O      89.78937520      40.89927128      80.16991867
N      89.55504913      44.86769654      81.78374494
H      90.46022804      46.42105157      82.42814162
C      86.83951242      45.00564656      82.04074772
H      85.81339103      43.95684846      80.59321737
C      86.25558699      43.74897856      84.62400360
H      87.41020977      42.05011461      84.77329198
H      84.34318396      42.98174968      84.66935703
C      86.56361238      45.25698016      87.01828683
O      84.74758539      46.47585363      87.64567597
N      88.53648665      45.43839389      88.38833841
H      88.42310307      46.35113170      90.06074620
H      90.17487936      44.74486433      87.69858830
C      85.70378691      47.66827094      82.02751965
O      87.07572821      49.54098971      82.10877787
N      83.24336325      47.99519359      82.03129910
H      82.11141719      46.46262555      81.91791552
C      81.95456990      50.51230904      82.27129433
H      82.36275079      51.34567834      80.43259063
C      79.06139892      50.27798298      82.49239231
H      78.41133307      49.04966087      80.97305235
C      78.43589951      48.90037249      84.88856528
H      76.41956153      48.49975052      85.01706666
H      78.99336877      50.15515077      86.42491277
H      79.36186540      47.10513250      85.28918726
C      77.72158296      52.97651215      82.41302382
H      78.39621526      54.23318015      83.89834870
H      75.70524499      52.61746415      82.64546014
C      78.07307206      54.33144592      79.83921657
H      76.71435884      55.87913177      79.77307616
H      77.34174797      53.06910874      78.38601704
H      80.02326961      54.95694533      79.60678024
C      83.25470161      52.44549906      84.06275489
O      83.45501260      54.68860419      83.26340065
N      84.23735929      51.70661607      86.25483740
H      84.23169011      49.85846373      86.73482788
C      85.42032796      53.59823211      88.07086440
H      84.37908876      55.33678032      88.44503020
C      85.46568139      52.33589493      90.74293740
H      86.44266990      53.48106908      92.14700404
H      86.57306101      50.61813371      90.46514763
C      82.95423512      51.76897704      91.95236224
C      81.16466430      53.77586638      92.28684380
H      81.59741163      55.62968789      91.55362998
C      78.80817559      53.23729438      93.35264943
H      77.40599867      54.71883981      93.42823849
C      78.24314742      50.88836457      94.28995369
H      76.54239374      50.59356727      95.38032577
C      80.04027715      48.86068824      94.13688586
H      79.74925930      47.12780921      95.17623532
C      82.30983845      49.41437805      92.76683428
H      83.71957428      47.96117852      93.02005761
C      87.95634067      54.47128566      87.40379100
O      88.57806063      56.64447092      87.74583147
N      89.37174568      52.99351969      85.88634078
H      88.68577503      51.23796394      85.58776402
C      91.83783852      53.88358078      84.84132213
H      92.88852635      55.01363712      86.20570452
C      93.32883258      51.70850579      83.87945142
H      94.99935064      52.37935864      82.87789649
H      92.29137284      50.77687072      82.36389092
C      94.01480323      49.92271443      86.10176957
H      92.42743313      49.48429792      87.33954030
H      95.42831851      50.36113093      87.53607185
C      94.79337047      47.19961881      85.26651054
O      93.28725860      45.45729115      85.66902225
O      96.89852559      46.65726736      84.34054464
C      91.47123162      55.71661530      82.60010672
O      92.86962909      57.47406078      82.29208132
N      89.38875322      55.37268512      81.06375923
H      88.44389006      53.83633762      81.68547918
C      88.56861200      56.82021547      78.93025822
H      90.13330539      56.72383943      77.59233198
C      86.26881508      55.57299610      77.86823202
H      84.50759015      55.84511669      78.90002259
H      86.77337200      53.57744512      77.80209160
C      85.52237318      56.51596953      75.30576314
H      86.84140215      55.73173311      73.93382185
H      85.48457866      58.56443286      75.10545215
S      82.39487613      55.41047964      74.06610269
C      83.02037554      55.32166251      70.69294121
H      81.19112047      55.34244949      69.74807806
H      84.29216135      53.75507939      70.27720142
H      84.07295310      57.02052646      70.18649457
C      88.05271672      59.48472957      79.52174256
O      89.19600113      61.24217504      78.41247320
N      86.18755684      60.09322145      81.20359898
H      85.26537040      58.85734044      82.32798612
C      85.63953621      62.69537458      81.85744428
H      85.42788687      63.81031310      80.13968306
C      83.16210502      62.68781567      83.49205753
H      83.09596460      64.55675500      84.35377274
H      83.10541323      61.34799972      85.05486120
C      80.69223273      62.39301837      81.85555454
H      80.74892452      60.75084620      80.61211464
C      78.74581462      61.73539361      83.83976717
H      79.37698321      59.93259471      84.61077552
H      76.90522119      61.65413538      82.91758074
H      78.50770911      63.11678355      85.34965851
C      80.05728468      64.90446464      80.55542285
H      78.18456591      64.68336666      79.72961244
H      81.52749176      65.54508186      79.26096032
H      79.92878330      66.45215049      81.90657716
C      87.72579406      64.24495016      83.31253354
O      87.66910227      66.58254160      83.19159106
N      89.47946008      62.95993626      84.33487547
H      89.32828198      61.08721749      84.66557757
C      92.00602416      63.97849874      85.22682629
H      91.73012412      65.47516198      86.61577514
C      93.23434627      61.85066692      86.59687787
H      95.26202260      62.04719845      86.89167517
H      92.91498252      59.95149197      85.86555379
C      92.07027486      61.60311277      89.26328169
H      90.16354101      60.87556814      88.97982275
H      92.06460568      63.40969112      90.25349829
C      93.47434151      59.71527618      91.08308813
H      93.34961957      57.78208616      90.38199968
H      92.60506740      59.73606317      92.95013773
N      96.20877548      60.08755227      91.21536897
H      97.19332289      58.81576646      90.18735786
C      97.38985443      61.57854633      92.79518018
N      96.13696588      62.69348485      94.48081605
H      96.99112218      63.33221235      96.06440670
H      94.35306424      62.20971492      94.94757845
N      99.80681438      62.01507311      92.70069385
H     100.59483025      62.92025201      94.18601875
H     100.81592823      61.53319290      91.15489773
C      93.71622648      64.94036944      83.03285404
O      95.21288972      66.70915327      83.26906984
N      93.66709359      63.67425281      80.86155851
H      92.68254618      62.09444161      80.44203927
C      94.90486433      64.78163243      78.65435817
H      96.79270091      65.39201403      79.20993770
C      95.67020348      62.88434721      76.69282226
H      93.92976555      61.95649159      76.09188929
C      96.77758310      64.19392754      74.29286985
H      97.83205039      62.90891365      73.07966555
H      98.36495321      65.41280102      74.77475005
H      95.31871439      65.06320165      73.12690871
C      97.68087228      61.03241542      77.70382584
H      97.16875645      60.25384818      79.54063981
H      99.46666365      62.03397037      77.92870326
C      98.15897304      58.70049315      76.01252078
H      96.40341729      57.88035193      75.31332205
H      99.26446293      57.35311829      77.11045178
H      99.12084373      59.12379185      74.24373696
C      93.28725860      67.05497318      77.58288336
O      94.23023203      69.19225364      77.19171001
N      90.95344661      66.48427584      76.93848668
H      90.31849856      64.71738173      77.28052715
C      89.30560526      68.30030282      75.58544265
H      90.44511023      68.86344126      73.96594720
C      86.90943230      66.80552931      74.78041924
H      85.31450329      68.06219731      74.43270960
H      86.43511099      65.35421950      76.16180916
C      87.12864055      65.52051542      72.16125856
O      88.57050172      66.43325323      70.56443982
O      85.93811297      63.54386169      71.80221056
C      88.65553941      70.64734290      77.16903329
O      88.20011537      72.53895894      75.92559338
N      88.50436130      70.64356345      79.70126655
H      88.61963461      68.88422825      80.43448037
C      87.84862627      72.88855831      81.33210035
H      87.70311735      74.55907637      80.13779332
C      85.22757588      72.45770071      82.49428205
H      85.04049297      73.42146113      84.30463984
H      84.63798127      70.48293671      82.50939985
C      83.17533310      73.43090976      80.53652558
H      81.59741163      72.10999107      80.57432010
H      83.90098801      73.28351111      78.61278419
C      82.30038982      76.09731359      81.12045101
O      80.36531007      76.33163965      82.45648751
O      83.39643108      77.84720016      80.04708647
C      89.60418202      73.53862416      83.61300002
O      90.39408762      75.74960395      83.90590760
N      90.33172665      71.58653688      85.07375845
H      89.35473814      69.96515170      84.82242486
C      92.46711738      71.61488278      86.82931421
H      94.22078340      72.37455275      86.05641614
H      92.96600513      69.63067015      87.06175054
C      91.61107136      72.97548572      89.29351732
O      89.54182105      73.93546669      89.71870573
N      93.52347439      72.96036791      91.07552922
H      95.20155136      72.12132943      90.71459150
C      93.07938871      73.77483995      93.79106594
H      91.06305073      73.38933578      93.96492076
C      94.44566083      71.80952459      95.58819567
H      96.45443990      71.77928896      95.13844080
H      93.77102854      69.89901128      95.22536822
C      94.01480323      72.59754046      98.40577759
H      95.02769654      74.34931675      98.79506122
C      91.19911103      72.28762534      99.07096125
H      91.08761717      73.14934054     100.93801085
H      90.97234387      70.24294147      99.19379346
H      89.87630261      73.24004740      97.81429327
C      95.44721578      70.69458606     100.07062648
H      94.47778618      68.87855907     100.10464156
H      95.43398769      71.40890261     102.00192677
H      97.42575923      70.72482168      99.49048050
C      93.51402576      76.49415612      94.41467563
O      95.57193771      77.49382134      94.28806396
N      91.42209873      77.74893439      95.38032577
H      89.83661835      76.80218150      94.90789420
C      91.23312610      80.32652108      96.37243208
H      93.14174968      81.08241160      96.54628690
C      89.98779646      82.30506453      94.50349277
H      89.30560526      83.97180314      95.49937852
H      88.35507293      81.46980550      93.56618850
C      92.01547279      83.16866945      92.66289933
H      92.67687700      81.50193085      91.65000603
H      93.60284290      84.16644495      93.51327617
C      91.26525145      85.13398482      90.70703259
H      92.81860648      86.16010621      89.82264069
H      90.14653347      86.53616174      91.72370535
N      89.80827246      83.92833943      88.75116586
H      89.52292379      82.06695901      89.06675015
C      88.84829149      84.69745804      86.65167994
N      89.15064770      86.87631248      85.85043598
H      88.43822088      87.54716532      84.21204327
H      89.91598686      88.29171749      86.87844709
N      87.69555844      83.06284478      85.17769340
H      86.84896105      83.57118116      83.54496987
H      87.59729267      81.24870752      85.75972911
C      89.89142042      80.35486697      98.94812905
O      88.22468181      78.78450441      99.56417982
N      90.85140138      82.13309943     100.59030122
H      92.07594404      83.37087017      99.80795452
C      90.38841844      82.09530491     103.41922150
H      88.77081271      80.86509308     103.75370306
C      92.90175443      81.23547944     104.74958883
H      92.85640100      81.54350482     106.78482407
H      94.53825742      82.32018234     104.12408942
C      93.41198054      78.29317557     104.14298669
H      93.01324829      77.93223784     102.15310487
C      96.17853986      77.52594668     104.63053608
H      97.37662634      78.49537628     103.26426395
H      96.43932209      75.48315254     104.64754361
H      96.72467077      78.01916525     106.55616718
C      91.66209397      76.49793557     105.54894307
H      89.81394164      76.83997603     104.70234568
H      91.83405907      77.14233224     107.49725088
H      92.29137284      74.55907637     105.26548411
C      89.57016694      84.73525257     104.60974909
O      88.39286745      84.89776903     106.67521995
N      89.81772109      86.66655286     103.01104062
H      90.77014315      86.18656238     101.42744998
C      88.49302295      89.10996898     103.44567768
H      87.55571869      88.74525180     105.24091767
C      90.41298488      91.21890355     103.61764276
H      91.63185835      91.34929466     101.96413225
H      91.68099124      90.84662746     105.19934370
C      89.34151006      93.82861559     104.36786412
H      88.00736328      93.74735735     105.93633696
H      88.30782977      94.62230064     102.77293510
C      91.37485557      95.80715903     105.22957931
H      93.18521338      95.60306859     104.27148808
H      91.65453507      95.20811579     107.18166659
C      90.36952117      98.51135739     105.11430601
H      88.72167983      98.58694644     106.34829730
H      89.58150530      98.99701705     103.27182286
N      92.52191945     100.25557478     105.80594583
H      93.59717372      99.79070210     107.31583717
H      91.73579330     101.90152639     106.37286374
H      93.64441688     100.64485840     104.31306205
C      86.47479524      89.48980397     101.46335477
O      86.89242476      88.90587854      99.26560306
N      84.34696342      90.82395075     102.01704459
H      84.29216135      91.55338510     103.78015923
C      82.41188367      91.54960565     100.06873676
H      81.43678489      89.80727799      99.56984901
C      80.48814228      93.37697100     101.13832185
H      81.32907049      95.12307811     101.83941031
C      78.76093243      94.19711222      98.95001877
H      77.59875075      92.72690514      98.09586248
H      79.65666271      94.80371436      97.19635275
H      77.40032949      95.67865765      99.39221474
C      78.87053656      92.22801740     103.32095574
H      80.13665319      91.80282898     104.88942858
H      78.35086182      90.53860207     102.26081927
C      76.54995265      93.83617449     104.19967847
H      75.48792646      92.62674965     105.48469237
H      75.44446275      94.37663622     102.54805767
H      77.13009863      95.49724392     105.26926356
C      83.69311811      92.79493529      97.88610286
O      85.21812725      94.54671158      98.06751658
N      83.18478173      91.84818241      95.60520321
H      81.99425416      90.35907807      95.64677718
C      83.93500308      92.60785239      93.19013298
H      84.96490392      94.38041567      93.36776725
C      85.79827322      90.58017605      92.19046775
H      87.43666594      90.50647673      93.43768712
H      86.63542198      91.33984603      90.46892708
C      84.59640729      88.09518595      91.54607108
C      83.69122838      87.72102014      89.06675015
H      83.80461196      89.05705664      87.52662322
C      82.81061592      85.26626566      88.49038364
H      82.45912683      84.81084162      86.53262717
C      82.95234540      83.28205303      90.19869622
O      82.39865559      80.80651156      89.47304131
H      81.86386304      80.77816567      87.73827256
C      83.74792017      83.79038941      92.71203221
H      83.96334897      82.49214743      94.27105643
C      84.59073811      86.16199593      93.39044397
H      85.05939024      86.44923433      95.35575933
C      81.62764725      92.92532641      91.55362998
O      79.49981542      92.41510030      92.33786640
N      81.96968771      93.89097655      89.22359744
H      83.73658182      94.09506700      88.53195762
C      80.09129976      94.01191904      87.16946494
H      78.16566865      93.64909159      87.80630271
C      80.07051277      96.64997697      86.01295243
H      78.74959408      96.95611263      84.46148713
H      81.90165757      97.23012295      85.27029000
C      79.26170991      98.55860055      87.98393698
H      80.48625256      98.37340737      89.62988860
H      77.34930688      98.13530185      88.62077475
C      79.33918869     101.22122492      86.95025668
H      81.23647390     101.95821818      86.63467239
H      78.73636599     102.27380248      88.61510556
C      77.57418431     101.80704008      84.71848991
H      75.60508949     101.56515511      85.27406945
H      78.06929260     100.77147006      83.00828760
N      77.73859050     104.43753911      84.32731656
H      76.42712044     104.96099329      83.04230268
H      79.41288801     105.01957481      83.62244865
H      77.28316646     105.53547009      85.82209008
C      80.73380670      92.23179685      85.00761804
O      82.84652072      92.13731053      84.18180764
N      78.85919820      90.88253226      83.98716583
H      77.20001850      90.89387062      84.93013926
C      78.98769959      89.35563340      81.76484769
H      80.69790191      88.22179761      81.94248196
C      77.00915614      87.30528035      81.65146411
H      75.14021682      88.16699555      81.61555931
H      76.83530132      86.47002132      83.52607260
C      77.11309109      85.41177459      79.41780761
O      75.06462777      84.72391421      78.45782664
O      79.22013593      84.75226010      78.65057873
C      79.08407563      91.06583572      79.26851923
O      78.74770435      93.34862510      79.44237405
N      79.78138464      90.07183967      77.02919354
H      79.92311412      88.17833391      76.83644147
C      79.60375037      91.45889879      74.60845413
H      80.83585193      93.10674013      74.68593291
C      80.74892452      89.87152869      72.45605586
H      80.63932039      90.62930894      70.54554257
C      83.59296262      89.43122245      73.22706421
H      83.72902291      87.82495509      74.51207809
H      84.49058262      91.10551997      74.01885953
H      84.70979087      89.19878612      71.51308244
O      79.54894831      87.41299475      72.48062230
H      80.38420734      86.24892334      71.36946324
C      77.01104587      92.49446881      73.78075401
O      76.78238898      94.41065129      72.55621136
N      74.94368528      91.16977066      74.51207809
H      75.10620174      89.42366355      75.26607889
C      72.32830406      92.38864413      74.57443907
H      71.48359640      92.49446881      72.69794083
C      70.64455792      90.40443151      75.98039544
H      68.94002479      91.33417685      76.66447637
H      71.83319577      90.00569925      77.61311897
C      70.01527906      88.04227361      74.40814314
H      69.03640083      86.78371589      75.71205431
H      71.67256903      86.88009193      74.02830815
C      68.65845556      88.49013875      71.92693249
O      69.60898790      87.67566671      69.83689520
O      66.60621279      89.77137319      71.77953385
C      72.15444924      94.91142876      75.85378378
O      70.53495379      96.38163583      75.09411381
N      73.78339333      95.31771992      77.70004639
H      75.27438739      94.13664097      77.86067313
C      73.60764878      97.53247916      79.26851923
H      72.55696095      99.02914240      78.31987661
H      75.50682372      98.31104640      79.45371241
C      72.57396849      97.34728598      81.87067236
O      72.17523623      99.36551368      83.08576637
N      72.01460950      95.10607057      82.95159581
H      72.85364798      93.50547239      82.33932448
C      70.65589628      94.63363899      85.32509205
H      69.86788041      96.39675364      86.04318806
C      68.52428500      92.89131133      85.01895640
H      67.52273005      92.65887500      86.80474777
H      69.15545359      90.98835694      84.54274537
C      66.64400732      93.79271079      82.98750061
C      65.80496883      91.98424270      81.12989964
H      66.22826753      89.99436090      81.28296747
C      64.15523776      92.71556679      79.22505552
H      63.48627465      91.51937003      77.71327447
C      63.38989860      95.20622607      79.09277467
O      61.98961141      96.06983099      77.25407097
H      61.32064829      97.71578261      77.61122925
C      64.29129806      97.11484964      80.70660094
H      63.64312193      99.04803966      80.61022490
C      65.82386610      96.24935499      82.73805673
H      66.36810727      97.58161204      84.18369737
C      72.28295063      93.40909634      87.39623209
O      73.73803989      91.77637281      86.98994095
N      71.83319577      94.12719234      89.81697150
H      70.39889350      95.36496308      90.04562838
C      73.14655556      93.30516140      92.09409171
H      75.12320928      93.88719710      92.07330472
C      72.21114103      94.62796982      94.47514686
H      73.19946790      93.98924232      96.16456220
H      70.17590579      94.30671634      94.46191878
C      72.81207400      97.54570724      94.34286603
C      70.87699426      99.30315271      93.86476526
H      68.97970904      98.56804918      93.70980771
C      71.59697998     101.87318050      93.56996796
H      70.23259758     103.38496155      93.44713576
C      74.18212558     102.54970252      93.92523650
O      74.92289829     104.99500837      93.71925634
H      73.51694192     105.97577633      93.12399256
C      75.97925530     100.72233717      94.49971331
H      77.87087134     101.43098454      94.80017979
C      75.32729972      98.13341213      94.68868593
H      76.65577732      96.59139545      94.84364350
C      72.88766305      90.53860207      92.61943562
O      70.81085384      89.52192932      92.48526505
N      75.11565038      89.32917723      92.85187196
H      76.69357185      90.38364452      93.04462405
C      75.60131004      86.48324941      92.81785688
H      73.87410019      85.39287732      93.06919049
C      76.54239374      85.68389518      90.27050582
H      78.48503239      86.29616650      89.97948797
C      76.76538145      82.76426802      89.79618451
H      74.80951471      82.12554053      89.73004410
H      77.91244532      81.89310419      91.26828131
H      77.64221446      82.50159606      87.95181164
O      74.96447227      86.61741997      88.21826304
H      74.83408116      88.41832915      88.39211786
C      77.47213909      85.86152945      94.89844557
O      79.15210578      87.34496461      95.48048127
N      77.31340208      83.64110103      96.06251696
H      76.02082928      82.50726524      95.22914766
C      79.27871744      82.48647825      97.53461376
H      80.94167660      83.69968255      97.53083431
C      78.25259606      82.42789674     100.33329843
H      77.25860002      84.18534221     100.74336905
C      76.05106490      80.61564920     100.77927385
H      74.54873248      81.06540407      99.44512707
H      75.35186617      80.67801017     102.71624331
H      76.73892528      78.70891535     100.40132858
C      80.30861828      82.04428230     102.40632820
H      81.35363694      80.28872655     102.15121515
H      79.31651197      81.70791101     104.17889149
C      82.15299117      84.26849017     102.45168163
H      83.49280712      84.09274562     104.00692638
H      81.10608279      86.02782536     102.66333098
H      83.33029066      84.14376823     100.76604577
C      79.98358536      79.75771346      96.61998623
O      78.72691736      78.52561190      95.16678669
N      82.14732199      78.89410853      97.52894459
H      83.17533310      79.96369363      98.73081053
C      82.98825020      76.31463212      97.53839321
H      81.34229858      75.20536277      98.09019330
H      84.32428670      76.00660673      99.07474071
C      84.24302847      75.39622513      95.04962367
O      85.98913558      76.53761982      94.06696598
N      83.34351874      73.11721519      94.19168791
H      82.29094119      71.99849722      95.32552370
C      83.26603996      72.38589111      91.42323888
H      84.44711891      73.66901528      90.32719761
C      84.32428670      69.59476535      90.97915319
H      82.85596935      68.34754598      91.70669782
C      84.83829226      69.24516598      88.22015278
H      86.35385276      70.62466619      88.02740069
H      83.14509748      69.73838455      87.16001630
H      85.53560127      67.38000611      87.68913968
C      86.69400350      69.06942143      92.69691441
H      86.20267465      69.02028855      94.69624484
H      88.11507768      70.51884151      92.34164585
C      87.51792417      66.25183950      92.43235272
H      85.92866434      64.97249479      92.70825276
H      89.00702850      65.79641546      93.78161730
H      88.18499756      65.89657095      90.51617025
C      80.59585668      72.87533023      90.57286203
O      78.77793997      71.45803549      91.20214089
N      80.30294911      75.02772850      89.26706114
H      81.56150683      76.45069241      89.43713651
C      78.12031521      75.90645123      87.96503971
H      77.85197408      74.94080109      86.16413055
H      78.26960359      77.90011249      87.46237251
C      75.50871345      75.74771422      89.30863512
O      73.57930288      75.23370867      88.09165139
N      75.32352027      76.42045679      91.76905878
H      76.92222873      76.86643220      92.71203221
C      72.89711168      76.71714382      92.98982198
H      71.50060394      75.40378403      92.23582118
C      73.20513707      75.70425052      95.61276211
H      74.68479278      76.80974041      96.52738964
H      73.72859126      73.72003789      95.42378948
C      70.91100933      75.66267654      97.23981646
N      69.78851190      73.49705018      98.07507549
H      69.91134411      71.72637663      97.37209731
C      67.83075544      74.08853452      99.57929763
H      66.64589704      72.66368088     100.43723338
N      67.67957733      76.64722395      99.69646066
H      66.46826277      77.49193161     100.90588550
C      69.56930365      77.69791178      98.35097554
H      69.74315847      79.70102167      98.01271453
C      71.92012318      79.41567300      92.87643840
O      73.12387884      81.18634655      93.66445427
N      69.75638655      79.74448537      91.68402110
H      68.88900218      78.32719064      90.74482713
C      68.58475624      82.14443779      91.29662720
H      69.93402083      83.42945168      90.41790448
C      66.30574631      81.87798638      89.48815913
H      65.20403586      80.34352862      90.30830034
H      66.91612790      81.03894790      87.70992667
C      64.59554399      84.36486621      89.24438444
H      64.09854597      85.13209509      91.08875732
C      66.11299422      86.20734936      87.63055816
H      66.63833814      85.30594991      85.85610515
H      67.77028420      86.69489875      88.75683505
H      64.89601048      87.80416810      87.17135466
C      62.19370185      83.73558735      87.94614246
H      60.78207629      85.23603004      87.92913491
H      61.26395650      82.02916449      88.63400283
H      62.67180261      83.26126604      86.00161407
C      67.73437940      83.14977219      93.85720636
O      66.56652854      81.71546992      95.25938329
N      68.42790895      85.44201021      94.70191403
H      69.38788992      86.64198642      93.57185768
C      67.29407317      86.59096381      97.02816712
H      66.83864913      85.03382932      98.29428375
C      69.13466660      88.48635930      98.24704059
H      67.94980820      89.54271631      99.56040038
H      69.95291809      89.82806498      96.91478353
C      71.36265392      87.11252827      99.39221474
H      72.21869994      86.01081783      97.87665423
C      73.30151312      89.06272582     100.32196007
H      73.70213509      90.42710822      98.83096602
H      74.97203118      88.14809829     101.10430677
H      72.53617396      90.12286229     101.91499936
C      70.58408668      85.46279720     101.64287877
H      69.32741868      83.91889080     101.11753486
H      69.53150912      86.59285353     103.00726116
H      72.17334651      84.85808478     102.80506045
C      64.55019056      87.65110027      96.43290333
O      62.76250947      87.01804195      97.71224804
N      64.30641587      89.14965323      94.38444000
H      65.85221199      89.45200944      93.31107546
C      61.95370661      90.48191028      93.81941184
H      60.24728375      89.35563340      93.57941659
C      61.38300926      92.50202771      95.83763953