 %block lattice_cart
   140.777   0.000   0.000
   0.000 144.511   0.000
   0.000   0.000   162.462
 %endblock lattice_cart

 %block positions_abs
N      87.13053027      43.29733398      79.84961007
H      85.84740610      41.88948788      79.71354977
H      88.85585039      42.62837087      79.37717849
H      86.83384324      44.63148076      78.51735302
C      86.95478572      44.46140539      82.38373305
H      87.03604396      42.94206544      83.77268189
C      89.05238193      46.47963310      82.88451053
H      90.88352673      45.98641453      82.07948712
H      89.01269768      46.71962834      84.92919440
C      88.43822088      48.73407659      81.24233836
H      87.05116177      49.85468429      82.27601865
H      87.31761318      48.25597583      79.58126893
S      91.09139662      50.57655974      80.24078341
C      92.00224471      51.99574420      83.19253591
H      93.63496824      53.22973549      82.95254067
H      92.42176395      50.61624399      84.66274299
H      90.49235338      53.15225671      83.99000042
C      84.30160998      45.46296034      83.01112219
O      83.07139815      46.30955773      81.21021301
N      83.70067701      45.78988299      85.42997187
H      84.78349019      45.13603769      86.86049469
C      81.31584241      47.04844072      86.18208294
H      79.65288325      46.32089608      85.20509444
C      80.81695466      46.42672076      88.99210597
H      82.17944733      47.37158391      90.21097944
H      81.03994236      44.38392661      89.14328407
C      78.21669125      47.13158867      89.96531502
O      77.79339256      48.99107937      91.29946180
N      76.28161151      45.97129672      88.95998062
H      74.58085783      46.27932211      89.77256294
H      76.82396296      44.53888417      87.82425511
C      81.28560678      49.98696513      85.88350618
O      83.20556872      51.29843519      85.93641852
N      79.08407563      51.11324201      85.68319519
H      77.55906650      49.96617814      85.65484930
C      78.46424540      53.83633763      85.82870412
H      79.40343938      54.76419325      84.24889292
C      75.69957580      54.05932534      85.49989174
H      75.39721959      53.16737452      83.66685722
C      74.03283720      52.53620593      87.36505161
H      74.45235644      50.52175768      87.28757283
H      72.04862457      52.65336896      86.81892071
H      74.08197008      53.42059784      89.22454231
C      74.83408115      56.79564904      85.16918964
H      75.84319500      58.17703897      86.31814324
H      72.83853017      56.75029561      85.67752602
C      75.15722435      57.68382040      82.49144745
H      74.42023109      59.59055425      82.22499604
H      74.14622077      56.37235034      81.26690480
H      77.16411370      57.80287316      82.03791314
C      79.43178527      55.21772757      88.21353873
O      80.21224224      57.34177994      88.10204488
N      79.76248738      53.85523489      90.26011232
H      79.26926881      52.01086201      90.26767123
C      81.07017799      54.85490011      92.47676129
H      80.26137512      56.72383944      92.78856613
C      80.48436283      53.18816151      94.81246301
H      81.36875474      51.35134753      94.52900407
H      78.47747348      52.74974500      94.67073354
C      80.98703003      54.01964108      97.38438052
C      79.63020653      56.13991401      98.33491286
H      78.45479677      57.27374980      97.11037021
C      79.86075314      56.96761413     100.85580776
H      78.82518313      58.68726508     101.21674549
C      81.30450405      55.57488584     102.59246624
H      81.20812801      56.03219961     104.58045832
C      82.65943781      53.40548003     101.74208940
H      83.78193524      52.29810041     103.03655193
C      82.58006931      52.72139911      99.07946503
H      83.30761394      50.90726185      98.48042179
C      83.92555444      55.43693582      92.21975851
O      84.83640253      57.11879224      93.53689775
N      85.18033272      53.99507464      90.65506512
H      84.33751478      52.49652168      89.82547527
C      87.80327284      54.59033843      89.92941022
H      88.74246682      55.69015914      91.39583784
C      89.30938471      52.19416547      89.62327456
H      88.58184008      51.35890644      87.88661608
H      88.73868736      50.95261528      91.16340150
C      92.23657077      52.63258197      89.90106433
H      92.46900711      53.56799650      91.72087076
H      92.89608525      53.87224243      88.39306273
C      93.55748946      50.09467953      89.78957047
O      95.34895001      49.82255894      88.33259149
O      92.90553388      48.37691831      91.28434399
C      87.94689204      56.24195923      87.44630984
O      89.63441764      57.72350466      87.21387351
N      86.24424863      55.85645506      85.61894450
H      84.89687377      54.50908020      85.74366644
C      86.57684046      56.76730314      83.03379890
H      88.48546404      56.19849552      82.50467554
C      84.81183609      55.42937691      81.23100000
H      82.86541798      55.29898580      81.88484531
H      85.39387179      53.45272319      81.24422809
C      84.74191621      56.61990449      78.62695714
H      84.98947036      54.98718096      77.39485559
H      86.48802332      57.64413615      78.24901188
S      81.96401853      58.27152529      77.81248510
C      80.75081424      56.04920714      75.58260805
H      82.44022956      55.66559270      74.47144898
H      79.20501811      57.00351893      74.61128873
H      80.23869841      54.24640824      76.43865407
C      86.49558223      59.58866453      82.85616463
O      87.93177423      60.87934760      81.63351171
N      84.80238745      60.74139758      84.42841692
H      83.97657705      59.66236385      85.77012261
C      84.56617166      63.49661854      84.69864779
H      84.68711415      64.42258444      82.86372354
C      82.00559251      64.04652890      85.95153633
H      81.78827398      66.06097715      86.32570214
H      81.99803360      63.07143012      87.76756332
C      79.72469285      63.45693429      84.26212101
H      79.95712919      61.57665661      83.45142842
C      77.52694115      63.57031787      85.94208770
H      77.73292132      62.13979505      87.40851532
H      75.78839294      63.14890890      84.92163549
H      77.33796852      65.35610924      86.95120155
C      79.15021605      65.12934208      82.12106109
H      77.17356233      65.03485576      81.55225347
H      80.36908952      64.53596802      80.56770607
H      79.75681820      67.03418620      82.60861048
C      86.65998842      64.83454477      86.32948159
O      87.12297137      67.13812115      86.09704526
N      88.22090235      63.34733017      87.77890168
H      87.77870640      61.49161893      87.71654071
C      90.39597734      64.40368717      89.02234159
H      89.82905945      66.13467648      89.98232256
C      91.38997338      62.54986566      91.00277477
H      92.80915784      63.44181648      92.19708180
H      92.17609953      60.90580377      90.04279380
C      89.50024707      62.06609572      93.04367918
H      88.09240096      60.88312705      92.11582356
H      88.67443667      63.86700490      93.59736899
C      90.58117052      60.68470579      95.27922541
H      91.63941725      61.90168954      96.55857013
H      91.82083098      59.14835830      94.68585135
N      88.50814075      59.59811316      96.60392356
H      87.07761793      58.81765619      95.61181724
C      88.26436606      59.29386722      99.08891366
N      89.85929507      60.26518655     100.63282006
H      89.65709435      59.85511594     102.48664157
H      91.58272546      60.72439004      99.94873913
N      86.26125617      58.10522937      99.92984187
H      85.92866434      58.18081843     101.80822982
H      84.91010185      57.50618613      98.72041703
C      92.58805986      65.26162292      87.27812420
O      94.09228201      66.64112313      88.29101751
N      92.68254618      64.37534128      84.98399646
H      91.71878576      62.73694857      84.79880328
C      94.31337999      65.05375303      82.77112695
H      95.96122133      66.19514772      83.23788935
C      95.83083022      62.69726431      81.79413844
H      96.90986394      63.24717467      80.12928956
C      97.90574971      62.17381012      83.73677709
H      97.08182904      61.57098743      85.52634791
H      99.03202659      63.83676928      84.19409086
H      99.10761564      60.59399893      83.19064619
C      94.08094365      60.40880575      81.43131099
H      92.52947835      61.09099695      80.25968068
H      93.21922845      59.75307072      83.18497701
C      95.30926575      58.16192116      80.17275327
H      96.61128718      58.41136504      78.59483179
H      93.73134428      56.90147371      79.77213129
H      96.55837485      57.17548403      81.48044387
C      92.87907772      66.47482721      80.57904442
O      94.08850256      67.72771576      79.04269693
N      90.43944105      66.44459159      80.51857318
H      89.57583612      65.06698111      81.52012813
C      89.14308879      68.12644801      78.73089209
H      90.17676909      68.02440279      76.95454936
C      86.48424387      66.74316835      78.63073659
H      85.56205743      67.32142460      80.37684371
H      86.39731646      64.68903585      78.79325306
C      84.97813200      67.78629727      76.27235816
O      84.94789638      66.42002515      74.37885239
O      84.08240173      69.95759281      76.10606224
C      89.01269768      70.86844089      79.90441213
O      89.69866833      72.47848771      78.56459617
N      88.18877701      71.05174434      82.29869537
H      87.80705229      69.49272013      83.33237566
C      87.96578930      73.43468922      83.78590998
H      88.91632164      74.95591891      82.77301667
C      85.09529503      73.97515095      84.02212577
H      84.81939499      75.03339768      85.76823288
H      84.22980038      72.11377053      84.22243675
C      83.98035651      75.33764362      81.76201310
H      81.96779798      75.23370867      82.18909124
H      84.53971550      74.52128185      79.95543474
C      84.49625179      78.30073448      81.86405832
O      86.74313638      79.02449966      82.20609878
O      82.73124741      79.92400938      81.76957200
C      89.70433751      73.41012278      86.13295006
O      90.74557671      75.42268131      86.69041932
N      89.98968618      71.41268207      87.63528248
H      89.20167031      69.74216401      87.15907145
C      91.17454458      71.60165470      90.20342054
H      92.78459140      72.88288914      90.13161094
H      91.80571317      69.78184826      90.93285489
C      89.46056281      72.65234253      92.42762841
O      87.90531806      74.20947701      91.91173312
N      89.81394164      71.89645201      94.75010204
H      90.94966715      70.43380384      95.21686444
C      88.35507292      72.85454325      96.94974347
H      86.48991305      72.92068367      96.08046937
C      88.52514829      70.71915251      98.97553008
H      90.46022803      70.95347857      99.63882402
H      88.41176471      68.81052894      98.20830120
C      86.79415899      71.09898750     101.34902633
H      86.83384324      73.04540560     102.02365862
C      84.10507844      70.38845041     100.74620364
H      83.52871192      71.22748889      98.95663282
H      82.64432000      71.21426081     101.94051067
H      83.61563933      68.39289942     100.57990772
C      87.76925776      69.42280026     103.61669791
H      89.45867309      70.25616957     104.44817748
H      87.92232560      67.38567530     103.35402595
H      86.47857469      69.70247976     105.19650910
C      89.42465802      75.48504227      97.69051619
O      91.66020424      75.75149368      97.99665185
N      87.75225023      77.42201174      97.81523812
H      86.00614311      76.73982055      97.45241067
C      88.19633591      80.03928269      98.50687795
H      90.25046841      80.12998955      98.63348962
C      87.22501659      82.04806176      96.53778314
H      87.99035574      83.86408875      97.13493665
H      85.16899436      82.13876862      96.48298107
C      88.25680715      81.47358496      93.72776011
H      87.28926728      79.87298677      92.86415518
H      90.29582185      81.23736917      93.88271767
C      87.88642080      83.73180790      91.92874066
H      88.78970997      85.23980950      93.00210521
H      85.97401777      84.41210938      91.56591321
N      89.29804635      83.47858458      89.56658277
H      91.04604319      84.24581346      89.51367043
C      88.52892774      82.16333506      87.47276601
N      86.41054455      80.94257187      87.34237490
H      86.16299040      80.10920256      85.64162122
H      85.51292455      80.07140804      88.78423607
N      89.85551561      82.08585628      85.37894926
H      89.23190593      80.83674719      84.07692783
H      91.35784803      83.20646399      85.01234235
C      87.15887617      80.64021566     101.13926671
O      85.09340531      79.85219978     101.87437024
N      88.46467705      82.23703439     102.52821555
H      90.02181153      82.95135094     101.68917707
C      88.37585991      82.48269881     105.31367213
H      87.00958779      81.04650681     105.86736194
C      90.94777742      81.70413157     106.47585382
H      91.02147675      82.13876862     108.48841234
H      92.27814475      82.96268929     105.53288039
C      91.84350770      79.01127157     105.83901605
H      92.21389405      78.94702088     103.81322944
C      94.30960053      78.16656391     107.20528817
H      94.12629708      78.36498517     109.24808232
H      95.70421855      79.52905658     106.54199424
H      94.73667868      76.24849170     106.58923740
C      90.03503961      76.70958492     106.30577845
H      89.69110943      76.67179040     108.33912396
H      90.90053427      75.04284632     105.46296051
H      88.19066673      76.88910892     105.40626872
C      87.61241048      85.03004988     106.19428460
O      86.58628909      85.36264171     108.18038695
N      87.91476669      87.01993169     104.60124531
H      88.67632640      86.79694398     102.86647656
C      86.69400349      89.49358343     104.99808784
H      85.73402253      89.69767387     106.81033537
C      88.67065722      91.74424747     104.68628300
H      90.22401225      91.08851244     105.87492085
H      87.99413520      93.51492103     105.48941668
C      89.81205191      92.28092974     102.14271138
H      88.57806063      93.45256006     100.98052970
H      90.09929031      90.46490276     101.21485576
C      92.19310706      93.88152793     102.43939841
H      93.34206066      92.95556204     103.87748014
H      91.57138711      95.75802616     103.01387521
C      93.65008605      94.32183416     100.02243846
H      95.13163148      95.68243711     100.45896524
H      92.40475641      95.04370961      98.54656221
N      94.96533556      92.10140574      99.15127463
H      93.59906344      90.90520899      98.56734920
H      95.85350693      91.30016179     100.63848924
H      96.13696588      92.41699004      97.67728810
C      84.54538467      89.91877185     103.04600056
O      84.41877301      88.82462032     100.96541189
N      82.93722758      91.84062351     103.52410132
H      83.02604472      92.58895513     105.27587761
C      80.99458893      92.54549143     101.70429488
H      80.02137988      90.84473775     101.07501601
C      79.17289277      94.64119791     102.67750393
H      80.15366072      96.35140022     103.27276772
C      77.22080549      95.70322410     100.79911597
H      76.16822793      97.20177706     101.74208940
H      75.91122515      94.15742797     100.43817825
H      78.09196932      96.20400157      99.00009652
C      77.83874599      93.67365804     105.11903032
H      79.20879757      92.67021336     106.28688119
H      76.59908553      92.12597219     104.55967134
C      76.33263412      95.65031176     106.67805453
H      74.61676263      96.03203647     105.60280026
H      77.52505142      97.31894009     106.87836552
H      76.11909505      95.13063702     108.65848771
C      82.26070556      93.50925185      99.18151025
O      83.55894754      95.45566995      99.25709930
N      81.84118632      92.32628317      97.07068596
H      80.97569167      90.62363977      97.12170857
C      82.69156316      93.24091071      94.60270339
H      83.84618594      94.94355412      94.69718971
C      84.33940451      91.00725421      93.50666213
H      85.98157667      90.56694798      94.66884381
H      85.34095945      91.74802692      91.86260024
C      83.05439061      88.65265522      92.90194971
C      81.94512127      88.34840929      90.43396715
H      82.25881584      89.94900747      89.21131422
C      80.61664367      85.99381030      89.94452803
H      79.66611133      85.76515342      88.15306749
C      80.51081900      84.08329700      91.80968790
O      79.39021129      81.77216172      91.43363237
H      79.33351950      81.21469245      89.70831224
C      81.58229382      84.63131763      94.14727935
H      81.71835411      83.10630849      95.49465421
C      82.99769882      86.77048781      94.71041779
H      83.83106813      86.80450289      96.57179821
C      80.44278885      93.71145256      92.85470655
O      78.39243580      92.67021336      93.19863674
N      81.05317045      94.99835618      90.78545624
H      82.82762346      95.64275285      90.51333565
C      79.09541399      95.82416658      89.00155460
H      77.29261509      95.46133913      89.92941022
C      79.21635647      98.66631496      88.47432096
H      81.00781702      99.19543832      87.61071603
H      79.21257702      99.55448632      90.33192192
C      77.03561231      99.60550893      86.86994332
H      75.30840246      99.11040064      87.87905717
H      77.17545205      99.10851091      84.87628206
C      76.78805816     102.38907579      86.90395839
H      76.76349172     102.97300122      88.87872239
H      75.02116406     103.11473070      86.13483978
C      78.98580986     103.81959861      85.69831301
H      80.85852864     103.27724716      86.36160694
H      78.84785984     105.81325987      86.19342130
N      79.06706809     103.43409444      82.83537764
H      79.13887769     101.59539074      82.32893099
H      80.44278885     104.63973983      82.29113646
H      77.47024936     104.07471166      82.00578779
C      79.06895782      94.18388414      86.62805835
O      80.81317521      94.28592936      85.10304922
N      77.04695066      92.89131134      86.16318568
H      75.55406688      93.16721138      87.31969818
C      76.71246911      91.14331450      83.84638122
H      78.30739812      89.89231568      83.48544349
C      74.38432629      89.28382381      84.38117377
H      72.80262537      90.58773497      84.17708332
H      74.86431677      88.42399834      86.19153157
C      74.45991534      87.20701459      82.44420429
O      76.57829854      86.23191582      81.92263983
O      72.44546709      86.60986108      81.33682467
C      76.54806292      92.64375720      81.38217811
O      76.07941079      94.90009041      81.30847878
N      76.85797803      91.32472823      79.28647163
H      77.64788363      89.58618002      79.28647163
C      76.91844928      92.64186747      76.80904043
H      78.40566388      94.06483138      76.90352674
C      77.82362818      90.83717884      74.63207572
H      76.22302999      89.76003484      73.91208999
C      78.77793997      92.32250372      72.33038907
H      77.48347744      93.68877585      71.48946086
H      79.34107841      90.96945968      70.88474844
H      80.58829778      93.20689564      72.75368776
O      79.82295862      89.07217446      75.24434704
H      81.36308556      89.86208006      74.70388532
C      74.33708313      93.68688612      75.92464851
O      74.10464680      95.47456721      74.50735378
N      72.24515610      92.75525105      77.14541171
H      72.52861505      91.41543509      78.47577904
C      69.71670230      94.02703686      77.00179251
H      69.54473720      94.49757871      75.00435180
C      67.86288078      92.05794204      77.74445495
H      68.17657535      91.62141526      79.73433676
H      68.35609935      90.34585000      76.71077466
C      65.10199064      92.70611816      77.35517133
H      64.69380976      94.43899719      78.38885163
H      64.07964871      91.00914393      77.91642005
C      64.32909258      93.06327644      74.48656679
O      64.78073717      91.36441248      72.92565286
O      63.65823974      95.14575483      73.80248586
C      69.54473720      96.46478380      78.53436055
O      68.01972807      98.16931693      78.11862076
N      71.26249842      96.70099959      80.37873343
H      72.73837467      95.49157475      80.32582110
C      71.47225804      99.02536295      81.78468981
H      70.57463804     100.65619676      80.89840817
H      73.50371383      99.24079175      82.05492067
C      70.47448255      98.82883142      84.57014640
O      70.86754562     100.66186594      85.94208770
N      69.25371935      96.76525028      85.35249309
H      68.92301725      95.34417610      84.12417099
C      68.61310213      96.22667828      87.97732294
H      68.07641986      98.06727171      88.73321346
C      66.37377645      94.30104717      88.12472159
H      65.52339961      94.40876157      89.99744037
H      67.23738137      92.50013800      87.62394412
C      64.36877683      94.71678696      86.26334117
C      63.61666576      92.46990237      85.04257797
H      64.31019532      90.66710347      85.69831301
C      61.79307987      92.46423320      83.17930783
H      61.21293389      90.69733909      82.33460017
C      60.65924408      94.77536848      82.44231457
O      58.91880614      94.72434587      80.50912455
H      58.57298623      96.39486393      79.89118405
C      61.47560585      97.02036334      83.57237090
H      60.79719410      98.85150813      82.98466602
C      63.39556778      97.04115033      85.51123010
H      64.00783911      98.81938279      86.30302543
C      70.88266343      95.35740418      89.72531978
O      72.74404385      94.25947319      88.72754429
N      70.67101408      95.97534469      92.12905165
H      69.15167413      97.01847361      92.61849076
C      72.08263964      95.06638633      94.34381089
H      74.07441117      95.21567471      93.84114369
C      71.53272928      96.70288932      96.62093109
H      72.34720132      95.85440220      98.31223614
H      69.48048651      96.84839824      96.75132221
C      72.66089589      99.31260135      96.41495093
C      71.19824773     101.36295440      96.91383867
H      69.25182962     101.17398177      97.49965383
C      72.08830882     103.90463629      96.16739678
H      71.02817236     105.64129478      96.33180297
C      74.63754962     104.17675688      95.49654394
O      75.68445799     106.48411271      95.00143564
H      74.70557976     107.88062046      95.62126587
C      76.24192726     102.03380724      95.13560621
H      78.17133782     102.31537647      94.53845270
C      75.20257778      99.61684729      95.54189737
H      76.52538620      98.11073542      95.15828293
C      71.48926558      92.28281947      94.89750070
O      69.40867691      91.35685358      94.72742533
N      73.60197960      90.86174528      95.48331585
H      75.22714423      91.83117488      95.23387198
C      73.73237071      88.08573733      95.25087952
H      71.98815332      87.17677897      95.85748166
C      74.31440642      87.41677421      92.53723253
H      76.25893479      87.78149139      91.96086601
C      73.74559880      84.73336285      91.90039476
H      71.78784234      84.12865043      92.08558794
H      74.88699349      83.70913119      93.27800525
H      74.34086258      84.14376824      90.01822736
O      72.74404385      88.92477581      90.94986243
H      73.80229059      90.36474726      90.64561649
C      75.88476898      87.00292415      96.85714688
O      77.55528704      88.43344697      97.42973396
N      75.76382650      84.56517721      97.51666137
H      74.09519816      83.66566748      97.29367366
C      77.55150759      83.34063456      99.25520957
H      79.45446199      84.10030453      99.04922941
C      76.58018827      83.53527637     102.10113740
H      76.16633820      85.48358420     102.63970940
C      74.12921324      82.26160083     102.41483197
H      72.54751231      82.83607763     101.22430439
H      73.74748852      82.33907961     104.43872885
H      74.47503315      80.28305738     101.96318738
C      78.50015020      82.47136045     104.11558565
H      78.97258178      80.52116290     103.64882325
H      77.78772338      82.65655363     106.03743731
C      81.11364169      83.69023392     104.26676376
H      80.84530055      85.70090272     104.63148094
H      81.89976784      83.77149216     102.36380936
H      82.43456038      82.66411254     105.46485024
C      77.93323231      80.43423549      98.52388549
O      76.46680469      79.33819423      97.21241543
N      80.16688881      79.40055519      99.35536507
H      81.49158695      80.43612521     100.25676452
C      80.56562106      76.56974518      99.31379109
H      79.05384001      75.37165869     100.03566654
H      82.34007407      76.10676223     100.25487479
C      81.10608279      75.80251629      96.60770301
O      82.92399950      76.66801095      95.39827817
N      79.47146952      74.09231398      95.70630356
H      77.99181382      73.76539133      96.86470579
C      79.19745921      73.89200299      92.94919287
H      80.35964089      75.32630526      92.03645506
C      79.87209150      71.28984986      91.75488584
H      78.99336877      69.68169277      92.69596954
C      79.13509824      71.21426081      88.94864226
H      77.10553218      71.45425605      88.69919839
H      79.68311887      69.45114616      88.03023528
H      80.06484359      72.61832746      87.76189414
C      82.70101179      70.66435045      91.93818929
H      83.33218038      71.22370944      93.81846697
H      83.82728868      71.87188556      90.70608773
C      83.62697769      67.92424730      91.80023927
H      82.89376388      66.95292797      93.46130870
H      85.68488964      67.88834250      91.90984340
H      82.96935293      67.20237184      89.98610201
C      76.46869441      74.80285107      92.16495645
O      74.61865235      73.55752143      92.77722777
N      76.48759168      76.94958017      90.84214803
H      78.18834536      77.74515494      90.50955620
C      74.32952423      78.23459406      89.58170058
H      73.68890701      77.21603158      87.90929279
H      75.23848258      79.96936281      88.94486281
C      72.02594785      78.73915098      91.21253439
O      70.07197084      79.23803873      90.03901435
N      72.16578760      78.41411806      93.73720874
H      73.80229059      77.64499945      94.34381089
C      69.95291809      78.66356193      95.47575695
H      68.35987880      77.54673368      94.79923493
C      70.67101408      77.79239810      98.15538886
H      71.50627312      79.42890109      99.08702393
H      72.05240402      76.26927869      98.25365463
C      68.23893632      77.18579596      99.57646305
N      67.09187245      74.79718190      99.64071374
H      67.56997321      73.15878918      98.78466772
C      64.79963443      75.16378880     100.73675500
H      63.23872050      73.87877491     101.02021395
N      64.69380976      77.51460833     101.70618460
H      63.26706639      78.20246871     102.77576970
C      66.87644365      78.92623389     100.93895572
H      67.32619851      80.89343898     101.24320166
C      69.06663645      81.39043700      95.39638844
O      70.14567017      83.03827835      96.68518179
N      66.97848887      81.95546517      94.18885333
H      65.89378597      80.48336837      93.63705325
C      65.95425721      84.43289637      93.94507864
H      67.19202794      85.82373493      93.06446617
C      63.42202395      84.24014428      92.40684142
H      62.12756142      83.09874959      93.52933885
H      63.60343767      83.35575237      90.55301990
C      61.98394222      86.88198167      92.24432495
H      61.08065305      87.13898445      94.07735948
C      63.46170820      89.22146284      91.51111114
H      62.16913540      90.82206103      91.61504609
H      63.92091169      88.84162785      89.53823687
H      65.19269750      89.46901699      92.59581405
C      59.72193983      86.63253779      90.45664386
H      58.86778353      88.44289560      89.97476365
H      58.29519646      85.47791502      91.39583784
H      60.20948922      85.84641165      88.61605043
C      65.33631670      85.58373969      96.56423931
O      64.14767885      84.11920180      97.97964431
N      66.07897914      87.85330099      97.09525240
H      67.32619851      88.59785316      95.85748166
C      65.55552496      89.17421968      99.49520482
H      65.06608584      87.73046878     100.88415366
C      67.87988832      90.37419589     100.60069471
H      67.22415329      91.29260288     102.32412511
H      68.53184390      91.81605707      99.28166574
C      70.00772015      88.60919152     101.72130241
H      70.62566065      87.24102967     100.31345631
C      72.19035404      90.30805547     102.41105252
H      73.16545282      90.82584048     100.67250431
H      73.56796452      89.44067109     103.67527942
H      71.51761147      92.05416259     103.27087799
C      69.27450634      87.22969131     104.18739525
H      68.86632546      88.42777779     105.81255988
H      70.79573602      85.99947948     104.82990220
H      67.56430403      86.15254731     103.78299382
C      63.17258007      90.88442200      99.31190136
O      61.24694896      90.54427126     100.47597277
N      63.27273557      92.91398806      97.70563400
H      64.82798033      92.88564216      96.60014411
C      61.12033730      94.57694721      97.11792911
H      59.43092198      93.39964772      97.09147295
C      60.49672762      96.29092898      99.40449795