 %block lattice_cart
   140.777   0.000   0.000
   0.000 144.511   0.000
   0.000   0.000   162.462
 %endblock lattice_cart

 %block positions_abs
N      91.62902375      41.75248272      82.03224396
H      92.24507454      41.39721417      83.80291751
H      92.98962671      41.17989565      80.82470884
H      90.33078178      40.47313801      81.46532606
C      90.91470721      44.35274613      81.58059937
H      91.88602654      45.60563467      82.89773861
C      91.71973063      45.03115787      78.91419554
H      91.10367984      43.65543712      77.51012889
H      93.77764257      44.94423046      78.87451129
C      91.05832642      47.73535623      78.13373857
H      89.03442954      47.57095004      77.78413921
H      91.80476831      48.30416385      76.29881432
S      91.81232722      50.20144907      80.35983617
C      95.20627566      50.32806073      79.81937444
H      95.84878262      50.87986081      77.94287622
H      96.16625663      48.66510157      80.56392661
H      96.05854224      51.59417736      81.20454383
C      88.02153623      44.63053590      81.80547680
O      86.78565521      43.64409876      80.12928956
N      87.34501421      46.05727926      83.74811545
H      88.73018359      46.90576638      84.74589094
C      84.58223434      46.50325467      84.35660732
H      83.45784718      45.65665728      82.85238518
C      83.83768217      45.06328322      86.87939195
H      85.35702213      45.21257160      88.26267161
H      83.66382734      43.07529114      86.37294530
C      81.53977498      45.86452718      88.15306749
O      81.42450167      47.02103968      90.14861847
N      79.39871507      45.41666204      87.05513650
H      77.81134496      45.79082785      88.04535309
H      79.39682533      44.28093653      85.52256846
C      84.04177262      49.33973387      84.53802105
O      85.86535850      50.81561012      84.85738480
N      81.67961472      50.20711825      84.30936416
H      80.19240011      49.05627492      83.97110315
C      81.02765915      52.99068510      84.04291275
H      81.81000583      53.81649550      82.32515154
C      78.08535528      53.27414405      83.62717297
H      77.52788602      52.03259386      82.08326657
C      76.52066189      52.59951176      85.90996235
H      74.50432392      52.51447407      85.49422256
H      76.76821603      53.89019483      87.49355300
H      77.19718391      50.81561012      86.68475014
C      77.37292845      55.88574582      82.92797423
H      77.87181620      57.31815836      84.32070252
H      75.33580349      56.16731504      82.79569339
C      78.48030808      57.01391242      80.38629234
H      77.68851274      58.86017503      79.93275802
H      77.79244769      55.87818691      78.81215032
H      80.53822003      57.06682476      80.45621221
C      82.03677300      54.60451138      86.26334117
O      82.46952032      56.81738089      85.81925549
N      82.46763060      53.36485091      88.39873191
H      82.60180117      51.46189652      88.31558395
C      83.30477935      54.61584973      90.76088980
H      82.32779085      56.40542055      91.05946655
C      82.63959568      52.98312620      93.16084221
H      83.86602806      51.34851294      93.41973472
H      80.75175910      52.17810279      92.99265657
C      82.73408201      54.37774422      95.62126587
C      80.82545842      56.22400683      96.25054474
H      79.46485549      56.91753638      94.89939042
C      80.81789953      57.16698026      98.71096840
H      79.39682533      58.56537773      99.14560545
C      82.51109429      56.37140548     100.61203307
H      82.23519426      57.07627339     102.50742856
C      84.23263497      54.45333327      99.93173159
H      85.44583926      53.74657563     101.41327702
C      84.31767265      53.46311668      97.52988945
H      85.82945370      52.13463908      97.19540789
C      86.17149417      55.25079777      90.66829321
O      87.12202651      56.94210283      92.03456533
N      87.64359096      53.91854072      89.04501830
H      86.78187576      52.56927614      88.00755856
C      90.14936805      54.58183466      88.29668668
H      91.00919353      55.75346497      89.75744512
C      91.92949025      52.29715555      87.91496197
H      93.66614872      52.83194809      88.88439157
H      92.16759576      51.94944591      85.89862399
C      90.80132363      49.91610039      89.12816626
H      89.02498089      49.54949349      88.15117776
H      90.76919828      50.22223606      91.16340150
C      92.52475404      47.66921581      88.73132374
O      91.67248746      45.81539429      87.50867081
O      94.85478657      47.84307063      89.25099847
C      90.27597972      56.19377121      85.88728564
O      91.60067786      58.16286602      85.73988698
N      88.77364730      55.47567521      83.94275726
H      87.87980676      53.79003933      83.99944905
C      88.52231370      56.83627815      81.48044387
H      90.30810507      56.72100485      80.45621221
C      86.58156478      55.47000603      80.01212653
H      84.82411931      55.30371011      81.07415272
H      87.36391148      53.61807424      79.56615112
C      85.82945370      56.76446855      77.53280561
H      87.53209711      57.17264944      76.44621298
H      84.86191383      58.56348800      77.80492620
S      83.72429859      54.67254152      75.86228755
C      82.06700861      57.20477478      74.16720304
H      83.50509034      57.94176804      72.88974806
H      81.24308795      58.62395924      75.41442241
H      80.64404470      56.30337533      72.98234464
C      87.97240335      59.68220598      81.83193297
O      89.50875084      61.21477402      80.93620270
N      86.06944895      60.46644240      83.42119280
H      84.89592891      59.22678194      84.27345936
C      85.58567902      63.24434008      83.57426063
H      85.42883173      63.89251620      81.62406307
C      83.08179165      63.74700728      84.95187111
H      82.94195189      65.70476374      85.58114997
H      83.13470398      62.33727145      86.45231380
C      80.82167897      63.12717705      83.23977907
H      81.19773452      61.30926033      82.35160770
C      78.51999233      63.05914690      84.86683343
H      76.84758454      62.90229962      83.67819558
H      78.14771624      64.67675262      86.08759663
H      78.73353139      61.39240829      86.05736100
C      80.35302684      65.05847734      81.22911027
H      78.66361152      64.50856698      80.18976080
H      81.87425654      64.99611637      79.84016143
H      80.12059052      66.94064475      82.03035423
C      87.89681430      64.70131907      84.61927928
O      88.07444857      67.02001325      84.13550934
N      89.65425977      63.60716753      86.01389730
H      89.33300629      61.81192753      86.57514601
C      91.74051761      64.90540951      87.15718172
H      91.02620107      66.81214336      87.47465574
C      92.38113484      63.69787439      89.72154032
H      94.35211938      63.98511279      90.24688424
H      92.22428755      61.64374189      89.66862799
C      90.76919828      64.77501839      91.74165775
H      88.73774250      64.67675262      91.40717620
H      91.13391547      66.78190774      92.01188862
C      91.09990039      63.55992437      94.39861295
H      90.13991942      64.68620126      95.83291522
H      93.08978219      63.62984425      94.92395686
N      90.10968381      60.96155069      94.58947531
H      89.27631450      60.05070261      93.13249632
C      90.30243588      59.61984501      96.63037973
N      91.66492855      60.14518893      98.61081290
H      91.59122924      59.04914766     100.16983711
H      92.84222805      61.64752134      98.61459235
N      89.19883573      57.39185769      96.87037497
H      89.53520700      56.43754590      98.48987042
H      88.04799239      56.84005760      95.45119051
C      94.02330700      65.16430201      85.38461844
O      95.61067711      66.79135637      85.89673427
N      94.01007892      63.90007511      83.31914758
H      93.00474451      62.29002829      83.13017495
C      95.66925861      64.70320879      80.97021777
H      97.25851844      65.85783157      81.59004800
C      97.03364102      62.36372762      79.77780047
H      98.25251449      62.98733730      78.23956325
C      98.79675567      61.42831309      81.95287545
H     100.04964422      62.91552770      82.63506665
H     100.01373942      59.97700328      81.14407259
H      97.70260412      60.76312943      83.56670172
C      95.17604005      60.24345469      79.04080720
H      93.76252476      61.04658838      77.77469057
H      94.27842005      59.45165937      80.71699444
C      96.52719437      58.13640985      77.58004876
H      95.13068662      56.87974186      76.73723083
H      97.63268426      57.13674464      79.00112295
H      97.71583222      58.90363874      76.07960607
C      94.17070566      65.96176652      78.76868661
O      95.46705790      67.10127148      77.26068502
N      91.61957513      65.93720007      78.83482704
H      91.02431133      64.96399102      80.36361562
C      90.00763858      67.25622904      76.94888018
H      90.83911817      66.98599818      75.08372030
C      87.39792654      65.89940555      76.96021853
H      86.24330377      66.81025363      78.40585916
H      87.64926014      63.86417031      77.14730144
C      85.99952907      66.28679944      74.39963938
O      87.14470321      66.04491447      72.28881509
O      83.69973215      66.77623856      74.38641129
C      89.82811459      70.14184112      77.70477070
O      90.13613997      71.81235918      76.20999719
N      89.86968856      70.70308984      80.14062792
H      89.63536250      69.31036154      81.42186236
C      89.23851998      73.15595459      81.26123562
H      89.65992894      74.74899387      80.02724434
C      86.35101816      73.25799981      81.90941175
H      85.89748385      74.62238221      83.38150854
H      85.83134344      71.47598790      82.80325229
C      84.73908163      73.73610057      79.47166480
H      82.89470875      73.11816006      80.14440737
H      85.21907211      72.57013943      77.84272072
C      84.38759253      76.56502086      78.77057634
O      82.15960520      77.49665593      78.75734826
O      86.36991543      77.79334296      78.15641529
C      90.54621059      73.58114301      83.80291751
O      91.21517370      75.79401252      84.25834155
N      90.79187501      71.84637426      85.57926025
H      90.14936805      70.10026714      85.14840265
C      92.14302932      72.29801884      87.81291675
H      93.86079054      73.35248613      87.38961805
H      92.83277943      70.55002200      88.65762441
C      90.63502772      73.66051152      89.97098420
O      88.55443905      74.65450756      89.67240744
N      91.45138948      73.23154364      92.28211948
H      93.15403290      72.37171817      92.29156811
C      90.15125779      73.88160949      94.66884381
H      88.10090474      73.91373484      94.47987118
C      90.28920780      71.49677489      96.49242970
H      92.25830262      71.03001249      96.87982360
H      89.49363303      69.93586095      95.40772680
C      88.80577264      71.58559202      99.02466296
H      89.11946722      73.39406011      99.96007749
C      86.09212566      71.28323581      98.38782520
H      85.60079683      72.89517236      97.20296680
H      85.10001934      71.30024335     100.19251383
H      85.87858658      69.41429649      97.55067644
C      89.53142755      69.44075266     100.78021871
H      88.51286506      67.74755788     100.20196246
H      89.02120145      70.01711918     102.69073201
H      91.54398607      69.05146904     100.98241942
C      91.04320860      76.41195303      95.87637893
O      93.32032881      76.75777294      96.36392832
N      89.23096107      78.19774439      96.48676053
H      87.35824229      77.93129298      96.22030912
C      89.86590911      80.59580708      97.62437577
H      91.84823202      80.48242351      98.17617585
C      89.80921732      82.82757386      95.91606318
H      89.54276591      84.52454809      97.05178869
H      88.17649378      82.58568889      94.68207190
C      91.98996149      83.18662186      94.06791084
H      92.54176157      81.51421407      93.00399493
H      93.58866994      83.69117879      95.26599733
C      91.28698329      85.28988725      92.11582356
H      92.92159656      85.91160720      91.02734121
H      90.56510784      86.82812447      93.27989497
N      89.38213917      84.48675356      90.25066369
H      88.80388293      82.68773411      90.52278428
C      88.73585278      85.69050922      88.24944353
N      89.46906659      88.00164451      87.65606946
H      88.88892061      88.55911377      85.92696989
H      90.43471672      89.13925975      88.84848677
N      87.57556081      84.49242274      86.69230905
H      86.93872305      85.47885988      85.18619717
H      87.49052313      82.61214506      87.01356252
C      88.10468418      81.05879003      99.97330557
O      85.89181468      80.39738582     100.25298507
N      89.42749260      82.11325731     101.86870106
H      91.18493807      82.68962384     101.39815921
C      89.07033434      81.90916687     104.58234805
H      87.76831290      80.39549610     105.08879470
C      91.50241210      80.99075988     105.96940716
H      90.81077226      80.77533108     107.89881773
H      93.01230342      82.37592927     105.74264001
C      92.70805749      78.60025610     105.13792759
H      94.06299126      78.85347942     103.60535955
C      94.44471597      77.54200936     107.15237584
H      93.24473976      77.04879080     108.75297402
H      95.74295795      78.98576027     107.84212594
H      95.67303807      76.00944132     106.53065588
C      90.85990514      76.44407838     104.39904460
H      91.87846763      74.69419181     104.01543016
H      89.45772823      76.88249488     102.95718342
H      89.79032005      76.11148654     106.12814417
C      88.18783214      84.20518434     105.88625921
O      86.92738470      83.96329937     107.82889786
N      88.64703564      86.40104632     104.71084944
H      89.59378853      86.13081546     103.07812591
C      87.17115939      88.63470282     105.29477487
H      85.84835097      88.36825141     106.85001963
C      88.92293567      90.92127166     105.66516123
H      90.30999479      90.20317566     107.00875664
H      87.84579168      92.45194997     106.52876615
C      90.25708245      91.77353823     103.36347458
H      88.96073021      92.72218084     102.07657096
H      91.03187024      90.06711537     102.50742856
C      92.37168621      93.60468302     103.83590616
H      91.81232722      95.04843393     105.19272965
H      93.06521575      94.38513999     102.05767370
C      94.51652556      92.28943351     105.30422350
H      93.73984806      92.27431570     107.21095735
H      96.13980047      93.54988096     105.43461462
N      95.39146884      89.64192695     104.45573639
H      93.91181314      88.56667267     103.91527466
H      96.55554026      88.70840215     105.64815369
H      96.37790599      89.91593726     102.84379984
C      85.38725774      89.25642278     103.12536906
O      85.19072622      88.12447672     101.09013382
N      83.83201300      91.16882581     103.62614654
H      84.03421371      92.09668143     105.28154679
C      82.06322916      92.22329309     101.68161816
H      80.86703241      90.72662985     100.92383791
C      80.19806930      93.98640774     102.87592519
H      81.28655165      95.58700593     103.58268283
C      78.42172655      95.16937641     100.77077008
H      77.13671267      96.51486155     101.65516199
H      77.35025174      93.78987620      99.68039799
H      79.65760757      96.30888138      99.58024250
C      78.50676424      92.79965961     104.94706523
H      79.82201376      92.10235060     106.37002914
H      77.40127434      91.29543747     104.07590140
C      77.02332909      94.75741607     106.24341748
H      75.27722198      95.23362711     105.26264952
H      78.11937034      96.45439030     106.64781891
H      76.48475709      93.83145018     108.00275268
C      83.48808281      93.30610627      99.56701442
O      84.97907686      95.10890517      99.87315008
N      82.82856832      92.53320820      97.13115720
H      81.68528391      91.01008880      97.01021471
C      83.85279998      93.51019671      94.77466849
H      85.07923235      95.14292024      95.04867880
C      85.48930297      91.34834981      93.91295329
H      86.72140452      90.75119629      95.45119051
H      86.80455248      91.94928277      92.44652567
C      84.18917126      88.97107410      92.81124285
C      83.26698483      88.89926450      90.32436302
H      83.25753620      90.69639423      89.35871287
C      82.33912921      86.47096619      89.25855738
H      81.79488803      86.46151756      87.29135229
C      82.13125931      84.30911929      90.77600761
O      80.86892213      82.27388405      89.82169582
H      80.39649056      82.69529302      88.11905241
C      83.02509986      84.43384123      93.27422579
H      82.72274365      82.85403003      94.52900407
C      83.99830890      86.69584362      94.21153004
H      84.75986861      86.49553263      96.09558718
C      81.89126407      94.31144066      92.87549354
O      79.61225414      93.88058307      93.23643127
N      82.72274365      95.22606820      90.76088980
H      84.58412406      95.60590319      90.93285489
C      81.37725851      96.34667590      88.64439633
H      79.39871507      96.52997936      89.18296833
C      82.28810659      99.02063864      88.22865654
H      81.39237633      99.81432369      86.55246930
H      84.33090074      99.12835304      87.99055102
C      81.49442154     100.85934234      90.50955620
H      82.71329501     100.14880525      92.00999889
H      79.52343699     100.56643476      91.02734121
C      82.17094356     103.71660852      89.95019721
H      84.16460482     103.72605716      89.43430193
H      81.72118871     104.74839909      91.67740706
C      80.81600980     104.74084019      87.71276125
H      81.04277695     103.28008175      86.27845898
H      81.82701338     106.24128288      86.72821385
N      78.12314980     105.19248477      88.11338323
H      77.43528943     105.67625471      86.39940147
H      77.77921961     106.75528844      89.15651216
H      77.16316883     103.76196196      88.93730391
C      81.53599553      94.59300989      86.34648913
O      83.64681982      94.08656323      85.43753077
N      79.51020891      93.33445216      85.58681915
H      77.80378605      93.88625224      86.23877473
C      79.44595821      91.76031014      83.19631537
H      80.93884200      90.35057431      83.03757836
C      76.99309346      90.17482977      83.38717772
H      75.35281102      91.37669570      83.71599010
H      76.98364484      89.00130973      85.07848277
C      76.66995027      88.39470758      81.03635819
O      78.21574638      86.63915183      81.02690956
O      75.06179317      88.96351520      79.43764973
C      79.66327674      93.44972547      80.79447322
O      79.54800345      95.84211898      80.80014240
N      79.62548222      92.20628555      78.62506742
H      79.80689595      90.31466951      78.79136333
C      79.23997805      93.37035696      76.07771635
H      80.88970912      94.55521536      75.73756561
C      79.57823906      91.21795869      74.10295235
H      77.81701413      90.15782223      74.21633593
C      79.95240488      92.12691705      71.33828275
H      78.10992172      92.11368896      70.41609631
H      81.29411056      90.97418400      70.28192574
H      80.80467143      93.99774610      71.43843825
O      81.53032634      89.45106459      74.84939424
H      80.78577418      87.81834105      75.10828675
C      76.76443658      94.82733595      75.66953546
O      76.86270235      96.58667115      74.19365921
N      74.74242943      94.17349064      76.99045415
H      74.85014383      92.74107810      78.24712215
C      72.35003592      95.63991826      77.28525146
H      71.72075706      96.17282108      75.39930460
C      70.07669516      94.11490913      78.32082148
H      68.41184628      95.24874492      78.75167908
H      70.92329255      93.06800075      79.87984569
C      69.31513546      92.34045612      76.26290952
H      70.69652540      90.83245452      76.03803209
H      69.03167651      93.51397616      74.59617092
C      66.90762413      91.06111141      76.99612333
O      64.82892519      92.24974926      76.82793769
O      67.16273718      88.68194598      77.48934190
C      72.62593595      97.96806108      78.98789487
O      71.07447065      99.60267434      78.71955373
N      74.68573764      98.17971043      80.47888893
H      76.00665632      96.80965885      80.63195676
C      75.31312678     100.22439430      82.24389330
H      74.72542189     102.06120827      81.52012813
H      77.35592092     100.24329156      82.51223444
C      74.22086497      99.69905038      84.80825191
O      75.17517675     100.81209918      86.53924121
N      72.37649208      97.95105354      85.17674854
H      71.50154879      97.26319317      83.62528324
C      71.09714736      97.25374453      87.56536260
H      70.58503153      99.13969139      88.21920791
C      68.63483399      95.78353746      87.52567835
H      67.58792561      95.37535658      89.25099847
H      69.12994227      93.86735498      86.95687073
C      66.75644603      96.98351367      85.64540067
C      65.39773281      95.16559696      84.07314838
H      65.71898628      93.16437679      84.32259225
C      63.56091884      96.02731216      82.36672551
H      62.52534882      94.80465923      81.10249861
C      63.02045710      98.61056803      82.16074535
O      61.29324726      99.46472432      80.58282388
H      61.62016991     101.24295678      80.44487385
C      64.39617786     100.31699089      83.57804008
H      64.07114494     102.27663707      83.10938796
C      66.29724254      99.61968188      85.42052324
H      67.27423103     100.94438002      86.62427890
C      72.80545996      96.15203409      89.65162045
O      74.52133144      94.76119553      88.97131898
N      72.17429136      96.69438555      91.99488108
H      70.90250556      98.06632685      92.36715716
C      73.32135523      95.37157713      94.10381564
H      75.34903157      95.69849978      93.96019645
C      72.52200100      96.46572866      96.62849000
H      73.67473405      95.52464496      98.05334364
H      70.54345756      95.99896626      96.96297156
C      73.10781617      99.18693455      97.03478116
C      71.11415490     100.94249030      97.42595450
H      69.18663406     100.27541691      97.35603463
C      71.56579949     103.53519480      97.56012507
H      70.02945200     104.86745185      97.72264153
C      74.08291494     104.42336617      97.61492713
O      74.71030408     106.91213572      97.56768398
H      73.24576619     107.98172081      97.50721273
C      76.01799468     102.69615632      97.23320242
H      77.97764087     103.26307421      97.15950309
C      75.44729735     100.16392306      96.79856537
H      77.06301333      99.08299960      96.17306596
C      73.03978602      92.53509793      94.00366015
O      70.89683637      91.47496147      94.08869783
N      75.14872059      91.25386349      93.97909371
H      76.82301810      92.15337322      93.80712861
C      75.10903634      88.49297335      93.76366491
H      73.20419220      87.94117326      94.32113417
C      75.78933781      87.56700745      91.07269464
H      77.81701413      87.61614034      90.71742609
C      74.96163767      85.05178173      90.19586163
H      72.96230723      84.94784678      90.67963157
H      76.03311250      83.66850207      91.28056453
H      75.41517200      84.82690430      88.19842092
O      74.48731638      89.06745015      89.39083822
H      74.90683562      90.81922644      89.61571565
C      76.87593044      87.56322800      95.71953164
O      78.43117519      88.98619191      96.92328730
N      76.69829616      85.11036325      96.26944200
H      75.49265077      84.05211651      95.23576171
C      78.33668887      83.64015618      97.99476212
H      80.28310698      84.30345011      97.89271690
C      77.29355994      83.85747470     100.71596801
H      77.09324896      85.88893049     100.98430915
C      74.55723625      82.93150881     101.02399340
H      74.33991772      81.11359209     100.07535079
H      73.36859839      84.15605146      99.87126035
H      74.01110535      82.67450603     102.99308822
C      78.99998281      82.92772936     102.93639643
H      79.43839931      80.91706056     103.02332384
H      78.02299430      83.09591500     104.74297479
C      81.26765439      84.66249811     103.44095336
H      80.77632554      86.65993882     103.53166022
H      82.61502924      84.24675832     101.94051066
H      82.31078331      84.10880830     105.13225841
C      78.60503002      80.94162700      97.09336267
O      77.11025649      79.97786658      95.61937615
N      80.49286660      79.69062818      98.11759433
H      81.67583526      80.57124064      99.33079863
C      80.77254609      77.02044490      97.61492713
H      78.98864446      76.05290503      97.96263678
H      82.17472302      76.19274478      98.87726431
C      81.53599553      76.51021880      95.02411236
O      83.53343624      77.35681618      94.10948482
N      79.98641994      74.90017198      93.76933409
H      78.69951632      73.73610057      94.56112941
C      80.02799393      74.58458768      91.01978230
H      81.21852151      76.11904545      90.33003220
C      80.98986461      71.95975783      89.97854310
H      79.53099590      70.55758091      90.36026782
C      81.39237633      72.04668524      87.06458513
H      81.85157982      70.17963565      86.32003296
H      83.04021767      73.23721282      86.73199330
H      79.65949729      72.51533737      86.05358155
C      83.21596221      70.94119535      91.54890567
H      82.61502924      70.38372609      93.43863198
H      84.33090074      72.64194903      91.88527695
C      85.06978373      68.95698272      90.31491439
H      83.91138150      67.25622904      90.22231780
H      86.40770996      68.48455114      91.80779817
H      86.10913319      69.48421636      88.61605043
C      77.42584079      75.33291930      90.03901435
O      75.66272614      74.00255198      90.84403775
N      77.26899350      77.37949290      88.54802028
H      78.85069444      78.37159921      88.13983940
C      74.95218905      78.28278208      87.38961805
H      74.44385267      76.98642983      85.87405755
H      75.42840008      80.05723509      86.45609326
C      72.78278324      78.88749450      89.14706353
O      70.82313706      79.90983643      88.31936340
N      73.04356548      78.75710338      91.69252487
H      74.86148218      78.45474717      92.19330234
C      70.90439528      79.28433702      93.40083746
H      69.32836353      78.35081222      92.45597430
C      71.27478164      77.86326284      95.88393783
H      72.62971541      78.81946435      97.10470103
H      72.00799546      75.94708035      95.69496520
C      68.92396211      77.74798953      97.45619012
N      68.00555513      75.41228781      98.49364987
H      68.51389149      73.62838617      98.04011555
C      66.14984388      76.02077968     100.13960149
H      65.06892043      74.64316920     101.19028932
N      65.96465070      78.49254170     100.35880974
H      64.78924094      79.41472814     101.54555787
C      67.69941945      79.62259803      98.73742456
H      68.07169555      81.61059011      98.46152452
C      70.43196371      82.07546279      93.77122381
O      71.66784472      83.30000544      95.24332061
N      68.60837782      83.31323352      92.23298659
H      67.67485301      82.37403955      90.85726584
C      67.54635162      85.84735651      92.60148323
H      68.73121002      87.44228552      92.06291123
C      65.36560747      85.99664489      90.82703022
H      63.94264355      84.65871866      91.47898580
H      65.87961302      85.42216809      88.91651692
C      64.11271892      88.65926926      90.52467401
H      63.01100848      89.08445768      92.21030988
C      66.09882128      90.73607848      89.91429241
H      67.20809062      91.04032442      91.62449472
H      65.18419374      92.57667191      89.77256294
H      67.14950910      90.10490989      88.25889216
C      62.18519808      88.81989600      88.42329835
H      62.83148448      88.08290274      86.61294054
H      61.70520760      90.78710109      88.04913254
H      60.40318617      87.87125339      88.84092786
C      66.43141311      86.31411891      95.20741581
O      65.38828417      84.57368097      96.25810364
N      66.82447618      88.49108362      96.35825914
H      67.77311879      89.76664888      95.30379185
C      65.52812393      89.49074884      98.64293825
H      64.70609298      88.06400547      99.88070898
C      67.50477765      90.74930656     100.28700014
H      66.66951862      91.67338273     101.92728258
H      68.22287364      92.39336846      99.27410684
C      69.78189786      89.03721453     101.11092081
H      70.76455553      88.16038152      99.52733016
C      71.85492762      90.43750172     102.53010527
H      73.40639293      89.18461318     103.04789028
H      70.93085146      91.44472585     104.06834249
H      72.55223663      91.93227524     101.29989344
C      68.75766619      86.95473613     102.80411559
H      67.27234132      87.59724307     104.07968085
H      70.41495617      86.15727162     103.73008148
H      68.01878321      85.54122085     101.50209416
C      63.26234207      91.13859019      98.13460187
O      61.20443012      90.70206341      99.11725955
N      63.67808187      93.11146446      96.65872562
H      65.45631432      93.26453229      95.98787278
C      61.96032065      95.22039902      96.29022899
H      60.01201281      94.55332563      96.35825914
C      62.17763918      97.07422053      98.53522385