 %block lattice_cart
   140.777   0.000   0.000
   0.000 144.511   0.000
   0.000   0.000   162.462
 %endblock lattice_cart

 %block positions_abs
N      90.80793768      42.70490478      79.82693335
H      90.39219789      43.06962196      77.99956801
H      89.40387103      41.57673818      80.45621221
H      92.62018521      42.10586154      79.84016143
C      90.57361161      45.22390995      81.11005751
H      91.58272546      44.94989965      82.88451052
C      91.95878100      47.34607261      79.45276755
H      90.83250412      47.55772196      77.74067550
H      93.89764020      46.75647799      79.08049146
C      92.00980361      49.90665176      80.73967117
H      92.62963384      49.50414005      82.66341254
H      90.19188690      50.87797108      80.68486909
S      94.42865329      52.14219798      79.46221617
C      93.01891746      53.05304607      76.45755133
H      93.40820108      51.55449310      75.09694839
H      93.83716896      54.81049155      75.75835260
H      91.01391784      53.05871525      76.92998291
C      87.80894202      45.78704839      81.73177748
O      86.13842396      45.24469695      80.11039230
N      87.25714193      46.94734035      83.91252164
H      88.70089284      47.35930070      85.09171086
C      84.73057785      47.86763706      84.71565533
H      83.26981941      46.99080406      83.55725309
C      84.45467781      46.69600675      87.36883106
H      82.52526725      46.88497938      88.05858118
H      85.70567663      47.74858432      88.62171962
C      84.88742514      43.86897620      87.70709207
O      84.21846202      42.34018760      86.04980210
N      85.84362665      42.87309043      89.82925472
H      86.14787259      40.98903329      89.80846773
H      86.51070004      44.08629471      91.13883506
C      84.40743465      50.72868270      84.90462795
O      86.14598286      52.14597744      84.84415671
N      82.13976308      51.66976641      85.19942527
H      80.68089436      50.46790047      85.45453831
C      81.40843900      54.26625037      84.88762042
H      82.21724186      54.90875732      83.10560850
C      78.44156868      54.59317302      84.53802106
H      77.93134258      53.51602902      82.85805435
C      77.07718629      53.30626940      86.77167755
H      77.75937748      51.40142527      87.15340226
H      75.03817159      53.20800363      86.49577752
H      77.23403357      54.44199491      88.48376959
C      77.61197883      57.44099058      84.50589571
H      78.27149332      58.46144279      86.16885485
H      75.55784633      57.51657963      84.35093815
C      78.86675710      58.58049553      82.03791313
H      80.91899988      58.46522223      82.17397343
H      78.29794948      60.51368555      81.61272471
H      78.29794948      57.44288029      80.41841768
C      82.62920219      55.98968077      87.09860020
O      84.11074762      57.61862484      86.42774737
N      82.58195904      55.13363474      89.56658278
H      81.46135133      53.62752287      89.91051296
C      84.00492295      56.11629242      91.81157763
H      83.39076190      58.07971806      91.90039477
C      83.11864131      54.65364426      94.18129443
H      83.61185988      52.70911589      93.71642175
H      81.06072935      54.61018055      94.27200129
C      83.98035651      55.40008615      96.69652014
C      83.33595983      57.73200843      97.67161893
H      82.38353777      58.92631545      96.32046461
C      84.03326884      58.28947768     100.11125560
H      83.55327836      60.16030673     100.76888035
C      85.32773137      56.56226784     101.65138255
H      85.62630813      57.07060422     103.60535954
C      85.94189242      54.20199967     100.71218856
H      86.61463499      52.65431383     101.85736271
C      85.40143069      53.67098658      98.13649161
H      85.48079920      51.75669382      97.43540314
C      86.94911654      55.85173074      91.56780294
O      88.31538867      56.42431781      93.35359431
N      87.99980437      55.23567997      89.30202108
H      86.88864530      54.43065655      87.97543321
C      90.77959178      55.23567997      88.67274222
H      91.94744264      56.41864863      89.88972598
C      91.69421932      52.62785765      88.94486281
H      93.59528399      52.52959189      88.15495721
H      90.21456361      51.56583147      87.98299212
C      91.72256521      51.72078903      91.74354748
H      89.83283890      50.99702385      92.12905165
H      92.37641052      53.17020910      93.05312781
C      93.49701822      49.39831539      92.19708180
O      92.50869136      47.25725547      91.76622419
O      95.69099047      49.54571404      93.01533329
C      91.34839940      56.25991163      86.01011784
O      93.29481750      57.36540152      85.58681916
N      89.54182105      56.08983625      84.21865730
H      88.03948863      54.92576485      84.41329912
C      89.66276353      57.32760699      81.74311583
H      91.50146723      56.84005760      80.94754106
C      87.55004951      56.37329521      79.95732446
H      85.87008282      56.80226307      81.07037327
H      87.80516256      54.36451614      79.57559975
C      87.44044539      57.71878034      77.37784806
H      88.93710863      56.86273431      76.24779171
H      87.61052075      59.77102312      77.41186312
S      84.43578055      57.19532616      75.84905946
C      84.73435731      58.82804968      72.88974805
H      83.06194952      58.75435035      71.68977184
H      86.34062467      58.26491124      71.72945610
H      85.23324505      60.79525478      73.24123715
C      89.74591149      60.25479305      82.09082548
O      91.34461995      61.58516038      81.11761642
N      87.87130299      61.29225279      83.44009006
H      86.49180278      60.15841701      84.11661208
C      87.68799953      64.06448129      83.91630109
H      87.58217486      64.88840197      82.03224396
C      85.32962109      64.57659712      85.57548080
H      85.65654375      66.03924530      86.99088580
H      84.76837238      63.03269074      86.81892072
C      82.82951318      65.18130954      84.20542923
H      82.71235015      63.84716278      82.64262555
C      80.61853340      64.93753485      85.84949111
H      80.66577655      63.12528733      86.82458990
H      78.88754409      64.67675262      84.76289848
H      80.21035251      66.63072963      86.94931182
C      82.96179402      67.77212432      82.93553314
H      83.22635571      69.25178003      84.34526897
H      81.17789238      68.13117232      81.97366245
H      84.38097849      67.67952773      81.44453907
C      90.17298963      65.16619173      85.17674854
O      90.61140614      67.45465031      85.00856290
N      91.85673578      63.66763878      86.50711587
H      91.47690079      61.82515561      86.18775213
C      94.13952517      64.54825123      87.84315238
H      93.67654222      66.10727544      89.10359983
C      95.11651367      62.44876530      89.58736976
H      96.84183379      63.15552295      90.46609249
H      95.55681990      60.77257807      88.47243124
C      93.20789009      61.82704535      91.65473035
H      91.59595355      60.89729999      90.77222815
H      92.56349342      63.53535793      92.60715240
C      94.33794643      60.04881289      93.59547926
H      95.91964735      61.03336029      94.47231227
H      95.42831851      58.52947292      92.73376407
N      92.39152833      59.06237574      95.21308500
H      91.14052951      57.71689061      94.69718971
C      92.16476117      59.42142374      97.73020044
N      93.38174491      61.09194181      99.04922940
H      92.82616538      61.35083432     100.85769749
H      94.33983615      62.49978791      98.18751421
N      90.41298488      58.12507150      98.82057253
H      90.10306976      58.65797432     100.62715088
H      89.41142993      56.83627816      97.83035594
C      96.09917135      65.69720483      86.05358155
O      96.84750297      67.81558802      86.70742685
N      96.45066045      64.65218619      83.85960930
H      95.50579729      63.07048525      83.36639073
C      98.12684769      65.47043767      81.78091036
H      99.63673901      66.62883990      82.56892623
C      99.36272869      63.17819966      80.50345538
H     100.25090006      63.69976411      78.72144346
C     101.29402899      61.84027342      82.15885563
H     102.35605517      60.31715401      81.26123562
H     100.49656448      61.09383153      83.90307302
H     102.69809564      63.30103186      82.52168307
C      97.38796470      61.05225755      79.76079293
H      95.88752201      61.92531111      78.65152358
H      96.39207893      60.50423693      81.47855415
C      98.36873265      58.77891680      78.19987899
H      96.79081118      57.50335153      77.84083100
H      99.94098495      57.83594337      79.14285243
H      99.01123960      59.55748404      76.40463900
C      96.58483101      67.04457969      79.84394090
O      97.69787981      68.39951346      78.48144822
N      94.06393611      66.72521595      79.79102855
H      93.24568462      65.39106916      80.88706982
C      92.43499203      68.11416478      78.24712215
H      93.46300315      68.21809973      76.46699996
C      89.83283890      66.79702554      78.00334747
H      88.61207570      67.37150234      79.56048194
H      89.76291902      64.73911359      78.02602418
C      88.38530854      67.84582365      75.58260805
O      89.49268816      67.84771337      73.49635020
O      86.05716573      68.25211480      75.66575601
C      91.96067073      70.86749602      78.97277705
O      91.83216934      72.53801409      77.33438435
N      91.75847001      71.40606802      81.43698018
H      91.68855014      69.95664795      82.67664063
C      91.45233435      73.96097799      82.52735225
H      92.14019473      75.49354603      81.33493495
C      88.57617090      74.44096848      83.00734273
H      88.34562429      75.37260355      84.82903891
H      87.67477145      72.63061067      83.39095717
C      87.10785356      75.94519062      81.00234312
H      85.11986147      75.48409740      81.28202262
H      87.70500707      75.31969121      79.13340379
C      87.26281111      78.93095820      81.14407259
O      89.20544976      79.90416725      80.17464299
O      85.61308004      80.15550085      82.16641452
C      93.04915308      74.33514381      85.01990127
O      94.41164575      76.21542150      85.39217734
N      92.78459140      72.43029968      86.72632412
H      92.17798925      70.78245834      85.97988222
C      94.04692858      72.50588873      89.16596080
H      95.77791788      73.62271698      89.16974024
H      94.55337523      70.59159598      89.73476841
C      92.33483654      73.77200536      91.25788782
O      90.90053427      75.55590700      90.78167679
N      92.75057633      73.01044566      93.59358955
H      93.80126416      71.43819337      93.85248205
C      91.40887064      74.05546431      95.74409809
H      89.37174568      74.12538419      95.46441859
C      91.80004399      72.12416402      97.90405526
H      93.75969018      71.91818385      98.50309850
H      91.42020900      70.17963564      97.34091682
C      90.24290951      72.38872570     100.30589740
H      90.33361637      74.33325408     100.98052970
C      87.50658581      71.47976735      99.95818776
H      86.57306101      71.74999821     101.77610447
H      87.63508720      69.43130402      99.77677404
H      86.43322126      72.37360789      98.44640671
C      91.53359258      71.08670427     102.45451622
H      93.50457712      71.67629888     102.55467171
H      91.62429944      69.07792520     102.01043054
H      90.28448349      71.12260907     104.09101922
C      92.31782900      76.75777294      96.50565780
O      94.60439784      77.30390384      96.52455505
N      90.68132601      78.43396018      97.29745311
H      88.86151957      77.85381420      97.24076132
C      91.23312610      81.12115099      97.75098743
H      93.28536887      81.30067499      97.78500250
C      90.06527523      82.76143344      95.70063439
H      90.25046841      84.74186661      96.23164748
H      88.07161397      82.39293680      95.33024803
C      91.72823439      82.68395467      93.20997510
H      91.95878100      80.71485984      92.64872639
H      93.53292302      83.58913356      93.61815599
C      90.48668420      84.02566034      90.89128091
H      90.77770205      86.04766749      91.15962205
H      88.54782501      83.33024106      90.85915556
N      91.84350770      83.22252665      88.57069700
H      93.66898331      83.75542947      88.41196000
C      90.96289523      82.37592927      86.38050420
N      88.66876749      81.67106135      86.29546652
H      87.70122762      81.66350245      84.64762518
H      87.67099200      81.04934139      87.79779894
N      92.18743788      82.41372379      84.29235664
H      91.37485557      81.77877575      82.68797899
H      94.02614159      82.89182455      84.49455735
C      90.33172665      81.86948261     100.23975698
O      88.28515305      80.87170713     101.00698587
N      91.76980837      83.21685748     101.69106679
H      93.34017094      83.91038703     100.85580776
C      91.61485081      83.42094792     104.41416241
H      90.09740058      82.33813474     105.29099542
C      94.19621696      82.48175394     105.49697559
H      94.23212176      82.55923273     107.55488754
H      95.67587266      83.76298838     104.85824809
C      94.96155611      79.74165079     104.55211243
H      95.22233834      79.42039731     102.53577445
C      97.34072154      78.85536914     105.95995853
H      97.13852082      78.32435605     107.94039172
H      98.80903889      80.27266389     105.66516123
H      98.08905316      77.11871066     105.15115567
C      92.85640100      77.83113748     105.25698035
H      91.38241448      77.88782928     103.82078834
H      91.95311182      78.38293757     107.02576417
H      93.73890319      75.97920570     105.43272489
C      91.41265010      86.10624901     105.53099067
O      90.62274450      86.57868059     107.65504303
N      91.93988374      87.96573970     103.93039247
H      92.53514753      87.49141840     102.18050591
C      91.00068976      90.49608324     104.24219731
H      90.20700471      90.94016892     106.08845992
C      93.35339902      92.22518281     103.47307870
H      92.65986946      94.16026255     103.58268283
H      94.29259300      91.73007452     101.70618461
C      95.42831851      91.89826016     105.37981256
H      96.11806862      89.96129069     105.26453926
H      94.95588693      92.07400470     107.37536354
C      97.32182428      93.97128992     104.93572688
H      96.47333716      95.83267034     105.17761185
H      98.16086276      93.65570563     103.08001563
C      99.34761088      93.74263304     107.02954363
H     100.25090006      91.93794441     106.60624493
H      98.35739430      93.61602138     108.83045280
N     101.15040979      95.86290596     106.94639567
H     100.36428364      97.56743910     106.60624493
H     102.44109286      95.59456483     105.56689547
H     102.18597981      96.08022449     108.53376577
C      88.86340930      91.05733195     102.37325800
O      88.56672227      89.61736050     100.56290019
N      87.10785356      92.83745414     102.92505807
H      87.18533233      93.70294879     104.62392203
C      85.09340531      93.43460765     101.14304617
H      84.01815103      91.69605944     100.88982284
C      83.19045091      95.45283535     102.15404974
H      84.14665242      97.26319316     102.39026553
C      80.77349095      95.65692579     100.31156658
H      79.43934418      96.98540339     101.15060506
H      79.95334973      93.76719948     100.31912549
H      81.47457942      96.15203409      98.44073753
C      82.47991381      94.74985716     104.88092482
H      84.09940926      94.19805709     106.02798868
H      81.37064447      93.02264732     104.71273917
C      80.83774165      96.90603489     106.26231474
H      81.96023908      98.62946528     106.38703668
H      80.39554569      96.24274096     108.15959996
H      79.14265715      96.94571914     105.09257415
C      86.21212328      94.35112491      98.50876768
O      87.83728791      95.94794365      98.48609097
N      85.28426766      93.31555489      96.42250983
H      84.27326409      91.69983889      96.51888587
C      86.02126093      94.27553586      93.84114369
H      86.97746244      96.08589367      94.06980058
C      87.84862627      92.37825064      92.75644078
H      89.38686349      92.03809990      94.08302865
H      88.30594004      93.37791586      91.01411312
C      86.67132678      89.97451877      91.69630432
C      85.87008282      89.91782698      89.16029161
H      86.16299040      91.52787380      87.93952841
C      84.42255246      87.88448148      88.27589969
H      83.81217087      87.85991504      86.33137132
C      83.99736404      85.82656951      89.84059308
O      82.77660085      83.77999592      88.88439157
H      82.91266114      83.72330413      87.07592349
C      84.76270320      85.73397292      92.33125236
H      84.27515381      84.19006653      93.57091282
C      86.05905545      87.93550408      93.35170457
H      86.50125141      87.89959928      95.34347610
C      83.59107289      94.97473460      92.29534757
O      81.55583765      95.15992777      93.35926348
N      84.00681268      95.72117649      89.87271843
H      85.84740610      95.78353746      89.37194096
C      81.98858497      96.08022449      88.03023527
H      80.22169087      95.98762790      89.08659228
C      82.09251992      98.78253313      86.84537687
H      81.16844375      98.72773105      85.00478345
H      84.02004076      99.32299484      86.36349667
C      81.10419306     100.84422453      88.54802028
H      82.36275078     101.25240541      90.12783149
H      79.19179003     100.62123682      89.27556492
C      81.17411293     103.01740978      86.63750699
H      79.59241201     103.02496869      85.31658830
H      82.99958855     102.85300359      85.69831301
C      81.27426843     105.48161290      88.06425035
H      82.89943306     105.57043004      89.32658752
H      79.59808119     105.39090604      89.25477792
N      81.10986224     107.81542489      86.31814323
H      82.74069605     108.23494413      85.42052324
H      80.57506969     109.32342649      87.35371326
H      79.76626683     107.60944472      84.97832728
C      82.04338704      94.10357077      85.79657878
O      83.94634143      93.91081868      84.47754980
N      79.96657782      92.75619590      85.46020749
H      78.39999470      93.27020146      86.42585763
C      79.58485310      91.09701620      83.29836059
H      81.25159171      89.91593725      83.04891672
C      77.27560755      89.48507967      83.80102779
H      75.76193677      90.63403325      84.59471285
H      77.52694115      87.97707807      85.18052799
C      76.32696494      88.24352947      81.51445895
O      74.36920848      89.11469330      80.41841768
O      77.65733226      86.66938745      80.45054303
C      79.43934418      92.73540891      80.96454859
O      79.37320376      95.10134626      81.02501983
N      79.64910380      91.44661557      78.64774413
H      79.60186064      89.54366117      78.78569416
C      79.72091340      92.70139384      76.18543074
H      81.17222321      94.14703447      76.41786708
C      80.56184161      90.93072030      74.02169412
H      80.47302447      91.85857590      72.18299041
C      83.23958379      90.05955645      74.53003049
H      83.29060640      88.72729940      76.10228279
H      84.54160522      91.63936766      74.76813601
H      84.07295310      89.06745014      72.92943231
O      79.08785508      88.68383570      73.78547833
H      77.62520692      88.99375081      72.75557749
C      77.10931163      93.78231729      75.43520940
O      77.10931163      95.37346685      73.69099201
N      75.04006132      93.03776512      76.65786232
H      75.22525450      91.46362311      77.71799878
C      72.75916166      94.66859893      76.74667946
H      72.49271025      95.55677031      74.90608604
C      70.67101408      92.58989999      77.06793294
H      70.14189072      92.36313284      79.04647638
H      71.22281417      90.67749696      76.53503011
C      68.37121716      93.38358504      75.49001146
H      68.04996369      95.38291548      75.86795672
H      66.83297994      92.20628555      76.19109993
C      68.85687682      92.93760964      72.66676035
O      68.11988356      90.89670521      71.76914036
O      69.93024137      94.59112015      71.22300945
C      72.73081577      96.67737800      78.95199007
O      70.63132983      97.42193017      79.71354978
N      74.86431677      97.58255691      79.80803609
H      76.44979715      96.55265608      79.54158469
C      74.97770035      99.75952162      81.42375209
H      73.67756865     101.28264103      80.93809242
H      76.87498557     100.56076558      81.39351647
C      74.32763450      99.31921540      84.21109839
O      75.49359564     100.43793338      85.75311507
N      72.71758768      97.45216579      84.82336972
H      72.09775745      96.38636015      83.36828046
C      71.77083480      97.14414041      87.48599409
H      71.37966145      99.06032288      88.13039077
C      69.28773442      95.70227923      87.41607423
H      68.59987405      95.50385796      89.34737451
H      69.76016600      93.78420703      86.83592824
C      67.22415329      96.97406503      85.69075410
C      66.15834765      95.42826891      83.87283738
H      66.83675940      93.58767548      83.31158867
C      64.19870146      96.35234508      82.31948236
H      63.40312668      95.24874491      80.79825268
C      63.18391843      98.84867354      82.63128720
O      61.41135515      99.90692027      81.01935065
H      61.16947018     101.61712259      81.57493019
C      64.28751860     100.31510117      84.63061765
H      63.42202395     102.14624595      84.88762042
C      66.44747578      99.43448869      85.91752126
H      67.20147657     100.55320667      87.45008930
C      73.89110772      96.26541767      89.21698340
O      75.67500936      94.80843868      88.58014563
N      73.54150835      96.90414516      91.67740706
H      71.98815332      97.87546449      92.21030989
C      75.24037231      96.28242520      93.66350941
H      77.21135685      96.53753826      93.12304769
C      75.09675311      97.98317889      95.92740154
H      76.60097525      97.25563425      97.13304693
H      73.38088162      97.41437126      96.91572840
C      75.37643260     100.87068069      95.40205762
C      73.34497682     102.45994052      96.03889539
H      71.57052381     101.58877669      96.53967287
C      73.55662616     105.14335189      95.92929127
H      71.88232865     106.28663631      96.14849951
C      75.85453336     106.16380409      95.09781168
O      76.13799231     108.65446337      94.86159589
H      74.69424140     109.64467996      95.33024803
C      77.96157820     104.65391277      94.41373076
H      79.72280312     105.58743757      93.97531426
C      77.70079597     101.97239113      94.66317464
H      79.29383525     100.76674574      94.25499376
C      75.02494351      93.47618163      94.58380614
O      72.97081101      92.55588491      95.10726032
N      77.23781302      92.42549381      95.01844318
H      78.78171942      93.54232205      94.88616235
C      77.43623429      89.70806736      94.82191165
H      75.55973606      88.87091860      94.97497947
C      78.23747824      88.96540493      92.06858040
H      80.16310935      89.38870361      91.47331662
C      77.88220969      86.16672026      91.41284538
H      75.99626283      85.54877975      91.96464547
H      79.19556948      84.83635293      92.27645030
H      78.13354329      86.09869010      89.37005123
O      76.50081976      90.17482976      90.44152605
H      76.48570195      91.95684167      90.79490488
C      79.45257226      88.62147473      96.60581328
O      81.23269445      89.98018795      97.39004970
N      79.05572974      86.34057507      97.52611000
H      77.33040961      85.58279482      97.22186406
C      80.95679441      84.84391184      98.83002115
H      82.56684122      85.78688526      97.95507788
C      80.97569167      85.52610303     101.65705173
H      80.41066350      87.45929305     102.07657097
C      79.21446675      83.83857743     103.28977525
H      79.82673807      81.87704152     103.43906363
H      77.30206372      83.69495824     102.53766418
H      78.66266666      84.84202210     105.00375702
C      83.64587495      85.28232834     102.77765942
H      85.02537516      86.21774286     101.56634485
H      84.08618118      83.30000543     103.11592043
C      84.16743941      86.50876071     105.46107079
H      83.57028590      85.30122560     107.01820527
H      83.55705781      88.47596581     105.37603311
H      86.19889520      86.79410939     105.63870506
C      81.12309032      81.97908674      98.14782995
O      79.73981066      81.30256472      96.36770777
N      82.69345289      80.50321049      99.31379109
H      83.97846678      81.07390784     100.60447416
C      82.73691659      77.82168885      98.82435197
H      80.81695466      77.23965315      99.29111437
H      83.95390034      76.75588321     100.10180696
C      83.36052628      77.30201412      96.11826389
O      85.31261356      78.19585466      95.21308500
N      81.74858973      75.92251391      94.74443286
H      80.25759567      75.33102957      95.77811316
C      81.67300068      75.89038856      91.95708656
H      83.07706733      77.28689631      91.39205838
C      82.63109192      73.22020528      91.01978230
H      81.28182733      71.70464478      91.38072003
C      83.13942830      73.54712793      88.21164900
H      84.14098324      71.84259480      87.63150303
H      84.12397571      75.32158094      87.86771882
H      81.37442392      73.58114301      87.14584337
C      85.06883886      72.44541750      92.37093661
H      84.31483806      71.94464002      94.22097867
H      86.35385276      74.02900814      92.66573392
C      86.44455962      70.14562057      91.44308100
H      87.21934741      70.66340558      89.60626702
H      85.15198682      68.54313265      91.42985291
H      88.05082699      69.86594107      92.69974899
C      79.07462700      76.69541197      91.09915082
O      77.22080549      75.44252342      91.47331662
N      78.94423588      79.06512877      90.06169106
H      80.51459845      80.14983168      90.09192669
C      76.64821841      80.34069403      89.34548480
H      75.65800182      79.47330965      87.76000441
H      77.11309109      82.20963335      88.61416071
C      74.63943934      80.74131601      91.40528647
O      72.49459998      81.14193798      90.52467402
N      75.05328940      80.56935092      93.86948958
H      76.83908077      80.63360161      94.53845270
C      73.14088638      81.02099551      95.83858440
H      71.46658886      79.98164603      95.23387198
C      74.00260157      79.95707959      98.48798070
H      75.45013193      81.07390784      99.43662330
H      74.91911884      78.12971424      98.23475736
C      71.83886495      79.44496375     100.19818301
N      70.39700377      77.35114701     100.51187757
H      70.57652777      75.70330565      99.56701442
C      68.49404937      77.88782928     102.09168877
H      67.09565190      76.50454962     102.63215050
N      68.69813981      80.22353100     102.83435121
H      67.67012870      81.06445920     104.20629252
C      70.67479354      81.27799828     101.73453050
H      71.13399703      83.26221091     101.60413938
C      72.41145202      83.84235689      95.87448921
O      73.99882212      85.26343107      96.56045985
N      70.07197084      84.44895904      95.21875418
H      68.97970903      83.10914308      94.40806158
C      69.04395973      86.90938269      95.41906516
H      70.33275307      88.19628631      94.45719447
C      66.52873401      86.93961831      93.83358478
H      65.58009140      85.27476943      94.58758558
H      66.96715051      86.45395865      91.87960777
C      64.93191527      89.31311456      93.70319367
H      64.32342340      89.77609751      95.61748642
C      66.30196685      91.67338273      92.83580930
H      66.82542104      91.70928754      90.84403776
H      68.03484588      92.05132799      93.88271767
H      64.91868719      93.17760488      93.09281207
C      62.46960189      88.67249734      92.31613455
H      62.98549717      87.97707807      90.44719523
H      61.40757570      90.42238391      92.08369821
H      61.30553048      87.30055604      93.31768951
C      68.22192878      87.76731845      98.21586011
O      66.55141072      86.82056556      99.45741030
N      69.48804541      89.88192218      99.01332460
H      70.70502916      90.62836407      97.74531826
C      69.03829055      90.84568260     101.48319690
H      68.49215965      89.45862349     102.90427108
C      71.46091968      92.10613005     102.61514297
H      70.81274356      93.52342479     103.96251782
H      72.43223901      92.91871237     100.98997834
C      73.03506170      90.11435853     104.03621714
H      72.81207400      88.26431646     103.16316360
C      75.95846831      90.78521136     104.07212194
H      76.67467458      90.47529624     102.16727782
H      77.04128149      89.37736526     105.11336114
H      76.11909504      92.68438630     104.85635836
C      72.06185265      89.90648862     106.61380384
H      72.29050953      91.71495670     107.57567454
H      73.39410970      88.53832678     107.38481217
H      70.09275783      89.34523991     106.38892640
C      66.79140596      92.64470205     101.52477088
O      65.11710845      92.46139860     103.03466221
N      66.78573679      94.29821257      99.65961101
H      68.37310689      94.31333039      98.60136427
C      64.58798508      96.03865052      99.01143488
H      62.80786290      95.00119076      98.95663281
C      64.77506799      98.12868781     100.95785299