 %block lattice_cart
   140.777   0.000   0.000
   0.000 144.511   0.000
   0.000   0.000   162.462
 %endblock lattice_cart

 %block positions_abs
N      91.58744978      40.34841607      80.63290162
H      90.10023517      40.39943868      79.43481514
H      91.48729428      38.63443430      81.47005039
H      93.15592262      40.31629072      79.54819872
C      91.77264295      42.59719038      82.23916899
H      93.35245415      42.51593215      83.55819795
C      92.18838274      44.81572907      80.42503174
H      90.49896742      45.18800516      79.30631375
H      93.78898093      44.47935779      79.17214319
C      92.89703011      47.27993219      81.77996549
H      93.86834944      46.83395678      83.54119042
H      91.22273260      48.38731181      82.24294844
S      94.77919752      49.70445105      80.05464538
C      94.52597419      52.19133087      82.46971561
H      92.90080956      51.74157601      83.65268427
H      94.54487146      54.01113731      81.50784490
H      96.12846211      52.08928565      83.76039868
C      89.29332203      43.04505552      83.67347126
O      87.24674843      42.74080958      82.65301905
N      89.56355289      43.89921181      85.97326818
H      91.16982026      43.74236453      86.99561012
C      87.21840254      44.30550297      87.45670334
H      85.80677698      42.90710550      86.91624161
C      87.59067862      43.86330701      90.37822023
H      88.73018359      45.51303808      90.84876207
H      88.57144658      42.08129510      90.71081205
C      85.00364330      44.09007417      91.82953002
O      83.94161711      45.96657240      92.51928014
N      83.76776229      41.92822727      91.97503896
H      81.96118394      41.98869851      92.58731029
H      84.57467543      40.26148866      91.51205601
C      85.83701261      46.85285404      86.70648199
O      86.98596620      48.74069063      86.50995045
N      83.16871905      46.87364103      86.33420591
H      82.48274840      45.13131337      86.70081282
C      81.59646676      49.01281122      85.62744828
H      82.30511413      49.75547366      83.84165691
C      78.75998756      48.25692069      85.77862637
H      78.68250878      46.41821699      84.85266049
C      77.71307919      47.81094528      88.37511033
H      76.02933304      46.62608688      88.44880965
H      77.41828188      49.56272157      89.41823926
H      79.03966706      46.60341017      89.38989335
C      76.86648180      50.03893260      84.46337686
H      76.30145363      51.56394174      85.72571404
H      75.10903633      49.13186397      83.89078979
C      77.96819224      51.39575610      82.08232170
H      78.61447864      49.96145382      80.75195439
H      79.57068015      52.61273984      82.52829711
H      76.37137350      52.36896515      81.22060651
C      82.04244217      51.28804170      87.51528486
O      82.19928945      53.42721188      86.67813610
N      82.42794634      50.72301353      90.02295168
H      82.42416688      48.92777353      90.66923808
C      83.20651358      52.78848439      91.68213138
H      81.82890310      54.30782434      91.48937929
C      83.12903480      51.85495959      94.35798383
H      84.62758776      50.48301829      94.70191403
H      81.39237632      50.78159504      94.62254552
C      83.04777657      53.66153795      96.45369031
C      81.36592015      55.69110401      96.46313894
H      79.93161788      55.80826704      95.01560860
C      81.40371467      57.52602826      98.33774745
H      80.28877615      59.22678194      98.14121592
C      83.09501972      57.31626863     100.43723338
H      83.28210263      58.88096202     101.73169591
C      84.65593366      55.18465735     100.48069710
H      86.18283252      55.07505323     101.83185141
C      84.68616928      53.37052009      98.51727145
H      86.06755922      51.87385685      98.38877006
C      85.70095231      53.99790923      91.20781007
O      85.93338865      56.35628767      90.97537374
N      87.69461357      52.32361172      90.70703259
H      87.18249774      50.50569500      90.41790448
C      90.35723795      53.11540704      90.20058595
H      90.85990514      54.50813533      91.63110876
C      92.12224232      50.75891833      90.49727297
H      93.89291588      51.23512936      89.55807900
H      91.37202098      49.31705715      89.23304608
C      92.39247318      49.88208532      93.29217819
H      93.46772746      48.12841930      93.38666452
H      90.51408523      49.55516267      94.07263517
C      93.83811381      51.83228287      94.83986404
O      96.00374017      52.44644393      94.17090093
O      92.88758148      52.88863988      96.82407667
C      90.43849618      54.49112780      87.60410200
O      92.05232245      56.15975613      87.22804645
N      88.72073496      54.00168868      85.82586954
H      87.59634780      52.46723092      85.97515792
C      88.59034384      55.33394573      83.48071917
H      90.45928317      55.43221150      82.62089370
C      86.88014153      53.85617976      81.70437645
H      85.20962347      53.35729201      82.80230743
H      87.82311496      52.22912540      80.86533797
C      86.06755922      55.56449234      79.44048432
H      87.67193685      55.72889853      78.15736015
H      85.39292692      57.37107070      80.16802896
S      83.44839855      54.08861609      77.72083338
C      82.76053817      56.58494455      75.39835973
H      84.65404393      56.94399255      74.66892538
H      81.92149968      58.26113179      76.25062630
H      81.45473729      55.70244236      74.07177186
C      87.65492932      58.01546737      83.81331102
O      88.70372742      59.77291284      82.72293892
N      85.41371391      58.41230990      85.07942764
H      84.39137198      56.91564666      85.66902225
C      84.33845964      60.83493903      85.66524280
H      84.22507606      61.95365701      83.93992267
C      81.67772499      60.52880337      86.71404090
H      80.88781939      62.31081528      87.38300402
H      81.73819623      59.53669705      88.51683980
C      79.70107127      59.17386960      84.89990364
H      79.86925691      57.12918573      84.71093100
C      77.17639691      59.22111276      86.19436616
H      76.89293797      61.11650825      86.95025668
H      77.31056748      57.95877558      87.81764107
H      75.66461586      58.43309689      85.03785367
C      79.51776781      60.27746977      82.21649228
H      78.32535051      59.11528808      81.00139825
H      81.42828112      60.48344994      81.47194010
H      78.61636836      62.12562210      82.33365531
C      85.99385989      62.47144202      87.37355539
O      86.14503799      64.78257730      87.02206628
N      87.33556557      61.33760623      89.14800840
H      87.34501420      59.42898265      89.11588305
C      89.31032957      62.66230437      90.63522301
H      88.54310069      64.22321831      91.73693345
C      90.72762430      60.62895886      92.24149037
H      91.72351007      59.37040114      90.94891756
H      89.40292616      59.31748880      93.11265420
C      92.65325542      61.77980219      94.28617424
H      91.53453744      62.69631945      95.75071213
H      93.77197339      63.14229486      93.21847887
C      94.33889129      59.68976488      95.47103264
H      95.96972510      60.59305406      96.34975538
H      95.05698729      58.62584897      93.86098581
N      93.19182742      57.81704611      97.05462328
H      93.05009794      55.99157049      96.51416155
C      92.40381154      58.08538724      99.38465583
N      93.08033356      60.18109373     100.53927860
H      92.77986708      60.53636227     102.39121040
H      93.81354737      61.57760147      99.46591406
N      91.22462232      56.26747053     100.70557453
H      90.46684207      56.54903975     102.43656383
H      91.30399083      54.62907782      99.73425520
C      91.10179011      64.02668677      88.87021863
O      91.68004636      66.24711519      89.24060499
N      92.00318956      62.66041465      86.87277792
H      91.67815664      60.78013697      86.81986557
C      93.92693095      63.77346345      85.10966326
H      94.86990438      65.24556024      86.20003535
C      95.79020110      61.65885970      84.51817893
H      97.29442324      62.39774269      83.32009245
C      97.17159103      60.95966097      87.09954507
H      98.27330147      62.57159751      87.75528009
H      98.55865014      59.45354909      86.87655736
H      95.89791550      60.49289857      88.64912065
C      94.81321259      59.23812029      83.09899447
H      92.83466914      58.85261613      83.52418288
H      95.87712851      57.54114607      83.58843358
C      95.03431057      59.69165461      80.22283101
H      93.58866994      58.42742771      79.47449940
H      96.91269853      59.18520796      79.54819872
H      94.61101188      61.64374189      79.72016382
C      93.19371714      65.40807671      82.77585127
O      94.74896190      66.94442420      81.87634153
N      90.80321336      65.17375064      82.09743951
H      89.78087142      64.04558404      83.24828285
C      89.56166317      66.49088988      80.13590361
H      90.93171474      66.80836390      78.63168146
C      87.30910940      64.83171018      79.25151170
H      86.12803046      64.32337380      80.85966878
H      88.17271433      63.12906677      78.47861363
C      85.81433589      65.93908980      77.12934904
O      86.92927441      66.02979666      75.06765763
O      83.73374722      66.82159199      77.53564019
C      88.61491029      69.17241152      80.75951328
O      88.02720540      70.69364120      79.10411304
N      88.61868974      69.79980066      83.23694449
H      88.52798287      68.38250592      84.51250974
C      88.30499517      72.34904145      84.39156726
H      88.57144658      73.73799029      82.89679374
C      85.71607012      72.72698672      85.43658591
H      85.73496738      73.97798554      87.07497862
H      85.09057071      70.88261384      86.10554902
C      83.80744654      73.63405535      83.39379177
H      81.95929421      73.32602996      84.25172751
H      83.74886503      72.38872571      81.75539905
C      84.09846440      76.48943181      82.94781635
O      82.36369564      77.99932313      83.50339590
O      86.09779484      77.20374835      81.88201072
C      90.37991466      73.22398474      86.29830111
O      91.21139424      75.39150082      86.37389017
N      91.36257234      71.65740162      88.01417260
H      90.41204001      70.00578083      88.08409248
C      93.00096506      72.16762773      90.27995445
H      94.31432485      73.73232112      90.01350304
H      93.98362274      70.46687405      90.90356414
C      91.48918401      72.94619497      92.54573630
O      89.58056043      74.21231160      92.33030751
N      92.17704439      71.88794823      94.73214964
H      93.74551722      70.81458369      94.91167365
C      90.74652157      72.37360790      96.98470341
H      88.77742675      72.51344764      96.39699852
C      90.84478733      70.22309935      98.92734207
H      92.75908009      70.04357535      99.66622505
H      90.33645096      68.49777923      97.92389739
C      89.08356241      70.24577607     101.30083831
H      89.47662548      71.91818386     102.43845355
C      86.35668734      70.35160074     100.43345393
H      86.06566949      69.06658685      98.84986328
H      85.91071193      72.25455514      99.78149835
H      85.12647551      69.85649245     102.00948568
C      89.41804397      67.80047022     102.91844403
H      88.11035336      67.98944285     104.50014495
H      91.26808603      67.56803388     103.79527705
H      88.87758224      66.05814256     101.96224252
C      91.46083811      74.92284869      98.18090016
O      93.66614872      75.68629812      98.54183789
N      89.63536249      76.43462974      98.60986804
H      87.85335058      75.77889471      98.40388788
C      90.11913243      78.97064246      99.46780379
H      92.12035260      79.45252266      99.56795929
C      89.02309117      80.63549134      97.39099456
H      88.91915622      82.56868136      98.09019330
H      87.17682856      79.87960081      96.87887874
C      90.64258662      80.73375711      95.02127777
H      90.74274211      78.90828149      94.07074543
H      92.53420266      81.27043938      95.63354910
C      89.69583374      82.67261630      93.02572678
H      89.63347277      84.53021727      93.91200843
H      87.76264372      82.23608952      92.45880890
N      91.55721415      82.71230055      90.88088742
H      92.96506026      84.00298363      90.86010043
C      91.20761479      81.58224422      88.68313571
N      89.47662548      79.91739534      88.14645344
H      89.72606936      78.75710338      86.65167994
H      88.34089997      79.23142469      89.51839474
N      92.80254379      81.97341757      86.82175531
H      92.46995196      80.93784755      85.25517218
H      94.34833992      83.03733348      87.17513412
C      89.38780835      79.49409664     102.11531035
O      87.44894915      78.44340881     102.90143649
N      90.86557432      81.09280510     103.42111124
H      92.11090396      82.20774363     102.50081452
C      90.71628595      81.27421883     106.31995140
H      89.18749736      80.14416250     107.11552617
C      93.18048906      80.46163652     107.68433379
H      92.48129032      80.45974679     109.61941354
H      94.68849066      81.85625454     107.52559679
C      94.25574333      77.79145324     106.79427270
H      94.95116261      77.85003475     104.85541351
C      96.20216143      76.95997366     108.79171342
H      95.31210034      76.78611884     110.63986575
H      97.85567196      78.18451631     108.92021481
H      96.89191154      75.09859324     108.24936196
C      92.23562590      75.69196730     107.03993712
H      93.09356165      73.81924853     107.02670904
H      90.68605032      75.96030844     105.70768007
H      91.23596068      76.06802284     108.80116204
C      89.90370363      83.93306375     107.25914538
O      89.29710148      84.33179601     109.40965392
N      89.82055567      85.63192771     105.45823620
H      90.49518797      85.41838864     103.68378319
C      88.51664452      88.00731368     105.77382049
H      87.55288410      87.71818556     107.57283994
C      90.44038590      90.22585238     105.91177052
H      92.08255807      89.79121532     107.07395220
H      89.57867070      91.89259098     106.75836791
C      91.49485319      90.93072029     103.31717628
H      90.00196940      91.03465524     101.90366101
H      92.72317529      89.44350568     102.59152138
C      92.94238354      93.49507890     103.27182286
H      94.80943314      93.47996109     104.14109695
H      91.73862788      94.82733595     104.28093670
C      93.41481512      94.65159140     100.74714850
H      91.74807651      94.90103527      99.56606955
H      94.70927764      93.37791587      99.77771891
N      94.47684131      97.18760411     101.07596087
H      95.99996072      97.19516302     102.22491447
H      93.32032880      98.56710432     101.71279864
H      95.07588455      97.66192542      99.32796404
C      86.53999079      88.38525895     103.61764278
O      86.41148940      86.94339777     101.78271853
N      85.12836524      90.43561200     103.78393869
H      84.91104671      91.19528197     105.52059716
C      83.18383686      91.35023953     101.98491924
H      81.76087295      89.90837835     101.60697397
C      81.78543939      93.69727961     102.89387759
H      83.26320537      95.08244900     103.27182286
C      79.95240487      94.92182226     100.91155470
H      80.81600979      95.45850454      99.12009414
H      79.05100542      96.62635540     101.64098904
H      78.51621287      93.48185081     100.57707314
C      80.26420971      92.97162471     105.21446151
H      81.39615577      92.01731292     106.64876377
H      78.93762184      91.51653545     104.60974909
C      78.88470950      95.17882504     106.23869317
H      80.00342748      96.90603489     106.25948016
H      78.48030807      94.85190239     108.23235443
H      77.16316883      95.53976277     105.16532863
C      84.71073572      92.07022526      99.60575381
O      86.51542435      93.59712412      99.63787916
N      83.86035888      91.37291625      97.28516989
H      82.32590112      90.24474964      97.41367128
C      84.55955762      91.99085675      94.76427499
H      85.73496738      93.67838235      94.65278115
C      86.00708797      89.81011259      93.56996796
H      87.76642317      89.53988172      94.60931744
H      86.56266751      90.30900033      91.65189575
C      84.82789875      87.08890670      93.46603301
C      84.13625892      86.27821411      90.99805045
H      84.36113635      87.38559373      89.29918649
C      82.98541560      83.94062266      90.82230591
H      82.09535451      83.30567462      89.09887550
C      82.56211690      82.40805462      92.98415281
O      81.33379480      80.14794195      92.51739040
H      80.87270158      79.96652822      90.77317303
C      83.47863417      83.24520338      95.41056140
H      83.36147114      82.09247032      97.09052808
C      84.58790351      85.62058935      95.58441622
H      84.98663576      86.45584838      97.40422265
C      82.30133467      92.73351919      93.17312544
O      80.16972339      92.63147397      94.06885572
N      82.60747034      93.38358504      90.72970932
H      84.44806376      93.29854736      90.23271130
C      80.59302209      93.64625700      88.78329121
H      78.75998756      93.29287818      89.65445504
C      80.45318234      96.22573342      87.51528486
H      78.87526087      96.40147797      86.19814561
H      82.11614149      96.37124235      86.30963947
C      80.29444533      98.43104403      89.42201870
H      81.79110857      98.21561523      90.81852646
H      78.69762659      98.15136453      90.69191478
C      80.46641042     100.89335741      88.04251849
H      80.06956790     102.62812617      89.07997825
H      79.09257939     100.84989371      86.50806073
C      83.18761631     101.26374377      86.80285803
H      83.39926566      99.57243872      85.64634553
H      84.69939736     101.41114242      88.19369660
N      83.15738069     103.69960099      85.24572356
H      84.55577816     103.99817774      83.98149666
H      83.13659370     105.12445463      86.51750936
H      81.59079758     103.86400718      84.17046928
C      80.64026524      91.62047039      86.69325391
O      82.67172103      90.61135654      85.97515792
N      78.34046832      91.04032442      85.84098735
H      76.85325371      92.01353347      86.53640663
C      78.02488403      89.79310505      83.46749109
H      79.21919106      88.12825617      83.66969181
C      75.35470075      88.86713916      83.28040818
H      74.19251906      90.36947158      82.48483341
H      74.69896572      88.18116850      85.10777354
C      74.98809384      86.81111693      81.31887227
O      73.58213747      87.21740809      79.39702062
O      76.15594470      84.86658855      81.57398532
C      78.87904032      91.48629983      81.29619557
O      79.49131165      93.73885359      81.56831615
N      78.90738622      90.38458939      78.99072946
H      78.67306015      88.49675280      78.85088971
C      79.46107602      91.80755330      76.67014554
H      80.99742352      93.13036172      77.01974491
C      80.33790903      90.26742635      74.34389246
H      80.14893640      91.49007928      72.69794083
C      83.12525535      89.36791663      74.45160685
H      83.18005741      88.16416097      76.12212492
H      84.28176785      91.05733195      74.66514592
H      83.86224861      88.37770004      72.80187578
O      78.77132592      88.08101301      73.93760130
H      79.42328150      87.29110741      72.44093806
C      77.21608117      93.46862273      76.24117767
O      77.51654765      95.54543195      75.26796863
N      74.86526163      92.76186509      76.92336887
H      74.57046433      90.91371275      77.29564496
C      72.68451747      94.42482424      76.69849145
H      72.87726955      95.61157237      75.02797338
C      70.31858012      92.60501780      76.38857633
H      69.70630880      91.72440534      78.14602179
H      70.96675625      91.01386825      75.25285081
C      68.10760034      93.76153031      75.00340693
H      68.81624770      94.63647359      73.27808681
H      67.20620089      95.09945654      76.28653110
C      65.89851028      92.07400471      74.19460408
O      64.10138055      92.95083772      73.09289363
O      66.09882127      89.70428791      74.23428832
C      72.45586058      96.24274096      78.93214794
O      70.48109659      97.39547401      79.26096032
N      74.47975746      96.52808963      80.55542285
H      76.13893717      96.15959300      79.68614874
C      74.78967258      98.62568584      82.51506904
H      73.84291970     100.25651964      81.68736890
H      76.80790028      98.92804205      82.77585127
C      73.77677928      98.04931931      85.22871602
O      74.69896572      99.07166125      87.14489850
N      71.75288239      96.49029510      85.29863589
H      71.31068644      95.83456007      83.56197742
C      70.62471579      95.39047439      87.60599172
H      69.56457932      96.90792462      88.50928089
C      68.82002716      93.13981035      87.03907383
H      67.74288316      92.76564454      88.75494531
H      70.00677528      91.50330736      86.64223130
C      67.08147895      93.69916934      84.86777829
C      66.82258644      92.04943827      82.76073346
H      67.62194067      90.17105031      82.75884372
C      65.21442935      92.62391507      80.75384410
H      64.87616834      91.33512172      79.20615825
C      63.87272367      94.99363186      80.74628520
O      62.21921315      95.50196824      78.97561164
H      61.30458561      97.00430066      79.42347678
C      63.96154081      96.58100197      82.83632250
H      62.91463243      98.32899881      82.73427728
C      65.63205887      96.01597380      84.89045501
H      65.99299659      97.48051169      86.26617576
C      72.56357498      94.67426812      89.50516666
O      74.15094509      93.14547953      88.70392270
N      72.16106328      95.06922092      92.02984101
H      70.41306644      95.63424908      92.53817739
C      73.80323544      94.15270365      94.14444477
H      75.76099190      94.37569136      93.54540152
C      73.74843338      95.85912651      96.57652253
H      74.61014858      94.72340100      98.06373713
H      71.75477212      95.85723679      97.09430753
C      74.73676024      98.55954542      96.40833689
C      73.30623742     100.74406903      96.58786088
H      71.33525288     100.51919160      97.07163082
C      74.22464441     103.20827215      96.20235672
H      73.05868328     104.86556212      96.42345470
C      76.75876740     103.55976124      95.47103264
O      77.68095384     105.90113214      94.89655583
H      76.53766942     107.21449193      95.40300249
C      78.28755598     101.39980406      95.45969428
H      80.30200423     101.54531299      95.17245587
C      77.37292845      98.81843792      95.84897789
H      78.70329577      97.27264180      95.83574981
C      73.45174635      91.31622446      94.83230514
O      71.26911246      90.49230379      95.21214013
N      75.64949805      89.92538589      95.01371886
H      77.22364007      90.90048467      94.55073592
C      75.83847068      87.22685672      95.32363398
H      73.99220808      86.50876072      95.89811079
C      76.38460159      86.00231407      92.71581167
H      78.27810735      86.42750249      92.02417185
C      75.74965355      83.14126843      92.58542055
H      77.01010100      82.37403954      94.02161255
H      76.16350361      82.40994434      90.70514288
H      73.84858888      82.71041083      93.24682476
O      74.71786298      87.07000943      90.93002030
H      75.52288639      88.64415145      90.52183942
C      77.77732988      86.56356278      97.45713499
O      79.69729181      87.79755406      97.96169191
N      77.25387569      84.42439259      98.74592834
H      75.45863569      83.77621647      98.78561258
C      79.06612323      82.98064169     100.39376968
H      80.95018036      83.76109866     100.10653128
C      78.24598201      83.49842670     103.19245434
H      78.21763611      85.55444893     103.29638930
C      75.51910694      82.45718750     103.73291607
H      74.99565275      82.98253142     105.65665746
H      75.74776382      80.41061391     103.75181334
H      74.10370193      83.05245129     102.35908505
C      79.89004390      82.24364843     105.30705810
H      79.94106651      80.19329538     105.11430602
H      79.04722596      82.55545327     107.15898989
C      82.62447787      83.20551912     105.29194029
H      83.54477459      82.66505740     103.53260509
H      83.66382735      82.06790388     106.66010213
H      82.80778133      85.25020299     105.48091292
C      79.42328150      80.23864881      99.61331272
O      77.77166070      79.05568014      98.46624884
N      81.43961947      79.07835686     100.44857175
H      82.85313476      80.06101454     101.27249241
C      82.04622162      76.44596810     100.07629565
H      80.33601931      75.41984671     100.59219094
H      83.77154174      75.79401252     100.99281293
C      82.29566549      75.57480427      97.40044320
O      84.23830414      76.22864958      96.33085811
N      80.56278647      74.00066225      96.28928412
H      79.24753695      73.36571421      97.51949595
C      80.22641518      73.70019577      93.46603301
H      81.35458179      75.11371105      92.47581643
C      81.02387969      71.09048373      92.67423769
H      80.03555282      69.50311363      93.53217344
C      80.72152348      70.99977687      89.83019960
H      78.87148142      71.62716600      89.17824401
H      81.21663177      69.16296289      89.03840426
H      82.02543463      72.30557775      88.91557205
C      83.87925614      70.66907476      93.28461929
H      83.86035888      70.21176099      95.29150863
H      84.70317682      72.47376339      92.73470893
C      85.36458103      68.43163881      92.07330472
H      85.36836048      68.76989982      90.03995922
H      84.36491581      66.77434883      92.77628291
H      87.36391147      68.45431552      92.56652329
C      77.39182571      74.25199585      92.89344594
O      75.79500698      72.68730246      93.57941659
N      76.82679754      76.32124616      91.60465260
H      78.28755598      77.48909703      91.22859707
C      74.26810812      76.87682570      90.62955382
H      73.48387170      75.33858848      89.50516666
H      74.47975746      78.42829100      89.28973787
C      72.37082290      77.71397446      92.66667878
O      70.13905612      78.08625054      92.06196636
N      73.11726479      77.89538818      95.11765382
H      74.85959245      77.41350797      95.72992514
C      71.27289191      78.54734376      97.12832262
H      69.58914577      77.37949290      96.92423217
C      72.26499823      77.73287172      99.81929289
H      73.67851351      79.10859248     100.41644640
H      73.08135999      75.84314541      99.79850590
C      70.17118147      77.70452583     101.81295414
N      68.89372648      75.39717000     102.09830282
H      68.93530046      74.05168486     100.74336905
C      66.96620564      75.76377690     103.68756264
H      65.52434447      74.41451231     104.19778874
N      66.97754400      78.16372932     104.43967371
H      65.63583832      79.15394591     105.36941906
C      69.03167650      79.37882334     103.19623380
H      69.61938139      81.33280035     103.24725642
C      70.56991372      81.32335171      96.92423217
O      71.77555911      82.93339853      98.01271453
N      68.44397162      81.88649016      95.74882240
H      67.62005095      80.52588721      94.69435512
C      67.49154956      84.34502409      95.36142850
H      68.89561621      85.59035373      94.51294139
C      65.23521634      84.10691857      93.69280018
H      63.73666337      82.97686224      94.54506674
H      65.59237461      83.31890270      91.82575058
C      64.05602712      86.75631486      92.96147609
H      63.48532977      87.66149377      94.72270101
C      66.00622468      88.32856716      91.47237176
H      65.09159714      89.68161120      90.21570375
H      66.98888236      87.04166354      90.20058595
H      67.35548926      89.23374606      92.73848839
C      61.57859593      86.41049495      91.60087315
H      60.96632460      88.36069250      91.34764982
H      60.32381765      85.31634341      92.81407744
H      61.69575896      85.55822838      89.73004410
C      66.84337343      85.59791263      97.88232342
O      65.21442935      84.53588645      99.08229962
N      67.92807634      87.73519309      98.54561735
H      69.05246349      88.68383570      97.33241305
C      66.90195495      89.29988648     100.64132383
H      66.22165348      88.09235137     102.16633297
C      69.18096488      90.70017368     101.70523975
H      68.48932505      91.92660606     103.20946188
H      69.79134648      91.97384921     100.20668678
C      71.19352341      88.89359532     102.74269949
H      71.83414063      87.67661158     101.21202117
C      73.61426281      90.33545650     103.39654480
H      74.30023346      91.54488134     101.87720483
H      75.06368289      88.90115423     103.68945238
H      73.26466344      91.37291625     105.14265191
C      70.39605890      87.21551836     104.99903270
H      72.15728383      86.27821411     105.50358963
H      68.98632307      85.88137158     104.30928260
H      69.55702042      88.30211099     106.53538019
C      64.64373200      90.91749221      99.84574904
O      62.48755428      90.39025856     100.45235120
N      65.02545672      92.76375481      98.15633372
H      66.80935836      93.30043709      97.73303504
C      63.07525916      94.35112492      96.96391643
H      61.24978355      93.40248231      96.84675340
C      62.46298784      96.62446567      98.76482559