 %block lattice_cart
   140.777   0.000   0.000
   0.000 144.511   0.000
   0.000   0.000   162.462
 %endblock lattice_cart

 %block positions_abs
N      88.31444380      39.90244066      83.04041295
H      87.53776630      39.23914672      81.42658668
H      87.44894916      39.08040971      84.52951728
H      90.16826532      39.45835498      83.11222255
C      88.04799239      42.64443354      83.21615749
H      88.95317130      43.18678499      84.98494132
C      89.25930697      44.04661046      81.03541333
H      88.36357668      43.40410352      79.29308567
H      91.24162986      43.52882545      80.81053590
C      89.13458503      46.89631774      81.39446133
H      90.49518797      47.31583699      82.88356566
H      87.38469846      47.85629871      81.90279771
S      90.23818519      48.45345223      78.52585679
C      91.16604082      51.43733007      79.86945219
H      92.52664376      51.06694372      81.36989489
H      89.36324190      52.21400759      80.49495160
H      91.90681352      52.63730628      78.36523005
C      85.25119746      43.32284529      83.49583699
O      83.56367185      42.53482941      82.08988061
N      84.66727202      45.04249623      85.30241534
H      86.14503799      46.11208132      85.86555379
C      82.05000108      45.77571004      86.21326343
H      80.49475632      44.76281674      85.31942288
C      81.89882298      45.32406545      89.10076523
H      83.19139577      46.62608688      90.03617976
H      82.49975595      43.37764735      89.41068035
C      79.19840408      45.41099286      90.02106195
O      77.99086895      47.31961644      90.41979420
N      77.85480867      43.28316103      90.02484140
H      75.98397962      43.12820348      90.36310241
H      78.83557662      41.68823203      89.66201395
C      81.53410579      48.54226936      85.42335783
O      83.23296974      50.13908810      85.29674617
N      79.13037392      49.19233521      85.16635505
H      77.69796138      47.97913092      84.82620431
C      78.31590188      51.87574658      84.86021939
H      79.33824381      52.34628843      83.13300954
C      75.51154804      52.11574182      84.26684532
H      75.18651511      51.01403138      82.55664301
C      73.83914025      51.16520948      86.55530389
H      74.63282530      49.38319757      87.22048755
H      71.92295777      50.97434713      85.82209008
H      73.55568131      52.55415833      88.05007740
C      74.69707600      54.89174977      83.71504524
H      75.18462539      56.03503419      85.35532768
H      72.64861268      55.09395049      83.62433838
C      75.81390425      56.05204173      81.48138874
H      75.49265077      55.07694295      79.69559737
H      77.78299907      56.60951099      81.70059699
H      74.87093082      57.88129680      81.40202023
C      79.33257464      53.49335230      87.02206629
O      80.00720693      55.68543483      86.56664225
N      79.29289038      52.63730628      89.35398856
H      78.45763135      50.96867795      89.75838999
C      79.85413911      54.12263116      91.67079302
H      78.80723073      55.87062800      91.37977517
C      78.84502525      52.56738641      94.00082556
H      79.61414386      50.69655736      93.60776249
H      76.84002563      52.45589256      93.54540152
C      79.20596298      53.30248994      96.72959036
C      78.35180669      55.73645744      97.50815760
H      77.73008673      57.13485491      96.15511356
C      78.42361629      56.41297946     100.06306757
H      77.73764564      58.27435987     100.53738888
C      79.24375750      54.51380451     101.81295414
H      79.42517123      55.04859706     103.77449005
C      80.42861590      52.26880965     100.97958484
H      81.29600028      50.96489850     102.28727545
C      80.07901653      51.49780132      98.44735158
H      80.85947351      49.69122296      97.90311040
C      82.60558062      54.81049154      91.79551496
O      83.45595746      56.74557129      92.85187196
N      84.27042950      53.27981323      90.66923807
H      83.54855405      51.63953079      90.01539277
C      86.78187576      53.84484140      89.93413454
H      87.56989164      54.91064704      91.51205601
C      88.25397256      51.36552047      89.81697151
H      87.04832717      50.08239631      88.74549669
H      88.51286506      50.36585525      91.59709369
C      90.87502295      51.56772119      88.59809803
H      91.99941011      53.06816388      89.45225433
H      90.62557908      51.93432809      86.58553951
C      92.42648826      49.11107698      88.69636380
O      94.30676594      49.10729753      90.13444553
O      91.83878337      47.10040819      87.46615197
C      87.08990116      55.55126426      87.52473349
O      88.37302533      57.50524127      87.66646296
N      85.92960920      54.71978468      85.39501193
H      85.03576865      53.03414881      85.41390920
C      86.01275716      56.20510956      83.12545063
H      87.93271909      55.77236224      82.50939985
C      84.26853977      54.82560935      81.07320786
H      82.39960045      55.65519920      81.30942364
H      84.18917126      52.88297070      81.75539905
C      85.13970360      54.90875731      78.32743552
H      86.76486822      53.66720712      78.07043274
H      85.50253105      56.88352131      77.86634230
S      82.75108954      54.32861133      75.76496664
C      81.22230096      57.47689537      75.47772824
H      79.41194315      57.39563714      74.50073974
H      82.18606138      58.92442573      74.37412808
H      81.06167422      58.27624960      77.36934428
C      85.50442077      59.09828055      83.30875408
O      86.81022167      60.55714926      82.08988061
N      83.57878966      59.83527381      84.67691593
H      82.72652310      58.56348800      85.81642090
C      82.80589160      62.55836943      84.81864541
H      82.50920458      63.32748804      82.93080882
C      80.40027001      62.69820917      86.53073745
H      79.80878567      64.57470740      87.14489850
H      80.83679678      61.42453364      88.08976166
C      78.09291418      61.92909056      84.99250023
H      78.39716011      60.32282320      83.73961168
C      75.85547823      61.13351579      86.66490802
H      74.39849924      60.35494855      85.43469619
H      75.22997882      62.81537220      87.67591159
H      76.31846118      59.68598543      88.05385686
C      77.30867775      63.67141822      82.82498415
H      78.72408276      64.17030597      81.41524832
H      76.70963452      65.42319452      83.72827333
H      75.55123228      63.06859553      81.93492305
C      84.96017959      64.14007035      85.92602503
O      85.52520777      66.20365148      85.00572831
N      86.42660721      63.09694143      87.70425749
H      85.91827084      61.35461376      88.29574182
C      88.69238907      64.23833612      88.89100561
H      88.38436368      66.22065902      89.35020911
C      89.60512687      62.72466534      91.32119365
H      90.91659694      63.74322782      92.54195685
H      90.81266200      61.27146581      90.50294216
C      87.52831765      61.67964669      93.00305007
H      86.29810582      60.42864787      91.92212662
H      86.44928394      63.19709692      93.88555226
C      88.81144183      59.93353958      94.93812981
H      90.07566873      60.81793149      96.30251221
H      90.03598447      58.67120240      93.86665499
N      87.04643745      58.57482636      96.49526430
H      85.68016532      57.58083032      95.60898266
C      86.84801619      58.62017979      98.93679069
N      88.02342595      60.18109372     100.46557928
H      87.53209711      60.04692316     102.30617271
H      89.46906659      61.36973158     100.10653128
N      85.10757825      57.14997272      99.92322783
H      84.65782339      57.07816312     101.77515961
H      84.76553778      55.55126426      98.93679069
C      90.86746405      64.55203069      87.08631698
O      92.49262868      66.11672407      87.57575610
N      90.90903804      63.14796404      85.01328722
H      89.40859535      62.04058442      84.61077551
C      92.86868422      63.30292159      82.98372116
H      94.34833993      64.41408067      83.88890006
C      94.18771319      60.81415204      82.53207657
H      95.80720863      61.15619250      81.30942364
C      95.54264696      59.98078274      84.98872078
H      94.30487622      60.53069309      86.54207581
H      97.40780682      60.85005684      85.06430983
H      96.13413128      58.01546737      85.16635505
C      92.73073419      58.47278114      81.59288259
H      91.16226135      57.90586324      82.80230743
H      93.97606383      56.83816788      81.46249148
C      91.63847239      58.73167364      78.90380205
H      91.54776552      56.91564666      77.93437245
H      92.81766161      59.83338408      77.62445733
H      89.71095156      59.43087238      78.72049860
C      91.90681352      64.83737936      80.65557834
O      93.40725621      66.24144601      79.40457952
N      89.35190356      65.00934445      80.33054541
H      88.33145135      63.77157372      81.36422571
C      88.17082461      66.45687481      78.26129510
H      89.25552751      66.12617270      76.54164416
C      85.53276668      65.26067805      77.68303885
H      84.47451993      65.70287401      79.39324116
H      85.57056120      63.20276610      77.61122925
C      84.47074048      66.33782205      75.22639464
O      85.88425577      67.13150710      73.52375124
O      82.12559014      66.42097001      74.96939186
C      87.96484444      69.31036154      79.00962672
O      88.84734663      70.91851863      77.56965527
N      87.04832717      69.79413148      81.31131337
H      86.34156953      68.45242580      82.47160533
C      86.80077303      72.40573324      82.43003135
H      87.15037240      73.79279236      80.94848592
C      84.04933152      72.57013943      83.35599724
H      83.80933627      73.85893278      84.94525707
H      83.47485471      70.69175148      83.97204802
C      82.24653262      73.39406010      81.30186474
H      80.30578370      73.08981417      81.91791552
H      82.36180591      72.15250992      79.66158230
C      82.80967105      76.06046393      80.36456049
O      83.90193286      76.48754208      78.32554580
O      82.03488326      77.90483681      81.50973463
C      88.64325619      73.02556347      84.58809880
O      89.59756798      75.16284393      84.61077551
N      88.88703087      71.35882487      86.53073745
H      87.82689441      69.77145476      86.54963471
C      90.21928793      71.86716124      88.90045424
H      91.78209158      73.17863131      88.61699530
H      90.81833116      70.00389110      89.54107146
C      88.58845412      72.99910731      91.04340388
O      86.74975041      74.28790065      90.63333327
N      89.01175281      72.07314141      93.37910561
H      90.77486746      71.40606802      93.66823373
C      87.57367110      72.54179354      95.77149912
H      85.59512764      72.91217989      95.33119289
C      87.96484444      70.24199661      97.48170143
H      89.96039543      70.07570070      97.96925082
H      87.53965601      68.55825047      96.37432181
C      86.48140929      70.39695417     100.03283195
H      87.24674844      72.15062019     100.79817111
C      83.62981228      70.64639805      99.54150311
H      83.09690946      71.83503590      97.94657410
H      82.53188128      71.18874950     101.19879309
H      82.86825258      68.87761422      98.80828930
C      87.20517445      68.17841548     101.63154041
H      86.67038192      66.37939603     100.78305330
H      86.37747433      68.39762373     103.50425919
H      89.22529188      68.16140794     102.04161102
C      88.37869449      74.99843774      96.83730476
O      90.27220027      74.93040760      98.22814332
N      87.00864293      77.11871067      96.46880813
H      85.26820499      77.03367298      95.69024089
C      87.86846840      79.59425214      97.36831785
H      89.91504199      79.49598637      97.56673912
C      87.33934503      81.71452506      95.51071689
H      87.32989639      83.46063217      96.60486842
H      85.40048584      81.55389832      94.83608459
C      89.10623914      81.45941201      93.23170695
H      88.72640415      79.74543024      92.15267323
H      91.13769491      81.55011887      93.55485015
C      88.46373218      83.57212603      91.21347925
H      86.49274764      83.58724384      90.61821546
H      89.45394877      83.07134855      89.47682077
N      89.38591862      85.98530653      92.09787117
H      90.08133790      85.84924623      93.86854472
C      89.88669609      87.91093764      90.56341340
N      89.47284604      87.97707806      88.16157126
H      89.96984406      89.53799200      87.18269303
H      88.15948625      86.71663061      87.58331500
N      91.19249698      89.88003246      91.38733407
H      92.06744026      91.22929705      90.35932296
H      91.49674291      89.82145094      93.26950148
C      86.83478811      80.18195702      99.91755865
O      84.62947750      79.96274877     100.48825600
N      88.60924110      80.80556670     101.64854795
H      90.44794481      80.77722081     101.14210130
C      88.28231845      80.78666944     104.41132782
H      86.73652233      79.54133980     104.96123818
C      90.55565921      79.73220216     105.70768007
H      90.21172903      79.74543024     107.74102558
H      92.14302932      81.01721605     105.44689784
C      91.28131411      77.12626957     104.86297241
H      91.97862313      77.20941753     102.92411321
C      93.27497537      76.11148654     106.66199186
H      93.89102615      74.27467257     105.95901367
H      92.67026295      75.99999269     108.62919695
H      94.85100712      77.43429496     106.78293434
C      89.13269529      75.26110970     105.16343889
H      87.53398684      75.58047345     103.90299144
H      88.46751163      75.48787686     107.09851864
H      89.70528237      73.31091215     104.84029569
C      87.36202174      83.40394038     105.34296289
O      86.87825180      83.73275276     107.58228857
N      87.58311972      85.27287971     103.67622429
H      88.02531568      84.73808716     101.89988155
C      86.80455248      87.95629107     104.21479628
H      85.93527837      88.11124863     106.07428698
C      88.90025897      89.88192219     103.94456542
H      90.00007967      89.42838787     105.62642184
H      88.03476431      91.73574370     104.19211957
C      90.30054617      89.64003722     101.44634724
H      89.11757748      90.08601263      99.81929288
H      90.77675719      87.66527322     101.10241705
C      92.83466914      91.05922168     101.52193629
H      94.17448511      90.46017844     102.96946664
H      92.46428278      92.96028635     102.22302475
C      94.24629470      91.35212926      98.98781330
H      93.09923083      92.15526294      97.47792198
H      94.91336810      89.50208720      98.37743170
N      96.52341491      92.97540416      99.13899141
H      95.91681277      94.72151127      98.66089065
H      97.70071441      92.54265683      97.69901996
H      97.48906505      92.96595553     100.78494303
C      84.48396856      88.44950964     102.58018302
O      84.24586306      87.21173891     100.64321355
N      82.92494436      90.32411814     103.26237422
H      83.18005741      90.89292576     105.06517313
C      80.71963375      91.22551759     101.63720959
H      79.75587333      89.57389680     100.87376016
C      78.99053417      92.90548429     103.21324134
H      80.26420971      94.34734546     103.95023460
C      76.84569482      94.33978656     101.61831233
H      75.79878644      95.76275047     102.68033852
H      75.45296652      93.25886311     100.55250669
H      77.72819699      95.35645931     100.06117785
C      77.74142509      91.42771831     105.46012592
H      79.12281502      90.54710585     106.70923502
H      76.57168449      89.99719549     104.54927784
C      76.03122278      92.85635140     107.26481455
H      77.17072774      94.16404201     108.37597363
H      74.82368766      91.74519233     108.51014419
H      74.59125133      93.72940496     106.08184588
C      81.82701338      92.78832126      99.25048526
O      83.04210739      94.74418799      99.42434008
N      81.19395506      91.78865604      97.04706438
H      79.88815418      90.40726610      96.89399655
C      82.39393126      92.38391982      94.64711196
H      83.74130612      93.93727485      94.76616472
C      84.13625892      90.17294004      93.87988308
H      85.40426529      89.54933035      95.37843604
H      85.46662625      90.99119153      92.53628767
C      82.96840807      87.75031090      92.81029799
C      82.87014229      87.32134303      90.21759348
H      83.39737594      88.73296859      88.84187273
C      81.87236681      85.06689954      89.27084060
H      81.90071270      84.80233786      87.24694372
C      81.06923313      83.17528350      90.91490249
O      80.10169325      81.03422359      90.02484140
H      80.34357822      81.09280510      88.22582195
C      81.09002011      83.66283289      93.63043921
H      80.52121250      82.11136759      94.82663596
C      81.99141957      85.93239419      94.55073592
H      82.10669287      86.31600863      96.55195609
C      80.25854054      93.06044184      92.68746578
O      78.15716488      92.14014513      92.73470893
N      80.85191460      94.74607772      90.95269702
H      82.66227241      95.35079014      90.97159428
C      79.04533624      95.34323123      88.94391795
H      77.12537431      95.27142163      89.68280094
C      79.34202328      98.00963506      87.88189176
H      78.47841834      98.26474811      86.02995997
H      81.36592015      98.33466798      87.68913968
C      78.34613751     100.03164221      89.66390367
H      79.71051991     100.34344705      91.17568472
H      76.50365435      99.41937089      90.35365378
C      78.02866349     102.56576520      88.25038839
H      76.87404070     102.17270213      86.58931896
H      79.91272062     103.32921463      87.92913492
C      76.61514820     104.53863947      89.85098658
H      77.83591140     105.30586835      91.32119365
H      75.03344728     103.70904962      90.87332851
N      75.95563372     106.75528843      88.34109526
H      75.50398913     108.30486401      89.36154746
H      74.54967734     106.15057601      87.19970056
H      77.39182572     107.32598578      87.21670810
C      79.36469998      93.26642201      86.91435189
O      81.39048659      92.94516854      85.99972435
N      77.38804627      92.02487182      86.06208532
H      75.81768369      92.82611578      86.79718886
C      77.35214146      90.21262429      84.02496036
H      79.14549174      89.20351044      84.14968229
C      75.44918706      88.20951440      84.54841455
H      73.61426281      89.14303920      84.53140701
H      75.70618985      87.63314787      86.50806073
C      75.53044529      85.98908598      82.81742524
O      77.56568054      84.87981664      82.63790124
O      73.67095460      85.53555167      81.51351409
C      77.01765990      91.55621970      81.44170449
O      76.56790505      93.80121456      81.48138874
N      76.86459207      90.39214829      79.22694525
H      77.14049212      88.50431170      79.25151169
C      77.25198596      91.62802930      76.78352913
H      78.95840882      92.77509317      76.91580997
C      77.83780112      89.68161120      74.69727128
H      78.40282930      90.57734147      72.93037717
C      79.94484597      88.02810067      75.63457553
H      79.19840408      86.42750249      76.69093254
H      81.34891261      89.14681865      76.64368938
H      80.66483170      87.04922244      73.97161637
O      75.90272139      88.13203562      73.88846841
H      75.80067616      86.61080594      74.87112610
C      75.08824935      93.59145494      76.05976395
O      75.18651511      94.60812769      74.09066913
N      73.03978602      93.91459814      77.44304361
H      73.31568606      93.10579528      79.14757674
C      70.84392404      95.47362235      77.00840656
H      71.32769398      96.74540815      75.45883098
C      68.39483874      94.16215228      76.02007969
H      68.97687444      92.85824113      74.53853427
H      66.92274194      95.35456959      75.21127683
C      67.63894821      92.31022050      78.10444782
H      67.02856662      93.31366517      79.79575287
H      69.19419297      91.10835456      78.72238832
C      65.58859517      90.46962707      77.08021616
O      66.25755828      88.74052749      75.57599401
O      63.33604140      90.97229427      77.72461283
C      70.46219933      97.34256167      79.30253430
O      68.50066341      98.45372074      79.68236929
N      72.47475784      97.76586036      80.78030028
H      74.17173207      97.16303767      80.14724196
C      72.77144488      99.52897501      82.85144032
H      72.06846669     101.34122255      82.16924912
H      74.74431915      99.98817851      83.23127530
C      71.49587962      99.11890440      85.42902701
O      72.01555436     100.45872036      87.19403138
N      69.91606842      97.10445615      85.69925787
H      69.59292523      96.12557792      84.09299050
C      68.52522985      96.44872112      88.07086439
H      68.09626198      98.31577072      88.83053437
C      66.02323222      95.10701544      87.44914444
H      65.07458960      94.98796268      89.27462005
H      66.42574393      93.12847199      87.04096355
C      64.30925045      96.43738277      85.68414006
C      63.40785100      95.27520108      83.51851370
H      64.30358127      93.47807136      83.15757598
C      61.65229525      96.47895674      81.95193059
H      60.88884582      95.35267986      80.42881118
C      60.81325677      98.89024752      82.65490878
O      59.21454832     100.08833400      81.03163388
H      59.03502432     101.86467674      81.35477708
C      61.77512746     100.06565729      84.83754267
H      60.91341226     101.87223564      85.23627492
C      63.55713937      98.96205712      86.26617576
H      64.19019769     100.04298057      87.87622258
C      70.13905612      95.10890517      89.90956810
O      71.57146868      93.54988096      89.15178784
N      70.33558766      95.90447995      92.27172599
H      69.47009302      97.57499801      92.59864864
C      72.12893794      94.97662433      94.29373314
H      74.06401768      95.12024353      93.59831386
C      71.78878719      96.73406980      96.56329444
H      72.51444211      95.61724155      98.13554674
H      69.81780266      97.26508289      96.82974585
C      73.29489907      99.15291948      96.51983074
C      72.11759957     101.50940819      96.66156021
H      70.08236433     101.53208491      96.53116910
C      73.45552581     103.76385168      96.39321908
H      72.51444211     105.55720195      96.14188548
C      76.02177413     103.65235783      96.08141423
O      77.43150997     105.66302663      95.74693268
H      76.62837629     107.22394056      96.20424644
C      77.26143461     101.39413488      95.96047175
H      79.29478012     101.36389926      95.77905802
C      76.03878167      99.11701468      96.15322383
H      76.97041674      97.30287742      96.10598068
C      71.44863646      92.16471157      94.83230514
O      69.31135600      91.30110665      95.32174426
N      73.58402720      90.79654972      95.01749832
H      75.19785347      91.81511220      94.98348325
C      73.65016761      88.09991027      94.78506198
H      71.70563925      87.42716771      94.83608459
C      74.23787250      87.33268139      91.99015677
H      76.10681182      88.03754930      91.49126902
C      73.96386219      84.57368097      91.35520872
H      75.35092130      83.48897807      92.42479382
H      74.51377254      84.29211175      89.38989336
H      72.08925369      83.77621647      91.65567521
O      72.52767019      88.28888290      90.28940308
H      72.15917355      90.05577701      90.46325790
C      75.42462062      86.63159293      96.71069310
O      77.14616130      88.00353423      97.46847335
N      75.46052543      84.20896379      97.43256855
H      74.08669439      83.07701773      96.74848762
C      77.25387570      82.79355879      99.10497633
H      79.10580749      83.67606097      98.93112151
C      76.34302762      83.05623074     101.95279389
H      76.08791457      85.07823790     102.25703982
C      73.84480942      81.68806889     102.24381174
H      72.33302837      82.61025533     101.19123418
H      73.39127512      81.74854013     104.25259081
H      73.89772177      79.70385626     101.69201166
C      78.25732036      82.16616965     104.11653052
H      78.66172180      80.15361113     103.95023460
H      77.21986062      82.36270119     105.88342462
C      80.82356871      83.55700822     104.31684151
H      82.15960520      83.30567462     102.76915566
H      81.65693801      82.93150881     106.09318424
H      80.56089675      85.58657428     104.54360866
C      77.58457780      80.04022755      98.30184265
O      76.17673170      79.06701850      96.78439242
N      79.66705619      78.71363968      99.10308661
H      80.97285708      79.57724460     100.19534842
C      80.38326247      76.10959682      98.36231389
H      78.83557662      74.88505417      98.95568796
H      82.15393603      75.78645362      99.36575857
C      80.77443582      75.85826322      95.49937853
O      82.25598124      77.12626957      94.27672560
N      79.21352189      74.23498831      94.48837495
H      77.92850799      73.41673682      95.64110800
C      79.06234377      73.57358410      91.70669782
H      80.32279123      74.90962061      90.77695247
C      79.56690070      70.78812752      90.97348401
H      78.28755599      69.38973005      91.77850742
C      79.59713633      70.70308984      88.02173151
H      80.76687692      72.21487089      87.25639235
H      77.64882850      70.53868365      87.37166566
H      80.49286660      68.91729847      87.52473349
C      82.09157505      70.21743017      92.14889378
H      81.80433666      70.30624731      94.18601874
H      83.31611771      71.76889548      91.56685807
C      83.04210739      67.63606403      91.40245188
H      83.71296023      67.71354281      89.45414405
H      81.65693801      66.12050353      91.56496835
H      84.68427955      67.30158247      92.60431782
C      76.37704268      74.42018149      90.82608536
O      74.50810337      73.01611484      91.20969980
N      76.24665157      76.69352225      89.90767837
H      77.85102922      77.72531281      89.87933247
C      74.04134096      77.92184435      88.75116587
H      73.33269359      76.74832431      87.21292865
H      74.65172257      79.54511925      87.64000679
C      71.98720847      78.95363492      90.44436064
O      70.12393832      80.02888919      89.50138721
N      72.02500299      78.51710814      92.94446855
H      73.70307995      77.98231559      93.67579264
C      69.71386770      78.92339930      94.52616948
H      68.17374076      78.03333820      93.48870973
C      70.07858488      77.41161825      96.99226232
H      71.90406051      77.97097723      97.76705010
H      70.56802400      75.46142069      96.55195609
C      67.72776536      77.33224974      98.65333175
N      66.16118223      75.32158094      99.04072564
H      66.39739803      73.61515808      98.22058442
C      64.51145117      75.84881459     100.90399578
H      62.79746941      74.76978086     101.15154993
N      65.12939167      78.12404507     101.90555073
H      63.88217230      79.08780549     102.98269473
C      67.27990021      78.97820136     100.60352930
H      68.34192641      80.69218313     100.92100332
C      69.01466898      81.63137710      95.03639558
O      70.33936712      83.11670199      96.46502867
N      67.00211044      82.44206969      93.84019883
H      66.34070623      81.22130649      92.53250822
C      65.98732742      84.91383171      94.06318653
H      67.50477764      86.26120657      93.70791798
C      64.06358604      85.21807765      91.83897866
H      62.59526869      83.79889318      92.10920952
H      64.89695534      84.78910977      90.00216468
C      62.58204061      87.69550884      91.73693344
H      61.38962329      87.92227600      93.40367205
C      64.22043332      89.96695987      91.44402586
H      65.46954240      90.29199280      93.04840350
H      63.08092835      91.67905191      91.32875256
H      65.13317113      89.63625777      89.62799887
C      60.60916633      87.96384998      89.57508654
H      61.40474110      87.38748345      87.76472873
H      59.58871413      89.74019271      89.37099610
H      59.26746064      86.42750249      89.86799412
C      64.72876970      85.43539617      96.62565541
O      63.07714890      83.83479798      97.40989183
N      65.39584308      87.53488210      97.87665423
H      66.92085221      88.49486307      97.25115482
C      64.24877921      88.26053701     100.30117309
H      63.34360031      86.62781347     101.17044719
C      66.67896724      89.01075836     101.97169115
H      65.90606919      89.82334067     103.69890100
H      67.79957495      90.54710585     101.18367528
C      68.54034766      86.78277103     102.58774193
H      69.22442860      85.85680514     100.87753962
C      70.86093157      87.94117326     103.92188871
H      72.18562972      89.08634741     102.83529608
H      72.11570986      86.54277579     104.76659637
H      69.85937664      88.89926450     105.44689784
C      67.36682762      84.99508994     104.36975384
H      65.61316161      84.48486384     103.41355233
H      66.83959398      85.94373255     106.12153013
H      68.66317987      83.42850683     104.68722786
C      62.24566932      90.28065444     100.06117785
O      60.18208818      89.97640850     101.00982046
N      62.82203585      92.28754378      98.57774269
H      64.35082443      92.20817528      97.44012745
C      61.11183353      94.48718521      98.03161179
H      59.18620242      93.75775085      98.07885495
C      61.45387400      96.39580879     100.16700252