 %block lattice_cart
   140.777   0.000   0.000
   0.000 144.511   0.000
   0.000   0.000   162.462
 %endblock lattice_cart

 %block positions_abs
N      92.76474928      44.86486196      81.87917613
H      91.91248271      44.43400436      83.53268665
H      94.65447559      44.99336335      82.10783301
H      92.41326018      43.44756722      80.65274375
C      91.62902376      47.12875408      80.79636295
H      92.05799164      48.79360296      81.93208846
C      92.55876911      47.70890006      78.08649542
H      92.34900949      45.90043198      77.12462472
H      94.58266599      48.07928642      77.99578855
C      91.05454696      49.96145382      76.72589247
H      89.04387817      49.64964898      77.04336649
H      91.42115387      50.07861686      74.70388532
S      91.87090873      53.07950224      78.09783377
C      95.16848115      53.27414405      77.76713167
H      96.18515390      52.39542132      79.32804560
H      95.57288258      55.20922380      77.19076514
H      95.68248670      52.23479458      76.06259853
C      88.74719114      46.69978621      80.72077390
O      87.97429307      44.63431535      79.83827171
N      87.14659295      48.46479058      81.49556168
H      87.78154099      49.92743875      82.54435979
C      84.35924664      48.10007341      81.73366720
H      83.74130613      47.13820271      80.01968543
C      83.92649931      46.31050259      84.08259701
H      84.50664529      47.42922056      85.71343082
H      85.40993447      44.88186949      84.18653195
C      81.29411056      45.26170448      84.36416623
O      79.69918155      45.25036613      82.69364817
N      80.54955839      44.08251526      86.42396791
H      78.84502526      43.23024870      86.48254942
H      81.60024622      43.84063030      87.99999965
C      82.94951081      50.61151968      82.06625903
O      84.30633430      52.52770216      82.34404880
N      80.39838028      50.55671761      82.51601389
H      79.42517123      48.91454545      82.45365293
C      78.93384239      52.89430906      82.68042008
H      78.83746635      53.66720712      80.77368623
C      76.04634059      52.29337609      83.10749823
H      75.55123229      51.00269302      81.58437882
C      75.25832471      51.09151016      85.56414244
H      73.43473882      50.21467715      85.18808690
H      74.86715137      52.41053913      87.09671048
H      76.73798042      49.76303256      86.10649389
C      74.40038897      54.74435112      82.70498653
H      74.71030408      56.08038763      84.24133402
H      72.45775032      54.06404965      82.75789886
C      74.47408829      56.29014725      80.31259301
H      76.20696732      57.39374741      80.17464299
H      72.89805655      57.61106594      80.19731971
H      74.33802800      54.94466211      78.75734826
C      79.94106652      54.82371963      84.53613132
O      79.89004391      57.05926586      83.99755932
N      81.08624066      54.05082157      86.73577275
H      81.23741877      52.16298498      86.98710635
C      82.15960521      55.93109925      88.53479220
H      80.90860639      57.56571251      88.53290247
C      81.98008121      54.61018055      91.04434874
H      82.37692373      56.12385133      92.38605443
H      83.53532596      53.28737214      91.31835906
C      79.53666509      53.69555302      91.85315161
C      79.04344652      51.00836220      91.56780293
H      80.35491658      49.62508254      90.84214803
C      76.65861191      50.11263193      92.22920714
H      76.33924816      48.09818368      92.27267085
C      74.77455478      51.66220751      93.17029085
H      72.94340998      51.03859782      93.81846697
C      75.35848021      54.31727298      93.42918335
H      73.89961149      55.61551495      94.01877796
C      77.76410180      55.26402586      92.81502230
H      78.29889435      57.19154670      93.22509291
C      84.84679603      56.86084459      88.09259624
O      85.93149893      58.08349752      89.71398142
N      86.08456676      56.14274859      85.93641852
H      85.16804950      54.81994017      84.90840741
C      88.63380756      56.88541104      85.17863827
H      89.48229467      58.00412901      86.68663987
C      90.34967905      54.55159904      84.70620669
H      89.99252078      53.57650026      82.92797423
H      90.23629547      53.28170296      86.32381241
C      93.22206304      55.35662245      84.62872791
H      93.35812334      56.39597192      86.39940147
H      93.70016380      56.59061373      83.05080644
C      95.13446607      53.13997348      84.47377035
O      97.34166641      53.60673588      84.09204564
O      94.41825980      50.96111904      84.99722454
C      88.42026848      58.32160303      82.72010434
O      89.48607412      60.35116909      82.46688101
N      86.73463261      57.27091520      81.08360135
H      85.93527838      55.57016152      81.41430345
C      86.06566950      58.32349276      78.77435579
H      87.62280398      58.54837019      77.44587820
C      83.89059451      56.81171171      77.79547756
H      82.33912921      57.30870973      79.05214556
H      84.49719666      54.85773470      77.54414396
C      83.09124028      57.57705087      75.15930936
H      84.51798365      57.04414805      73.77602970
H      83.06667384      59.62551419      74.96844700
S      80.01476584      56.15408695      74.16342359
C      80.80845089      56.08605680      70.79026212
H      79.22863970      55.37362998      69.68099278
H      82.38448264      54.86151415      70.28192574
H      81.24686740      58.01357764      70.21200587
C      85.19639539      61.15241305      78.95010034
O      86.27731884      62.82671056      77.76524194
N      83.56745131      61.79114054      80.77557596
H      82.58479363      60.53636227      81.82437406
C      82.78321489      64.46321355      81.24800754
H      82.40337990      65.25122942      79.38095794
C      80.26798917      64.39518340      82.72955297
H      79.95429460      66.17530559      83.71410038
H      80.75553856      63.04969827      84.21109840
C      77.79244770      63.75267646      81.39351646
H      78.32157107      62.16719608      80.18976080
C      75.71374875      62.65096602      83.24355852
H      76.28633583      60.85572602      84.07503810
H      73.87315533      62.50167764      82.32893099
H      75.45107680      63.95109772      84.81959027
C      77.13860239      66.13562134      79.75701348
H      75.36414939      65.78224252      78.77435579
H      78.56723549      66.38317548      78.29436531
H      76.93829141      67.76078597      81.00801230
C      84.86002411      66.09971654      82.55002897
O      84.78443506      68.42030045      82.53491116
N      86.79888331      64.89407115      83.69520311
H      87.08045253      63.00812429      83.60260652
C      89.01175282      66.20743094      84.65518408
H      88.65648427      68.06881136      85.45831776
C      90.34400987      64.82226155      86.63561726
H      91.78209159      65.98444323      87.54079616
H      91.35501345      63.16497157      85.94586715
C      88.74152196      64.02857650      88.85415595
H      87.75697455      62.28813856      88.36849629
H      87.25997653      65.43264315      89.13761489
C      90.17960368      63.53157848      91.22765220
H      90.82211063      65.30981094      92.04590369
H      91.80098886      62.29002829      90.95553161
N      88.70561716      62.08593785      93.11926824
H      87.45083888      60.85194657      92.38038525
C      89.13836448      62.28624884      95.59103025
N      90.75974966      63.79614016      96.60959274
H      91.14903328      63.60149835      98.46908343
H      91.96917450      64.67675262      95.42473434
N      88.05177185      60.74801162      97.21430516
H      88.51853425      60.87084383      99.06056776
H      87.07856280      59.19843604      96.66250507
C      90.76730856      66.83482007      82.41207895
O      91.85957037      68.86816559      82.40640977
N      90.88258187      65.29469313      80.37873343
H      89.78843033      63.73188947      80.45054303
C      92.04854300      65.83515485      77.96933238
H      93.94771795      66.53435359      78.35672628
C      92.05421218      63.56370383      76.09472388
H      90.15314751      62.87395372      75.70355054
C      92.96506027      64.52746424      73.48123239
H      93.84756245      63.05914690      72.33605825
H      94.08944742      66.25278437      73.43398923
H      91.19060726      65.10949995      72.61195829
C      93.55654460      61.33382678      76.95454935
H      93.26174730      59.70677242      75.72433752
H      92.97450890      61.02391166      78.90663664
C      96.42703887      61.58893983      76.91108565
H      97.23395201      59.92409095      77.81626455
H      97.12623761      63.32370858      77.77658030
H      96.98828759      61.67208779      74.93254220
C      90.63691745      68.16518740      76.88840893
O      91.88791627      70.00200137      76.31015268
N      88.17649379      68.07448053      76.65975205
H      87.37524983      66.42097001      77.16997815
C      86.77431686      70.11538495      75.60906422
H      87.63603206      70.58781653      73.79870641
C      83.98508083      69.25366975      74.99868262
H      82.77565599      70.90718028      75.20844224
H      83.39548622      67.90818462      76.44432325
C      83.71296024      68.06503190      72.38141168
O      82.97596698      65.80302951      72.30960208
O      84.30444457      69.16863207      70.42176549
C      86.75164015      72.53990381      77.03013841
O      87.34312448      74.44852739      75.82260329
N      86.07889758      72.49077093      79.48300316
H      85.71984958      70.77678916      80.24078341
C      85.70284204      74.79056785      80.98722531
H      86.06189004      76.53289551      79.94598611
C      82.97218752      74.99843775      81.87161722
H      82.91171628      76.13794271      83.58748871
H      82.34290866      73.20697720      82.66719200
C      81.19584479      75.95652899      79.72866758
H      79.37981780      75.81290979      80.69053828
H      81.31489755      74.52411644      78.25468106
C      81.67394555      78.65694789      78.88018047
O      81.22608041      80.45974679      80.39763070
O      82.35235729      79.14071782      76.63140616
C      87.52642794      74.92095897      83.25111743
O      88.65081509      76.82958254      83.79535861
N      87.83634305      72.84792920      84.61172037
H      87.04265800      71.17930087      84.12984017
C      89.37647000      72.86493674      86.89639949
H      91.11312848      73.97420608      86.90206867
H      90.11535299      70.96387207      87.17796871
C      88.11602255      73.85515333      89.37383068
O      86.82722920      75.73732073      89.32469780
N      88.45806301      72.41140242      91.30891043
H      89.83189404      71.09993236      91.13883506
C      87.35257312      72.71375863      93.75421628
H      85.30599952      72.92729771      93.65217106
C      87.78909989      70.32514457      95.31324049
H      89.71662073      70.08325961      95.99354196
H      86.98407649      68.66407514      94.40050268
C      86.40204078      70.33837266      97.82279703
H      86.66282301      72.17518663      98.71663758
C      83.47107527      69.83003628      97.68673673
H      82.66416213      69.98121438      99.57646305
H      83.24619784      67.87605927      97.07635514
H      82.72841283      71.15662415      96.29589817
C      87.53209712      68.34282167      99.55756578
H      89.54843509      68.46187443      99.96196722
H      87.23918954      66.46254399      98.76766019
H      86.29810583      68.40329291     101.20540713
C      88.39759177      74.99654802      94.98064865
O      90.63691745      75.07402680      95.46819804
N      86.75352987      76.74076541      95.78567206
H      85.04899674      76.43085029      94.98064865
C      87.38847792      78.90828149      97.29556339
H      89.43316179      79.11048220      97.44107231
C      86.47385038      81.40460995      96.01243922
H      86.39070242      82.97308279      97.34469627
H      84.49530693      80.93973727      95.67417821
C      88.07255884      82.19262582      93.58036146
H      88.05933076      80.61092489      92.25944276
H      90.10779408      82.33057584      93.87326904
C      86.92927442      84.56801179      92.31235510
H      86.94439223      86.17805861      93.59925872
H      84.91671590      84.22597133      92.03456533
N      88.11035337      85.14248859      89.84815199
H      89.65048031      86.25175794      90.05791161
C      87.02376074      85.13681941      87.67874618
N      85.12647552      83.63448700      87.14962281
H      84.61435969      83.74787057      85.31469856
H      84.44806377      82.42317243      88.45920315
N      87.63225261      86.69017444      85.89295482
H      86.53621135      86.99442038      84.36038678
H      89.22151244      87.72763419      86.10271444
C      86.46818120      78.53033622      99.91283433
O      84.49152748      77.36059564     100.43628852
N      87.68327522      79.90983643     101.59280102
H      89.07978297      80.99264961     100.87092557
C      87.25241762      79.92495424     104.40471378
H      85.86346878      78.49065197     104.90738098
C      89.83378377      79.10103357     105.50453449
H      90.12480162      80.07046317     107.29788476
H      91.31721892      79.83613711     104.27999184
C      90.31755370      76.20030368     105.91649483
H      89.12135695      75.61448852     107.48685739
C      89.71095155      74.35782053     103.56945475
H      90.59156402      75.20441791     101.91216477
H      87.65492933      74.47309383     103.51465268
H      90.06433038      72.41140242     104.14771100
C      93.04253904      75.42740562     106.67238535
H      94.51274612      76.28345164     105.51020367
H      93.53953706      73.42618545     106.71017988
H      93.50741172      76.24754684     108.50164042
C      86.43038668      82.66505740     105.24375226
O      85.85968933      83.19984994     107.39804026
N      86.51731409      84.41494396     103.35591567
H      86.74030179      83.65149453     101.61925719
C      85.57623038      87.00197929     103.51843214
H      84.70128710      87.28921768     105.35902557
C      87.69272385      88.90682341     103.07623618
H      89.22718162      88.65926926     104.42739049
H      86.88959017      90.79843945     103.21418620
C      88.87758225      88.84824189     100.38715564
H      87.22974091      88.81800627      99.15127463
H      89.98874132      87.16260602      99.97519530
C      90.36479686      91.31433473      99.67094936
H      91.44761004      91.00630934      97.94562924
H      91.75941488      91.74330260     101.12414890
C      88.73207332      93.56499877      99.19851779
H      87.27509434      93.84845772     100.62526115
H      87.62658343      93.07555966      97.53366890
N      90.23251602      95.84967788      98.74309374
H      91.52697854      95.55677030      97.37115244
H      91.02431134      96.42982386     100.38148646
H      89.28009396      97.23295754      97.83602511
C      83.33879443      87.45551360     101.74964831
O      82.88526011      86.09869011     100.01110010
N      81.94228668      89.43594678     102.17483673
H      82.42983607      90.54521612     103.65071298
C      79.99019940      90.55277503     100.53077484
H      78.91116568      89.07500905      99.58024250
C      77.98708951      92.05321772     102.17861618
H      78.92250403      93.53287342     103.26709854
C      76.14649608      93.56310904     100.51376730
H      76.98553456      95.03898529      99.34591644
H      75.05612400      94.65726058     101.87625997
H      75.15627949      92.11179924      99.43851303
C      76.53200025      90.24097019     104.05700414
H      77.55056273      88.60257747     104.77887959
H      75.06368290      89.63436804     102.74364435
C      75.23753772      91.56755806     106.36624969
H      76.78522357      91.67716218     107.72118346
H      73.80323545      90.23908046     107.02009499
H      74.32102046      93.36090833     105.93161264
C      81.26954411      92.15148349      98.46530398
O      83.13659371      93.41004121      98.96608145
N      80.09791380      92.18927801      96.27133173
H      78.40849848      91.32756282      96.05968238
C      81.02765915      93.22106858      93.94129918
H      82.06511889      94.96150652      94.30412663
C      82.86258340      91.44661557      92.67896201
H      84.42160760      90.94016892      93.92807110
H      83.64493009      92.46706778      91.06891519
C      81.68906336      88.96162547      91.76433447
C      81.05222559      88.70462269      89.13383544
H      81.59268731      90.08979208      87.73543797
C      79.96752268      86.44073057      88.31369422
H      79.84658020      86.21018396      86.28790761
C      79.27021368      84.54533508      90.01633763
O      78.36314505      82.33057584      89.08281283
H      78.54644850      82.06223470      87.29891119
C      79.72941717      84.76832278      92.59770377
H      79.14360201      83.19984994      93.76366491
C      81.03521805      86.96796421      93.52744912
H      81.62103321      87.07945806      95.47953640
C      78.95651911      93.88058306      92.13283110
O      76.88726879      92.90926374      92.24054550
N      79.53099591      95.63613881      90.28656849
H      81.23930849      96.47895675      90.38861371
C      77.76032235      96.26730740      88.15306749
H      75.84036042      95.86857515      88.78234635
C      78.22330530      99.03386672      87.23843995
H      76.60758930      99.42315034      86.02145620
H      79.95051515      99.22661880      86.13106033
C      78.01543540     101.02941771      89.34359506
H      79.18328627     100.87634988      91.03112066
H      76.08602484     101.18248554      90.05035270
C      78.29889435     103.62968111      88.27589970
H      77.19718391     103.92825787      86.56191793
H      80.30011452     103.86778663      87.84693182
C      77.97764088     105.24539711      90.67207266
H      79.49320138     104.71249429      91.96464546
H      76.12948854     104.81642924      91.46764744
N      77.91339018     108.00439753      90.09570614
H      77.63182096     109.08154153      91.64717144
H      76.54333861     108.26706949      88.79746416
H      79.54989317     108.66013256      89.36249233
C      78.24976147      94.32277902      86.04224319
O      80.44184399      93.99207692      85.26745541
N      76.21074677      93.09823637      85.12761566
H      74.49298556      93.67082344      85.72854863
C      76.52255162      90.98174290      83.24355852
H      78.48597726      90.36191267      83.30402977
C      74.96541713      88.62147474      84.06181002
H      72.97742505      89.05422206      83.73299764
H      75.26777334      88.49675280      86.09515553
C      75.56446038      86.17049971      82.58782349
O      77.29544968      86.09302093      80.85683419
O      74.56668488      84.07290350      83.11127768
C      76.22586459      91.96440058      80.45243276
O      76.71719343      94.20372626      80.03291352
N      75.54178366      90.46017844      78.59483179
H      75.51532749      88.60635693      79.04080720
C      75.01643974      90.93827920      75.91519988
H      76.70396534      91.55244025      74.90608603
C      74.37960198      88.52887815      74.42420582
H      73.12860316      89.18083372      72.92376313
C      76.68317835      87.41960880      72.92565286
H      78.02866349      86.99442038      74.42798527
H      77.18962500      89.01075836      71.72378692
H      76.09358374      85.66594278      72.02047395
O      73.10592644      86.59190868      75.69032245
H      71.50154880      87.31000467      76.14196704
C      73.10781617      92.98674252      75.25379567
O      73.13805179      93.75775085      73.05604397
N      71.46375428      93.85412690      76.94699045
H      71.51666661      93.00375006      78.65719276
C      69.47576220      95.77408883      76.41408763
H      70.01433419      96.72084171      74.66609079
C      66.89061660      94.51175165      75.99834784
H      65.75111163      95.93660529      75.04025660
H      66.10449045      94.31710984      77.89185361
C      66.99455155      92.01542319      74.32971951
H      68.59137028      92.06833553      73.02958780
H      65.30891568      92.08723279      73.14675083
C      66.74132822      89.60791187      76.02669374
O      68.73121003      88.68194598      76.96966717
O      64.58704022      88.61958501      76.32338077
C      69.44174712      97.84900832      78.42475643
O      67.62760986      99.20016264      79.02568939
N      71.57524813      98.23262276      79.63418127
H      73.02655794      97.02319792      79.36017095
C      72.30846194      99.97306070      81.66752678
H      71.80768447     101.87979455      81.06470409
H      74.35881499     100.01085522      81.86594804
C      70.95919735      99.48929076      84.30747444
O      70.98754325     101.19571362      85.90807263
N      69.50410809      97.52964458      84.69297861
H      69.29245874      96.49596428      83.10371878
C      68.07736472      97.18193493      87.04379814
H      67.38572489      98.95638794      87.82992429
C      65.56024927      95.76652993      86.46932134
H      64.65507037      95.59645456      88.31180450
H      65.88150275      93.86924471      85.73988698
C      63.78579627      97.26508289      84.71754505
C      63.26990098      96.13880601      82.35349743
H      64.18074907      94.35490437      81.96043436
C      61.85260625      97.21972946      80.37306425
H      61.62961854      96.33911700      78.54758864
C      60.52979783      99.44015788      81.06092463
O      59.16541543     100.54753750      79.20899285
H      58.90841265     102.29175488      79.63607099
C      60.98522187     100.66470053      83.44197979
H      60.03091008     102.43726381      83.77457162
C      62.65385021      99.73306546      85.36950063
H      63.08281808     100.82343754      87.04190841
C      69.73087525      95.67204361      88.93352445
O      71.32391453      94.08089405      88.23243599
N      69.43418822      96.20305670      91.43930154
H      68.57814220      97.83955969      91.91362285
C      70.79857061      94.75363662      93.40461691
H      72.75632707      94.98229351      92.80746339
C      70.61337744      96.19738752      95.92362208
H      71.44485701      95.09756681      97.45241067
H      68.67073879      96.26163822      96.60203383
C      71.57902758      98.91859342      95.89149674
C      69.84803828     100.99540263      96.11826389
H      67.82981058     100.68737724      96.06724128
C      70.83636514     103.38968587      95.86315084
H      69.42851904     104.85800322      95.69496520
C      73.40450320     103.82810238      95.81401796
O      74.30590265     106.29230549      95.73653918
H      72.87915928     107.40535429      95.61748642
C      75.17706648     101.84011030      95.53433846
H      77.19151473     102.14435623      95.37938091
C      74.20007798      99.29086950      95.60614806
H      75.56635010      97.79231653      95.83291522
C      70.39227946      91.91904715      93.75421628
O      68.19830721      91.02898606      94.03011632
N      72.50688320      90.55844421      93.72964984
H      74.20007798      91.36913679      93.38571965
C      72.58058253      87.71062665      93.42918335
H      70.67006923      87.11725259      93.91862247
C      73.18907440      86.94906695      90.69096992
H      75.08069044      87.38559373      89.99933009
C      72.44452223      84.28833230      89.77445266
H      73.19096413      84.02566034      87.87149826
H      70.39038973      84.21652270      89.89539515
H      73.48954088      83.11292253      91.10293026
O      71.51855634      88.30022126      89.12816626
H      72.02500299      90.03687974      88.99588542
C      74.45519103      86.58812922      95.27166651
O      76.19940842      87.85046640      95.94818853
N      73.88071423      84.16172064      96.09369745
H      72.35003592      83.24142392      95.41906516
C      75.44351789      82.50065121      97.73964907
H      77.27655242      83.41716847      97.94184979
C      74.28700539      82.39860599     100.46841387
H      73.88071423      84.33368573     101.04667012
C      71.82469200      80.93973727     100.48731113
H      70.87604939      81.33846953      98.70340949
H      70.76833499      81.58791340     102.13326275
H      72.18185028      78.93284793     100.19629328
C      75.97831044      81.32524144     102.54522309
H      75.85358850      79.26921921     102.59435597
H      75.33391377      82.09247032     104.34613226
C      78.65983208      82.15105184     102.69262174
H      79.63871031      81.63893601     100.95407353
H      79.74264525      81.35358734     104.25353567
H      78.88281978      84.19762544     102.78143887
C      75.87059604      79.88338026      96.44896600
O      74.57991297      79.25599113      94.62160065
N      77.43339970      78.32246633      97.83791484
H      78.31590189      79.08024658      99.35347534
C      78.25354092      75.67873922      97.28800448
H      76.54900778      74.58080823      97.63949358
H      79.67839456      75.07024735      98.64671770
C      79.28155203      75.37449328      94.68396162
O      81.19773451      76.46486536      94.13972045
N      77.73008673      74.09703829      93.16651139
H      76.38082214      72.93863606      93.85815122
C      77.59969561      74.54868288      90.43207742
H      78.70707523      76.27778246      90.26200205
C      78.69573688      72.27345240      88.79746416
H      77.39938463      70.70120011      89.08470256
C      78.53322041      73.24288200      86.01956648
H      78.65227317      71.47031872      84.97643755
H      80.13003915      74.53734452      85.86838837
H      76.83246673      74.28979038      85.51878901
C      81.28844138      71.51945160      89.87649788
H      81.09190984      70.20987127      91.45630908
H      82.29755523      73.15973404      90.60971169
C      83.07801220      70.15128975      88.01133801
H      83.89059451      71.32669952      86.53168231
H      81.91960997      68.71320803      87.09671048
H      84.54255009      69.00422588      88.89384020
C      74.97675549      75.49921522      89.64406155
O      73.15316960      73.95719855      90.08247805
N      74.76321642      77.85192448      88.52534357
H      76.31279200      78.95741437      88.39117300
C      72.57302362      78.55301294      86.93419401
H      72.32169002      77.12626957      85.46965612
H      73.10781617      80.30856868      85.99877949
C      70.09559243      78.91584039      88.28345860
O      68.30413188      79.72464325      87.11560774
N      69.91228897      78.40939374      90.76277952
H      71.45241592      77.61381896      91.55646458
C      67.61438178      78.77033147      92.26511194
H      66.20653567      78.01066149      90.96686997
C      67.56335917      77.00910654      94.51199653
H      69.10915529      77.37571345      95.82346659
H      67.87894346      75.07402680      93.87704849
C      65.33159239      76.98265037      96.10125636
N      63.31336469      75.38772137      95.98409333
H      63.06958999      73.80791017      94.93907468
C      61.74489185      75.96597762      97.82090730
H      60.10460941      74.84725964      98.28955943
N      62.48377484      78.01066149      98.97930953
H      61.38395412      78.99142944     100.19062410
C      64.78735121      78.74954448      97.84547374
H      65.84370822      80.39927555      98.42373000
C      67.15706801      81.62948738      92.85659628
O      68.55924493      82.81812523      94.28333964
N      65.20687045      82.71041083      91.61315636
H      64.02957096      81.48397845      90.74766171
C      64.27334566      85.29177697      92.09692630
H      65.82859041      86.54844497      91.59425910
C      62.21165425      85.64137634      90.15995683
H      61.01545749      83.97463773      89.98232256
H      63.02990574      85.68295032      88.27023052
C      60.62995332      88.08290274      90.61160142
H      59.79469429      88.01865204      92.49376883
C      62.24755905      90.47718597      90.19208218
H      63.86327505      90.53387776      91.46953716
H      61.13262052      92.13258623      90.70419801
H      62.52345909      90.63592299      88.15684694
C      58.48511396      88.18305823      88.71053675
H      59.20132023      87.85424585      86.80758235
H      57.13962882      89.70617764      89.04879776
H      57.47222066      86.42372303      89.06580529
C      63.36816675      85.69995786      94.82758082
O      62.21165425      83.96140965      95.84803303
N      63.93697437      87.89393011      95.93307072
H      64.96309576      89.21106935      95.00521510
C      63.08470780      88.69706379      98.48042179
H      62.39306797      87.18717246      99.70118498
C      65.54324174      89.29043785      99.91094461
H      64.98010330      90.24097019     101.65138254
H      66.84148371      90.41293528      98.77143964
C      66.84148371      87.02087655     100.89171256
H      67.20242144      85.49775714      99.55189661
C      69.56079988      87.66338349     101.70618460
H      70.73620965      87.95062189     100.03755627
H      70.20708628      86.36136207     103.16694304
H      69.64016838      89.47752076     102.68317311
C      65.54135201      85.93806337     103.24253209
H      66.32936788      84.12014666     103.80189108
H      63.52312431      85.62247908     102.97419096
H      65.65473559      87.30433550     104.78076931
C      61.19498149      90.83245452      98.29144915
O      59.29202709      90.76064492      99.45930002
N      61.59182402      92.75997536      96.65872562
H      63.02612629      92.69383494      95.40205762
C      59.62839838      94.65348113      96.15416869
H      58.06181526      93.39303368      95.70819328
C      59.36761615      96.37124235      98.55790056