 %block lattice_cart
   140.777   0.000   0.000
   0.000 144.511   0.000
   0.000   0.000   162.462
 %endblock lattice_cart

 %block positions_abs
N      89.00324905      39.91755847      82.79096907
H      88.83884285      39.97613999      80.88990441
H      87.69744816      38.77994324      83.59032330
H      90.79093015      39.40922210      83.22560613
C      88.54215582      42.51215269      83.76039868
H      89.12986071      42.61041846      85.73138321
C      89.91976632      44.58707220      82.29775051
H      89.42465802      44.15432486      80.34566323
H      91.94177346      44.22424473      82.44136970
C      89.42465802      47.42733083      82.93269854
H      88.67254694      47.54638359      84.84510158
H      88.05082699      48.16621382      81.58910313
S      92.21767350      49.33406469      82.77774099
C      92.90742361      49.67988460      79.50284529
H      94.41731493      51.08017180      79.43481514
H      91.27470007      50.27136895      78.39546566
H      93.44410588      47.86385762      78.69593216
C      85.76803761      43.08851922      83.73205277
O      84.56239222      42.77293493      81.81776003
N      84.75136484      43.97102141      85.78807500
H      85.85118556      43.95779332      87.34898895
C      82.26826447      44.95745854      86.21326343
H      81.04183210      44.30361324      84.69392347
C      81.36308557      43.90299126      88.61510556
H      79.81917916      45.10863665      89.25572278
H      82.82951318      43.79716659      90.05696675
C      80.33129499      41.19879291      88.55274460
O      81.36119584      39.37898648      89.47304131
N      78.12787411      40.80761956      87.67213213
H      77.64599390      38.96135695      87.63055816
H      77.07340684      42.13609716      86.80096830
C      82.30227955      47.90165214      86.57231143
O      84.29783052      49.10918725      86.56664224
N      80.08563057      49.10540780      86.64412103
H      78.48314267      48.06605833      86.67246692
C      79.96846754      51.90598221      86.41924360
H      81.01915537      52.29715554      84.69014401
C      77.25293084      52.89619878      85.96948873
H      76.57640881      52.01369660      84.23660971
C      75.51438262      52.45778228      88.14456372
H      75.40288877      50.59451214      89.01383782
H      73.59820014      52.95289057      87.56819720
H      76.02271900      53.77303179      89.64689613
C      77.32474043      55.79314922      85.31375371
H      78.40188443      56.77202745      86.77262242
H      75.51249289      56.68887949      85.70114760
C      78.54361391      56.43376645      82.76640263
H      77.14710616      55.94999651      81.33210035
H      80.36908952      55.56260262      82.37144983
H      78.70613036      58.48600923      82.70971084
C      81.22324581      53.22501116      88.76250422
O      82.60274603      55.18654709      88.42046375
N      81.03805263      52.20644868      91.06986005
H      79.82862780      50.74757997      91.28906831
C      82.28527200      53.31193857      93.28461928
H      81.46135134      55.17331900      93.60209331
C      81.80528152      51.46567597      95.58819567
H      83.13375912      49.91043122      95.35764905
H      79.84185589      50.84206629      95.58441622
C      82.55550286      52.67510081      97.99759671
C      81.96590826      55.16576009      98.54561735
H      81.01915537      56.37518493      97.20202194
C      82.62920220      56.14841777     100.91911359
H      82.14732199      58.09105643     101.31406639
C      83.92933389      54.64986480     102.68789742
H      84.37341958      55.35662244     104.55116756
C      84.51514905      52.17810280     102.23625283
H      85.33151082      50.99513411     103.68378319
C      83.65721330      51.11418688      99.87409494
H      83.89342910      49.11674616      99.52827502
C      85.08017722      53.53303655      92.95013773
O      86.27448426      54.84828608      94.39577837
N      86.17621848      52.24046375      91.14733882
H      85.02159570      51.29749032      89.95681125
C      88.87474765      52.07416785      90.64278190
H      89.93866357      52.57494531      92.33408696
C      89.54937996      49.36241058      90.10420991
H      91.57705628      49.13942287      89.82075095
H      88.70089284      48.85596394      88.29952127
C      88.81994559      47.27615273      92.07141499
H      86.78471036      47.24969656      92.38699930
H      89.55126968      47.79960693      93.92334679
C      89.59851283      44.70801468      91.36654709
O      88.28137360      43.49481038      89.74138246
O      91.80004399      43.88409400      92.00905403
C      89.43221693      53.94121744      88.54518569
O      91.08572745      55.60984577      88.82108573
N      88.11885713      53.53681601      86.42680250
H      86.99635971      51.99857880      86.57609088
C      88.21712290      55.01836144      84.17235901
H      90.02937044      54.65175453      83.26718010
C      86.04204791      54.18310240      82.47727450
H      84.32050725      54.42498738      83.58276439
H      86.33495550      52.17621306      82.11822650
C      85.83417802      55.55693344      79.93181316
H      87.59918239      55.35284300      78.89057396
H      85.49969646      57.57705087      80.16802896
S      83.34918792      54.31916270      77.76051763
C      83.69311810      56.59628290      75.30009397
H      85.57717525      56.48478905      74.47806303
H      83.43233587      58.50868594      76.01818997
H      82.30416926      56.35817739      73.79776154
C      88.21145372      57.94932696      84.73738718
O      89.74780121      59.23434085      83.69047879
N      86.52392812      58.99623533      86.31341893
H      85.36930535      57.81515638      87.27339989
C      86.34440412      61.71744121      86.79907858
H      86.53904594      62.51868518      84.91313172
C      83.72524345      62.56781806      87.96881917
H      83.67233112      64.62006084      88.13700482
H      83.52871192      61.84783233      89.88878110
C      81.51237394      61.59271929      86.25294768
H      81.61063972      59.57260186      85.85988460
C      78.86864683      62.14640909      87.31875332
H      78.61920296      60.85572602      88.90612343
H      77.42489593      61.53413776      85.98271682
H      78.65132830      64.11172446      87.89134039
C      81.77693562      62.73978315      83.65268428
H      79.94390110      63.25945789      82.86655813
H      82.61030494      61.30737061      82.43570052
H      82.91644059      64.45565464      83.63945619
C      88.58372981      63.10450033      88.11999728
O      89.29426691      65.30414176      87.68347049
N      89.98779645      61.53602749      89.59398379
H      89.50591624      59.72566968      89.95492153
C      92.29137284      62.40719132      90.85065180
H      91.94933237      63.99267169      92.12243760
C      93.27780997      60.32660266      92.46825753
H      95.18265410      60.54581090      93.22036859
H      93.81071278      58.82427024      91.16434637
C      91.27470007      59.38551895      94.39766808
H      89.60040256      58.58427500      93.50193781
H      90.54526571      60.97666850      95.48426072
C      92.62774411      57.17642888      95.82441145
H      94.29448272      57.89452488      96.80517941
H      93.39308327      55.81771566      94.48270577
N      91.05171237      55.97834240      97.77460901
H      90.36574171      54.26058118      97.30406716
C      90.94588769      56.47534042     100.10842100
N      91.81705152      58.53892156     101.16666775
H      91.82838988      58.50112703     103.07529131
H      92.59939823      59.83905327     100.00826552
N      90.08984168      54.75002030     101.68067329
H      90.51503010      55.10717858     103.50803864
H      89.12230181      53.27603378     100.95123895
C      94.41353548      63.24434007      88.94580767
O      96.16909123      64.58982522      89.83964822
N      94.23968066      62.49222900      86.59120868
H      92.82805511      61.31115006      86.08476204
C      96.00468503      63.33126748      84.51817893
H      97.36339825      64.58793549      85.42713728
C      97.55615035      61.28847334      83.19537050
H      98.62762516      62.19743170      81.69114835
C      99.27580129      60.15652728      85.27595917
H     100.50979256      58.86962367      84.24038916
H      98.01346410      59.15308262      86.55341416
H     100.42475488      61.27902472      86.56664224
C      95.82327131      59.34961415      82.04452718
H      94.93132049      60.30581566      80.45526735
H      94.30393136      58.83560859      83.33898970
C      97.19332289      56.78525554      81.22249623
H      96.10673026      55.60984577      79.92803370
H      97.74512298      55.75913415      82.92324991
H      98.93565055      57.33705563      80.27385362
C      94.66864854      65.01690337      82.53585602
O      95.81193296      66.57781729      81.13367909
N      92.11940773      64.75990058      82.26751488
H      91.15375760      63.47299696      83.29363628
C      90.86651919      66.17530559      80.19259540
H      91.88508167      66.27546109      78.40491431
C      88.25869689      65.02824171      79.49528638
H      87.08328712      65.37784109      81.15068663
H      88.40042635      62.98166812      79.31576238
C      87.06627957      66.09215763      77.10478259
O      88.50247158      66.26979191      75.22639464
O      84.69467305      66.30380698      77.12179013
C      90.49046365      68.89084230      80.96171401
O      90.60195751      70.58403707      79.36111582
N      89.71000668      69.35760470      83.30497464
H      89.58717447      67.76078596      84.34432410
C      89.86685397      71.77078520      84.55786317
H      90.23346088      73.31658133      83.24828285
C      87.22123713      72.28479076      85.77106746
H      87.34973853      73.57169437      87.37733483
H      86.44644935      70.47065351      86.37011071
C      85.12175120      73.12949842      84.03629871
H      83.42099751      72.76478124      85.13989889
H      85.13308955      71.90306604      82.37900874
C      85.12742038      75.94330091      83.26340065
O      87.14942754      77.26988877      83.28229791
O      83.17533309      77.15272574      83.00261843
C      91.96445019      71.90873523      86.52128881
O      93.51402576      73.56980465      86.68380527
N      91.97578853      70.10971577      88.23905003
H      90.60195751      68.81336352      87.96126026
C      93.48567986      70.27601169      90.56341339
H      95.18832328      71.41551665      90.34987433
H      94.25857792      68.39762373      90.89978468
C      92.07027485      71.19630840      93.00116034
O      90.15031292      72.53423463      92.90289458
N      92.83561402      70.27790142      95.19891204
H      94.13763545      68.90029094      95.40678193
C      91.47879052      70.98843850      97.51760623
H      89.43788611      71.11693990      97.28516989
C      91.80571317      68.82281215      99.39410445
H      93.80126415      68.74722310      99.90433057
H      91.30493569      67.00300572      98.57396324
C      90.54904518      68.83604023     101.87531510
H      91.18210348      70.49710966     102.91466458
C      87.63508719      69.03446150     101.71657809
H      87.00769806      68.16518739      99.95913262
H      86.84329188      70.93174672     101.84885894
H      86.62597335      67.93086133     103.13387284
C      91.30682542      66.67608307     103.71590854
H      93.32316339      66.75356184     104.12786887
H      90.64731095      64.82415128     103.09607830
H      90.56416298      67.10883038     105.58862731
C      92.18365843      73.64350398      98.46624883
O      94.36062315      73.99877252      99.09741743
N      90.37896980      75.43496452      98.45302076
H      88.64798050      75.17418229      97.69524050
C      90.97423360      78.01633066      99.15221949
H      92.99624074      78.38860675      99.27694142
C      89.74213203      79.84369601      97.32485414
H      90.27692459      81.71452506      97.99948645
H      87.68988927      79.74543024      97.17934522
C      90.97045415      79.67551038      94.64333250
H      90.61140615      77.80846078      93.85153719
H      92.88474690      80.36903992      94.32207904
C      89.23946483      81.23264485      92.88021786
H      89.21111894      83.10158417      93.74382278
H      87.33840016      80.43895980      92.85943087
N      90.05015742      81.67106135      90.25349829
H      91.46934189      82.94095744      90.14578388
C      89.11474290      80.55801255      88.14645344
N      87.13242000      79.08591576      88.23905003
H      86.71101103      78.04089710      86.69892308
H      86.91888092      78.37726840      89.99838524
N      90.11440812      80.90194274      85.80130309
H      89.31694361      79.81723984      84.44825904
H      91.89642004      81.57846476      85.72571404
C      90.16165127      78.52655677     101.96035280
O      88.05838590      77.90672654     102.73892004
N      92.00980361      79.57157542     103.51748728
H      93.77480798      79.84180628     102.84285499
C      91.80760290      79.76432750     106.30105413
H      90.25046842      78.63994035     107.04560631
C      94.46644781      78.84025134     107.10985700
H      94.48534509      78.98198082     109.16587922
H      95.87996311      80.09691933     106.29727468
C      95.24879452      76.02644886     106.23491372
H      95.85161720      76.01700022     104.26581889
C      97.56748869      74.98520966     107.67110572
H      97.19143317      74.98898911     109.69500260
H      99.37784650      75.94141117     107.46512555
H      97.90763943      73.11060115     106.88686929
C      93.16064694      74.03656705     106.45223223
H      91.86996387      74.31624654     104.87431076
H      92.30838037      74.15184035     108.32306128
H      93.68410112      72.05424415     106.26325961
C      91.30682542      82.41372379     107.26103510
O      91.01580757      83.03922320     109.46256626
N      91.30682542      84.19951516     105.49414100
H      91.82650016      83.54944931     103.77449006
C      90.51880956      86.91505187     105.80027667
H      89.95567112      87.23441562     107.75425366
C      92.82238593      88.61391584     105.18422588
H      92.15720226      90.37514075     104.34896685
H      94.00535460      87.91282736     103.64976812
C      94.41164575      88.99186109     107.76937147
H      95.02391708      87.22118753     108.62163804
H      93.06805035      89.78176670     109.11674633
C      96.59238993      90.99875043     107.24591728
H      95.86484529      92.86391030     106.76214735
H      97.83960928      90.32411814     105.75303350
C      97.99267712      91.15370799     109.58917791
H      98.66919913      89.32823237     110.26192048
H      96.92687147      92.22329308     110.98946512
N     100.24712062      92.82044661     109.23390937
H     100.84805357      93.39114395     110.95356032
H      99.64618764      94.35112491     108.26070032
H     101.75134275      91.98896702     108.40809898
C      88.16987975      87.46685195     104.03716202
O      87.98090711      86.16483052     102.12286926
N      86.60896580      89.30366593     104.65132306
H      87.04360286      90.34868459     106.18767056
C      84.53026687      90.17482976     102.91277486
H      83.25470160      88.56478294     102.76159674
C      82.85974880      92.24219035     104.15243531
H      84.13153461      93.71239742     104.83084707
C      80.78293958      93.38358504     102.32695969
H      81.76370755      94.24718997     100.73581014
H      79.74925930      94.96150651     103.15654954
H      79.56217639      91.89070125     101.60508425
C      81.48591778      91.14992854     106.59396172
H      82.77849058      90.26553662     107.92999822
H      80.19523471      89.61925023     106.10452259
C      79.86264288      93.16815624     107.95645439
H      79.07840645      92.36502256     109.68555395
H      78.30172893      93.77475839     106.75458844
H      80.96624304      94.83489486     108.44589350
C      85.69622800      91.22740733     100.47880736
O      87.66154336      92.45006024     100.63943410
N      84.42822164      90.86835933      98.39254952
H      82.84841044      89.79877423      98.35286526
C      85.04805187      91.82645057      95.94157448
H      86.38597810      93.38358504      96.13243685
C      86.49369250      89.85924547      94.35987356
H      88.16421057      89.21295908      95.37843605
H      87.28170837      90.84190315      92.72903976
C      84.95923473      87.39882181      93.39422341
C      84.29783052      87.22307727      90.89033606
H      84.69278332      88.71974050      89.55807899
C      83.10730295      85.12170160      89.91712699
H      82.46857545      84.90249335      87.99149589
C      82.75392414      83.00520813      91.41567997
O      81.50103558      80.77911054      90.67490725
H      81.11742114      80.73375710      88.90045424
C      83.43989478      83.21874720      93.98759748
H      82.72935768      81.78444493      95.25371411
C      84.63609154      85.37303520      95.05151340
H      85.20489915      85.48830850      97.00738012
C      82.67266589      92.71273220      94.43168317
O      80.63932039      92.69761440      95.52016552
N      82.91266115      93.58011658      92.06952527
H      84.69467305      94.07900432      91.60654232
C      80.80750602      94.09034268      90.41412501
H      79.03683247      94.00530500      91.45914368
C      80.82262384      96.77186432      89.36154747
H      79.33918868      97.04398491      87.95937054
H      82.63676109      96.89280680      88.39211786
C      80.59774640      98.78253313      91.43646695
H      82.48369326      98.67103926      92.25660817
H      79.37698321      98.38002142      93.04651377
C      79.65477298     101.41114242      90.45758872
H      77.91244531     101.25051568      89.37099610
H      81.17411293     101.93648633      89.17257484
C      79.31084279     103.19693378      92.81029799
H      81.08907525     103.19315433      93.85153719
H      77.64977335     102.71505357      93.93090568
N      78.97825095     105.85388898      91.89000128
H      80.16877854     106.38868153      90.49538326
H      79.00470712     107.01418094      93.40556177
H      77.19812878     105.97483146      91.21347926
C      80.74892451      92.08156361      88.25227811
O      82.60085629      91.60346285      86.92757997
N      78.58518788      90.96662509      87.88756094
H      77.13198836      91.45228475      89.02895563
C      78.23747825      89.32256320      85.63122773
H      79.82673807      88.02432122      85.43847564
C      75.98303476      87.64070677      86.04696752
H      74.33897285      88.81611654      86.44569977
H      75.98303476      86.54088606      87.78740544
C      75.35942506      85.72830375      83.94559186
O      73.58497207      86.22341204      82.57176083
O      76.86364722      84.00676308      83.56575686
C      77.87654052      90.88158740      83.16513488
O      77.32285070      93.15870761      83.17836296
N      78.37353853      89.62491940      81.01840580
H      78.73636599      87.75786981      81.17336335
C      78.14488166      90.60379763      78.42570130
H      79.44690309      92.17982938      78.17436770
C      78.42834061      88.44950964      76.44526812
H      77.66300145      88.91249258      74.58955687
C      81.17978211      88.24352948      76.07299203
H      81.67300069      89.96884959      75.06009872
H      81.87331167      86.71474088      74.88057473
H      82.14543226      88.09613082      77.88712929
O      77.64410419      86.02121132      77.24273261
H      75.83185665      85.95885036      77.30509359
C      75.42745521      91.66960328      77.80776078
O      75.12698873      92.90359456      75.90291666
N      73.56229534      91.26331212      79.42347678
H      74.11787489      90.19372703      80.90313248
C      70.96959084      92.45950887      79.28363703
H      70.78250793      93.10768500      77.33721894
C      68.87955354      90.46017843      79.91480562
H      68.69436036      90.36947157      81.96326895
H      69.76016601      88.73485831      79.21560688
C      66.26606205      90.63781271      78.70349106
H      65.61599620      92.56344382      79.04742125
H      64.99238651      89.26209196      79.55575763
C      66.38322508      90.01609276      75.92937284
O      65.36466259      88.07723355      75.09789326
O      67.46036908      91.66393410      74.47428357
C      70.66156546      94.81599759      80.86911742
O      68.86632546      96.28053549      80.61211464
N      72.67412398      95.39803329      82.25050734
H      74.15944885      94.19994681      82.20515392
C      72.89333222      97.79987543      83.78496512
H      71.69524574      99.12268385      82.76073346
H      74.80573526      98.55576596      83.87378226
C      71.97681497      97.79231653      86.50617100
O      71.24171143      99.75196271      87.56630746
N      72.22058967      95.60968264      87.79118489
H      72.85931715      94.03176117      86.92380052
C      71.16990184      95.05788255      90.26105718
H      70.46692364      96.78320268      91.14355937
C      69.03451109      93.13225144      89.78673589
H      68.08019932      92.98863224      91.60654232
H      69.68457695      91.19717171      89.51650502
C      66.84053884      93.58011658      87.92724520
C      65.91835241      91.43905666      86.65734911
H      66.71014773      89.58145570      86.95970532
C      63.74327743      91.79054576      85.12289134
H      63.20659515      90.25419827      83.89267951
C      62.82864988      94.18482900      84.51628920
O      60.90112904      94.41915506      82.88923485
H      60.27562964      96.10479093      82.64923960
C      63.62422466      96.17282108      86.09610040
H      62.90990812      98.05309877      85.73894212
C      65.65379072      95.93471556      87.77606708
H      66.27551069      97.45783497      88.97982275
C      73.22970351      93.85790634      92.17534994
O      74.56951946      92.09101225      91.48559983
N      73.16734254      94.66670921      94.51672085
H      71.94657935      96.06321696      94.96647570
C      74.84919896      93.87869333      96.44991086
H      76.76538145      93.97695910      95.70157925
C      74.35031122      95.34701069      98.96135713
H      75.52761071      94.48529548     100.41455666
H      72.36042941      95.09945654      99.42811954
C      75.04950996      98.18537960      99.06151263
C      73.18623980     100.14124634      99.09741743
H      71.19824773      99.73117573      98.90655507
C      73.85898237     102.72828166      98.99915165
H      72.44357736     104.19659900      99.08040990
C      76.57073963     103.33299408      98.85553246
O      77.19056987     105.79908692      98.65900092
H      75.84886418     107.01040148      98.53616872
C      78.49826047     101.45271640      99.03883591
H      80.43900939     102.07065690      98.90844480
C      77.72725214      98.92804204      99.17111675
H      79.18990030      97.54665212      99.51315722
C      74.46180506      91.10079565      97.13021234
O      72.27539173      90.24097018      97.55540075
N      76.52916565      89.66082420      97.13210206
H      78.15999946      90.57923119      96.75982598
C      76.58018827      86.75820459      96.94123970
H      74.79439690      85.98908598      97.61965145
C      76.66144649      86.02877023      94.09909133
H      78.47180431      86.68261553      93.36776725
C      76.54806292      83.16394514      93.62665975
H      74.67723387      82.71230055      94.36176328
H      78.16944809      82.32679638      94.57908181
H      76.66900540      82.64049095      91.63866767
O      74.49204070      87.00386901      92.81785688
H      74.74715375      88.79910900      92.89722539
C      78.69290229      85.59413318      98.60419887
O      80.50703954      87.06245052      99.04450510
N      78.41133306      83.22441638      99.52260584
H      76.84474995      82.33246556      98.89332698
C      80.57884914      81.64838464     100.77360466
H      82.34763297      82.26821487      99.92133810
C      80.60530531      82.34191420     103.62898112
H      80.09507921      84.33746518     103.70079072
C      78.42645088      81.01343660     105.10296765
H      76.74459445      81.67862026     104.11842025
H      78.29228031      81.83357782     106.98891452
H      78.59463652      78.96119382     105.02359914
C      83.09029541      82.21152308     104.99147379
H      84.58884839      83.31512324     104.10330243
H      83.85374484      80.30289950     104.86675186
C      83.24525297      83.16016569     107.65031873
H      81.89031920      82.27010459     108.92021481
H      83.01092691      85.20484956     107.69000297
H      85.14820737      82.73119782     108.31172294
C      80.35019227      78.82324380     100.42589502
O      78.81573450      77.77444569      99.04261536
N      82.28338227      77.40594907     101.27627187
H      83.73091263      78.13538343     102.28538571
C      82.43456038      74.54868288     101.00793074
H      80.52971627      73.98932389     101.55784109
H      83.96334898      73.86838142     102.20979666
C      83.07895706      73.75499783      98.31507074
O      85.11230256      74.32947463      97.52516514
N      81.20623828      72.62872094      97.01871848
H      79.69823668      72.12038457      98.07129603
C      80.95301496      72.67974356      94.36932219
H      82.13976308      74.21231159      93.67768237
C      81.72780275      70.22498907      92.95769663
H      80.46168612      68.63006007      93.26761175
C      81.96779799      70.97332069      90.19680650
H      82.76337276      69.39350950      89.13855975
H      83.46257150      72.37738735      90.39900721
H      80.48625255      71.84070508      89.05730152
C      84.28460245      69.30091291      94.29373315
H      84.10318872      68.94186491      96.31196084
H      85.62063894      70.78623779      93.78728649
C      85.61496976      66.93497557      93.33186245
H      87.25336248      66.41152137      94.46569823
H      86.28582262      67.62472567      91.51205601
H      84.33940451      65.37973082      92.88777677
C      78.21480152      73.33358886      93.64177757
O      76.29672931      72.08636949      94.34475575
N      78.00126246      75.34803711      92.12621706
H      79.48091815      76.44596810      91.62921904
C      75.64666347      76.20786259      91.15867718
H      74.48448178      74.68474317      90.40278667
H      76.10208751      77.37571345      89.52406393
C      73.77016523      77.56846554      92.86132059
O      71.90500536      78.51710814      91.78417659
N      74.08574954      77.56279635      95.36331824
H      75.78839294      77.00910654      96.02094300
C      72.14500062      78.03711765      97.38343567
H      70.49337981      76.91462022      96.87509929
C      73.11820966      76.78233939      99.86842577
H      74.82274279      77.59114225     100.69801562
H      73.55662616      74.87371580      99.22213937
C      71.06218743      76.51588797     101.82051305
N      69.50127349      74.41829176     101.99436786
H      69.72615092      72.82147303     100.97580539
C      67.77028420      74.82269319     103.90866063
H      66.23960589      73.60948890     104.50014495
N      68.16901644      77.14327711     104.82706760
H      66.94825324      78.06357382     105.96846231
C      70.15511881      78.21286220     103.51181809
H      70.96581140      80.05723509     103.83874074
C      71.48359641      80.88304548      97.53650350
O      72.95758292      82.31734776      98.76671533
N      69.28206524      81.56523669      96.48959511
H      68.24460550      80.31990704      95.48048127
C      68.33909181      84.09369049      96.77116434
H      69.85843177      85.35035849      96.17779028
C      66.06953051      84.27699395      94.92868118
H      64.96404062      82.59891697      95.38221549
H      66.47960113      83.85747471      92.95391718
C      64.57475701      86.80733747      95.05907229
H      63.92847061      86.96040530      97.00738012
C      66.15267848      89.16949536      94.32396876
H      66.60432307      88.92005149      92.32841777
H      67.77406364      89.55688926      95.53339360
H      64.91301802      90.78332163      93.99326666
C      62.29007789      87.00197928      93.32430354
H      61.40379625      85.14626804      93.44902548
H      62.92691566      87.35346838      91.39678270
H      61.08065304      88.46651717      94.11987831
C      67.60587800      84.88737554      99.55473119
O      66.42290933      83.40583012     100.97391566
N      68.59609459      87.08323751     100.30873199
H      69.61087763      88.18494795      99.12387359
C      68.00838971      88.36636169     102.72002277
H      67.42824373      87.06622998     104.20912710
C      70.49904899      89.45106458     103.69323182
H      70.38755513      90.87591822     105.17855671
H      71.48926558      90.36002294     102.13231788
C      72.25838418      87.51220539     104.63809498
H      72.68357260      86.12892573     103.17355708
C      74.68290305      88.84635216     105.22579986
H      75.11754011      90.32033869     103.85196884
H      76.18901492      87.44228551     105.22768959
H      74.54117358      89.89515027     106.99269397
C      71.34186693      86.21018396     106.98513506
H      70.64455791      87.53866155     108.39487088
H      72.99348772      85.33524067     107.85440916
H      69.93591055      84.73241798     106.69222748
C      65.83898390      90.38269966     102.58774192
O      63.87366854      90.34490513     103.85196884
N      66.28117986      92.32533831     101.01359991
H      67.68902596      92.15904240      99.73614492
C      64.34798985      94.29632285     100.44479229
H      62.40913064      93.61035220     100.38054160
C      64.22137817      96.35990399     102.51593232