 %block lattice_cart
   140.777   0.000   0.000
   0.000 144.511   0.000
   0.000   0.000   162.462
 %endblock lattice_cart

 %block positions_abs
N      93.30804559      43.56945457      82.37144984
H      92.60506740      41.79878101      82.21082309
H      92.83750374      44.12692383      84.13456448
H      95.21099999      43.49386552      82.24483817
C      92.13074610      45.32501031      80.61211463
H      92.56538315      47.15426538      81.45682229
C      93.23812572      45.42138636      77.97216698
H      92.43121258      43.98330463      76.74006542
H      95.25446369      45.02643356      78.12334508
C      92.68065645      47.93472235      76.76841132
H      90.68132601      47.95172989      76.26952357
H      94.05826694      47.99330387      75.23962273
S      93.32883258      50.63892071      78.65624791
C      92.41420504      52.80643679      76.24873657
H      93.42709835      52.46439632      74.49129111
H      92.57294205      54.72639872      76.98195039
H      90.39975679      52.58722853      75.86134268
C      89.26592101      45.11714042      80.57809957
O      88.30216059      43.15938396      79.89401864
N      88.09240097      47.05977907      81.46627093
H      89.17899360      48.58856766      81.81209085
C      85.45623276      47.26953869      81.86878264
H      84.46790590      46.21885086      80.40046528
C      84.95545529      46.09601865      84.51817893
H      86.02881983      47.02954345      86.00539353
H      85.56394716      44.14771082      84.23471998
C      82.27393365      45.82956724      85.37044549
O      80.55617243      45.96940699      83.72827333
N      81.66544177      45.74263983      87.77606709
H      79.77382574      45.56878501      87.96126027
H      82.94856594      46.04688577      89.15556729
C      84.57184084      50.05499528      81.60800040
O      86.14787259      51.76708731      81.67414082
N      82.03393841      50.74852483      81.55886752
H      80.87553618      49.33878900      82.12578541
C      80.86608754      53.10312382      81.05620031
H      81.25159171      53.61901910      79.10033359
C      78.01638026      53.07288820      81.23761405
H      77.12631917      51.58378386      80.12456524
C      77.02049450      52.49841140      83.84732609
H      74.97581063      52.25463670      83.83409800
H      77.27371782      54.04609725      85.18714204
H      77.91622477      50.74663511      84.45581796
C      76.68790267      55.64669544      80.42125228
H      76.98269997      57.23595526      81.69870726
H      74.65077770      55.35378786      80.46093654
C      77.49292608      56.22495169      77.67547995
H      77.38143222      54.48262403      76.58321813
H      79.36186540      57.07910798      77.53186075
H      76.17200738      57.52508339      76.78163939
C      81.98858497      55.42181800      82.59065809
O      82.02637950      57.58177518      81.68547919
N      82.84463099      54.76419325      84.85455020
H      82.76148304      52.91793064      85.32509205
C      83.84051676      56.48573392      86.70459227
H      82.57817958      58.10522937      86.56475253
C      83.85185512      55.35945704      89.38800364
H      84.42633192      56.78620040      90.75805521
H      85.37497453      53.97239792      89.47493105
C      81.25159171      54.30121030      90.06263592
C      80.96057386      51.68204963      90.16279143
H      82.54416451      50.41782273      89.92846536
C      78.59085706      50.55766247      90.75427576
H      78.44345841      48.54699368      91.08686759
C      76.50270949      52.02597982      91.06986006
H      74.64321880      51.39859068      91.62732931
C      76.82018351      54.70372201      91.11143404
H      75.21013669      55.79409409      91.72748481
C      79.19556948      55.91503657      90.70514288
H      79.34485786      57.94838208      90.82986480
C      86.50125141      57.61390053      85.93547365
O      86.96801381      59.90046937      85.98649626
N      88.07917288      55.91503657      85.09832490
H      87.77492694      54.04042807      84.92069063
C      90.52447873      56.88635590      84.11377750
H      91.11029389      58.38679859      85.39690166
C      92.52569890      54.88513573      84.41613371
H      92.76758386      53.78720474      82.69081358
H      91.96445018      53.45839236      85.78996473
C      95.18643354      56.12479619      85.06997901
H      95.04659380      57.55153956      86.54963471
H      96.01602340      57.06587990      83.43347603
C      97.01190916      54.03664862      85.96570929
O      98.43298335      53.04454230      84.41046453
O      96.86828996      53.22028685      88.15212263
C      90.25046841      58.04853758      81.46816066
O      91.79437481      59.57921589      80.75384410
N      88.41554416      57.25107308      79.98850495
H      87.37997415      55.76007901      80.57809957
C      87.62941802      58.60411712      77.64713405
H      89.10529427      58.52852806      76.21094206
C      85.39387179      57.34366966      76.40369413
H      83.74225099      58.08066293      77.38824154
H      85.55638825      55.34433923      76.87612572
C      85.00269844      58.02208141      73.62957590
H      86.52581785      56.99218057      72.70172029
H      85.14442792      60.06487556      73.41414710
S      81.82039933      56.82588465      72.43148942
C      82.20401377      57.89358002      69.23407251
H      82.90321251      56.42715240      67.96417643
H      83.62319824      59.38079463      69.09990194
H      80.50137037      58.76474385      68.47062308
C      87.16076589      61.40469151      78.12334508
O      88.37774964      63.03552532      76.97250175
N      85.86063419      62.06609572      80.15480086
H      84.97246282      60.74706675      81.21115787
C      85.20867861      64.67958721      80.62723245
H      84.95356556      65.96838056      79.04175206
C      82.78982893      64.64935159      82.22783064
H      82.44589874      66.56364435      82.90057321
H      83.21690708      63.34733016      83.76606786
C      80.61286422      63.90101997      80.48172351
H      81.11553142      62.43837180      79.11923085
C      78.29983921      62.92781092      82.07854226
H      78.83841121      61.35177917      83.28985683
H      76.72380747      62.28908343      80.91636057
H      77.23214384      64.30164195      83.18403215
C      79.36753458      65.92869630      78.83766162
H      77.55339732      65.35232978      78.05342520
H      80.73002725      66.40112788      77.36556483
H      79.20879757      67.55575066      80.09243989
C      87.29493646      66.04396961      82.15413131
O      87.31950290      68.36077407      82.20137447
N      89.11096345      64.72305092      83.43725548
H      88.95411616      62.83143488      83.62811783
C      91.46556243      65.77940793      84.42180289
H      90.78526096      67.42346982      85.45737290
C      92.72600988      64.08432342      86.33609564
H      94.60439784      64.84021395      86.71215118
H      92.61451603      62.18514848      85.54619003
C      91.24824391      63.85188709      88.83431382
H      89.21111894      63.59677403      88.66990764
H      91.53548231      65.64901681      89.79618452
C      92.59750850      61.92436625      90.52183942
H      94.44566083      62.75962528      90.88844633
H      92.93387978      60.21416393      89.42579815
N      91.20100075      61.51618536      93.01249870
H      89.52670324      60.60722701      92.89533567
C      91.95878100      61.98672722      95.37843605
N      93.92409637      63.19804178      95.99826628
H      94.27936491      63.42291921      97.86153642
H      95.03903489      63.99361656      94.66978868
N      90.57172189      61.34611000      97.23981647
H      91.02336648      61.54831071      99.08229961
H      89.03915385      60.26329682      96.88643765
C      93.30237641      66.64490258      82.27507379
O      94.24723957      68.72171179      82.41869300
N      93.28536887      65.15768797      80.19826457
H      92.23846050      63.56275896      80.13401388
C      94.55904441      65.77184902      77.92303410
H      96.42420428      66.47860666      78.43326020
C      94.91053350      63.41158086      76.21283177
H      93.09639624      62.44026153      76.10700711
C      95.97633914      63.93692477      73.70327524
H      96.32404878      62.20404574      72.64691823
H      97.60150377      65.19548249      73.84122525
H      94.63463346      65.05186330      72.60534424
C      96.79270091      61.39335315      77.52619157
H      96.47333716      61.34044082      79.55953708
H      98.73344983      62.06798545      77.39391072
C      96.51491114      58.67781644      76.50007018
H      96.91553312      57.28697787      77.96649779
H      98.03425110      58.52663834      75.11679052
H      94.68754580      58.36601160      75.60056046
C      93.27592024      67.97904935      76.47739347
O      94.76502458      69.38122628      75.28308644
N      90.73612808      68.42313504      76.64179965
H      89.61741010      66.93403070      77.05753945
C      89.64764572      70.54340796      75.32655014
H      90.49991229      70.94969912      73.49540535
C      86.83951242      69.96326198      74.82955211
H      85.71134581      71.68669238      74.78986787
H      85.99858421      69.06753171      76.48306265
C      86.35763221      68.42502476      72.42204080
O      84.53026687      67.09654717      72.48629148
O      87.74280160      68.81430838      70.47373296
C      89.78937519      72.83753570      76.88368462
O      90.70967191      74.75749764      76.00685162
N      88.82750450      72.79974118      79.24395279
H      88.18499755      71.15756901      79.97716659
C      88.51003048      75.11654564      80.72549822
H      88.88797574      76.80785069      79.61433915
C      85.73213280      75.27906210      81.63445658
H      85.46757112      76.79273288      83.00639788
H      85.50725537      73.44791730      82.54908411
C      83.91799554      75.66456627      79.40835897
H      82.09629937      75.22614976      80.26629473
H      84.32806615      74.38144210      77.84933477
C      83.84429621      78.33285982      78.48239308
O      83.02037554      80.05062104      79.85433439
O      85.21434779      78.79395304      76.60400513
C      90.26558623      75.20536277      83.25584174
O      91.88886113      76.86832193      83.70748633
N      90.05393688      73.06619259      84.65423922
H      88.88041684      71.68669238      84.05141653
C      91.50524669      72.52573086      86.96537450
H      93.49701822      72.98871381      86.71971008
H      91.25391309      70.53206960      87.40946019
C      90.57361161      73.94869478      89.31808376
O      89.43599637      76.02361427      89.12344194
N      90.80037877      72.82808707      91.49882793
H      91.71311658      71.15378956      91.43835669
C      89.43788610      73.61232349      93.77405841
H      87.47823991      73.58586732      93.13911037
C      89.42843747      71.41268206      95.69024089
H      91.42020900      71.29929849      96.21180535
H      88.63475242      69.87444485      94.57530236
C      87.84484682      71.66968484      98.06940632
H      88.41176471      73.45169676      98.93301123
C      85.00269844      71.66779512      97.54406239
H      84.04649693      71.42024097      99.35253049
H      84.79482855      69.98404897      96.37432182
H      84.57751002      73.47626320      96.65211159
C      88.23224071      69.32453449      99.73425520
H      90.15220265      69.08453925     100.44290256
H      87.63697692      67.70692876      98.60419887
H      87.08517684      69.47760232     101.43878833
C      90.25613759      76.09920332      94.81718733
O      92.50869136      76.60187052      94.75671609
N      88.46845650      77.72814740      95.50882716
H      86.64109116      77.29540008      95.17434560
C      89.07883810      79.99392925      96.91289382
H      91.05171237      80.36242588      97.37398703
C      88.04137835      82.21624740      95.44268673
H      88.02626054      83.86219901      96.68045747
H      86.14220341      81.82696378      94.74537774
C      89.77047793      82.85875434      93.15233844
H      90.14464374      81.30917877      91.85031702
H      91.72256521      83.04583725      93.78917621
C      88.81616614      85.06784440      91.61032178
H      88.85396067      86.84040768      92.65534043
H      86.92266038      84.42533746      91.11899294
N      90.19377663      85.46657665      89.15178785
H      91.43343709      86.91599674      89.24060499
C      89.44733473      84.88832040      86.83309365
N      87.45367347      83.45212840      86.26806550
H      87.07761794      83.14788247      84.42180289
H      86.56550210      82.52805224      87.67969104
N      90.73234862      85.70279244      84.96037489
H      90.18621772      85.24547868      83.18970133
H      92.43499203      86.48891859      85.31942289
C      88.01870164      79.84842033      99.60008463
O      86.00614312      78.77694551     100.00826552
N      89.45489364      80.72336361     101.43311915
H      90.96856441      81.74759527     100.88131906
C      88.96545452      80.56084715     104.25825998
H      87.44611457      79.33630450     104.91777448
C      91.60162273      80.00904706     105.44878757
H      91.59973300      80.35297725     107.48213308
H      92.91120306      81.17122874     104.36219494
C      92.60506740      77.28028227     105.26548412
H      91.57327683      76.13699785     106.63553570
C      92.42365367      75.99904783     102.72191249
H      93.87685321      76.48659722     101.34808147
H      90.47912530      75.83464164     102.06617746
H      92.67876673      74.01294547     103.20568243
C      95.40753152      77.15556033     105.96657258
H      96.17287068      75.30929772     105.46390537
H      95.64941649      77.23870829     108.00936673
H      96.61695636      78.57474479     105.08596012
C      88.07539343      83.15733110     105.52059716
O      87.21745768      83.01371190     107.71456941
N      88.20200509      85.34185472     104.30739288
H      88.95789562      85.12831564     102.56695493
C      87.11352274      87.90243387     104.94045119
H      86.04582737      87.71535097     106.69033776
C      89.26214155      89.76381429     105.26926357
H      90.69644382      89.23091147     106.64687405
H      88.44766951      91.58740018     105.77193077
C      90.75502534      90.20978970     102.67088989
H      89.55315941      90.21923833     100.99848209
H      91.69799877      88.40888052     102.33262887
C      92.78270167      92.15620780     102.40821793
H      94.18676832      91.51748031     101.04383553
H      93.92031691      92.36029824     104.11275106
C      91.77358782      94.56749858     101.70335001
H      90.75691507      95.39141925     103.29260985
H      90.32416774      94.14986906     100.30117309
N      93.78803607      96.43265845     101.06462253
H      95.21855889      96.34384131     102.32695969
H      92.96978458      98.15230939     101.17800610
H      94.21133477      96.17754540      99.22024964
C      85.07450804      88.63186823     103.08662967
O      84.79293882      87.52070916     101.12509377
N      83.68177975      90.53293290     103.92944762
H      84.11830653      91.42488372     105.56028142
C      81.84118632      91.66865841     102.23625284
H      80.56373133      90.21356915     101.52949519
C      80.24436759      93.39775799     103.80661541
H      81.57473491      94.41254102     105.00848133
C      78.65510776      94.98701782     102.17389187
H      79.56595584      96.12274333     100.71691288
H      77.98614464      96.45722489     103.45323658
H      77.32096098      93.89475601     101.04761498
C      78.30550839      91.83117488     105.42422113
H      79.34674759      90.26270204     106.25948016
H      76.93545681      90.91654734     104.18645039
C      76.85986776      93.14264494     107.32339606
H      75.81295938      91.89920502     108.58573325
H      75.44257303      94.35395950     106.44845279
H      78.12787412      94.28781908     108.47423939
C      83.19612009      93.05949698      99.90244084
O      84.89309432      94.60907256     100.34463679
N      82.44967819      92.37163660      97.66689462
H      80.89065399      91.27937479      97.52894459
C      83.46068177      93.30705113      95.25182439
H      84.70601141      94.89064178      95.68646143
C      85.08206695      91.30772069      93.96303104
H      86.28204316      90.52726372      95.44268673
H      86.35007330      92.17888452      92.59486919
C      83.61941878      89.01548267      92.70447332
C      83.82350922      88.81706141      90.02106194
H      84.61530455      90.22490751      88.77384258
C      82.98258102      86.56261792      88.96848440
H      83.31328312      86.41143981      86.95970533
C      81.84307605      84.65210461      90.25727774
O      80.90577180      82.74915022      88.85699054
H      81.20245883      82.98158655      87.08253754
C      81.56528628      84.88265122      92.92557129
H      80.72813752      83.31039893      93.92523652
C      82.49881108      87.03882895      94.09909133
H      82.47235491      87.24291939      96.12865740
C      81.38576228      94.51269651      93.53595289
O      79.12564961      93.75113681      93.96114132
N      82.10952746      96.20022211      91.79173551
H      83.98413596      96.54982148      91.69724919
C      80.64121011      96.78036809      89.47304132
H      78.67589475      96.23234746      89.75083109
C      80.96057386      99.66786990      88.73037887
H      80.23491896     100.11573503      86.85766009
H      82.97502211     100.10628640      88.71148161
C      79.63020654     101.44799208      90.63333327
H      80.46546557     101.25524000      92.50605205
H      77.77827475     100.55415154      90.73348877
C      79.24281264     104.18998496      89.84153794
H      78.20346317     104.23911785      88.06330549
H      81.11742114     104.92886795      89.41823926
C      77.90110696     105.54113928      91.89944990
H      79.16155441     105.68097902      93.52461453
H      76.08696970     104.72099806      92.42479382
N      77.46646991     108.20943283      90.96592510
H      79.08029618     109.22610559      90.89978469
H      76.39877454     109.13161927      92.25093899
H      76.53483484     108.39462601      89.30863512
C      81.23836363      94.93410548      87.26395125
O      83.40587971      94.78859656      86.42680250
N      79.41855719      93.40909635      86.40412579
H      77.69323706      93.35051483      87.21670810
C      79.47146953      91.91243311      84.17802819
H      81.14954649      90.72568498      84.12511586
C      77.01671504      90.28348903      84.32542684
H      75.45391138      91.57039265      83.94937130
H      76.87876502      89.60318755      86.26428603
C      76.91089037      88.25959215      82.24483817
O      78.91022081      87.09741046      81.80453193
O      74.71880785      87.48669408      81.55697780
C      79.43556473      93.64720186      81.75728879
O      79.22013593      95.96967550      81.91224634
N      79.71335449      92.50958662      79.50473502
H      79.77004628      90.60285277      79.51985283
C      80.13476346      93.76247517      76.99328875
H      81.91299592      94.78670683      77.14824631
C      80.18011689      91.62519471      74.90136172
H      79.63209626      92.41887976      73.08155527
C      82.84463099      90.57639660      74.69727128
H      82.94667622      88.99469568      73.38202177
H      83.52115301      89.86774924      76.50762909
H      84.17121887      92.00691942      74.04153625
O      78.40566388      89.65609989      75.33977823
H      76.72947665      89.87341842      74.68404320
C      78.27527277      95.76369533      76.15425027
O      78.83463176      97.33405790      74.47050411
N      75.96035804      95.75235698      77.12745931
H      75.48414701      94.29915744      78.27074373
C      74.04795501      97.65720110      76.65502774
H      74.67345442      98.68143276      74.98450967
C      71.61209779      96.15864813      76.25062630
H      70.03228659      97.47200792      76.36589960
H      71.44769160      94.74324312      77.73973064
C      71.35509501      94.76214039      73.61445810
H      71.94091017      96.15486868      72.21417091
H      69.34064676      94.47679171      73.28375600
C      72.98970827      92.25069412      73.14580598
O      73.11631993      90.63308839      74.81065485
O      74.61865235      92.33195235      71.35623516
C      73.97236595      99.70755415      78.81309519
O      73.02183362     101.79759145      78.41058349
N      74.95502364      99.01969377      81.12234074
H      75.65233265      97.25090994      81.29052639
C      75.33863808     100.83005158      83.13300953
H      75.74870869     102.71788817      82.41869300
H      77.11309109     100.40297343      84.08543160
C      73.41300697     101.23067356      85.29863590
O      73.19946789     103.30370332      86.13200520
N      71.88232865      99.28803491      85.94681202
H      72.01460949      97.67798809      84.93013927
C      70.61810175      98.97245061      88.38833842
H      70.38188596     100.87918446      89.12722141
C      68.02728697      97.67987782      87.84787669
H      66.79707514      97.85373264      89.49004885
H      68.56018979      95.71834190      87.50583622
C      66.24716479      98.91197937      85.70870650
C      64.60688235      97.24902022      84.44070015
H      64.99616597      95.32905828      85.00194887
C      63.03274033      97.98034430      82.39790600
H      61.90835317      96.59706464      81.40579969
C      62.70770740     100.58060771      81.98594567
O      61.14112429     101.57271402      80.27763307
H      61.26962568     103.36795402      80.06031456
C      64.21759873     102.37962716      83.44670410
H      63.88311717     104.37895759      83.19537050
C      65.99205173     101.58972156      85.38367358
H      66.98604778     102.97300122      86.50806074
C      72.36042941      97.46822847      90.23649074
O      73.96858650      95.94510906      89.44091597
N      71.78595261      97.58350177      92.76116511
H      70.40456268      98.84016977      93.15800762
C      72.79695619      96.13975087      94.79640034
H      74.80573526      96.56871874      94.65467086
C      71.90122592      97.12429828      97.42689936
H      72.71947741      95.88274809      98.85175301
H      69.84520369      97.22067432      97.34753086
C      72.65711644      99.70944388      98.12420837
C      70.75983122     101.51602223      98.61931668
H      68.77561859     101.05492901      98.51538172
C      71.37966145     103.87440067      99.52449558
H      69.93024137     105.13484812     100.21613541
C      73.99126322     104.60572475      99.67756341
O      74.82841197     106.96221346     100.18023061
H      73.36198436     107.87684100     100.73203068
C      75.89799707     102.73678543      99.23914690
H      77.84630490     103.32449031      99.39788392
C      75.18179079     100.28392067      98.44924131
H      76.71435883      98.94599445      98.26404813
C      72.34342187      93.22957235      94.52994894
O      70.17968524      92.41887976      94.35798383
N      74.31440642      91.76125500      95.08741819
H      75.92823269      92.64186746      95.59575458
C      74.66967496      89.12697652      94.45624960
H      72.75160276      88.37864490      94.42034480
C      75.93579159      88.52226410      91.94291361
H      77.96724738      88.46935177      92.27928490
C      75.00415652      86.18278293      90.68813533
H      76.01327037      85.74058697      88.94769740
H      72.96703156      86.36986583      90.44058118
H      75.40288877      84.61431009      91.95803142
O      75.01549488      90.56883770      90.29696198
H      76.09452860      92.01447833      90.48026545
C      76.29106014      87.76637358      96.53494855
O      77.72914186      89.00414431      97.85586724
N      75.93768132      85.25303758      96.98092396
H      74.54117357      84.30817442      96.08330396
C      77.74048022      83.68456474      98.50215365
H      79.56217639      84.64832516      98.53427899
C      76.74081500      83.54661472     101.29138968
H      76.01893955      85.37020061     101.91877881
C      74.26527353      81.69846239     101.31406639
H      72.64577808      82.68300980     100.50904299
H      73.85898238      80.82540883     103.13576255
H      74.58841673      80.01282652     100.17456143
C      78.77982969      82.27671864     103.10363722
H      78.94234616      80.24148340     102.82206799
H      78.28850085      82.22569603     105.10296766
C      81.25159171      83.65999830     103.13009338
H      82.34196379      83.62598323     101.38398627
H      82.49125217      82.69245843     104.46046071
H      81.05128072      85.67066710     103.53260509
C      78.07118233      81.06351435      97.30784662
O      76.70113075      80.19424024      95.63543883
N      80.05161550      79.68212441      98.07696522
H      81.10041361      80.34919780      99.52260585
C      80.35964089      76.97414660      97.35131032
H      78.58707761      75.94046631      97.52894459
H      81.74858973      76.02550399      98.53805845
C      81.35363693      76.87777056      94.69057566
O      83.54571946      77.54295422      94.05184818
N      79.70957504      75.78739848      93.13155146
H      78.14488165      75.11276619      93.99515639
C      79.74170039      76.20313827      90.39711748
H      80.87931563      77.83208235      89.85665576
C      80.51837790      73.73515570      88.98171248
H      78.88754409      72.58053293      89.48437967
C      80.59207723      74.09987288      86.06964423
H      78.68156393      74.59120172      85.46871126
H      81.19489992      72.33864796      85.19281122
H      81.81284043      75.68346353      85.57075649
C      83.17344337      72.76761583      90.03995921
H      83.27737832      72.65045280      92.09409172
H      84.49814152      74.27561743      89.57697626
C      84.07484282      70.19380859      89.13855976
H      83.02793445      68.74438851      90.15901197
H      85.99669448      69.71759756      89.70736738
H      84.26570518      70.34309697      87.09198617
C      76.97703079      76.78328425      89.55240982
O      75.34808671      75.39811486      90.11743798
N      76.60853416      79.01316130      88.23527058
H      78.07685151      80.02038542      87.54929994
C      74.10275707      79.86164841      87.25072318
H      73.36576381      78.66545165      85.74650103
H      74.34275231      81.65688841      86.27373467
C      71.89555674      80.36242588      89.14233922
O      69.80362971      80.89721843      88.39589731
N      72.24515610      80.13943818      91.59331425
H      74.00827075      79.74070593      92.21125475
C      70.08897838      80.45124302      93.42634877
H      68.50538773      79.40244492      92.62699454
C      70.86754562      78.98103595      95.81496282
H      72.22247939      79.97692172      97.00360068
H      72.02027867      77.37476858      95.23859630
C      68.77939805      77.85097961      97.37776648
N      67.62099582      75.49638063      97.05840274
H      68.46759320      73.88822353      96.47258758
C      65.36466260      75.54173406      98.27916594
H      64.14956858      73.96192286      98.71947216
N      64.88845157      77.79617755      99.10875578
H      63.38800888      78.28750639     100.18023061
C      66.92935599      79.36087094      98.45680021
H      66.96715051      81.38854727      98.69112628
C      69.35009539      83.08741123      93.84586800
O      70.73715451      84.35541758      95.21969904
N      67.05974710      83.89432436      92.96903500
H      65.73504896      82.61308992      92.46636779
C      66.12433258      86.41143981      93.34886999
H      67.46981771      87.81928591      92.67612741
C      63.83020483      86.91221728      91.45914368
H      62.26173199      85.75381505      92.12243761
H      64.36310765      86.47002133      89.51839475
C      62.78329646      89.58806974      91.36843681
H      62.28251898      90.21734861      93.26572203
C      64.51995494      91.63275361      90.52939833
H      64.99427624      91.19055766      88.57353160
H      66.28306959      91.66865841      91.59331425
H      63.70170344      93.52247993      90.51805997
C      60.47594063      89.80727800      89.55807900
H      60.98049755      88.69611892      87.89700957
H      60.05453166      91.72723993      88.94580767
H      58.81487120      88.94178334      90.41412503
C      65.33064753      86.95568099      96.08141423
O      64.11744323      85.34185472      97.29272880
N      66.18291409      89.13453543      96.99982123
H      67.15990260      90.23624587      95.78283748
C      65.31175026      90.32128355      99.27883116
H      64.57475700      88.72635454     100.35219570
C      67.51328142      91.61574608     100.83029645
H      66.92746626      92.59273458     102.54616796
H      68.44491649      92.98390793      99.60386408
C      69.51828103      89.63720263     101.39343489
H      69.83953451      88.69422920      99.59063599
C      72.08263964      90.60852195     102.37231313
H      72.80829455      92.29226810     101.43122942
H      73.34686655      88.99469568     102.58396248
H      71.98437387      91.05260764     104.38109221
C      68.90789944      87.59062903     103.31528656
H      67.15612314      86.64198642     102.78616320
H      68.71703708      88.34085038     105.22579986
H      70.45936474      86.23569526     103.35119135
C      63.22360269      92.32061399      98.88576808
O      61.09577086      91.81416734      99.53961338
N      63.80752812      94.41821020      97.60642336
H      65.53473797      94.64875681      96.82596641
C      62.04063401      96.51769613      97.21902947
H      60.12823099      95.93377070      96.73525953
C      61.75150589      97.94821895      99.63409970