 %block lattice_cart
   140.777   0.000   0.000
   0.000 144.511   0.000
   0.000   0.000   162.462
 %endblock lattice_cart

 %block positions_abs
N      92.66270406      40.50337362      81.87728640
H      94.56376872      40.56384487      81.99822888
H      92.22806701      38.93868024      80.87384173
H      92.00696902      40.20668659      83.64607023
C      91.69516419      42.78994246      80.76045815
H      92.62679926      44.35841530      81.71854939
C      92.31499442      43.20757199      77.95799403
H      91.16793054      41.85263821      76.91108565
H      94.31054539      42.90332605      77.55548232
C      91.88413682      45.98546966      77.21911104
H      89.85457075      46.19711901      76.93943154
H      92.83655888      45.96657240      75.39174569
S      93.23340140      48.66132212      78.89151883
C      92.43782663      51.01781084      76.47077942
H      90.45739345      50.73057243      75.98323003
H      93.50363226      50.56238679      74.76813601
H      92.50396704      52.99824401      77.03013841
C      88.81522129      42.99214319      81.14596232
O      87.49241287      41.11186550      80.71888417
N      87.71918002      45.08973939      82.19665015
H      88.80766238      46.65632251      82.24578303
C      85.12647552      45.51870727      82.88262080
H      83.87169725      44.48124752      81.61839390
C      84.68616929      44.32817968      85.70965136
H      85.96740372      45.22768941      87.05135704
H      85.35513241      42.38176159      85.71154109
C      81.91772023      44.36219476      86.15184732
O      81.11647629      45.97035186      87.65229001
N      80.46830016      42.89765687      84.85549507
H      78.58235329      42.93734111      85.14840265
H      81.17694753      41.45579568      83.82559423
C      84.51798364      48.37597344      82.82214956
O      86.16771471      49.92176957      82.87128244
N      82.07267780      48.92399407      82.90907697
H      80.62325771      47.68433361      82.98088657
C      81.28277220      51.69244312      82.95065095
H      81.94417641      52.73368233      81.30091987
C      78.36314505      51.98913015      82.47821937
H      77.93039771      51.14820194      80.64896430
C      76.74364959      50.65876284      84.56258749
H      77.00065237      51.52047803      86.41640900
H      77.17828665      48.65565294      84.77234711
H      74.72353216      50.68521900      84.16007579
C      77.33891339      54.84828606      82.48955773
H      77.92850799      55.58716906      84.31881280
H      75.28478089      54.69332852      82.48766800
C      78.17606213      56.54715002      80.15385600
H      80.20184875      56.56415757      79.78535937
H      77.75654289      58.47467087      80.74345061
H      77.22364007      55.81204648      78.48144822
C      82.20873810      53.05304607      85.31280884
O      82.95140054      55.19410599      84.92352522
N      82.62447789      51.68299450      87.31780846
H      81.98952984      49.88586478      87.19875570
C      83.75642394      52.69399807      89.57981085
H      83.21407249      54.67632097      89.68185607
C      82.43172580      51.21245264      91.86637969
H      83.08557111      49.27737289      91.59803855
H      80.43239536      51.42977117      91.42229401
C      82.56589637      52.52959189      94.36459788
C      81.40938386      55.00702308      94.58002668
H      80.83490707      55.95377597      92.86415518
C      81.37536879      56.41297945      96.76077084
H      80.76687692      58.36128729      96.72675577
C      82.38070318      55.18276762      98.88104376
H      82.34857784      56.19755066     100.65171732
C      83.23296975      52.73179260      98.72419648
H      83.76776230      52.03448359     100.56667964
C      83.53154652      51.50536023      96.47920162
H      84.59924187      49.78948872      96.18818377
C      86.71006617      52.72423369      89.67807662
O      87.89114512      53.66531740      91.28056453
N      87.94783691      51.82661370      87.76189414
H      86.86691346      51.05938482      86.38995284
C      90.69360923      52.30282472      87.16852008
H      91.61579567      53.24768789      88.75022100
C      92.04854300      49.85751887      86.35782749
H      94.07055016      50.22601551      86.49199806
H      91.40981551      49.38508730      84.45865254
C      91.60067786      47.56906032      88.07936816
H      89.56922209      47.26670411      88.23999490
H      92.42837800      47.83740144      89.94452803
C      92.49829787      45.07651130      86.96442963
O      94.75085164      44.79872153      86.66018370
O      91.05832642      43.19056445      86.58270492
C      90.76352912      54.52892232      85.15218210
O      91.88791627      56.53581166      85.60760614
N      89.41804397      54.23034556      83.00923246
H      88.21806777      52.74880013      83.03946808
C      89.21773298      55.90464307      80.91919516
H      91.05643668      55.77992115      79.99889844
C      86.95951005      54.86340388      79.21088257
H      85.07356319      55.04292788      80.02346489
H      86.64392574      52.82816865      79.19765449
C      86.63447712      55.87251774      76.59550136
H      88.31066436      55.23756968      75.58071833
H      86.57211614      57.92853996      76.71266439
S      83.80744656      54.55537849      74.89663740
C      83.31800743      56.59250345      72.44188292
H      84.61813914      56.23534518      70.88663816
H      83.64681981      58.45199415      73.26202414
H      81.31300781      56.45266371      71.97889997
C      88.49018835      58.65230514      81.72421857
O      89.57489126      60.36817663      80.64896430
N      86.80833194      59.15497233      83.60827570
H      85.84268180      57.67342690      84.32637170
C      86.07700786      61.79869944      84.26779019
H      85.99574963      63.07804416      82.65585364
C      83.51831842      61.85728097      85.66618766
H      83.21974166      63.66952849      86.60160218
H      83.62981228      60.31337457      87.02490088
C      81.31678727      61.33004732      83.85771958
H      81.85157982      59.57827104      82.91663587
C      78.91872459      61.11650825      85.44319995
H      77.31812640      60.80092396      84.18842168
H      78.61447864      62.99867565      86.22365692
H      79.05289515      59.75212586      86.97954745
C      80.89726803      63.59960863      82.15507617
H      78.97352664      63.54480657      81.41997263
H      82.34479838      63.46921751      80.69620745
H      81.14104273      65.45343014      83.02057082
C      88.01397733      63.34260584      85.76634315
O      88.02531569      65.64240276      85.89862399
N      89.69205429      61.89129603      86.93230429
H      89.44261041      59.99967999      86.95876046
C      91.85768064      62.85883591      88.42140862
H      91.29265248      64.55203069      89.44941974
C      92.89891984      60.72533490      90.24310479
H      94.51274611      61.74389738      91.01789258
H      93.82866519      59.21733330      89.19430668
C      90.99407572      59.82771490      92.26322222
H      89.29710149      59.25890729      91.24465973
H      90.53487222      61.28280417      93.64650188
C      92.18649303      57.76035432      93.75799573
H      93.74173777      58.57104691      94.83702945
H      93.07844385      56.49990686      92.39739278
N      90.51030579      56.39786165      95.40961653
H      90.06999956      54.67443124      94.71797670
C      89.68827483      57.00257407      97.62248604
N      90.16637560      59.13418535      98.61837181
H      89.40103644      59.59338885     100.30778713
H      91.15281273      60.51368555      97.74720798
N      88.60546167      55.33961491      99.08513421
H      87.92893965      55.94054788     100.76699062
H      88.55443905      53.52925710      98.48609096
C      93.75685559      63.79614016      86.56380766
O      94.87746330      65.77090415      86.95498100
N      94.25952279      62.52435435      84.49077789
H      93.13513564      61.01257331      84.18653195
C      95.94893812      63.21788390      82.41396867
H      97.34166641      64.44809573      83.29836059
C      97.39646846      60.92942534      81.26879453
H      98.07110077      61.55303502      79.42442165
C      99.69248594      60.23022660      83.02624000
H     101.10411150      61.69854396      83.31914758
H     100.84332926      58.84505723      82.02468505
H      98.94037486      59.49701280      84.79691355
C      95.31587980      58.77135789      80.68297937
H      93.92882069      59.58205048      79.39418602
H      94.64502695      58.20255028      82.54813924
C      96.77663824      56.46589180      79.44898809
H      97.85378224      55.18465735      80.65085402
H      98.07110077      57.22178231      78.03736253
H      95.46138873      55.07127377      78.69120784
C      94.59022490      64.70320879      80.19165053
O      95.90358468      65.59704933      78.55136809
N      92.06555053      64.92619649      80.18598135
H      91.00352435      64.17786487      81.58626855
C      90.64069689      66.52301524      78.22822489
H      91.79531968      66.49088989      76.52180203
C      88.23696502      65.06225679      77.60083575
H      87.01620184      64.89596088      79.25245655
H      88.82278018      63.14607430      77.12273500
C      86.71006617      66.25467409      75.46922447
O      84.45751240      66.77434883      75.61095395
O      87.86846840      66.59104537      73.47556321
C      90.12480161      69.29524373      78.82348868
O      90.58778456      71.11693990      77.32493571
N      89.57678098      69.75444722      81.26690480
H      89.10812885      68.24455590      82.33460017
C      89.33111657      72.23754761      82.45365293
H      89.85079131      73.68318824      81.07793217
C      86.48329902      72.42274079      83.40418526
H      86.09779485      73.82113825      84.86683343
H      86.05811059      70.55947063      84.17330387
C      84.56144736      73.06524772      81.47477470
H      82.62069843      72.76667097      82.09838438
H      85.06411456      72.21109144      79.67008607
C      84.69939737      75.95463926      81.05714518
O      83.02321013      77.46264086      81.86972749
O      86.50597573      76.80123665      79.89496350
C      91.23785041      72.60415450      84.58904366
O      92.58333555      74.49766028      84.66841216
N      91.22651206      70.73143572      86.37483502
H      89.91882144      69.34437662      86.31058433
C      92.72128557      70.94875425      88.71809565
H      94.48628995      72.00133182      88.57636618
H      93.05954658      69.12705809      89.61760538
C      91.23596069      72.28479076      90.79868432
O      89.79787896      73.84381496      90.04279380
N      91.57611142      71.75566740      93.25910798
H      93.16915070      70.79190698      93.68429640
C      90.09834545      72.72698671      95.45496996
H      88.11791228      72.64950794      94.89561097
C      90.35723795      70.57647817      97.42406478
H      92.37924510      70.58592680      97.81523812
H      89.93393926      68.75667173      96.55479067
C      88.81900074      70.85615766      99.93362132
H      89.52953783      72.46620448     101.00320641
C      85.99008044      71.18119059      99.59913976
H      85.35135295      69.87727943      98.13838132
H      85.84079206      73.00666621      98.65805606
H      85.10190908      71.31158170     101.45296128
C      89.36513164      68.42030044     101.33201879
H      91.39847715      68.14062096     101.50965307
H      88.76419867      66.77623855     100.24731589
H      88.68671990      68.56014020     103.27276772
C      91.13013602      75.21386655      96.54912149
O      93.26930620      75.49921521      97.17462090
N      89.33678575      77.05445998      97.14438528
H      87.65681905      76.72564759      96.29778789
C      89.65614949      79.47330965      98.50876768
H      91.65547993      79.51110418      98.99631707
C      89.41237480      81.79200384      96.58880575
H      89.37835972      83.48519862      97.76043606
H      87.54343547      81.66350245      95.72898027
C      91.48729428      82.08302169      94.63671847
H      91.80287859      80.21786182      93.81846697
H      93.29765209      82.62159370      95.45874941
C      90.94116339      84.06912404      92.43329758
H      92.74774174      84.46407684      91.52811868
H      90.03031530      85.61869962      93.43674226
N      89.29521177      82.77088208      90.60782197
H      88.89081033      80.93784754      90.94797270
C      88.88703089      83.59102328      88.30613532
N      89.61646523      85.68672978      87.49544273
H      89.57489126      86.13459491      85.63784176
H      90.49518797      86.86024982      88.71620593
N      87.78343072      82.17750800      86.65073507
H      87.29399159      82.48931285      84.83281835
H      87.26753544      80.48998242      87.37827970
C      88.00641842      79.60370076     100.90683037
O      85.97874208      78.54167458     100.93895572
N      89.20639463      80.88682493     102.75120325
H      91.02242162      81.41027913     102.48853130
C      88.25586230      81.02666469     105.28343651
H      86.97462785      79.48464801     105.75397836
C      90.60290238      80.83013314     107.07489706
H      89.93960843      80.88493520     109.02509461
H      91.80098886      82.49309230     106.88214497
C      92.38680401      78.44718826     107.04655116
H      93.72661996      78.69285268     105.50075504
C      94.29731731      78.30356906     109.04588160
H      95.36879214      76.54801332     108.95706447
H      93.27686511      78.29978961     110.83356269
H      95.51430107      79.96085904     109.17627272
C      90.68605034      76.01700022     106.84246072
H      89.71284128      76.03778721     105.02454401
H      89.46528714      75.96219817     108.49975070
H      91.86334983      74.32758490     106.89159361
C      87.07289363      83.60992056     105.99208388
O      86.28865720      84.20518434     108.03298830
N      86.63636684      85.26154135     104.15526990
H      86.94250250      84.52265836     102.42239087
C      85.61780436      87.87503284     104.37447816
H      84.31578293      87.93739380     105.96940716
C      88.04421294      89.64192694     104.68061382
H      89.10245969      88.89359532     106.28121201
H      87.53965602      91.58645533     105.13414813
C      89.92827008      89.61547077     102.49231075
H      89.10812885      90.56978256     100.86336667
H      90.39314276      87.69550884     101.90838532
C      92.28097934      91.14614908     103.08379508
H      91.99563066      93.09067746     103.69606641
H      93.42048431      90.88158740     101.38493113
C      93.67181791      89.89137082     105.25887007
H      93.80220902      87.87125339     104.87903508
H      92.74207255      89.88192218     107.09757377
N      96.34578064      90.74552712     105.39493037
H      96.15491829      92.59367944     105.83523660
H      97.32654859      90.62269491     103.76220683
H      97.19426775      89.94806260     106.90671142
C      84.20428907      88.70840214     101.90460587
O      84.54821927      87.58023553      99.92039324
N      82.73975118      90.71907094     102.11814494
H      82.76242791      91.76597931     103.71496367
C      81.13915299      91.58267586     100.17739602
H      79.80689595      90.07467426      99.72764115
C      79.59524660      93.74452276     101.11281054
H      80.79333309      95.32811341     101.66272090
C      77.71685865      94.70450374      99.10970065
H      76.48475709      93.21539940      98.39349438
H      78.85825334      95.56432920      97.62815522
H      76.39405023      96.12368819      99.79945075
C      78.10992172      93.15681788     103.60913900
H      79.27966230      92.24785952     105.03966182
H      76.51499272      91.94550331     103.13481769
C      76.98364484      95.48874016     105.04722072
H      75.59469599      96.37880124     103.81133971
H      78.49164644      96.80587939     105.52343175
H      76.29767419      94.97662433     106.92182923
C      82.71140529      92.20439582      97.84547374
O      84.82033986      93.32122408      97.94373951
N      81.80811611      91.56755805      95.53244874
H      80.20373847      90.54899557      95.36804255
C      82.91549574      92.44817052      93.17407030
H      83.78854928      94.26986668      93.57847173
C      84.76742752      90.44317091      92.31424483
H      86.01086743      90.24663936      93.94318891
H      86.03921332      91.27087102      90.92151653
C      83.86602806      87.96762943      91.19552685
C      83.75831367      87.90904792      88.65951414
H      84.36491581      89.53799199      87.59370850
C      82.87770120      85.62058935      87.48032492
H      82.85880395      85.28421806      85.46965612
C      82.46763060      83.37748421      88.96187035
O      81.92149969      81.20429895      87.76378386
H      82.11236204      81.35358734      85.96476441
C      82.71518474      83.47008080      91.63772281
H      82.60936007      81.77688602      92.77533805
C      83.44272937      85.78688526      92.72620516
H      83.74697532      85.89648940      94.74065341
C      80.76120773      92.96406580      91.26922618
O      78.65605263      91.98140811      91.63961253
N      81.21096260      94.43427287      89.26422656
H      82.93250327      95.25063464      89.15840188
C      79.36469999      94.78954142      87.20820433
H      77.41261270      94.82166677      87.86393936
C      79.98264049      97.55043156      86.12917060
H      78.83935608      97.88113366      84.44731419
H      81.85157982      97.61846171      85.26556568
C      79.66705620      99.60834352      88.18330311
H      81.01632079      99.13969139      89.67051771
H      77.75087372      99.40236335      88.91273746
C      80.14137751     102.31443160      87.31780846
H      82.09913396     102.37679257      86.68097069
H      80.10169325     103.68637290      88.85415595
C      78.34235806     103.00796115      85.09926976
H      76.43562421     102.72639193      85.82681439
H      78.70896495     101.85522810      83.43064143
N      78.58613275     105.72727733      84.17708332
H      80.20184875     106.29608494      83.33237566
H      78.49353615     106.67025075      85.83437330
H      77.26521406     106.26018014      82.90718724
C      79.36658972      92.71084247      85.13895402
O      81.47930374      91.75464096      84.62116901
N      77.20663254      92.04943826      84.06181002
H      75.67595422      93.00563978      84.68164025
C      76.82679756      90.68316615      81.70910076
H      77.98519978      88.98997137      81.88295558
C      74.05267933      89.83845848      81.80358707
H      72.85648256      91.51464572      81.83760215
H      73.56512993      88.62336446      83.39284690
C      73.40261348      88.24163975      79.62284291
O      74.85014383      86.49931208      79.03513803
O      71.35792961      88.36825140      78.51168384
C      77.43906888      92.02865128      79.14663188
O      77.84913948      94.30199203      79.30914834
N      77.31623666      90.73607847      76.98667470
H      77.14427158      88.83690353      77.03580759
C      77.64504905      92.13258622      74.61695791
H      79.06234378      93.59145494      74.94954974
C      78.48030808      90.48474487      72.26235892
H      78.31023271      91.42582858      70.43688330
C      81.25064686      89.64381667      72.59684048
H      81.63237156      87.73330336      71.92409791
H      81.65126882      89.69483929      74.61506818
H      82.51109431      90.93638946      71.60662389
O      77.12726403      88.25864728      72.31149180
H      77.81890387      87.33646084      70.91120461
C      75.28478089      93.66137482      73.79681669
O      75.44729735      95.04465448      71.84661913
N      73.11537508      93.47429191      75.18765525
H      73.05112438      91.85857590      76.20054856
C      70.87793912      95.11646407      75.23111896
H      70.80990898      96.25974849      73.52091664
C      68.53278876      93.52531451      75.15552990
H      68.00555513      92.92816100      77.05470485
H      68.81435799      91.78865604      74.08594481
C      66.03835004      94.81977704      74.18799003
H      66.02512194      96.79454103      74.76624628
H      64.55113542      93.96184129      75.32371555
C      65.77567808      94.50419274      71.42143071
O      67.41596051      95.35267986      69.91342911
O      63.87083395      93.27776037      70.74868814
C      70.89683639      97.09689724      77.36650969
O      69.57969715      99.02819754      77.34383298
N      72.65617158      96.89280680      79.11450653
H      73.82591217      95.41315110      78.82159895
C      73.40072374      98.64080364      81.02313011
H      73.22875866     100.62501627      80.49589647
H      75.40761309      98.68804680      81.47855415
C      72.23476261      98.30632208      83.73677709
O      72.67317912      99.86912575      85.35249309
N      70.51511167      96.43549303      84.09582509
H      69.91606842      95.56810866      82.50278581
C      69.31702519      96.01597379      86.53168231
H      68.78034292      97.93404600      87.06647486
C      66.88116797      94.55521536      86.13483978
H      65.93063564      94.70639346      87.95464622
H      67.29879748      92.54076711      86.04980210
C      65.21631909      95.39614357      83.92574972
C      64.19019769      93.49507889      82.34593853
H      64.70798271      91.52220463      82.45554265
C      62.48377483      94.21128516      80.58471360
H      61.60505210      92.72029111      79.50379015
C      61.79969391      96.88902735      80.10283339
O      59.97988747      97.47106306      78.35861601
H      59.74178196      99.24740579      78.08460569
C      62.88439682      98.79576120      81.66941651
H      62.38928852     100.76296629      81.43509044
C      64.65318064      98.00774533      83.53835583
H      65.40340199      99.32866402      84.90273823
C      71.10092682      94.96528596      88.51022576
O      72.93018190      93.93160568      87.65417974
N      70.49810412      95.10890516      90.87994256
H      68.87293951      95.96684091      91.39583784
C      72.50877292      94.25096942      92.74510243
H      74.44385267      94.42104478      92.05913177
C      72.04578997      95.54921140      95.29434322
H      73.00577094      94.49474412      96.78155783
H      70.07102599      95.30165725      95.82535632
C      72.84136476      98.22884331      95.32268912
C      71.37115769     100.17148196      96.20141185
H      69.50977726      99.57432844      96.78344756
C      72.02878244     102.74528919      95.94629880
H      70.86849048     104.01707500      97.04234006
C      74.46463966     103.36133997      95.05245825
O      75.19029456     105.72727733      94.97308975
H      73.74465394     106.72316308      95.42662406
C      76.22775431     101.36956844      94.60270339
H      77.97386142     101.80609522      93.64083270
C      75.35281102      98.91292423      94.58380613
H      76.78900302      97.62980006      93.90350466
C      72.13271740      91.31055527      93.20997510
O      69.98409857      90.40915582      93.50288268
N      74.24732113      89.94050370      93.18918811
H      75.92917755      90.81922643      92.99643603
C      74.36259444      87.26843069      93.76366491
H      72.48420648      86.80733747      94.47420200
C      74.71597327      85.73208320      91.25788782
H      74.57802323      83.74409112      91.78701119
C      72.99254286      86.32545726      89.02234159
H      73.25332510      85.17650366      87.33670572
H      73.55757103      88.19628631      88.36849629
H      71.03856586      86.21774286      89.66673826
O      77.08191060      86.22152232      90.15995683
H      77.58079836      87.92605545      90.53223291
C      76.41105777      86.55411414      95.71575219
O      77.95307443      88.05077739      96.47920162
N      76.19562896      84.15794118      96.63982836
H      74.63849448      83.09591500      96.33180297
C      78.15338543      82.94095744      98.44451699
H      79.85224938      84.02566034      98.01176966
C      77.41639216      83.35102804     101.29800372
H      76.80223111      85.31445369     101.33201879
C      75.28667061      81.55767778     102.12192439
H      74.86715137      82.07924223     104.06834249
H      75.77988917      79.56212679     101.99909218
H      73.55190186      81.98097647     101.09769273
C      79.90894116      82.90316291     102.84191012
H      81.50764962      83.97652745     102.10869631
H      80.65916251      80.98509070     102.89671218
C      79.72374798      83.55700821     105.57445436
H      81.50953935      83.59291301     106.59868603
H      78.40849847      82.32868611     106.57789904
H      79.01888007      85.49019823     105.69917630
C      78.66739098      80.14605222      97.67539838
O      77.02521881      79.05190068      96.47353244
N      80.53822003      78.84403079      98.72230675
H      82.06133944      79.72842270      99.46118974
C      81.22041122      76.22109066      98.23664709
H      79.66894593      74.89828225      98.51443686
H      82.59991143      75.79401252      99.70496444
C      82.21062782      75.92818309      95.48709531
O      84.03043425      77.19429972      94.74254314
N      80.77065637      74.45041711      94.12649236
H      79.37603835      73.47153889      94.98442811
C      80.54577893      74.24443694      91.37694058
H      81.74386541      75.72031320      90.58514525
C      81.35269207      71.79913109      90.10704449
H      80.07901653      70.31947539      90.76466925
C      80.99364407      72.22431951      87.29702147
H      82.06511890      73.90239648      86.77545700
H      79.06423351      72.52478600      86.63372753
H      81.46229619      70.67474395      86.02334593
C      84.26665005      71.46275981      90.49821784
H      84.69939737      72.19975307      92.37282634
H      85.25308718      72.54557300      89.05257721
C      84.92994398      68.63761897      90.48310003
H      84.01909589      67.85905173      88.80502306
H      84.14759728      67.79291131      92.19141262
H      86.98218675      68.46376415      90.48121030
C      77.76032235      75.06268843      90.67396239
O      75.87815495      73.80035127      91.05190765
N      77.52599628      77.40594907      89.63839237
H      79.00376227      78.59647664      89.41918412
C      75.24509663      78.38671702      88.29668669
H      74.60258968      76.81635445      87.13072555
H      75.70241039      79.93629260      87.02112142
C      72.95663806      79.02166506      90.07113969
O      71.19541313      80.28778169      89.17918887
N      72.89616682      78.36215058      92.42762841
H      74.50054446      77.46831004      92.94541342
C      70.70786376      78.39994511      94.22097868
H      69.10726557      77.51933264      93.26666689
C      71.23698712      77.13004902      96.78533728
H      72.51255238      78.20908275      97.98909294
H      72.34058728      75.42362617      96.45463518
C      68.86727032      76.72753733      98.48987042
N      67.43863723      74.50899862      98.46719370
H      67.68997083      73.12949842      97.17084145
C      65.39584308      74.94174596      99.86748090
H      64.12027783      73.42618545     100.36069947
N      65.53757255      77.18107163     101.01454477
H      64.43586211      77.49476620     102.54333336
C      67.69752974      78.42451155     100.21896999
H      68.27389626      80.33880430     100.64226869
C      69.73087524      81.09280510      94.62160065
O      70.84770349      82.57435053      95.98976251
N      67.61627151      81.72397369      93.51800049
H      66.84148372      80.54478448      92.23109687
C      66.45975900      84.28266312      93.44052171
H      68.04334965      85.49397768      92.92651615
C      64.38294978      84.29211175      91.33725632
H      62.59526869      83.67984042      92.15739754
H      64.88561698      82.92583962      89.87838761
C      63.79524490      86.75253541      89.85193144
H      62.01701243      86.28010383      88.92596555
C      63.35304894      89.18461317      91.46953716
H      62.18897753      88.98619191      93.15706276
H      62.69542419      90.77576274      90.33948083
H      65.21253963      89.44917487      92.31613455
C      65.52812393      87.58779445      87.76000441
H      65.90984865      85.98341680      86.52412340
H      67.34604064      88.20573495      88.50077713
H      64.56247379      89.02209672      86.63939671
C      65.53946228      85.22752628      95.95196798
O      64.23366140      83.76676783      97.23509215
N      66.52400970      87.41582934      96.79289619
H      67.92429689      88.27754454      95.82535632
C      65.64906641      88.50620143      99.25143012
H      64.83081491      87.04733271     100.45518578
C      67.89406127      89.79121532     100.50242894
H      67.07392006      90.55088530     102.23152852
H      68.65184153      91.24441486      99.25709930
C      70.08236435      88.03754930     101.03344203
H      70.73998909      87.03032518      99.35914452
C      72.14216602      89.36602690     102.45640595
H      72.69774556      91.03843468     101.38871058
H      73.85803752      88.22463220     102.42239087
H      71.44674674      89.92160644     104.31400691
C      69.13183201      85.87948185     102.75120325
H      67.93752498      84.60958577     101.65705172
H      68.26822709      86.51442989     104.51242818
H      70.77967335      84.87792690     103.46929925
C      63.59304419      90.59623874      98.73364511
O      61.58237538      90.54521612      99.75031787
N      64.05224768      92.37825064      96.88360305
H      65.73977328      92.31588967      95.98787278
C      62.23811042      94.29254341      96.06346183
H      60.42397315      93.35901861      95.78567206
C      61.86772406      96.20305670      98.11003543