 %block lattice_cart
   140.777   0.000   0.000
   0.000 144.511   0.000
   0.000   0.000   162.462
 %endblock lattice_cart

 %block positions_abs
N      88.13680953      41.17233675      83.07820747
H      87.50753067      40.53171953      84.76195362
H      90.01519748      40.86809081      82.92891909
H      87.46028751      40.10086193      81.64957438
C      87.28076351      43.78960769      82.82876360
H      88.43727601      44.70045577      84.26873505
C      88.09712528      44.75714756      80.17747758
H      87.07856279      43.69323165      78.73750613
H      90.07944818      44.43589409      79.71449463
C      87.56800191      47.62953156      79.93559261
H      85.77843109      48.07172751      80.85210987
H      87.58689917      48.11330149      77.93437245
S      89.93204953      49.34162360      81.77618604
C      92.43782662      49.68933324      79.60111106
H      94.01196864      50.75324915      80.38912693
H      91.69894363      50.94789096      78.14791152
H      93.01608287      47.83173227      78.92080958
C      84.44239459      44.10708171      83.44292465
O      83.00242314      43.21513089      81.94815114
N      83.56745130      44.84407497      85.63311745
H      84.83923711      45.54705316      86.86710873
C      80.92561392      45.71523880      86.00350380
H      79.55556234      45.20501270      84.55030427
C      79.95240487      44.35085640      88.42991239
H      80.04122200      42.30995199      88.16535071
H      77.92472853      44.66077152      88.63022338
C      81.42828112      44.88186950      90.96781483
O      83.65815817      45.53004562      91.06986005
N      80.37003438      44.60974891      93.10698501
H      81.47174482      44.94234074      94.63010442
H      78.73353140      43.63842958      93.23548640
C      80.88592967      48.65187349      86.24160932
O      82.79077379      49.86129833      86.59120869
N      78.68061906      49.91043122      86.03562915
H      77.25009624      48.64809404      85.97326818
C      78.32912996      52.63730629      85.82775926
H      79.41950205      52.94344195      84.10810831
C      75.58146791      53.23257007      85.09643517
H      75.14116167      52.19133088      83.37489450
C      73.67662378      52.45211311      87.20725947
H      71.79445637      53.00013374      86.57420115
H      73.99409780      53.47256532      88.96659466
H      73.46875389      50.44144431      87.60977117
C      75.00699111      55.95755542      84.55219400
H      75.35092129      57.15564190      86.19436616
H      73.00388121      56.25802190      84.18180764
C      76.57924340      56.94210283      82.42058271
H      75.97642070      58.75246064      81.64390520
H      76.24854129      55.66653757      80.83888179
H      78.54833822      57.26335630      82.93080882
C      79.32501573      54.24735311      88.00661370
O      80.21696655      56.35250822      87.51150540
N      78.83746634      53.36674064      90.38010994
H      78.07023746      51.62819244      90.55207504
C      80.20562819      54.37963395      92.67045824
H      79.77855005      56.37140548      92.98415280
C      79.12092529      53.12674540      94.85309213
H      79.51209864      51.11985606      94.58664072
H      77.06679279      53.11162759      94.71514211
C      79.96752268      53.73523727      97.56484939
C      78.68439851      55.69866291      98.78183313
H      77.51843738      57.12918573      97.91255903
C      79.35903080      56.12952051     101.30650749
H      78.37448340      57.62618375     102.28538572
C      81.27143383      54.75191003     102.64065426
H      81.86291817      55.39630670     104.48502714
C      82.29566550      52.63541656     101.36886845
H      83.75831366      51.49402187     102.22113502
C      81.65882773      52.13274936      98.89521671
H      82.37503400      50.45089294      97.98625835
C      83.03643821      54.17176405      92.57408219
O      84.43861513      55.33394573      94.03673036
N      84.26098086      52.69966725      90.89978468
H      83.15549097      51.49024241      89.91712700
C      86.95006140      52.93777277      90.37255104
H      87.88358620      53.81649551      91.98448758
C      88.25019311      50.35262717      90.38199967
H      90.00196940      50.48868747      89.30674540
H      87.01998128      48.91643518      89.56563790
C      89.31977820      49.73468667      92.89722539
H      87.89114511      49.88964423      94.37310164
H      90.69171950      51.23134991      93.23926586
C      90.67093251      47.21757122      92.87454868
O      91.50619154      46.33695876      90.86954906
O      90.81644144      45.94578541      94.81529760
C      87.49997176      54.43065656      87.92724519
O      89.36135218      55.79881841      87.90078902
N      85.99952907      54.09239555      85.93925311
H      84.45940212      52.96422894      85.96570928
C      86.39637159      55.67976565      83.59599248
H      88.34845888      55.15820119      83.19348078
C      84.73152271      54.61018056      81.52296272
H      82.98541560      55.67220675      81.76484768
H      84.51231446      52.58439395      81.82720865
C      86.07511812      55.01458199      79.07198769
H      87.87602730      54.01869622      79.10222331
H      86.28676747      57.05737613      78.92080958
S      84.43105623      54.19444077      76.25629548
C      81.91772023      56.42242809      76.42826058
H      80.86325295      56.22211710      78.18381632
H      80.63270634      56.06715954      74.85789801
H      82.73219227      58.31215440      76.32054618
C      86.13747909      58.50301676      83.86055416
O      87.82689441      59.92598068      82.97238280
N      84.33656991      59.58205049      85.31942288
H      83.03265876      58.51246539      86.21515315
C      84.15515619      62.24089541      85.76539829
H      83.81878490      63.17819966      83.96259939
C      81.84024145      62.75112151      87.42457799
H      82.06700861      64.57848686      88.34676443
H      81.68717362      61.34138568      88.91935150
C      79.37414862      62.66419410      85.71815513
H      79.37981779      60.88029246      84.68825429
C      77.08380032      62.63395848      87.45292389
H      76.74931877      64.45376492      88.35621306
H      77.30111885      60.98989659      88.67368708
H      75.40383363      62.33160227      86.30019083
C      78.97919582      64.87328416      84.11566722
H      77.04600580      65.48744521      83.76417812
H      79.58579796      64.29502791      82.23349981
H      80.25476108      66.37372686      84.72604882
C      86.43794557      63.56370383      87.01450738
O      86.80833193      65.90507473      86.92002107
N      88.18783214      62.01412825      87.97448835
H      87.82689441      60.14140948      87.91968629
C      90.48951879      62.76434960      89.14800839
H      90.12669134      64.38384505      90.36877159
C      91.45327921      60.78580615      91.04529361
H      93.25796784      61.38484939      91.83897866
H      91.66870801      59.15308261      89.80941260
C      89.37835972      60.13763002      93.03328569
H      87.81744578      59.02836068      92.26983626
H      88.74719113      61.81759671      94.04239954
C      90.60668182      58.34050030      95.02505722
H      92.13169095      59.20788468      96.10598067
H      91.58178060      56.81360144      94.03862009
N      88.64892536      57.34083508      96.79006160
H      87.44327997      56.09928489      95.98314846
C      88.11035336      57.93987832      99.12954277
N      89.15726174      59.78614093     100.30117309
H      88.61113083      60.31715402     102.05105965
H      90.53676195      60.63840750      99.29583869
N      86.33967980      56.82116034     100.46179982
H      86.29621610      56.94399255     102.36664395
H      85.64048107      55.21300325      99.70401957
C      92.59845335      63.69031549      87.52473349
O      94.03464535      65.52901919      87.86677395
N      92.69671912      62.48278038      85.31375370
H      91.59122923      60.92564590      85.28540780
C      94.23117689      63.08371334      83.03663349
H      95.79776000      64.19865187      83.77173703
C      95.75618602      60.66297394      82.19948474
H      97.23584173      61.12028771      80.84266124
C      97.08088417      59.44032101      84.45392823
H      95.67492779      58.44254552      85.58209484
H      98.05031377      60.92375617      85.50461606
H      98.53219398      58.10050506      83.87189252
C      93.92504123      58.75435036      81.01651606
H      92.72695474      59.84283272      79.74284053
H      92.81766161      58.32160304      82.69837248
C      95.07021537      56.45077399      79.68803847
H      96.17003609      55.23567997      80.93525783
H      96.27775049      56.98367681      78.11011699
H      93.52063979      55.33016628      78.92269931
C      92.74963146      64.60494303      81.03919278
O      93.84378299      65.37595136      79.13623838
N      90.32322287      65.09249242      81.47382983
H      89.38024944      64.42163957      82.99128006
C      88.77364730      66.60616319      79.75039943
H      89.68071593      66.68553170      77.90413683
C      86.21873732      65.40996644      79.47638912
H      85.18694675      65.50256303      81.25651131
H      86.65337437      63.39551819      79.51040419
C      84.63136722      66.23766656      77.13123876
O      85.76898246      66.12239326      75.17915148
O      82.26731960      66.39073439      77.13879767
C      88.52231370      69.38973005      80.61778381
O      88.33523079      70.94497481      78.94726575
N      88.34467942      69.97176576      83.14245817
H      88.37680477      68.44486689      84.28574259
C      88.14058898      72.52856546      84.22149189
H      88.35979723      73.86649169      82.67191631
C      85.37969884      72.81391413      84.99438995
H      85.27387416      74.15939927      86.54963471
H      84.74664052      71.06969674      85.89012022
C      83.44839855      73.59437110      82.97238280
H      81.59268731      73.49988478      83.86622334
H      83.54666431      72.22620925      81.43414558
C      83.74508558      76.39305577      82.14657240
O      85.47985433      77.27744768      80.80297699
O      82.04244217      77.90105736      82.84766086
C      89.73362826      73.02178402      86.54963471
O      90.79754418      75.14772613      86.71971008
N      89.82811458      71.15095497      88.26361647
H      89.16482064      69.39728896      87.90456847
C      91.10745929      71.40984748      90.74671685
H      92.93482464      72.33959283      90.55774422
H      91.63658266      69.57303350      91.51772519
C      89.51253028      72.85359838      92.63266371
O      88.11791227      74.59025686      92.05629718
N      89.75630498      72.14495102      95.02316750
H      91.22273260      70.97521043      95.36331823
C      88.24263420      73.22776419      97.07918972
H      86.26975993      73.24855118      96.48581566
C      88.48829862      71.44197283      99.43945789
H      90.34589959      72.04668525     100.09330319
H      88.50341643      69.60515885      98.50971254
C      86.50219627      71.55346668     101.45012669
H      86.67605109      73.45453135     102.23058365
C      83.66949652      71.13016799     100.73014096
H      83.08935055      72.57958807      99.38654555
H      82.33157030      71.18685977     102.29483435
H      83.41249375      69.31225127      99.79661616
C      87.11257787      69.55980542     103.36252971
H      89.01175281      69.74121915     104.13731750
H      86.90281825      67.75322706     102.39876930
H      85.67260642      69.66563009     104.83273679
C      89.10434940      75.95274954      97.90877958
O      91.25107849      76.41951194      98.47758720
N      87.47540532      77.91617518      97.67445351
H      85.78032082      77.48909703      96.90533490
C      87.87035812      80.44840843      98.76860505
H      89.85646047      80.96808317      98.59852968
C      86.85368536      82.22286144      96.72203145
H      87.01998128      84.15605146      97.41178156
H      84.87892137      81.72208397      96.42345469
C      88.28042873      82.06601416      94.20113655
H      87.93460881      80.14794195      93.53028371
H      90.28920780      82.18317719      94.63388388
C      87.33745530      83.91983567      92.17157049
H      85.30033033      84.15416173      91.95992114
H      87.99696978      83.34913833      90.30641062
N      88.20861913      86.36514152      92.67990687
H      88.64514591      86.55789360      94.52805920
C      89.00608363      88.20762468      91.24938405
N      88.48073972      88.14904316      88.86643917
H      89.18938708      89.54933036      87.77795681
H      87.48674368      86.69395390      88.13133563
N      90.16637559      90.02365166      92.14322459
H      90.64825580      91.41637996      90.93002030
H      90.49707769      90.26553663      94.00838447
C      86.78376549      80.90005302     101.38398627
O      84.53499118      80.79611808     101.80539523
N      88.50341643      81.57846477     103.20568243
H      90.25897218      81.56145723     102.46113026
C      88.19728077      81.86948262     105.95334449
H      86.58345450      80.62793243     106.26136988
C      90.32889205      80.61092490     107.33473442
H      89.86779883      80.59202763     109.34162377
H      91.89358544      81.92806414     107.10796727
C      91.33800590      78.02577930     106.59963089
H      91.87846763      78.06735328     104.61163881
C      93.56221377      77.27366823     108.33439964
H      94.92848590      78.81001572     108.21912634
H      94.51463584      75.66740086     107.46512554
H      92.67026295      77.00343737     110.17121362
C      89.41048506      75.82424815     106.86230285
H      90.31188451      74.26711366     105.85696845
H      87.79287934      76.39116604     105.71901843
H      88.85679525      75.49732549     108.82005931
C      87.25997652      84.28455285     107.00214259
O      86.83289837      84.53966590     109.30382924
N      86.91793606      86.14782299     105.40721359
H      87.19005665      85.72830375     103.56662016
C      85.98063181      88.75564531     105.95523422
H      84.93939261      88.80099874     107.73346668
C      88.29365681      90.54521613     106.26136988
H      89.40859534      89.70806737     107.77882011
H      87.51131012      92.38391983     106.75647817
C      90.02842557      91.12725183     103.92944761
H      89.02309117      91.01575798     102.13420761
H      91.58178060      89.77609752     103.83496129
C      90.97517845      93.97317966     103.73669552
H      92.40759100      94.33978656     105.17288752
H      89.34812410      95.23173738     103.85385856
C      92.11279369      94.30199204     101.12698349
H      90.76541883      93.68027208      99.70212985
H      93.98173301      93.44216656     101.25170542
N      92.48129032      97.12146369     100.94556976
H      93.50741171      97.69594049      99.44134762
H      93.29009318      97.88869258     102.49325561
H      90.88069214      98.12112891     100.64510328
C      84.31200347      89.56822762     103.76504142
O      84.57089598      88.41738430     101.72224728
N      82.43928469      91.21228951     104.21668601
H      82.31645248      91.86046564     106.01003628
C      80.57223510      92.09101225     102.40821793
H      79.37792807      90.45261954     102.05294938
C      78.80912045      94.07333515     103.66677565
H      80.07712680      95.51330660     104.41132782
C      76.99687291      95.29787780     101.89988155
H      75.55879119      96.58100197     102.62742618
H      76.04634058      93.80499402     100.84352454
H      78.03055321      96.46194921     100.55061696
C      77.34269283      93.12469254     105.92877805
H      78.38393203      92.00219511     107.30827826
H      76.00098715      91.64692657     105.42422112
C      76.19940841      95.06544147     107.62197282
H      75.06368290      94.14325503     109.07328263
H      74.80479039      96.20683616     106.62230760
H      77.59024698      96.31266083     108.48746748
C      81.74008596      93.24374530     100.09141347
O      83.54666431      94.90103528     100.17267170
N      80.85947350      92.45194997      97.94090492
H      79.41005342      91.21039979      97.89933094
C      81.78732912      93.37035696      95.27261137
H      82.74919981      95.16937641      95.53717305
C      83.74130612      91.57700669      94.13688585
H      85.29466115      91.26142240      95.45213537
H      84.49152747      92.59556917      92.51172123
C      82.80211215      89.07311933      93.31863436
C      82.11803122      88.51942952      90.81852645
H      82.04622162      89.94239343      89.35776801
C      81.14671190      86.14593327      90.07775373
H      80.39271110      85.83034897      88.20881441
C      80.48152823      84.44706931      91.96748005
O      79.52910617      82.18884637      91.23804569
H      79.28533148      82.07168334      89.44469542
C      81.24308794      84.90438308      94.45058042
H      80.81600979      83.42283765      95.78661693
C      82.44306415      87.21362864      95.20458122
H      82.99108478      87.38559373      97.16233768
C      79.67272537      93.62547002      93.37343642
O      77.55245245      92.75241646      93.57185769
N      80.30578369      95.13347161      91.34764982
H      82.11992095      95.70983814      91.22103815
C      78.62581700      95.77030938      89.21036936
H      76.68128862      95.74007376      89.88689138
C      78.85258415      98.46694883      88.32408772
H      77.80756550      98.49907418      86.54963471
H      80.85758377      98.85623245      88.06519521
C      78.00787649     100.53619914      90.31019007
H      79.09635885     100.18848950      92.02228211
H      76.05200976     100.31321144      90.92246140
C      78.76187729     103.09110912      89.19714127
H      78.69195742     103.13646255      87.13922932
H      80.77821527     103.42937013      89.43902624
C      77.02899826     105.14902107      90.55585449
H      77.69418192     105.37956768      92.49093424
H      74.98053494     104.97516625      90.41790447
N      77.40505380     107.55653239      89.28595841
H      76.73420096     107.33354469      87.51150540
H      79.24564723     107.94392629      88.96092548
H      76.58680230     109.07776208      90.10043045
C      78.68628824      93.88625225      86.94836696
O      80.75175910      93.20028159      86.21893260
N      76.59247148      93.11524391      85.79185446
H      75.02021919      93.85412690      86.58364978
C      76.22964403      91.27654021      83.62811783
H      77.70552028      89.84412766      83.76417812
C      73.85047860      89.77987697      84.20259463
H      72.19885780      90.99119153      84.42180288
H      74.14527591      88.72540969      85.94870174
C      73.42340046      87.94117327      81.98972511
O      71.55068168      88.02621095      80.50062078
O      75.24887607      86.41427440      81.57398533
C      76.57546395      92.47273696      80.92202975
O      76.60569957      94.81599759      80.69526259
N      76.59436121      91.06489086      78.74506504
H      76.66428108      89.15815701      78.80742600
C      76.49798517      92.16849103      76.14291190
H      77.93417716      93.64436728      76.11456601
C      77.46930449      90.36380240      74.09822803
H      77.75276344      91.46740257      72.38235654
C      79.82768293      88.85391107      74.85033910
H      80.38893165      87.92605546      73.10045254
H      79.34769245      87.51787457      76.34133317
H      81.31111809      90.08601263      75.57599401
O      75.51154803      88.66682817      73.53319986
H      75.84413986      87.77298762      71.98929347
C      73.90528067      93.09823637      75.30954260
O      73.49709978      94.56844345      73.59556083
N      72.04012079      92.32911776      76.86100790
H      72.61081814      91.17638471      78.27074373
C      69.44174711      93.37224669      77.13690794
H      69.04868404      94.33789684      75.36056521
C      67.59737423      91.23118678      77.57721417
H      67.22131870      91.05733196      79.59355215
H      68.21909419      89.63058859      76.43959893
C      64.94419849      91.58456560      76.36212015
H      65.04057453      92.14770404      74.38168698
H      63.99933533      93.03209595      77.47894841
C      63.45509415      89.13737002      76.59266676
O      63.18486329      88.15849179      78.66191708
O      62.30425083      88.13770480      74.70105073
C      69.15072926      95.54543195      79.04364179
O      67.17785499      96.50163346      79.58410352
N      71.23509739      96.32777864      80.30975842
H      72.95285860      95.67204361      79.80142204
C      71.41273166      98.45750020      81.97838676
H      70.60392880     100.18659977      81.19981952
H      73.39505456      99.01119001      81.93114360
C      70.36204383      98.37246251      84.63156250
O      70.31480067     100.35100596      85.92791475
N      69.37182724      96.16148273      85.38745303
H      69.32269436      94.69505511      84.16857955
C      68.29657297      95.71928677      87.89323012
H      67.33470228      97.38980483      88.61888502
C      66.33125760      93.81255292      87.48882869
H      65.45442459      93.51964534      89.32942211
H      67.06447141      92.06455608      86.68002582
C      64.22043331      94.46639822      85.65201471
C      63.13950986      92.59556917      84.06464461
H      64.19208742      90.85702097      83.89267951
C      60.96821433      93.03776513      82.61711425
H      60.37484026      91.62991903      81.26595994
C      59.80792237      95.40370248      82.75695400
O      57.77079741      95.91959776      81.14879691
H      56.90908221      97.49185005      81.43414558
C      60.72066018      97.26886235      84.38022890
H      59.90996759      99.11512495      84.06842406
C      62.89195571      96.67548828      85.90334831
H      63.70264830      98.20994605      86.97482313
C      70.19196846      94.71773182      89.93980371
O      72.07791532      93.41948985      89.35209883
N      69.73843415      95.03142639      92.40778628
H      68.34570585      96.31077111      92.67234796
C      71.32391452      94.23963107      94.59042017
H      73.28922989      94.57222290      94.06129680
C      70.76077608      95.95172311      96.85053284
H      71.68674197      95.07111064      98.46624884
H      68.75577646      96.24085123      97.22847810
C      72.04578997      98.55765569      96.75982598
C      70.80801924     100.89524714      97.09241781
H      68.77845318     100.89335742      97.32485414
C      72.30468248     103.15347009      97.25115482
H      71.40139330     104.94871008      97.60075419
C      74.96352740     103.06654268      97.08674863
O      76.22586458     105.31342726      97.06218219
H      75.10714660     106.73828090      96.99793149
C      76.14082689     100.70249506      96.85053284
H      78.18173131     100.69871560      96.81084859
C      74.66495064      98.51230226      96.66156021
H      75.67028504      96.74351843      96.81273831
C      70.99132269      91.35590871      95.20836067
O      68.83136552      90.41104556      95.53528333
N      73.01521957      89.91215781      95.29528808
H      74.73109106      90.69639423      95.00804969
C      73.16261822      87.16071630      95.58630594
H      71.26911246      86.56167306      96.13621629
C      73.97520054      85.91916611      93.02005760
H      74.76132669      84.10502885      93.59075495
C      71.79634610      85.31823314      91.23048679
H      72.48420648      84.46029740      89.48626940
H      70.70786374      87.04166354      90.94324839
H      70.76833499      83.98030691      92.40967600
O      75.79878643      87.27976906      91.58008615
H      77.18017637      87.09079642      92.74037811
C      75.03911645      86.40104632      97.60453364
O      76.81356946      87.91849655      98.17145153
N      74.88982807      84.06345487      98.42089541
H      73.35726003      83.02599513      97.95224328
C      76.74742904      82.98820060     100.27282719
H      78.37448340      84.24864805     100.34463679
C      75.77233026      83.34724860     103.04883515
H      75.28100142      85.31445369     103.41166260
C      73.30056825      81.87893125     103.42678041
H      73.53678403      79.83424738     103.39654479
H      71.76422075      82.46663614     102.18900967
H      72.92451271      82.33624502     105.40154441
C      77.70174083      82.63104233     105.02359914
H      78.45196217      80.74320574     104.67399978
H      76.87970988      82.50821012     106.90954600
C      79.91461034      84.48486384     105.39587523
H      81.26198520      83.79700346     106.79238297
H      79.30989792      86.43884085     105.63964992
H      80.98797489      84.61903441     103.64409894
C      77.55812163      80.18573648      99.46024488
O      75.98208988      78.93095821      98.27916593
N      79.83713156      79.42228705     100.14054635
H      81.18828588      80.51643858     100.92478277
C      80.48152823      76.75399349      99.55095174
H      79.21730133      75.38961109     100.43912311
H      82.29188604      76.46486537     100.48825599
C      80.82356870      76.26455438      96.74281844
O      82.42605661      77.40027989      95.50504771
N      79.20974243      74.64505893      95.62599019
H      77.90205182      73.63594508      96.58597116
C      78.93195266      74.28223148      92.85754114
H      80.39271110      75.33102958      91.85031702
C      79.78610895      71.65173245      92.05062801
H      78.36692449      70.23443771      92.52305958
C      79.79366786      71.33236870      89.21414881
H      78.06267855      72.01644963      88.32975689
H      80.17917202      69.39161978      88.64156174
H      81.18450642      72.68352301      88.52061925
C      82.44873333      70.85048849      93.19958160
H      82.46952032      71.19441868      95.23103739
H      83.97185273      72.04101607      92.48904451
C      83.20462385      68.10093671      92.60998699
H      84.62002886      67.46787839      93.96303103
H      84.07200823      67.98188395      90.74671685
H      81.58134895      66.83859953      92.74982674
C      76.22019540      75.00221720      92.17346022
O      74.44952184      73.64539371      92.74037811
N      75.83280150      77.24532233      91.14922855
H      77.30489830      78.46041635      91.11899293
C      73.50843814      78.13160398      89.97003933
H      72.80734968      76.61793320      88.76250422
H      73.99598753      79.79645286      88.85888026
C      71.38249604      78.82324381      91.79929441
O      69.28678956      79.11804111      90.92246140
N      71.74154404      78.64938898      94.32585849
H      73.44607717      78.05223547      94.94757844
C      69.63260947      78.64560953      96.16267246
H      68.18696884      77.59303198      95.14222025
C      70.26188833      77.09792368      98.57963242
H      71.76044130      78.14483206      99.53016475
H      71.02155831      75.32347067      97.85964669
C      68.16051267      76.71997842     100.34463679
N      67.07769950      74.40884314     101.01737936
H      67.51800573      72.71186891     100.26148884
C      65.02356699      74.99654802     102.62742618
H      63.59493390      73.76066701     103.39843451
N      65.31647457      77.42484633     103.27371258
H      64.03335041      78.45663690     104.23369355
C      67.16084745      78.57002048     101.85830757
H      67.62572013      80.55612283     101.95090416
C      68.64995179      81.32713117      96.36865263
O      69.76111086      82.95607525      97.54595212
N      66.41251583      81.74854014      95.25371411
H      65.49788830      80.35770157      94.32207903
C      65.24466497      84.29400148      95.28206000
H      66.51834051      85.63948662      94.38255028
C      62.73132898      84.21841243      93.74193306
H      61.45576372      82.90316292      94.68112703
H      63.24722426      83.63448700      91.83519921
C      61.32348287      86.83946283      93.41878986
H      60.91152254      87.46118278      95.33875179
C      62.93919887      88.98241246      92.22259310
H      64.57381213      89.27532004      93.44524602
H      62.02079188      90.82300589      92.30763078
H      63.69697912      88.64226173      90.34042569
C      59.06148048      86.44073057      91.75394097
H      59.65863399      86.54655525      89.78484616
H      57.58560423      87.78054653      92.26794653
H      58.46432696      84.53021727      92.24338009
C      64.92152177      85.15571668      98.14499536
O      63.94453327      83.83479799      99.81551343
N      65.36560746      87.54055129      98.53427899
H      66.52023023      88.47785554      97.33808223
C      64.57759158      88.67627680     100.87187043
H      63.62894898      87.31189440     102.08696445
C      67.03423579      89.68350093     102.08696445
H      66.39928775      90.32978733     103.93700651
H      68.07925444      91.15937718     101.10052732
C      69.13561145      87.66338350     102.89576732
H      70.09370269      86.84891146     101.26493351
C      71.20297204      89.08445769     104.37164357
H      70.24299107      90.49419351     105.52248689
H      72.31791056      90.13892497     102.99970226
H      72.43507359      87.74086228     105.33162453
C      67.98476813      85.63192771     104.46612988
H      66.63550354      84.47730493     103.42111123
H      66.76211520      86.33301617     105.96846230
H      69.27734092      84.41116451     105.50547935
C      62.75589542      90.93261002     100.57707313
O      60.93230953      91.01197852     101.97169115
N      63.16785575      92.59178972      98.67033928
H      64.58137104      92.25352871      97.43067882
C      61.45576372      94.65537086      97.96736109
H      59.55658877      93.94672349      98.32451936
C      61.83370898      96.87390955      99.92700728