 %block lattice_cart
   140.777   0.000   0.000
   0.000 144.511   0.000
   0.000   0.000   162.462
 %endblock lattice_cart

 %block positions_abs
N      92.02681115      43.93417175      81.99350458
H      91.94933237      42.63215032      80.60077628
H      90.79470960      43.25198055      83.28229792
H      93.82394088      44.02109916      82.62656288
C      91.35217886      46.33979334      80.88045578
H      91.50146724      47.86102303      82.25995599
C      92.79026057      47.14859621      78.53719514
H      92.50491191      45.73697065      77.06509834
H      94.82927527      47.32056130      78.78096983
C      91.87752277      49.61657877      77.24651207
H      90.31093965      49.20839789      75.97094682
H      93.36851683      50.08712062      75.90669612
S      91.40509119      52.26219561      79.06631852
C      92.79592976      54.87379737      77.26729907
H      91.36351722      55.51063514      75.93126256
H      94.49290398      54.29932057      76.25062630
H      93.34584011      56.32321746      78.62412255
C      88.48168459      46.20562278      80.44203927
O      87.60674130      44.64092939      78.91514041
N      86.97557271      47.91771482      81.50217573
H      87.92799478      49.07800677      82.68136494
C      84.17877777      48.17282787      81.56075725
H      83.30950366      47.39426063      79.86189328
C      83.33218038      46.37191869      83.78874457
H      84.30727916      47.02765372      85.48193935
H      83.96145924      44.44439785      83.42213766
C      80.47491419      46.37380842      84.18747683
O      78.94234615      46.70262080      82.59443753
N      79.78327436      45.79177271      86.54963471
H      77.98992409      45.38170210      87.06553000
H      81.09285471      45.37036375      87.87055340
C      83.33973929      50.99607898      81.98027649
O      84.96112446      52.51541894      82.45081833
N      80.85285945      51.68204963      81.76862714
H      79.58485311      50.34412340      81.26973940
C      79.86264288      54.24262879      81.48327846
H      80.40121487      54.52419801      79.51796310
C      76.97325133      53.95350066      81.51162437
H      76.65577731      52.22818054      80.43448036
C      76.02082927      53.22784576      84.08543160
H      76.80128625      51.43071603      84.71848991
H      73.97992486      52.95572517      84.13456448
H      76.54239373      54.61112542      85.51784414
C      75.37076343      56.06432495      80.50440024
H      75.50493399      57.73295329      81.70437644
H      73.44135285      55.34055977      80.52896667
C      76.04917517      56.75974423      77.70571557
H      76.13610259      55.11568234      76.47172428
H      78.00882136      57.38335392      77.57721417
H      74.68479278      58.10144992      76.94226613
C      80.86419781      56.46683666      83.18403215
O      80.75459369      58.65325000      82.32420667
N      81.69378767      56.02842015      85.51217496
H      81.12498005      54.35601236      86.23594015
C      82.70857069      57.77263754      87.38867319
H      81.69189794      59.53197274      87.06553000
C      82.21346241      56.96950386      90.07586401
H      82.08874047      58.62112465      91.30229639
H      83.80650169      55.72039476      90.45002983
C      79.77004629      55.36134676      90.54073668
C      79.76437710      52.78942925      90.51428051
H      81.43489517      51.62535784      90.35743324
C      77.58552266      51.39859068      90.80529836
H      77.45135210      49.36524517      90.73537849
C      75.20446750      52.67415595      91.04907307
H      73.43757340      51.65181401      91.10198539
C      75.19123942      55.34244950      91.11332375
H      73.37899189      56.27219485      91.24182514
C      77.44001374      56.61612503      90.82608536
H      77.39088086      58.64947055      90.63711272
C      85.45812248      58.48695408      86.90112380
O      86.27070480      60.51274069      87.75150064
N      86.79226926      56.93926823      85.46682153
H      85.99858420      55.37079539      84.72037964
C      89.48512926      57.36823611      84.65990840
H      90.24290951      58.82521509      85.90145859
C      91.00068975      54.92859944      85.11155299
H      90.42621296      53.44894373      83.79819319
H      90.55849380      54.17648836      86.97671286
C      93.85039703      55.33111114      84.75061526
H      94.56471358      56.71061135      86.10176958
H      94.32282861      55.94527219      82.84199168
C      95.24123560      52.76486281      85.02651531
O      94.04881830      51.03198378      85.94492229
O      97.57693732      52.65525868      84.80541732
C      89.57016694      58.46238764      81.95759978
O      91.11407334      60.04597829      81.26973940
N      87.74280160      57.73862246      80.37022966
H      86.59951717      56.36101198      81.03352360
C      87.35540771      58.98017265      77.93437246
H      88.99191068      58.64002192      76.73061678
C      85.03293407      57.71216630      76.66069692
H      83.48335848      58.26018693      77.90413682
H      85.16332517      55.66559270      76.47361401
C      84.49625180      58.58144040      73.99996226
H      85.73780197      57.47972996      72.77919907
H      84.74191622      60.59777838      73.67492934
S      81.35741638      57.49862722      72.77352989
C      81.64654451      58.19215678      69.38336089
H      81.79961234      60.19148722      68.91281903
H      80.11019701      57.45894297      68.22684838
H      83.44934341      57.30776487      68.92226766
C      86.72612883      61.73539362      78.23861838
O      87.54249060      63.30197673      76.70794007
N      85.27103958      62.44215126      80.13779333
H      84.21090312      61.10233530      80.98817017
C      84.72301895      65.05753247      80.49495160
H      84.57751003      65.85877643      78.60522529
C      82.19645486      65.10288591      81.99539429
H      82.06228429      66.86978001      83.04419241
H      82.29094119      63.65157610      83.45426301
C      79.82484834      65.10288591      80.32487624
H      79.90043739      63.40780140      79.15513565
C      77.52694114      64.98572287      81.97649703
H      77.48725690      63.06198149      82.71349029
H      75.84886418      65.43547774      80.87289687
H      77.69134733      66.49372447      83.36922533
C      79.74736956      67.54441230      78.75451367
H      81.14576704      67.41591091      77.24840179
H      80.13287374      69.08453925      80.06598374
H      78.06740287      67.84676851      77.60367034
C      86.94722681      66.49183475      81.88012099
O      87.06438984      68.80485975      81.77429632
N      88.58939899      65.04808384      83.26906983
H      88.55916336      63.14701917      83.44292465
C      90.83439384      66.22916279      84.42558234
H      90.11818758      67.94881373      85.30808452
C      92.29137284      64.49439403      86.30586001
H      94.29259300      64.90446464      86.04507779
H      92.26680638      62.51585058      85.74083185
C      91.47690080      64.77029408      89.01005837
H      89.57205666      64.00306519      89.15556729
H      91.41265010      66.69403546      89.74516191
C      93.32505312      63.54386170      90.77884219
H      95.17698491      64.42636389      90.58986957
H      93.56693809      61.60122305      90.13444553
N      92.55026534      63.73094460      93.44146657
H      90.80415823      63.10544519      93.89311116
C      94.12251763      64.37912073      95.31229563
N      96.30326179      65.36744759      94.89655584
H      97.36150853      65.56964831      96.47069785
H      96.94954820      65.45437500      93.10131583
N      93.33639149      63.92369669      97.61209254
H      94.55904441      64.09755151      99.06718181
H      91.68288096      63.00151025      97.83885971
C      92.77892223      67.03607592      82.36011147
O      94.17165052      68.70848371      82.91758074
N      92.62207494      65.93058603      80.09999880
H      91.38241447      64.48494540      79.96960768
C      93.91653747      67.06442182      77.91547519
H      95.74957198      67.81275344      78.48428280
C      94.41542520      64.83265504      76.01818997
H      92.62396466      63.87267408      75.67992895
C      95.42075961      65.93436548      73.49729507
H      96.48656525      67.67102397      73.80532046
H      93.71433674      66.46915803      72.47495313
H      96.44688099      64.50006321      72.43337915
C      96.06893573      62.59332936      77.07454698
H      96.22200356      61.23461614      75.53253030
H      95.21099999      61.64279703      78.68648352
C      98.79770053      63.39457332      77.85689367
H      99.46477391      64.34321593      76.15425027
H      99.89941096      61.70893745      78.28775128
H      98.80903889      64.63801323      79.49906583
C      92.45199956      69.24894544      76.69093254
O      93.53481275      71.25205533      76.22983931
N      89.95756084      68.89934607      76.23172904
H      89.11663262      67.33654241      76.93281751
C      88.44200033      70.90056623      75.13190832
H      89.24324429      71.31630602      73.27997654
C      85.75103007      69.98026952      74.73128635
H      84.57562029      71.55063209      74.10578695
H      84.93466829      69.44358725      76.54353389
C      85.67544101      68.07542540      72.55054218
O      84.43578055      66.10066140      72.69605112
O      86.78282062      68.74627824      70.61546245
C      88.32294758      73.42902004      76.43204003
O      88.57995035      75.40756349      75.22450491
N      88.07917287      73.50271937      78.92647876
H      87.97901738      71.80196569      79.78819397
C      88.18310783      75.89322315      80.43448036
H      88.63475242      77.59208711      79.35922609
C      85.45623276      76.43368488      81.38312297
H      85.44489440      77.32941515      83.23883421
H      84.70979087      74.52317158      81.57776478
C      83.65910303      77.95113511      79.62378777
H      81.75236918      77.80940563      80.39479610
H      83.71201537      76.72848218      77.96838752
C      84.56050249      80.64021565      79.02852398
O      84.85907925      82.23136521      80.71793931
O      85.07828749      81.20713355      76.71549898
C      89.82716971      75.78739848      82.77396153
O      90.85329110      77.71113987      83.48638836
N      89.82905944      73.57641869      84.07031378
H      88.94088808      72.08731436      83.27284928
C      91.09139662      73.28918029      86.55908335
H      92.89041607      74.28884551      86.48349429
H      91.74524192      71.36543891      86.89356491
C      89.57583611      74.02617356      88.77006312
O      87.87130298      75.63999983      88.57353160
N      89.99535536      72.77895419      90.92246139
H      91.32950213      71.42024097      91.05474224
C      88.72923873      73.09453848      93.25627339
H      86.71101103      73.13044328      92.84809252
C      89.33584088      70.85899226      94.82285651
H      91.31627406      71.00072173      95.37087714
H      88.97868260      69.04107554      93.92145706
C      87.93555367      71.05552379      97.37020757
H      88.52514829      72.79596173      98.29617348
C      85.08395667      71.15567929      97.08674863
H      84.28649216      72.89800695      96.33463756
H      84.19011613      71.37866699      98.93112152
H      84.38286822      69.56452973      95.98314846
C      88.74246682      68.68391727      99.10308661
H      90.74746644      68.61588712      99.56795929
H      88.41932361      66.96048687      98.02405289
H      87.51792416      68.81430838     100.75659713
C      89.42465802      75.76850122      94.48270577
O      91.62240972      76.44313351      94.97592434
N      87.57272622      77.35776105      94.84364349
H      85.89464926      76.76249726      94.15578312
C      87.70311735      79.64621961      96.37054237
H      89.65520463      80.25660121      96.61053761
C      86.89809393      81.96869325      94.78884143
H      87.05494121      83.55039417      96.10031149
H      84.93277857      81.74381582      94.21058518
C      88.62530378      82.39577140      92.38321984
H      88.77081272      80.74981978      91.15489774
H      90.53392736      82.83796735      93.02383706
C      87.75036051      84.64643544      90.68624562
H      88.04137836      86.45490352      91.63299849
H      85.72835334      84.37998403      90.40278666
N      89.12797098      84.95635055      88.29196237
H      90.71156164      86.01648701      88.39967678
C      88.34184483      84.34407923      85.90334832
N      86.20456437      83.18378727      85.54430032
H      85.85496500      82.85686462      83.69614798
H      85.40521014      82.17656314      86.95403615
N      89.63819709      84.92989438      83.97393775
H      89.14119906      84.52171350      82.17869774
H      91.33328159      85.75381505      84.26873505
C      86.40865482      79.34764285      99.09930716
O      84.53782577      78.07774677      99.39032500
N      87.69366872      80.51927317     101.04005607
H      89.27536964      81.42067262     100.46746900
C      87.28737756      80.42100740     103.82551267
H      85.99291504      78.90544690     104.35463603
C      89.83850807      79.92778883     105.07840121
H      89.36796623      80.36053616     107.03615767
H      91.41831927      81.04839654     104.37731274
C      90.83439384      77.20847267     105.10674710
H      89.56449776      76.00471701     106.19522946
C      91.18777266      76.26360951     102.33073916
H      92.05893649      77.80373646     101.27438215
H      89.42276828      75.62488202     101.47658286
H      92.37830024      74.59687090     102.12286925
C      93.44032642      77.16311924     106.40687881
H      93.30048669      77.75082412     108.37786336
H      94.85573143      78.22514542     105.35241152
H      93.97700871      75.17323743     106.45790141
C      86.30283015      82.83229817     105.02548887
O      85.65465402      82.81529064     107.33662415
N      85.73402253      84.75226011     103.47402358
H      86.25180753      84.69745805     101.63909933
C      84.73246757      87.27315501     104.05416954
H      83.17722283      86.99158579     105.37508825
C      86.82628433      88.79816414     105.44500811
H      87.36107688      87.66432836     107.07773165
H      85.96456914      90.51214591     106.19522946
C      89.06749974      89.42555328     103.51370782
H      88.42688252      90.51214591     101.88665346
H      89.71000668      87.60574684     102.79372209
C      91.35595831      90.49135892     104.81006007
H      92.86395991      90.27781985     103.42111123
H      92.00980362      89.41421492     106.43711443
C      91.24446445      93.32405866     105.50925881
H      90.03126016      93.46767786     107.16654879
H      90.49802256      94.42576911     103.93700651
N      93.66520386      94.36529786     106.42955552
H      93.40064218      96.20022211     106.88497956
H      95.03714516      94.33884169     105.10296766
H      94.16976078      93.59617925     108.10196332
C      83.50603520      88.62430932     101.79216716
O      84.10318871      88.00447909      99.59063599
N      82.03771785      90.51214591     102.42333575
H      82.13220417      90.92788570     104.28471615
C      80.58640804      92.27148111     100.86242180
H      78.79872696      91.31527959     100.50148409
C      79.76815655      94.57694721     102.39876929
H      81.43300543      95.43299323     103.25859478
C      78.61542350      96.59328519     100.83785536
H      77.83496654      98.05026417     102.06617746
H      77.20379794      95.90731453      99.50370858
H      80.02704906      97.43799285      99.59819490
C      77.85386381      93.65854022     104.45290180
H      78.43212005      91.94077900     105.43366975
H      76.00193201      93.39208881     103.59874550
C      77.96913710      95.64842203     106.52215211
H      76.65388759      97.18476952     106.12908905
H      79.90043739      96.18888376     106.99269397
H      77.32285071      94.88686233     108.32306128
C      82.20401377      92.91209833      98.57585296
O      84.19767504      94.08183892      98.84419410
N      81.53127120      92.00313997      96.27416632
H      79.97980591      90.89198090      96.30440194
C      82.80872619      92.41699003      93.79862484
H      84.20145448      93.90798410      94.08586324
C      84.30538943      89.95089720      93.23926585
H      85.05561077      89.38208958      95.07041066
H      85.90031845      90.24191505      91.96936978
C      82.81439538      87.87786743      91.97881840
C      82.84274127      87.86274962      89.35776802
H      83.88398047      89.27059572      88.30896990
C      81.63709587      85.93900823      88.02362123
H      81.98669524      85.97302331      86.01295244
C      80.44089912      83.91322163      89.39745226
O      79.48658733      81.89688365      88.04629796
H      79.38265239      82.39766112      86.30586001
C      80.69979162      83.81306613      92.03551020
H      79.51493322      82.34663851      92.81974661
C      81.68811848      85.90688289      93.40178232
H      82.15488088      85.86530891      95.38788467
C      80.92844851      93.16910111      91.71614646
O      78.70613037      92.56816814      92.08086362
N      81.82417878      94.29726772      89.68280094
H      83.56272699      95.08528359      89.60910162
C      80.30294911      94.88497260      87.46426225
H      78.28094194      94.81127327      87.84976642
C      80.98703002      97.55137643      86.65734912
H      80.21224223      97.79893057      84.76384334
H      83.01281664      97.92743196      86.69892309
C      79.77004629      99.40708767      88.40723567
H      80.21035251      98.90253074      90.35554350
H      77.72158296      99.44110274      88.17857879
C      80.95112522     101.91475448      87.88189177
H      81.05317045     102.27191276      85.85421542
H      82.97880156     101.75034829      88.20503496
C      79.84185589     104.08416029      89.28028923
H      81.12686977     105.63373587      88.85132137
H      79.91555521     103.79314244      91.31741419
N      77.17545205     104.84005082      88.50550144
H      76.04350600     103.37740265      88.97982274
H      76.92789791     105.28602623      86.66679774
H      76.46491496     106.36128050      89.41445980
C      80.63176148      93.00091547      85.34020987
O      82.75770359      92.28092974      84.86399884
N      78.48503238      92.21667905      84.21015354
H      76.74648418      92.50013799      84.94525708
C      78.36220017      90.41199042      82.07098335
H      80.25192649      89.61074646      81.89145935
C      76.42334099      88.51470520      82.83821224
H      74.59408591      89.45389918      82.91569101
H      76.87120612      88.12353185      84.81108651
C      76.40066426      86.03916373      81.34910790
O      78.25259605      85.56862188      79.83354739
O      74.58085783      84.53116213      81.78185523
C      77.93701175      91.91432284      79.49339665
O      77.83685626      94.23868620      79.42914597
N      77.64032472      90.60852195      77.35044702
H      77.85197407      88.71312646      77.45438196
C      77.31340207      91.73290911      74.73317608
H      79.13698797      92.57383732      74.27586231
C      76.54806292      89.76570402      72.88313401
H      76.10208750      90.78615623      71.15025499
C      79.02171466      88.38053463      72.26330379
H      80.46357584      89.77515265      71.79843111
H      78.87053656      87.24669884      70.55121175
H      79.59430173      87.34685434      73.95082939
O      74.85297841      88.02715581      73.93382184
H      73.12198911      88.49958739      73.66548070
C      75.48414700      94.05160330      74.48184247
O      75.77705459      95.75991588      72.86801621
N      73.40355833      94.06483138      75.93504201
H      73.16545282      92.51525580      77.02163465
C      71.54406764      96.08494881      76.00496189
H      71.33052857      97.02036333      74.18137599
C      69.01750356      94.85284725      76.77408049
H      67.66068006      96.40242283      76.79297775
H      69.13844604      94.22545812      78.73183696
C      67.87232941      92.76847913      75.14135695
H      67.80051982      93.29382304      73.15147515
H      65.88244760      92.55305033      75.63079607
C      69.51072213      90.38175480      75.20560765
O      70.23448730      89.45578890      73.13257789
O      69.86599068      89.43122246      77.32588057
C      72.20547185      98.17309638      77.89657793
O      70.82030246      99.90219596      77.90224711
N      74.24070708      97.95199841      79.35922609
H      75.12887846      96.26258308      79.32521101
C      74.94746473      99.90786514      81.28107775
H      74.55251193     101.78247364      80.52518722
H      76.93734653      99.54314796      81.67225109
C      73.57174398      99.50913289      83.84543636
O      74.08574953     100.95855297      85.58965374
N      71.84642385      97.71200316      83.99850419
H      71.68957657      96.39864338      82.62278344
C      70.37432706      97.45500038      86.43247168
H      70.20236195      99.37118287      87.17135466
C      67.75894583      96.32872350      86.04885723
H      66.67802238      96.31171597      87.80252325
H      68.13689109      94.42387938      85.36288658
C      66.22070862      97.98223403      84.17046928
C      64.97348926      96.75580165      82.12578541
H      65.32119889      94.79048628      81.69870726
C      63.37289106      98.12396350      80.55731257
H      62.35054912      97.30760173      78.99072945
C      63.04407868     100.74123444      80.95793455
O      61.49450310     102.17742644      79.44804322
H      61.46804694     103.98022534      79.65213366
C      64.43680697     102.01490998      82.91002183
H      64.19114255     104.01046096      83.25206230
C      66.03740516     100.63352004      84.36133164
H      66.99171695     101.56515512      85.90334832
C      72.03161703      95.94321933      88.36944116
O      73.55851589      94.29537799      87.67780133
N      71.83697521      96.57438792      90.74482713
H      70.43290856      97.83861483      91.02828607
C      72.91033977      95.21945416      92.84242333
H      74.94368528      95.27614595      92.50983150
C      72.55318149      96.61218245      95.40300249
H      73.16167336      95.46511858      97.00360068
H      70.54818187      97.06760649      95.52961416
C      73.98370431      99.15386434      95.48426072
C      72.94813429     101.31004206      96.54250745
H      71.00360592     101.12484888      97.13210206
C      74.39944410     103.53802939      97.03761574
H      73.66434057     105.12539949      98.09208304
C      76.97514107     103.64952324      96.37054237
O      78.46802486     105.70932492      96.90911435
H      77.37387331     107.10961212      97.27005209
C      78.05606452     101.48389688      95.26127302
H      80.08374084     101.36295440      95.05529284
C      76.63310061      99.31071162      94.89655584
H      77.69890624      97.80837921      94.01594337
C      71.99004306      92.49824827      93.15611791
O      69.67890777      91.88030776      92.96147609
N      73.89488718      90.88253227      93.44524603
H      75.67311964      91.52503921      93.19580215
C      73.77394469      88.24825379      93.30729600
H      71.83697521      87.55283450      93.33375218
C      74.90778048      87.35819269      90.75616548
H      76.92789791      87.72857905      90.92057168
C      74.46747425      84.53683131      89.96437015
H      75.07596613      83.06284478      91.26828131
H      75.33863808      84.18534221      88.12944590
H      72.46436435      84.12298125      89.74516191
O      73.73048098      88.65832440      88.69447408
H      74.02149883      90.44600549      88.61132611
C      75.35375588      86.92166592      95.41812029
O      77.01671504      88.07628869      96.43101361
N      74.85486814      84.45935253      95.91322859
H      73.45269121      83.51637910      95.02505722
C      76.29672931      82.92867422      97.64421789
H      78.10708712      83.91133190      97.64610762
C      74.99659761      82.85875434     100.28794500
H      74.98336954      84.84863615     100.82462727
C      72.20547185      82.03861312      99.84952850
H      71.27950595      83.46724622      98.69301599
H      71.37021283      82.01593641     101.73169590
H      72.07697046      80.20368887      98.92167288
C      76.34775192      81.39988563     102.38554122
H      76.56318072      79.41567300     101.87909457
H      75.27060793      81.71169047     104.11275106
C      79.11431125      82.36175632     102.85986252
H      79.08029618      84.24014428     103.70645991
H      80.11397647      82.58096458     101.07218142
H      80.10452783      81.12209586     104.17511203
C      76.83152186      80.27927793      96.43668279
O      75.36131479      79.38921683      94.84364349
N      78.80061668      78.89410854      97.33241306
H      80.08752030      79.69346277      98.49459473
C      79.39777019      76.29762458      96.64077323
H      77.66489117      75.23370867      96.96580615
H      80.79427795      75.33953334      97.81051381
C      80.23113950      76.08597524      93.90633924
O      82.06984320      77.28217199      93.29217820
N      78.78360914      74.77072572      92.27361572
H      77.33040962      73.67846391      92.85565141
C      78.58140843      75.40567376      89.54674064
H      80.04216687      76.75871780      89.01761727
C      79.68311887      73.22115015      87.92913492
H      78.40377416      71.62055196      88.13700481
C      79.79083327      74.31530168      85.22871602
H      81.00025812      73.28918029      83.91157678
H      80.57129023      76.22014581      85.31375370
H      77.85008434      74.20947701      84.54085564
C      82.32684599      72.42557537      88.84754190
H      82.15866034      71.39756425      90.62577436
H      83.40776944      74.13577768      89.23682553
C      83.96334898      70.69458607      87.19214166
H      84.99702927      71.61110333      85.66335308
H      82.60652547      69.38689546      86.35688262
H      85.49213755      69.87066539      88.29952128
C      75.87909981      76.13888757      88.54329597
O      74.06496254      74.70647503      88.76817340
N      75.62965593      78.27238858      87.17513412
H      77.07529655      79.51960795      87.13356015
C      73.50371383      78.75426879      85.61044073
H      73.14466583      77.13666307      84.38778781
H      74.03850637      80.48714782      84.63534196
C      70.96581138      79.40622437      87.00505875
O      69.18379948      80.09597447      85.75028049
N      70.78817711      79.49315178      89.44091597
H      72.33019379      78.91867498      90.40845585
C      68.40334250      79.83897169      90.82986481
H      66.74038336      79.38921683      89.70169820
C      68.14256027      77.76783166      92.81974661
H      69.63166462      78.00026799      94.22570300
H      68.45436512      75.91023069      91.98448758
C      65.49883316      77.88121523      94.02161256
N      63.42580340      76.37321364      93.50571727
H      63.47304655      74.82552779      92.38510956
C      61.39623734      77.44657818      94.68112704
H      59.51973911      76.65100340      94.58853045
N      62.23338609      79.19079557      96.36109373
H      61.00128454      80.16589435      97.44201718
C      64.79963442      79.47047506      95.88110325
H      65.95992638      80.79895266      96.90911435
C      68.12366302      82.60742074      91.96559032
O      69.75260710      83.29150167      93.48115083
N      66.12622230      83.82629422      91.28528886
H      64.93947417      83.08174205      89.98893660
C      65.64623181      86.44923434      91.61977040
H      67.38289029      87.44323038      91.12844157
C      63.38989860      87.38086941      89.91523727
H      61.92158125      85.95223632      90.14011471
H      63.96437539      86.95001181      87.98393698
C      62.53385258      90.05483214      90.31774898
H      62.93258484      90.82961993      92.18479858
C      63.77729249      91.88030776      88.60754667
H      65.79174074      91.96723517      89.03840426
H      63.21982323      93.79649024      89.11777278
H      63.35399380      91.38897892      86.65167994
C      59.73138845      90.38553425      89.78484615
H      58.54841979      89.14398406      90.92435113
H      59.36856100      89.95656637      87.80252325
H      59.23439043      92.35084961      90.14578389
C      64.92246665      87.07284402      94.39388863
O      63.24627940      85.84452192      95.41434084
N      66.13567093      89.03626966      95.59197511
H      67.61532664      89.79593964      94.65656060
C      65.50639207      89.87530814      98.11475975
H      64.81475224      88.33518120      99.29205923
C      67.76083556      91.13386587      99.43189899
H      67.30730124      92.46612292     100.93612113
H      68.80774393      92.30927563      98.10342139
C      69.56930364      89.22524229     100.54116833
H      69.95291808      87.81550646      99.08607908
C      72.14878006      90.55183016     101.23847734
H      72.04673485      92.27148111     102.36664396
H      73.25049050      90.99780557      99.55473120
H      73.30529257      89.05705665     102.05483910
C      68.61499185      87.96479484     102.92033376
H      70.24582566      87.01426251     103.74425444
H      67.06163682      86.64198642     102.63120564
H      67.80429926      89.34240532     104.21668601
C      63.24249994      91.70456321      97.99759672
O      61.21671334      91.17921930      99.02749755
N      63.39178832      93.70011420      96.40077799
H      65.03018105      94.09884645      95.50315799
C      61.43025241      95.52936927      95.77338884
H      59.64257132      94.54482186      95.47859155
C      61.05608660      97.32838872      97.95791246