 %block lattice_cart
   140.777   0.000   0.000
   0.000 144.511   0.000
   0.000   0.000   162.462
 %endblock lattice_cart

 %block positions_abs
N      89.45111418      41.91499919      77.48367272
H      91.02147675      41.37642719      76.54258902
H      88.45900787      43.06584251      76.32716021
H      88.39475717      40.45424075      78.10728241
C      89.90464850      43.65543712      79.60583537
H      91.44288572      42.81828836      80.69242800
C      90.86840892      46.32562040      78.81026059
H      89.48134980      47.82417337      79.08427091
H      91.53170285      46.35963547      76.86006305
C      93.01324828      47.19111505      80.53369100
H      94.52880879      45.80594566      80.36739507
H      92.16476117      47.20812259      82.40829949
S      94.14141489      50.38664225      80.33526972
C      96.83994407      50.09184494      82.33271045
H      97.67709282      51.91354111      82.80325229
H      98.19865729      48.89186873      81.35383221
H      96.29192344      49.03170848      84.01078741
C      87.64453583      44.06361800      81.21588220
O      85.67166156      44.39054066      80.04803133
N      87.68233035      44.03338238      83.70843120
H      89.34151006      43.88031455      84.64195599
C      85.58851360      44.91966402      85.23155060
H      84.01626131      43.64220904      84.85360535
C      86.44833907      44.91021539      88.08125788
H      88.10562905      46.13097859      88.06236062
H      87.22123713      43.08662950      88.64817579
C      84.51325933      45.68311345      89.98610202
O      82.41944257      46.20467792      89.39272794
N      85.28237794      45.66232646      92.44274621
H      83.98980514      46.13286832      93.76555464
H      86.98880080      45.07462158      93.06824563
C      84.72868813      47.51803770      84.33204088
O      86.09496025      49.38508730      84.19409086
N      82.27393365      47.89031379      83.68575448
H      81.24781226      46.28026697      83.70843120
C      81.02860401      50.36396553      83.32859620
H      81.80339179      51.03103892      81.53713566
C      78.12220494      50.06349905      83.14151330
H      77.85575353      48.70100638      81.62028362
C      76.97892052      48.88619955      85.46587666
H      75.05139968      48.47801867      84.86305397
H      77.11120136      50.11263193      87.11749746
H      77.76126721      47.04182667      85.94208771
C      76.62176224      52.49368709      82.29113646
H      76.99592805      53.92798936      83.71976955
H      74.60542427      52.08739593      82.40829949
C      77.31529180      53.53303656      79.71732922
H      79.15021605      54.43443601      79.96299364
H      76.06807243      55.07316350      79.15608051
H      77.10364245      52.01558633      78.33971874
C      81.74292055      52.30093500      85.42241297
O      82.27393365      54.48545862      84.74589094
N      82.00370278      51.48079378      87.77134277
H      81.78827398      49.64586953      88.24566408
C      82.77660085      53.32894612      89.77823212
H      81.45946161      54.90497786      89.92941022
C      82.65187891      52.05716031      92.39928251
H      83.92555444      50.46034157      92.66195447
H      80.86041836      51.04993618      92.50888663
C      82.46101655      53.76358317      94.67829244
C      80.21602169      55.09961967      94.94096440
H      79.05384001      55.30559984      93.27611552
C      79.97035727      56.56982674      97.13304693
H      78.28850085      57.72067007      97.25587913
C      81.78260480      56.49423769      99.10970065
H      81.36497529      57.71311116     100.69329129
C      83.86319348      54.86151416      98.91505883
H      85.16143545      54.43821546     100.43061934
C      84.26948463      53.49902148      96.63604890
H      86.02126092      52.49746654      96.35070024
C      85.39387179      54.58939357      89.41729438
O      85.69055882      56.76824801      90.23365616
N      87.22123713      53.07950224      88.32314285
H      86.63353225      51.38063829      87.68441537
C      89.82716972      53.78059070      88.06991952
H      90.33739582      55.28859230      89.37572041
C      91.60540218      51.53181639      88.38928327
H      93.27969969      51.87007740      87.23655023
H      90.59439860      49.84995997      87.75622497
C      92.30460092      50.99135467      91.14828370
H      93.78614634      49.56083185      91.10293026
H      90.66431848      50.30916347      92.19141261
C      93.31371477      53.24768788      92.56179897
O      94.73100950      54.57994494      91.33158714
O      92.58428041      53.51602902      94.75010205
C      90.14464374      54.81049155      85.48666366
O      91.57138711      56.52825276      85.18808691
N      88.88797574      53.74657563      83.50056130
H      87.52737280      52.42943639      83.73110791
C      88.47223595      55.01458199      80.94754105
H      90.30149102      55.09584022      80.00267790
C      86.64298088      53.44043997      79.24300793
H      84.84396143      53.41209407      80.24456287
H      87.48957827      51.57339037      79.03702775
C      86.02693010      54.47223054      76.64463424
H      85.83606775      52.89052961      75.34072309
H      87.58784404      55.62118413      75.94732523
S      82.98825019      56.32227260      76.42731571
C      82.54416451      56.22967601      73.14675084
H      80.55995188      56.57549592      72.72345214
H      83.16966392      54.36451614      72.53825896
H      83.37375436      57.87184817      72.21700548
C      87.50091663      57.76035432      81.24989726
O      88.70278256      59.48000526      80.22944505
N      85.69244855      58.25735234      82.91852560
H      85.01592653      56.78147609      83.92008054
C      84.79293882      60.89730000      83.23977908
H      84.26381545      61.78358164      81.45587743
C      82.20023432      60.78769587      84.69675806
H      81.85630413      62.75490097      85.19375608
H      82.40054531      59.51968952      86.30869460
C      79.86075314      59.81259710      83.09049069
H      80.34074363      57.91153243      82.45743237
C      77.53827951      59.61039638      85.01045262
H      77.22269521      61.34894459      86.06491991
H      78.18078645      58.51813457      86.63372753
H      75.88287926      58.75435036      84.12795044
C      78.96313315      61.68153642      80.96076913
H      77.05073012      61.36406240      80.26157040
H      80.17444771      61.67964669      79.29403053
H      79.18801058      63.60716753      81.65051924
C      86.76203364      62.66419410      84.49077790
O      86.89620421      64.92430677      84.02968467
N      88.60829625      61.53035831      85.78713014
H      88.24357907      59.69165461      86.14428842
C      90.79659932      62.70954753      87.00789334
H      90.10684921      64.50289780      87.74677632
C      91.72067548      61.09383154      89.27178546
H      93.20411064      59.84850190      88.57069700
H      90.08039305      60.22833688      90.16751573
C      92.75435578      62.66797355      91.51678032
H      91.29926652      63.83960387      92.38038524
H      94.10362037      63.92653128      90.60215278
C      94.33605670      61.13729524      93.41784499
H      95.07116024      62.39963242      94.86915480
H      95.98956723      60.41919924      92.41817977
N      92.97923321      58.95088190      94.57435749
H      93.09261679      57.22367205      93.77122381
C      91.47123161      59.11528809      96.68707151
N      91.04982264      61.20910484      98.03822582
H      89.88953069      60.76690888      99.48575618
H      92.46333793      62.49222901      98.11570460
N      90.34117528      57.26713575      97.53933808
H      89.67788134      57.34461453      99.32890890
H      90.85896029      55.63819167      96.69085096
C      93.07560925      63.41063600      85.33926500
O      94.43432247      65.19831709      85.83059384
N      93.44788533      62.08593785      83.34182430
H      92.40853586      60.50801638      83.08293178
C      95.09005750      62.76812905      81.10060888
H      96.50924196      63.99834088      81.94531654
C      96.59050019      60.46455267      80.13117929
H      97.48434074      60.97099933      78.34727764
C      98.58983063      59.90141423      82.15885563
H     100.08271442      58.69198939      81.41241372
H      97.55237089      59.20410522      83.79346888
H      99.46855337      61.60594737      82.90907696
C      94.90486432      58.19499137      79.51701823
H      93.13608049      58.62962842      78.55703726
H      94.40219712      57.27847411      81.29147124
C      96.32215906      56.44699453      77.67642480
H      96.80781872      57.38996796      75.90953071
H      95.09005750      54.82371963      77.36650969
H      98.14574495      55.68543483      78.25657079
C      93.77480799      64.38573477      78.91608526
O      95.00690954      65.91830281      77.61217411
N      91.24068500      64.17786488      78.91419554
H      90.47345612      63.04969827      80.24834232
C      89.61552037      65.61027742      77.11895555
H      90.47912530      65.81436787      75.25946486
C      86.91699120      64.33660189      76.89407811
H      85.77937596      64.50478753      78.60428042
H      87.23824467      62.37128652      76.37062392
C      85.23513478      65.31736985      74.82671752
O      86.11007806      65.39673835      72.58739184
O      83.09974404      66.17530559      75.18009635
C      89.29426690      68.37305729      78.14885638
O      89.36229705      70.18719455      76.75612810
N      88.86718875      68.70186967      80.53180126
H      88.40609553      67.20142698      81.61650417
C      88.38152909      71.19630841      81.73933639
H      88.39097772      72.67974356      80.30881357
C      85.79260404      71.37961186      82.90151807
H      85.67922046      73.19374912      83.87283738
H      85.29371629      69.75633695      84.06558947
C      83.50225575      71.69708588      81.15541094
H      81.66733150      71.09615291      81.87161722
H      83.80839141      70.58970626      79.44898808
C      83.00714746      74.35404107      80.08015667
O      84.44333945      75.11938023      78.30192421
O      81.54449929      75.82424815      81.21210274
C      90.29582184      72.06558251      83.80669696
O      90.87218837      74.31624655      83.85771958
N      91.30493570      70.41963089      85.31658830
H      91.00824866      68.55069157      85.08037250
C      92.75246605      71.05268921      87.60882631
H      94.36440260      72.21487089      87.07403376
H      93.63874769      69.27256702      88.14361885
C      91.15375759      72.15439965      89.76122457
O      89.39631212      73.66996015      89.39083822
N      91.74146247      71.33236870      92.01944753
H      93.19466201      70.10593632      92.18763316
C      90.24857869      71.99377291      94.37782596
H      88.26814551      72.01644963      93.80901834
C      90.60951641      69.99822192      96.41117148
H      92.48034546      70.12294386      97.26343804
H      90.43755132      68.06503190      95.71575219
C      88.52892774      70.29868841      98.52010603
H      88.80293806      71.88983796      99.79945076
C      85.90598762      69.90184588      97.30879147
H      85.22001697      71.73488040      96.66628453
H      84.52459768      69.12894782      98.62782043
H      85.70567663      68.34282167      95.97842414
C      88.79537915      67.85338256     100.32101521
H      90.68510547      67.48299620     101.05233929
H      87.95067149      66.26412273      99.31946027
H      87.78059612      68.31636550     102.05389425
C      91.03848429      74.71686853      95.34914528
O      93.20600037      75.54267893      95.21875417
N      89.14875797      76.11148655      96.21086048
H      87.34406934      75.49165631      96.19952212
C      89.50402652      78.78355955      96.96108183
H      91.47690079      79.35992608      97.07824486
C      88.26625578      80.52588721      95.07513497
H      88.26058661      82.48175395      95.71953164
H      86.29149179      79.97975631      94.87482399
C      89.51347515      80.44084953      92.45219485
H      89.07316892      78.59269719      91.65662008
H      91.56760765      80.38415774      92.60715240
C      88.63475242      82.40238544      90.55113017
H      88.20578454      84.31289874      91.19363713
H      86.85085078      81.64649492      89.85382116
N      90.47534584      82.70852110      88.43085726
H      90.88730618      84.53966590      88.08125788
C      91.23312610      81.05879003      86.77167755
N      90.39030816      78.77600065      86.64128643
H      91.01958702      77.64972376      85.23344033
H      89.08072783      78.19396494      87.90173388
N      93.03214555      81.68428944      85.21076361
H      94.35495397      80.34636321      84.88951015
H      93.82016142      83.39827121      85.49989174
C      88.37585991      79.27866785      99.52921989
O      86.39542673      78.46797526     100.02432819
N      89.89331014      80.77344136     101.03911121
H      91.47312134      81.48208873     100.23786725
C      89.27536964      81.06823866     103.67905888
H      87.83728791      79.71897408     104.27810211
C      91.71122685      80.29345088     105.32312076
H      91.22367746      80.27455361     107.32434094
H      93.09450651      81.81846001     105.34579748
C      93.22867708      77.86704229     104.55778161
H      94.11873818      78.02199985     102.70584983
C      95.15997737      77.22075589     106.56089151
H      94.37196150      76.71241951     108.39581576
H      96.35806386      78.89127395     106.67049563
H      96.26735699      75.65228305     105.81444960
C      91.60351245      75.57669400     104.29699937
H      91.15186786      74.83214183     106.16215924
H      92.42743313      74.11782529     103.10080263
H      89.67977107      76.08880983     103.75842737
C      88.29649141      83.68173016     104.44817749
O      87.41587894      84.02755007     106.57789904
N      88.62530378      85.56389756     102.72285736
H      89.62496900      85.17650367     101.14304616
C      87.61807966      88.19628632     102.96096288
H      87.29682619      88.63281310     104.94895496
C      89.58528475      90.01420303     101.70618461
H      88.81616614      91.88881153     101.32445988
H      89.99724509      89.25264333      99.83724527
C      92.11940774      90.17105031     103.09513344
H      93.25891270      88.47785554     102.81545395
H      91.77925700      90.33545650     105.11903032
C      93.73134428      92.54832602     102.40538333
H      94.05070803      92.61635616     100.37014810
H      95.58327607      92.25541844     103.26331909
C      92.88852635      95.17504559     103.38426157
H      92.93765923      95.26386273     105.44028379
H      90.96478496      95.64747717     102.81923341
N      94.77258348      96.99674176     102.57923815
H      94.94832803      97.32933359     100.70840911
H      96.47900634      96.50730264     103.28032662
H      94.23023203      98.61245775     103.43717391
C      84.93466829      88.54021651     101.88192915
O      84.09185036      86.92072106     100.43628853
N      83.68933865      90.67938669     102.44506759
H      84.60396619      91.87180400     103.62236709
C      81.64276506      91.55055052     100.68384266
H      80.38798679      89.97829823     100.24353643
C      79.90421685      93.42515903     101.96696683
H      81.10230333      94.94071953     102.68695256
C      78.17700700      94.70072429     100.03566654
H      79.44879281      95.66259498      98.73175538
H      76.99592805      96.18226972     100.84635914
H      76.99592805      93.31366517      99.07568557
C      78.57384953      92.29699242     104.40849324
H      79.90610658      91.81322248     105.90137702
H      77.62898637      90.56600311     103.81511916
C      76.36475947      93.91837759     105.48752695
H      75.06273804      94.20561599     103.91905411
H      77.05073012      95.62857991     106.40593394
H      75.44068330      92.70517330     106.87269635
C      82.95990430      92.47084724      98.26121353
O      84.99891899      93.71617688      98.30278752
N      81.97346716      91.67149301      96.08424883
H      80.68467382      90.26364690      96.11826389
C      83.05061116      92.25541844      93.64272242
H      84.12208598      93.99396665      93.90350466
C      85.03671352      90.25608800      92.86982436
H      86.54660484      89.94617288      94.23420676
H      85.95134105      90.87402850      91.12938643
C      83.90098800      87.79755407      92.20086124
C      83.26603996      87.45362388      89.60059784
H      83.42288724      88.88792615      88.15306749
C      82.30227954      85.03666392      88.74077236
H      81.64087533      84.78910977      86.82458988
C      82.06984320      83.08268691      90.50199729
O      80.86797727      81.01343660      89.49477316
H      81.23647390      80.91895029      87.72032017
C      82.76337276      83.44173491      93.06635590
H      82.37219941      81.88649016      94.32869307
C      83.75736880      85.72830375      93.94507863
H      84.70979086      85.89648939      95.74409808
C      81.00214784      92.73540892      91.66417897
O      78.77605024      91.89637044      91.95708655
N      81.67489040      93.92593650      89.58736975
H      83.25092215      94.98796269      89.78012184
C      79.99114426      94.41537561      87.45197902
H      78.06362342      94.27175641      88.16062640
C      80.52404708      97.10634588      86.36727612
H      79.34485786      97.53909321      84.73455258
H      82.47802409      97.38413565      85.77579178
C      79.99114426      99.32299485      88.35904765
H      81.32529104      99.14536057      89.91807187
H      78.06740287      99.37401746      89.09037173
C      80.52404708     101.83444112      86.98332690
H      82.48369327     101.87790482      86.35215831
H      80.50514982     103.38968587      88.33070176
C      78.79683723     102.71883303      84.86683342
H      78.73825571     101.19949308      83.47410514
H      79.62453736     104.47627850      84.18464223
N      76.15499984     103.22716941      85.72476918
H      75.60886894     101.81932331      86.88884058
H      74.84352978     103.35000162      84.34148952
H      75.91500460     104.82398815      86.74333165
C      79.88909904      92.44061162      85.33170610
O      81.92622400      91.45228475      84.66841217
N      77.75181858      91.52787381      84.39818131
H      76.14177176      92.29321296      85.07848277
C      77.46080073      89.78176669      82.32137209
H      78.89132355      88.33990552      82.66530227
C      74.76416128      88.60824665      82.47632964
H      73.21080625      89.96318042      82.48766800
H      74.71502839      87.75220063      84.34904841
C      74.01393993      86.45584838      80.67164102
O      71.95035880      86.43884085      79.42442164
O      75.67878881      84.91383171      80.11417176
C      77.94646039      91.00064017      79.67575525
O      77.96535765      93.35712888      79.42442164
N      77.88787887      89.64192695      77.56304123
H      77.61575828      87.78243625      77.90508170
C      77.93134258      90.53198804      74.87962986
H      79.46013117      91.88692181      74.62640654
C      78.41133306      88.53265760      73.03147752
H      77.81228982      88.99942000      71.11718477
C      81.17789238      87.94873217      72.89919668
H      82.29661036      89.17705427      71.68410266
H      81.43300544      86.01176270      72.24535138
H      81.91110619      88.00542396      74.82293807
O      76.84663968      86.32734699      73.33950291
H      75.05895858      86.63915184      73.26958304
C      75.41233740      91.73007452      74.36184485
O      75.38777096      93.57255768      72.99746246
N      73.29962339      90.91938193      75.54292380
H      73.63221522      89.69672901      76.97155689
C      70.83731000      92.22140336      75.63174093
H      70.58219695      93.03020623      73.75713243
C      68.57341788      90.48474488      76.03236291
H      68.56018979      90.03687975      78.04303171
H      69.10065152      88.74619667      75.06482304
C      66.07142024      91.34268063      74.84750451
H      65.55930441      93.25508366      75.41631213
H      64.42357889      90.26364690      75.44654775
C      66.12433258      90.76442438      71.97512052
O      66.49849839      92.67493768      70.61451758
O      65.22860230      88.69328434      71.27025260
C      70.78061821      94.37947081      77.53280560
O      68.82286175      95.26197300      78.48711739
N      73.04451033      95.20717094      78.50979412
H      74.68857223      94.47962631      77.86350771
C      73.39033025      97.49940896      79.98567037
H      72.00138141      98.84678382      79.28080245
H      75.17423189      98.51986117      79.86472787
C      72.84230962      97.24807536      82.95443040
O      74.28606052      98.30443237      84.43408611
N      70.82975109      95.74574294      83.62339352
H      69.82441670      94.79899005      82.30625427
C      69.84709341      95.46039426      86.14995759
H      69.23671181      97.30287742      86.83403852
C      67.40178756      93.70105907      86.24822337
H      66.44747577      93.95617212      88.05480171
H      68.09909657      91.76219987      86.26901036
C      65.40245712      94.06010707      84.22621620
C      64.66168441      91.77731768      82.96009957
H      65.46670782      89.95751124      83.40607499
C      62.63022862      91.85668619      81.08738081
H      61.93102989      90.13325579      80.24645259
C      61.41891406      94.18293928      80.61305949
O      59.20604454      94.34923519      79.33371478
H      58.64101638      96.07266559      79.41686275
C      62.11055389      96.26352795      82.10783301
H      60.96537974      97.95105354      82.17586316
C      64.14011995      96.42037523      83.79724834
H      64.35554875      98.04742959      85.01234235
C      71.64422314      94.49096467      88.16251611
O      73.59820014      93.42893848      87.48977355
N      71.05462853      94.68182702      90.63049868
H      69.38411047      95.56243949      90.90639873
C      72.61176301      93.84467827      92.76966886
H      74.54495303      94.47584686      92.44652566
C      72.02594785      95.39047439      95.13749594
H      73.25993913      94.81032841      96.67951261
H      70.16834689      94.89536610      95.87826865
C      72.30562735      98.20049742      94.86348562
C      70.15700853      99.72361683      95.25654869
H      68.36554798      98.86757081      95.72331109
C      70.45936474     102.34655695      95.24521033
H      68.93435560     103.69771126      95.39638844
C      72.86876579     103.48228246      94.93151578
O      73.25993913     106.06175888      94.82380137
H      71.68579711     106.86678229      95.21875417
C      74.92289829     101.86845619      94.54601160
H      76.85419858     102.50151451      94.37971569
C      74.69046195      99.24173662      94.48554036
H      76.42145125      98.20049742      94.19452251
C      72.24893556      90.87780796      93.26288743
O      70.02661741      89.95184206      92.91706752
N      74.31251669      89.64381667      94.00554987
H      75.96602721      90.58112092      94.18507388
C      74.71124894      86.89993407      93.85626149
H      72.89900141      85.92105584      93.86004095
C      75.76949568      86.22152232      91.14450425
H      77.77071584      86.69017445      91.28245426
C      75.65611210      83.40771984      90.50577674
H      76.81073488      82.27955323      91.78323173
H      76.33641357      83.23008557      88.56880727
H      73.67189947      82.85969921      90.41506989
O      74.62243180      87.70873693      89.19052723
H      75.90177652      88.71596105      88.39117300
C      76.34964165      85.87381268      95.88015838
O      78.12031521      87.21551836      96.70785850
N      76.15311012      83.54000068      96.74565304
H      74.77927909      82.61781424      95.78945151
C      78.02204944      82.25309706      98.24231628
H      79.73036203      83.39449176      98.39538411
C      76.93923626      82.20207445     100.95974270
H      76.69924102      84.07479323     101.78177365
C      74.31062696      81.04556195     101.16194343
H      72.93490621      82.04144772      99.99598230
H      73.50182410      80.77533109     103.03655192
H      74.18023585      79.05568014     100.64037896
C      78.68912283      80.87170713     102.85324847
H      78.94234616      78.89505340     102.32790456
H      77.74992885      80.85092014     104.68628299
C      81.27237870      81.93562304     103.58268283
H      82.07551238      80.51454885     104.83935084
H      81.04372182      83.56267740     104.82423302
H      82.48369327      82.42317243     101.99153327
C      78.60597487      79.64149530      97.22753324
O      77.15655479      78.57568966      95.74409808
N      80.59396695      78.34892250      98.11570460
H      81.80339179      79.22008633      99.30623218
C      81.07773689      75.51244330      97.66972920
H      79.36186540      74.49388082      98.18373475
H      82.72557823      74.81702402      98.69207113
C      81.56150683      74.83403156      94.91261850
O      83.44934341      75.66362141      93.83925396
N      79.77193601      73.54334849      93.69563476
H      78.15622001      73.16540322      94.63860819
C      79.81917917      73.39028065      90.93474461
H      81.09285470      74.84348019      90.22420752
C      80.71490944      70.84859876      90.03523490
H      79.47335925      69.34437662      90.70041855
C      80.59018750      70.68230285      87.24221940
H      78.85352902      71.46464954      86.45798299
H      80.57317996      68.79068681      86.42396791
H      82.03015895      71.92952221      86.45420354
C      83.56839617      70.02845754      90.67018293
H      84.08807091      70.28923978      92.64683665
H      84.63231208      71.49677489      89.69319444
C      84.47924425      67.39039961      89.81035746
H      86.24046918      67.09749203      90.83458913
H      84.67010661      67.14095574      87.77512222
H      83.28493722      65.88239801      90.54735073
C      77.24159247      74.04223623      89.64595127
O      75.59375113      72.45864558      89.68374581
N      77.08285546      76.36093042      88.67274223
H      78.67967420      77.40405934      88.72754428
C      74.80951471      77.23398398      87.29513174
H      74.13677214      75.86960158      85.90807262
H      75.31785109      78.99142945      86.34648913
C      72.44546709      77.63271623      89.05824639
O      70.38188596      77.83302722      87.97921267
N      72.75916166      77.54956827      91.68307623
H      74.44101808      77.53256073      92.58447570
C      70.53684352      77.77822515      93.27800525
H      68.91545834      76.73509623      92.55612980
C      71.03384154      76.78989829      95.96141661
H      72.24893556      78.20719303      96.83069072
H      72.05429375      75.01166583      95.75921589
C      68.82475148      76.49132153      97.61681687
N      67.73626912      74.23876777      98.21774982
H      67.96303628      72.65139767      97.18595927
C      65.81819691      74.71308907      99.89393706
H      64.36499738      73.43374436     100.54022346
N      65.67079826      77.14327711     100.34747139
H      64.38011519      78.02199985     101.44540237
C      67.55674512      78.28467181      99.00576570
H      68.02917670      80.27077416      98.97364035
C      69.70347421      80.54667420      93.27989497
O      70.99604701      81.97341757      94.57624723
N      67.76839447      81.27610856      91.80779817
H      67.15612314      79.97597686      90.55113017
C      66.52684428      83.76676784      92.00999889
H      67.72304104      85.20295984      91.14261451
C      64.11366378      83.59291302      90.39995207
H      62.95337182      81.96963812      90.91017817
H      64.85821595      83.48519862      88.48187986
C      62.50361696      86.02310106      90.83647885
H      61.94803742      85.99475516      92.82069147
C      63.77162332      88.47218636      89.94830748
H      64.76939881      88.15660206      88.17574421
H      65.07364475      89.11658303      91.40717620
H      62.37700530      89.98963659      89.88594652
C      60.07342892      85.92861474      89.23777039
H      59.04919726      84.37903916      90.13350066
H      60.45515364      85.58846401      87.24410912
H      59.00006438      87.67283213      89.44753001
C      66.02984626      84.63415222      94.69718970
O      65.02262213      83.08646637      96.04267484
N      66.52684428      86.94150805      95.46630831
H      67.20525603      88.26242674      94.26822183
C      65.65568045      87.97329861      97.88515799
H      65.04529885      86.48797373      99.17584107
C      67.88366777      89.44539541      99.09836229
H      67.21848411      90.49419351     100.74242419
H      68.34098154      90.85702097      97.66783947
C      70.15700853      87.79188489      99.88259872
H      70.97714975      86.90182379      98.21586010
C      72.26405337      89.60413242     100.98997833
H      72.76294111      91.11024429      99.67472882
H      74.02905774      88.60446720     101.34524687
H      71.52328065      90.25041882     102.79844642
C      69.68268722      85.93428392     102.12003466
H      68.29562811      84.58501933     101.41327702
H      68.70380899      86.86213954     103.67527942
H      71.34375665      84.85336047     102.68128339
C      63.14990336      89.47563103      97.62059632
O      61.39434761      88.73107886      98.83380060
N      63.18580816      91.43338749      95.96330633
H      64.65223578      91.72251562      94.77466849
C      61.14112429      93.13225145      95.50032340
H      59.37234046      92.08156362      95.58347134
C      61.14490374      95.26575245      97.47130793