 %block lattice_cart
   140.777   0.000   0.000
   0.000 144.511   0.000
   0.000   0.000   162.462
 %endblock lattice_cart

 %block positions_abs
N      88.77459216      40.98903329      79.89968781
H      87.36674606      39.73614475      80.20582348
H      90.36952117      39.99881670      79.55008844
H      88.17743865      41.68067312      78.22350057
C      89.21111894      42.97891510      81.93303333
H      90.34495473      42.30050336      83.51284452
C      90.32605747      45.40910313      80.88234550
H      88.86151957      46.63175607      80.10566798
H      91.50524669      44.82139826      79.29875485
C      91.60351245      47.04938558      82.85899922
H      92.85262155      45.71334907      83.80953155
H      90.16543073      47.46134591      84.27629395
S      92.93010033      49.99546890      81.83098810
C      95.10517531      48.79927215      79.48961720
H      93.87307376      48.09440423      77.99673342
H      96.22011384      47.35930070      80.45148790
H      96.28058508      50.30538402      78.72427805
C      86.53715621      43.64976793      83.03285404
O      84.64931962      43.78393850      81.59477232
N      86.41999318      43.88409400      85.45359345
H      87.99035574      43.62142205      86.50050182
C      84.25058737      44.96501745      86.93702860
H      82.47802409      44.06739746      86.39656688
C      84.55861276      44.44156326      89.68847011
H      86.19700547      45.52815589      90.30074144
H      85.05372105      42.45735063      89.93602426
C      82.24936721      45.17855653      91.35142927
O      80.34263336      45.99302857      90.36877159
N      82.14543226      44.24314200      93.61721112
H      80.70357108      44.65888179      94.80017979
H      83.60808042      43.16599801      94.19735710
C      83.88209074      47.79393774      86.40979496
O      85.64331566      49.23768865      86.94080806
N      81.55772737      48.57250498      85.81642090
H      80.45979639      47.10607737      85.27784890
C      80.85096973      51.14253276      85.07564818
H      82.21157268      51.37496911      83.54685960
C      78.13732275      51.18599647      84.33487547
H      78.20346317      49.90287231      82.72482865
C      76.23247862      50.09562440      86.21893260
H      76.94490544      48.44022415      87.21292864
H      74.62999071      49.39642566      85.12856052
H      75.74870869      51.45433762      87.68724995
C      77.35875551      53.84862086      83.18592187
H      76.05484435      53.62374342      81.60611067
H      78.93667698      54.65931344      82.13712377
C      76.20791218      55.74590606      85.04919202
H      74.68857223      54.87285252      86.13200519
H      75.53327989      57.33705563      83.93047404
H      77.72914186      56.50746578      86.20948397
C      81.64654451      53.13430431      87.02017656
O      82.83329264      55.12985529      86.41357441
N      81.03616291      52.61085012      89.40879062
H      80.07618195      51.01781084      89.83964822
C      81.86197331      54.01491676      91.59520396
H      80.80372658      55.78370059      91.54796081
C      81.22891500      52.63541656      94.05751735
H      82.29472064      50.88552999      94.27672560
H      79.35430649      51.78126027      94.03484063
C      81.38198283      54.50813534      96.31763002
C      79.40910856      56.28069862      96.59919924
H      77.73481104      56.18810203      95.43512783
C      79.62831681      58.17798384      98.48136665
H      78.22802961      59.64630118      98.71191326
C      81.82039933      58.31782358     100.07440593
H      81.76559727      59.75023613     101.52949519
C      83.76303798      56.58683428      99.81551343
H      85.37497453      56.52069386     101.06651224
C      83.40210026      54.61018055      98.03539124
H      84.83451280      53.20611390      97.66122543
C      84.63798126      54.68954906      91.76527933
O      85.40143070      56.79281445      92.30196161
N      86.26881507      52.87541180      91.02072716
H      85.60174168      51.12174579      90.67490725
C      88.99757987      53.19288581      90.88844632
H      89.49646762      54.73112303      92.16401158
C      90.20322526      50.63230667      91.79362523
H      92.24790913      50.64364502      91.54418135
H      89.28670799      49.17910713      90.65789971
C      89.68544025      49.98035108      94.63955305
H      90.71912054      48.21156726      94.86254076
H      87.64642556      49.86318805      94.91545310
C      90.84195275      51.97779180      96.31574029
O      92.56727287      53.40453516      95.64488745
O      89.94622248      52.20077950      98.45491048
C      90.04826770      53.92987908      88.26928565
O      91.91342757      55.33205600      88.24849866
N      88.64231132      53.81271605      86.18113808
H      87.14564808      52.62974737      86.23782987
C      89.15442715      55.09961967      83.75095004
H      91.17643431      54.92198540      83.40701985
C      87.39698168      54.04893184      81.65335383
H      85.38631288      54.30404490      82.02374019
H      88.05649617      52.11385209      81.41902777
C      87.78626530      55.22245188      79.06631851
H      89.53993132      54.53837096      78.22916975
H      88.00169410      57.25201793      79.34599800
S      85.19545053      54.68387988      76.81376474
C      86.24235890      51.67354586      75.55520702
H      85.83795747      50.37152443      77.09911342
H      88.21145372      51.60551571      74.94860487
H      85.31072383      51.36552047      73.74484921
C      88.86907848      57.82082555      84.13078503
O      90.49046366      59.33071689      83.52796233
N      86.86407886      58.68632021      85.39312220
H      85.56772661      57.34839399      85.80886199
C      86.37652947      61.44343090      86.00161408
H      86.16865958      62.42608859      84.20259463
C      83.92555444      61.66641861      87.58331500
H      83.81784005      63.50323259      88.51117062
H      83.98980514      60.35116910      89.16690565
C      81.48402805      61.29414252      86.09043121
H      81.65221369      59.46488745      85.15690642
C      79.35997567      61.19776649      87.89511984
H      79.33729896      62.97977839      88.92880014
H      79.70012641      59.57827104      89.12533167
H      77.58930212      60.67809175      86.98049231
C      81.14576704      63.17630994      84.07787269
H      82.34196379      62.61317148      82.49806149
H      81.51993285      65.12461776      84.63345223
H      79.30895306      62.85505645      83.20670886
C      88.60451680      62.64718656      87.59276363
O      89.13552989      64.86950470      86.93702860
N      90.03503961      61.19587676      89.16690565
H      89.45867309      59.39118812      89.40123171
C      92.29893174      62.15585773      90.38199967
H      91.64886589      63.91141346      91.23993542
C      93.20411064      60.21699852      92.30385133
H      94.35873342      58.79214488      91.36654708
H      91.68477069      59.06615521      93.09186720
C      94.81604719      61.39807747      94.41845508
H      93.94110390      63.04969827      95.28583945
H      96.51680087      62.07837894      93.47926110
C      95.93665489      59.60661692      96.48392594
H      96.85884133      60.90485890      97.78972682
H      97.43898731      58.41797908      95.72614568
N      93.92787582      58.05515163      97.67634324
H      93.36662710      56.42620754      96.85431229
C      92.62774412      58.69954829      99.56229010
N      92.76947359      60.74045272     100.76982521
H      91.50902614      60.86706437     102.19467885
H      93.84283814      62.15207827     100.05928812
N      90.98179250      57.09517066     100.44668201
H      90.35629309      57.44099058     102.21546584
H      90.72856917      55.42465259      99.55284147
C      94.38518959      63.19331747      88.73982751
O      95.94799325      64.59171493      89.75838999
N      94.34550533      62.71143726      86.17357917
H      92.97923321      61.54358640      85.53863113
C      96.08972272      63.86417031      84.36511109
H      96.67931733      65.54602673      85.39690166
C      98.46510870      62.05570223      83.81520073
H      99.43264857      62.92119688      82.21649227
C     100.30570213      62.17853444      86.05452641
H     100.76112617      64.10794501      86.61388540
H     102.09716267      61.44532062      85.35343795
H      99.64996710      61.06737537      87.66079378
C      97.97755931      59.15119289      83.16891433
H      96.53758786      58.37262564      84.41991315
H      99.70854861      58.11751259      83.59032330
C      97.50701746      58.76568871      80.31164815
H      97.29347838      56.77391719      79.83921657
H      99.06604166      59.57260186      79.23261442
H      95.81193295      59.80314847      79.76929670
C      94.83494445      64.73344441      81.89523880
O      96.06893573      66.05436311      80.39290638
N      92.37074134      64.25534366      81.32265173
H      91.30493570      63.00623456      82.29775050
C      90.91187262      65.73877882      79.60300078
H      91.80382344      65.63673359      77.74917927
C      88.43066198      64.35171969      79.23639388
H      87.31572345      64.45754437      80.96549345
H      88.98057233      62.37695571      79.03419316
C      86.68266514      65.39673835      77.15391548
O      87.73335297      65.83137541      74.96939186
O      84.50759015      65.89373636      77.63579569
C      90.56227326      68.52990458      80.47605434
O      91.33328159      70.30435759      79.11167194
N      89.67410189      68.79824572      82.88734511
H      89.22812648      67.25622904      83.92291513
C      89.19411141      71.33614816      83.98905555
H      89.57205667      72.74966344      82.54152520
C      86.35763221      71.21898512      84.83187349
H      85.85307528      72.86871620      85.96004010
H      86.19700547      69.38595060      85.75405993
C      84.43389082      71.44764201      82.63790124
H      82.55550287      71.13583716      83.42402739
H      84.72301895      70.02656782      81.17714280
C      84.52837714      74.24632668      81.56264697
O      83.27926805      75.92629337      82.84199168
O      85.90220817      74.74332469      79.64079531
C      90.74179726      71.86338180      86.33987509
O      91.69421932      73.94397047      86.58364978
N      90.87029865      69.99255274      88.05007740
H      90.26936568      68.24833536      87.56819719
C      92.33105709      70.31947539      90.36499213
H      93.94110390      71.55724613      90.02295167
H      93.15308803      68.54880184      91.02639634
C      90.70211300      71.42307557      92.39455819
O      88.91065246      72.86115729      92.00338485
N      91.20100075      70.55380145      94.70191402
H      92.91498252      69.84704382      95.14977916
C      89.58906421      71.11882963      96.91289381
H      87.69555844      71.18685978      96.10409095
C      89.93866357      68.77745873      98.74214888
H      91.87374332      68.76045119      99.45079625
H      89.62118955      67.08237422      97.61398227
C      88.25302770      68.99477725     101.04005608
H      88.94844698      70.57080900     102.17200214
C      85.48646838      69.71287324     100.53171970
H      84.39042712      69.55980541     102.26837818
H      84.75514430      68.61872172      98.94812905
H      85.34851836      71.72921123     100.12542854
C      88.30594004      66.54380223     102.60852892
H      87.83350846      64.88084307     101.48792121
H      87.10407410      66.68742143     104.27715725
H      90.30149103      66.18475423     102.97513582
C      90.22023279      73.77389510      98.19412825
O      92.04192896      74.14995064      99.68512231
N      88.64609077      75.73921046      97.59130556
H      87.11163301      75.38961110      96.51605128
C      89.05994084      78.32435606      98.42467486
H      91.11407334      78.44529854      98.28483511
C      88.13397494      80.23297964      96.48203621
H      88.14342358      82.08113196      97.39099457
H      86.20078493      79.80401176      95.90944914
C      89.91220740      80.45785706      94.24082080
H      90.34117528      78.60781501      93.44146657
H      91.76602892      80.88304549      95.03450585
C      89.36607650      82.47419504      92.23393146
H      89.19978058      84.29400148      93.18635352
H      87.50091663      82.37026010      91.36276763
N      91.47879052      82.45718751      90.38955858
H      92.47467629      84.08424186      90.35176405
C      91.99657553      80.93217836      88.57920077
N      90.79281987      78.88749449      88.24471921
H      91.29359734      77.63271623      86.89734435
H      89.16576551      78.39238621      89.11021386
N      93.90519910      81.46886065      87.07119917
H      94.51936016      80.25376662      85.73327294
H      94.98801228      83.01654650      87.34143003
C      88.26436606      79.00465752     101.24414652
O      86.11574724      78.59080746     101.99814732
N      90.16732046      79.83991656     102.59341111
H      91.66020424      80.02133029     101.41611161
C      90.39030816      80.29534061     105.40532386
H      88.83506341      79.31079320     106.33506921
C      92.96411540      79.03300343     106.39365072
H      92.79215031      78.98387054     108.44400377
H      94.61951565      80.18573647     105.97980066
C      93.63685797      76.42707084     105.59996567
H      94.21133477      76.35337152     103.62331195
C      96.01791312      75.66929058     107.06261384
H      95.37162672      75.62204743     109.01848057
H      97.66575447      76.86548735     106.74891927
H      96.43743236      73.74743892     106.45601169
C      91.60729191      74.38427670     106.18578083
H      91.02525620      74.41829177     108.16054482
H      92.41420504      72.50966820     105.90421161
H      89.96323002      74.61104386     104.96501763
C      90.18999717      83.17906296     106.19333973
O      90.26936568      83.86314388     108.44022432
N      90.10873894      84.79855841     104.29416479
H      90.52258900      84.06156515     102.58396247
C      89.44544501      87.47441087     104.44912235
H      88.43444143      87.43283689     106.24436234
C      91.90208921      89.08823713     104.53604976
H      93.06994007      88.41738430     106.09318424
H      91.45044462      91.01764771     105.09729847
C      93.31938395      89.34523992     102.01326513
H      91.99279608      90.08412291     100.62242656
H      93.83149978      87.40449099     101.55406163
C      95.50201784      91.10835456     102.06806719
H      95.11084449      92.94705827     102.90899540
H      95.94043434      91.29921693     100.06495730
C      97.73189489      89.71562628     103.37008862
H      98.26290798      88.09613083     102.21357612
H      97.11584411      88.89170560     105.15587999
N     100.01090482      91.42393886     103.57039961
H     100.86695084      91.72629507     101.89043292
H     101.26757282      90.60001819     104.74769910
H      99.61595202      93.15492817     104.26959835
C      87.68610981      88.09802055     102.25515010
O      87.58217486      86.74686623     100.38810050
N      86.26503562      90.08223317     102.47624807
H      86.66187815      91.43149777     103.76693115
C      84.29594080      90.90804358     100.76037658
H      83.21690708      89.18272346     100.43534366
C      82.44211929      92.96028636     102.04539047
H      83.56461672      94.64592223     102.40821793
C      80.22358060      93.63680838     100.38432105
H      78.75715298      94.89725583     101.09107869
H      79.41666746      91.86802454      99.70590930
H      81.11742114      94.53820783      98.76104614
C      81.20623828      92.18927801     104.49447578
H      82.70101179      91.44283612     105.70201089
H      79.92689357      90.59056956     104.26770862
C      79.71335449      94.18671873     105.85318900
H      79.00092767      93.65003646     107.70890023
H      78.08818986      94.98229351     104.86864159
H      80.89632317      95.80054500     106.34829729
C      85.43544577      91.69983889      98.28294539
O      87.20045015      93.30421654      98.04295014
N      84.32617642      90.58301065      96.29117385
H      82.90321251      89.36791663      96.66722939
C      84.94789638      91.34268062      93.74760223
H      86.27259453      92.91871237      93.80618375
C      86.19133629      89.16004674      92.20936502
H      87.70311734      88.67249735      93.51705562
H      86.98502135      89.91782699      90.46514763
C      84.46034699      86.79788885      91.74260262
C      83.69311811      86.41994358      89.14044948
H      84.06161474      87.78432598      87.66835269
C      82.25881584      84.32423710      88.52250898
H      81.63898561      84.01621171      86.60254705
C      81.76937672      82.57057108      90.46892708
O      80.86986700      80.18951593      89.92468590
H      80.54672380      80.06101453      88.14267399
C      82.69912207      82.90316292      92.94068910
H      82.38353777      81.30445445      94.17090093
C      83.97468733      85.04989201      93.67579263
H      84.94978611      85.12359134      95.46725318
C      82.42889121      92.07400471      92.68746577
O      80.40877378      91.88125263      93.79484539
N      82.56684123      92.91493292      90.21192430
H      84.29405108      93.38169532      89.54674064
C      80.34452308      93.69727961      88.74171723
H      78.74014544      93.26831173      89.95870098
C      80.87364645      96.52431018      87.96126026
H      79.86453260      96.95894723      86.21893260
H      82.88431525      96.94760888      87.82142052
C      79.69256750      98.13057755      90.09476127
H      80.44089912      97.47484252      91.89944990
H      77.67622953      97.71294803      89.99649550
C      80.24058813     100.86690125      89.64689614
H      79.62075790     101.58877670      87.81953079
H      82.19834459     101.21272116      90.18735786
C      78.79494751     102.69237686      91.36465735
H      78.53794473     101.72672671      93.16367680
H      77.03372258     103.30275847      90.48782434
N      80.40310460     104.90713611      91.72370535
H      81.74481028     104.73328129      93.06919049
H      79.37131403     106.50395484      91.90889853
H      81.36119584     105.27374301      90.11365853
C      80.03649769      92.02865128      86.42869222
O      81.89598838      91.13292101      85.44036536
N      77.68756789      91.84156838      85.44603454
H      76.13610258      92.65037124      86.20948397
C      77.18679041      90.47718597      83.06497939
H      78.46235567      88.86524943      82.90435265
C      74.27472216      89.73830299      83.10466364
H      73.25804941      91.52976354      83.07253829
H      73.91756389      88.71785078      84.85832966
C      73.36387408      88.07723356      80.95793455
O      71.78595261      88.71596106      79.37812335
O      74.34842149      85.92294557      80.91069139
C      77.85008435      91.87558345      80.56298175
O      78.16944810      94.20372627      80.65935779
N      78.09007959      90.73985794      78.28208209
H      77.90677614      88.84068299      78.28964099
C      77.79150283      92.15148348      75.99551325
H      79.59241201      93.11713364      75.73284129
C      77.24159248      90.65482025      73.52564096
H      75.40477850      89.79310505      73.88468896
C      76.88821366      92.04187936      71.04254058
H      76.09452860      90.85513124      69.55910543
H      78.62487214      92.91493292      70.36412884
H      75.40099905      93.44594602      71.30143309
O      79.11053180      88.68383571      73.19493885
H      79.24659209      88.47029664      71.39780913
C      75.71280389      94.12813722      76.03141805
O      76.19090465      96.32210947      75.41347755
N      73.36765353      93.55555014      76.92903805
H      72.89900141      91.75842042      77.37690319
C      71.28895459      95.27142164      77.25596070
H      71.15856347      96.54131772      75.63835498
C      68.69625009      93.80688373      77.38257236
H      68.23893632      93.71428715      79.38946171
H      69.04962891      91.89259098      76.70605034
C      66.51739565      94.99930105      75.80654062
H      66.19236272      97.00241094      76.15613999
H      64.74483237      94.11301941      76.37345851
C      66.73849363      94.11301941      73.06454774
O      65.72560032      92.12880678      72.34456201
O      67.93280066      95.31488533      71.42993448
C      71.61020806      97.24051644      79.42725623
O      70.20992087      99.05087426      79.71449463
N      73.70213509      97.01563902      80.77652082
H      74.86431677      95.54354223      80.41558310
C      74.71313867      98.84678382      82.63412179
H      74.49015096     100.67225944      81.70815589
H      76.71813829      98.38758033      82.77018208
C      73.49426520      98.99607220      85.23627492
O      74.18779475     100.50218407      86.81041694
N      71.98059442      96.96083696      85.90523804
H      71.92579236      95.62480045      84.54463509
C      71.02061345      96.54131772      88.44314047
H      70.51227708      98.40836732      89.15178784
C      68.56774870      94.96528597      88.17290961
H      67.56808348      95.43771754      89.91145782
H      69.08553371      92.97162471      88.19936578
C      66.82164159      95.40937166      85.86177433
C      65.96559557      93.42137958      84.32542684
H      66.72337582      91.53732244      84.50873029
C      64.27051106      93.87302416      82.31286831
H      63.57131233      92.29132324      81.23383459
C      63.49383355      96.43927249      81.86311345
O      61.93669907      96.83422530      79.84677548
H      61.76473397      98.60300912      79.47638912
C      64.48027068      98.48017692      83.26906983
H      64.00028020     100.41525666      82.82876360
C      65.98638256      97.93404600      85.29863589
H      66.93502516      99.51952639      86.16602027
C      72.89144250      95.33378260      90.32908733
O      74.35598040      93.83900909      89.53162283
N      72.86498634      95.87046488      92.76305483
H      71.46847859      97.00619039      93.39800287
C      74.24637627      94.45883932      94.68679621
H      76.21925054      94.65537086      94.13121668
C      74.05362419      95.87046488      97.20769111
H      74.89266267      94.63836332      98.62687557
H      72.03917594      95.75708130      97.62154118
C      75.07785585      98.69749544      97.46280417
C      73.10309185     100.46249982      97.85964669
H      71.16234293      99.84455931      97.98247890
C      73.62843577     102.94748992      97.95602273
H      72.36798831     104.55186756      97.96358164
C      76.21925054     103.71849826      97.80862408
O      76.88065475     106.22616507      97.68390214
H      75.52950044     107.38456730      97.33808223
C      78.24314742     101.91569935      97.55918021
H      80.15177100     102.62245698      97.40989183
C      77.59875075      99.34756128      97.21147057
H      79.22958456      98.12679809      97.06596164
C      73.51883164      91.75275124      95.13466135
O      71.38344091      91.04410387      95.48048126
N      75.31974082      90.02176194      95.18946341
H      77.06395820      90.79088055      95.07230038
C      75.23092368      87.33457112      95.03639558
H      73.52261109      86.73741761      96.02094299
C      75.34808671      86.32923672      92.19235748
H      77.30584317      86.62214429      91.62166013
C      74.31251669      83.55322877      91.85598620
H      74.11787488      83.06945882      89.86421466
H      72.39633421      83.63448700      92.61187672
H      75.53705934      82.21152309      92.82541579
O      73.81740840      87.78621571      90.45947845
H      74.33519341      89.51342555      90.25916746
C      77.36064523      86.16105108      96.59353006
O      79.45446199      87.22496700      96.80139996
N      76.88443420      83.94629184      97.73114530
H      75.14210654      83.17906296      97.59319528
C      78.75337353      82.54789437      99.23536745
H      80.62042312      83.38315340      98.98592357
C      77.99937273      82.78977934     102.08885418
H      77.28316645      84.69840291     102.37420285
C      75.74492924      81.11926127     102.88253923
H      75.41233740      81.68995862     104.83273679
H      76.20224300      79.14638701     102.50459397
H      74.12354406      81.52366271     101.68067330
C      80.05350523      82.37970873     104.21101683
H      80.28027239      80.41250364     104.78171418
H      79.37509348      83.35669723     105.89287325
C      82.44211929      83.87448224     103.40788315
H      83.35863655      82.97875197     101.79594660
H      83.83295786      83.92361512     104.92533338
H      82.24747748      85.87570240     102.96001801
C      79.05950919      79.76621723      98.32073991
O      77.58741239      78.71363968      96.79573078
N      80.89632317      78.56813075      99.49237023
H      82.10007883      79.59614187     100.55817587
C      81.34796775      75.95085981      99.21269073
H      79.56973529      75.08725489      99.78527780
H      82.69723234      75.34236793     100.64510328
C      81.94512127      75.17040284      96.46124922
O      83.70256674      75.96219817      95.18001478
N      80.09318948      73.74176974      95.39544358
H      78.87998519      73.05768882      96.69935474
C      79.63587571      73.65484233      92.58164110
H      80.70735053      75.18552066      91.71425672
C      80.58640805      70.99221797      91.56685807
H      79.27304826      69.45209102      91.94480333
C      80.88120535      71.24166184      88.66990763
H      79.25793045      72.19975308      87.84220751
H      81.21379719      69.34626635      87.94047327
H      82.63298165      72.22998870      88.22204250
C      83.12808994      70.33648294      92.98793226
H      82.62542274      69.95853767      94.94946817
H      84.54727440      71.82747699      92.91423293
C      84.28082299      67.98566340      92.01661293
H      85.04427242      68.42974908      90.15334279
H      82.94667621      66.46254399      91.64055740
H      85.97401777      67.52079072      93.09186720
C      76.78805816      74.21231160      92.07897390
O      75.19123943      72.78934769      93.01438843
N      76.36286974      76.34203316      90.65600999
H      77.75748776      77.59303198      90.28940308
C      73.90622553      77.22453535      89.78862561
H      73.32041038      76.01700023      88.22582195
H      74.31251669      78.88749449      88.64534119
C      71.87665947      77.72342309      91.68591083
O      69.67512832      77.82168886      90.84687234
N      72.37176777      78.21664166      94.17468038
H      74.09141871      78.05223547      94.98348324
C      70.42157021      78.65505816      95.96614093
H      68.62821994      77.78956351      95.44268674
C      71.18879910      77.28878604      98.42089541
H      73.00860553      78.05034575      99.01049002
H      71.93524099      75.39528028      98.10720084
C      69.19891729      77.15272574     100.31062172
N      67.88933695      74.83970074     100.76037658
H      68.38822470      73.09926281     100.15755389
C      65.94480858      75.52378167     102.18145077
H      64.64089742      74.17073763     102.97324609
N      65.96181611      77.95396969     102.87120087
H      64.53696247      78.78355956     103.82929211
C      68.07641986      79.00276781     101.68823220
H      68.67924255      80.95107564     101.73736509
C      69.95669754      81.45185310      96.40833688
O      71.56107518      82.83324304      97.44012745
N      67.69091569      82.43829024      95.71858678
H      66.33409220      81.10603319      95.88866215
C      67.08620327      85.18973176      95.80929364
H      68.73782407      86.14971272      95.03828531
C      64.65034605      85.68484005      94.11798859
H      63.22171296      84.41116452      94.87954830
H      64.86010567      84.84391184      92.24715954
C      63.69603426      88.38525895      93.72681525
H      63.49950273      89.19973099      95.60898265
C      65.58387085      89.85168657      92.09787116
H      67.33753687      90.15026332      93.13722064
H      64.90167965      91.68094164      91.44213613
H      65.92402159      88.90115422      90.30074144
C      60.89357014      88.54210624      92.50605205
H      60.75184067      87.52165403      90.72215041
H      60.27940909      90.50742160      92.49282396
H      59.60855625      87.72763418      93.89500089
C      66.76117034      86.07223393      98.56829406
O      65.90701405      84.76076388     100.33707789
N      67.37155194      88.39470757      98.89899616
H      68.09720685      89.17705428      97.31540551
C      67.07864436      89.77987696     101.07974033
H      66.63455868      88.46462745     102.59908028
C      69.64489270      91.03465524     101.92066854
H      69.33119813      91.96440059     103.73102635
H      70.14944962      92.50675204     100.57140395
C      71.83130604      89.19595154     102.37987203
H      72.42656983      88.38714868     100.58085258
C      74.21236120      90.62836408     103.10741666
H      74.24070709      92.40470681     102.06806719
H      75.83563610      89.40949061     102.76348647
H      74.11976461      91.05733196     105.11997519
C      71.38722036      87.10402450     104.13920723
H      69.86599068      86.07979285     103.20190298
H      70.56518941      87.69172939     105.93633695
H      73.03128225      85.91916611     104.51148331
C      64.96026117      91.74708206     100.85675262
O      63.04218896      91.49952792     102.00948567
N      65.18135915      93.59523440      99.18812429
H      66.81786213      93.64247755      98.20546661
C      63.14990336      95.44338673      98.29617347
H      61.32820719      94.50797221      98.07885494
C      62.68125123      97.58822610     100.29928336