 %block lattice_cart
   140.777   0.000   0.000
   0.000 144.511   0.000
   0.000   0.000   162.462
 %endblock lattice_cart

 %block positions_abs
N      91.85390119      41.12036927      81.34154899
H      93.73417887      40.83691032      81.17336335
H      91.23029151      40.45329588      79.66536175
H      91.18682780      40.39282464      82.97427253
C      91.15659218      43.71496350      81.16958390
H      92.07121972      44.91682943      82.57176082
C      92.06744026      44.72785680      78.76963148
H      90.93549420      44.01542998      77.20493809
H      94.04409399      44.16849781      78.61467392
C      92.00507930      47.56244627      78.77719039
H      92.80443353      48.13692307      80.58754819
H      90.06810983      48.22574021      78.53530542
S      94.10834468      49.25942050      76.64935856
C      93.71528161      52.29432096      77.90791628
H      95.46516818      53.37713414      77.80965051
H      93.37891033      52.02031064      79.92236453
H      92.17137521      53.02564504      76.75707296
C      88.17460406      43.86047242      81.43225586
O      86.75730933      42.22585916      80.55353312
N      87.15415185      45.90893575      82.45081834
H      88.38247395      47.27520787      82.96104444
C      84.38948226      46.30766800      82.60199644
H      83.74130613      45.99586316      80.67069615
C      83.21785194      44.62392185      84.65801867
H      83.70540133      42.64159895      84.37455973
H      81.19206533      44.66549583      84.29330149
C      83.75453421      45.52721103      87.28662797
O      82.12936958      46.39459541      88.53573707
N      86.08456676      45.34957676      88.14456372
H      86.43605585      45.71996312      89.98326742
H      87.50753067      45.05100000      86.90679299
C      83.99452946      49.18194172      83.16324516
O      85.97685236      50.39325629      83.52985206
N      81.60591540      50.26853435      83.09899446
H      80.09413435      49.13091911      82.85333004
C      81.35647152      52.95383544      83.01206705
H      82.14259767      53.56988622      81.21115788
C      78.66361153      53.85334517      82.36767038
H      78.14015734      53.12013136      80.51573859
C      76.87593043      52.87446694      84.31597821
H      77.56568054      53.18627178      86.23405042
H      77.05545443      50.85245978      83.96448912
H      74.95785823      53.58122458      84.07787269
C      78.37448340      56.87501754      82.17491830
H      79.20974243      57.48917859      83.95504048
H      76.47530846      57.67626150      82.17869775
C      79.92405898      58.09956019      80.19259540
H      79.68973291      57.31154432      78.30475881
H      81.94417641      57.89546975      80.54219476
H      79.54044454      60.11967762      80.06409401
C      82.61880870      54.29554112      85.14367834
O      83.47674445      56.43471131      84.99438996
N      82.72463337      52.98974024      87.36599648
H      81.94606613      51.26253039      87.13922932
C      83.86791779      53.92515477      89.63177833
H      83.27643346      55.89613931      89.71681601
C      82.63392651      52.60423607      91.85787593
H      83.40682457      50.69561250      91.88244237
H      80.58735291      52.49085250      91.64244713
C      83.02509986      53.99885409      94.34664548
C      82.31078331      56.43849076      94.80773870
H      81.45473729      57.48350941      93.27706039
C      82.51676348      57.63657725      97.19824249
H      81.81756474      59.54898027      97.33241305
C      83.68083489      56.28542293      99.18434484
H      83.90760205      57.17737375     101.00415128
C      84.42538706      53.75129995      98.79128177
H      85.30033034      52.69116348     100.29739364
C      84.24397333      52.71572993      96.29495331
H      84.71829463      50.75797347      95.96425120
C      86.82533947      53.98373628      89.82075096
O      87.85901977      55.19694058      91.51961492
N      88.17838351      52.71195047      88.10487947
H      87.28265324      51.48551810      86.94836696
C      90.90525858      52.91415119      87.76850818
H      91.74240734      53.57177595      89.52973311
C      92.01074848      50.42538164      86.71593063
H      93.92693096      50.62002345      85.98649627
H      90.85045652      49.86602265      85.10777354
C      92.08255808      48.17660732      88.51495008
H      90.35345850      48.21440185      89.63555778
H      93.44505075      48.60557520      90.00027496
C      92.59845336      45.62169735      87.31497387
O      90.78998528      44.43305950      86.38522852
O      94.89447083      44.85635819      87.22426701
C      91.16604081      55.01741658      85.81642090
O      92.55121020      56.82777438      86.17168945
N      89.58622962      54.90214327      83.70370688
H      88.21239859      53.57744513      83.67914044
C      89.85457075      56.72194971      81.57587506
H      91.70839227      56.29109211      80.78785918
C      87.84012250      56.25707704      79.49717611
H      85.99574962      55.96039001      80.36456049
H      88.21239859      54.49207266      78.50129035
C      87.44516970      58.23562049      77.40902854
H      89.32355766      58.48128491      76.60400513
H      87.17871829      60.02897076      78.38790677
S      85.01498166      57.76129918      75.02041448
C      86.76297850      55.59000365      72.90392101
H      85.49308242      54.28420277      71.94205031
H      87.97807252      54.43160142      74.10011776
H      87.61524507      56.71061135      71.39969886
C      89.65237004      59.48472958      82.33932449
O      91.16604081      61.17414490      81.79697304
N      87.59067863      60.23873038      83.80953156
H      86.15070718      58.99718019      83.97960693
C      87.24485871      62.76529446      84.54841455
H      86.86313400      63.90857888      82.87789649
C      84.93939261      62.86544995      86.38522852
H      85.20962348      64.60777761      87.45103416
H      85.13403442      61.28941821      87.69858831
C      82.50920457      62.87867804      84.82620431
H      82.65660323      61.35177918      83.45048356
C      80.17539258      62.16436149      86.39467715
H      80.48530769      60.49951261      87.56819719
H      78.47841835      61.74862170      85.30619480
H      79.73319662      63.81976174      87.53985130
C      82.08590588      65.18036469      83.20670886
H      83.06289438      64.95737698      81.40768941
H      82.46007169      66.90190536      84.27251451
H      80.10358298      65.20871058      82.64168070
C      89.45016932      63.96338094      86.05641614
O      90.08889682      66.12522784      85.68602979
N      90.99029627      62.35333412      87.41512936
H      90.64258662      60.47872562      87.50394650
C      93.11434864      63.18103425      89.08375770
H      92.44916498      64.72872010      90.26672637
C      94.28597896      60.97572364      90.50861134
H      95.82043672      61.61067168      91.72937454
H      94.95872152      59.57165699      89.16123648
C      92.27908961      59.69637893      92.16023214
H      90.66148389      58.83466373      91.21725871
H      91.50997100      61.00217981      93.55673988
C      93.55465487      57.50807586      93.63421866
H      95.19115786      58.36790133      94.54695647
H      94.31432485      56.18526744      92.25282872
N      91.64603130      56.28920238      95.34631070
H      90.40637084      55.35945704      94.23326190
C      91.38713879      56.97517304      97.73303503
N      92.98584725      58.52285889      98.99159276
H      92.68727050      58.88001716     100.84163482
H      94.37101664      59.44126587      98.05239878
N      89.51819947      56.07188386      99.11820442
H      89.48418440      56.57077161     100.95879785
H      88.63191783      54.59411788      98.29428375
C      95.42926338      64.11833850      87.56819719
O      97.05253828      65.42602911      88.65478982
N      95.57288258      63.45126511      85.23249547
H      94.41448035      62.01696284      84.73549745
C      97.51363150      64.19581728      83.40701985
H      98.73439470      65.69059079      84.12511585
C      99.19359819      62.00562448      82.41680327
H     100.35955933      62.74639720      80.88801468
C     101.03608135      61.02674625      84.48416385
H     101.79008215      62.48372524      85.72949349
H     102.62345145      60.07054474      83.58654385
H     100.05153394      59.75307072      85.76917774
C      97.54953630      59.73417345      81.33021064
H      96.26074295      60.47872562      79.90535700
H      96.33822173      58.77608221      82.69270331
C      99.20682628      57.69704849      80.12456525
H     100.10633600      56.90714289      81.80075249
H     100.65813608      58.53797670      78.93025822
H      98.29408847      56.35912226      78.84899999
C      96.29286830      65.74539285      81.23950377
O      97.49662396      67.26095336      80.10566798
N      93.76063504      65.60933256      81.10344348
H      92.92726574      64.21849399      82.11066760
C      92.37168620      67.06631155      79.05875961
H      93.61323639      67.01906839      77.41469772
C      89.88291665      65.79452574      78.32365607
H      88.54876987      66.02885180      79.87134192
H      90.40070166      63.81787202      78.06476357
C      88.62813838      66.68080738      75.85189405
O      86.28487775      67.13434169      75.87268104
O      90.02464612      66.79041151      73.94138075
C      91.91626216      69.85365786      79.62189805
O      92.56632801      71.47315331      78.11011700
N      91.15848191      70.42813466      81.93870251
H      90.72951404      68.92202279      83.02529514
C      90.83533871      73.04351588      82.89679375
H      91.60823677      74.38900101      81.54185998
C      87.99130061      73.61988240      83.15001708
H      87.53020739      74.62710653      84.88667556
H      86.71762507      72.01361503      83.34465889
C      87.04643745      75.17890661      80.82943316
H      85.00364331      75.28095183      81.05997977
H      87.64737042      74.12632905      79.16080483
C      87.98752116      77.99270909      80.85966878
O      90.31944343      78.39711052      80.44581872
O      86.40582023      79.74070593      81.15068664
C      92.16003685      73.55374198      85.37800440
O      93.01041370      75.64944846      85.86555379
N      92.59089445      71.52228619      86.87088819
H      91.98618203      69.82720169      86.23405042
C      93.97039466      71.70369992      89.38989336
H      95.85256207      72.48793634      89.11021387
H      94.24629470      69.81397361      90.16090170
C      92.61357117      73.06430286      91.47993066
O      90.78998528      74.20569756      90.95269702
N      93.57166241      72.84698434      93.84775773
H      95.43115310      72.41234729      93.86098582
C      92.46617252      73.41390223      96.27227659
H      90.46117290      73.14745082      95.87732379
C      93.16537125      71.34654165      98.18278990
H      95.04753866      71.50716838      99.00293111
H      92.71561639      69.50405849      97.37776649
C      91.25485795      71.35788000     100.32762926
H      91.14903328      73.13989192     101.35564037
C      88.65459454      70.32797916      99.52260585
H      87.64737042      71.52039647      98.17712072
H      87.50375122      70.04640994     101.20824172
H      88.88892061      68.51762136      98.57207352
C      92.22617728      69.48138178     102.41766656
H      90.78809555      68.89745634     103.77260033
H      93.69260489      70.43758329     103.50236947
H      92.89891984      67.72204658     101.58429726
C      93.33166717      76.17290265      97.13777124
O      95.00785441      76.42990543      98.75348724
N      91.88224709      78.02672416      96.27794577
H      90.32700233      77.48248298      95.31418535
C      92.06555054      80.76682732      97.06218219
H      94.08755769      81.16178012      97.07163082
C      90.84856679      82.51860361      95.05151339
H      90.87880241      84.42344773      95.83008064
H      88.86057471      82.11420218      94.68679622
C      92.26775125      82.31262344      92.57408220
H      92.36979648      80.34541835      91.97314923
H      94.12535222      83.13654411      92.91990211
C      90.93171475      83.70346201      90.51805997
H      91.01675243      85.70657190      90.98671210
H      88.92671513      83.37087018      90.19680650
N      92.33389168      83.30284003      88.11810755
H      94.10834468      83.96991342      87.88567122
C      91.39280797      82.53183169      85.90334831
N      89.18371791      81.54161510      85.74083185
H      88.40893012      81.32807603      84.00795282
H      88.47885000      81.06540407      87.44914444
N      92.63246843      82.52238306      83.76228840
H      91.96539504      81.39988563      82.37144983
H      94.34267075      83.36898045      83.66780208
C      91.09234149      81.22792054      99.71535793
O      89.00041446      80.53061153     100.38621078
N      92.66459378      82.63576664     101.10241705
H      94.31999403      83.30284003     100.42400530
C      92.28853824      82.72647350     103.89165309
H      90.93927366      81.32240685     104.56439565
C      94.75463108      82.29939536     105.41288277
H      94.23306662      82.25215220     107.40465430
H      96.08688813      83.84519148     105.13509300
C      96.13035184      79.75771347     104.68533814
H      96.69726973      79.80495662     102.70679469
C      98.62290084      79.58007919     106.08373561
H      99.49217495      77.74137549     105.75681296
H      98.50573781      79.68779359     108.13597839
H      99.88901747      81.04461708     105.37886769
C      94.50896666      77.32941515     104.95745873
H      93.74740696      77.21792130     106.86797203
H      95.75807575      75.75905259     104.49258605
H      92.89891984      77.42957065     103.68000374
C      91.05832641      85.23036087     104.72880184
O      90.31755370      85.47980474     106.86230285
N      90.71439622      87.05583649     103.10930639
H      91.08667231      86.80450289     101.25359515
C      89.73551799      89.63153345     103.50425919
H      88.79632402      89.86019033     105.32595536
C      92.15247795      91.34173576     103.49292083
H      93.52252953      90.76158979     104.91588475
H      91.84067311      93.31461003     104.00125721
C      93.50552199      91.29638233     100.89454715
H      92.35845812      91.97857353      99.32418459
H      93.96472548      89.31216970     100.57140395
C      96.16247719      92.81383256     100.97013621
H      97.41725546      92.20156124     102.48569671
H      95.72595041      94.78481711     101.37453764
C      97.27552598      92.84784764      98.37932143
H      96.15302855      94.08750810      97.17745550
H      97.30387188      90.97323913      97.52516514
N      99.80964897      93.82105669      98.39443924
H     100.86222653      92.72312570      99.54717229
H      99.90413528      95.59550969      99.08796880
H     100.60900320      93.84751286      96.66156021
C      87.74941564      90.14175956     101.45390614
O      87.50942040      88.69422920      99.64732779
N      86.47196065      92.28092974     101.69390138
H      86.68927918      93.37886073     103.23969751
C      84.46507131      92.99335656      99.94212509
H      83.45028828      91.26614671      99.46591406
C      82.92305464      95.21000553     101.08729924
H      84.28365758      96.71989685     101.41800134
C      80.83868651      96.26825226      99.26749280
H      81.55111333      96.94288456      97.45713499
H      80.03366310      97.92554224     100.19345869
H      79.28155203      94.99079727      98.83474547
C      81.73063733      94.52025542     103.54961262
H      83.29722045      94.14608961     104.83273679
H      80.69695704      92.74580241     103.37386808
C      80.04311174      96.40620228     104.93856146
H      81.00498243      98.22600872     105.03871696
H      79.66894593      95.70133437     106.83962613
H      78.21574639      96.53281395     103.99747776
C      85.75575438      93.92310191      97.50437815
O      87.39036764      95.66731929      97.40989183
N      85.12458579      92.66832364      95.32930316
H      83.52209788      91.63086389      95.26883192
C      86.17527362      93.40909635      92.90856376
H      87.37147038      95.08150414      93.00493980
C      87.79287934      91.18866793      91.93913416
H      89.07978296      90.66710347      93.46225357
H      88.95128157      92.00125025      90.44058119
C      86.37558461      88.76414907      91.05474224
C      86.06189004      88.40510107      88.35999252
H      86.42093804      89.86208006      86.97482313
C      84.82600903      86.21301855      87.56630747
H      84.40082061      85.89743426      85.59343320
C      84.21751716      84.34785868      89.29162759
O      83.30855880      82.13120971      88.38077951
H      83.18194714      82.24081384      86.57420115
C      84.62569804      84.64076626      91.87488346
H      84.01342672      83.06851397      93.02572679
C      85.81055644      86.76292891      92.82730552
H      85.95795510      86.91032756      94.85876131
C      84.05311097      94.36907732      91.13600047
O      81.87614626      93.50925185      91.40434161
N      84.72963299      96.12085361      89.42390843
H      86.61180040      96.42320982      89.52217420
C      83.02321013      96.92398729      87.39434237
H      81.14860163      96.74635302      88.22771168
C      83.82634381      99.60739866      86.47215593
H      85.82756398      99.91542405      86.10554903
H      83.47863417     101.03792148      87.91212738
C      82.11236205     100.41053234      84.14779257
H      80.17161312     100.67131457      84.78085088
H      82.38826209      99.07638556      82.60010672
C      82.80967106     102.98056013      83.02718486
H      84.76553779     102.87095600      82.38656764
H      82.55644773     104.39974459      84.49928166
C      81.27710302     103.84983423      80.84266125
H      79.51965755     104.64729873      81.56264697
H      80.76498719     102.24356686      79.65969258
N      82.57156554     105.83971604      79.25907060
H      82.38259291     107.54613890      80.09432963
H      81.78921885     105.93609208      77.52052239
H      84.44617404     105.49200640      79.17403291
C      83.35202251      95.04559934      85.22493657
O      85.52331804      94.58828557      84.50306112
N      81.26954411      94.27270128      83.91913568
H      79.64437948      94.91709795      84.68069539
C      81.17883725      92.24313522      81.90279771
H      83.07423274      91.54771593      81.50217573
C      79.68784319      89.93388966      82.94214718
H      77.65638740      90.25703286      83.07064857
H      80.54388921      89.43689164      84.75061526
C      80.02232475      87.43756120      81.31887228
O      82.04811135      87.06339539      80.23605910
O      78.21196694      85.95223632      81.32454146
C      80.20940765      93.20500591      79.34977746
O      79.77855005      95.41220624      79.01151645
N      80.06578845      91.51559059      77.39391073
H      80.62892689      89.73546840      77.78319435
C      80.00720694      92.12219273      74.72939662
H      81.33568453      93.67176831      74.45538631
C      80.67239060      89.83184444      73.23273338
H      80.25476108      89.78460128      71.21450568
C      83.38225813      89.03626966      73.54831768
H      83.63737118      87.14087417      72.78108880
H      83.73941640      88.79438469      75.56276593
H      84.80144259      90.29482739      72.74707372
O      79.37414862      87.70590234      74.33633355
H      77.58835725      87.85897017      74.05476433
C      77.46363532      93.33728675      74.04531570
O      77.34269283      94.89820069      72.25952433
N      75.23753772      92.82706065      75.23206382
H      75.24320690      91.49858305      76.60211540
C      72.91695381      94.19900195      74.61601305
H      72.59570034      94.75836094      72.66014631
C      70.62471579      92.65320583      75.55520702
H      70.72487129      92.08439821      77.52997102
H      70.87604939      90.96945968      74.39491507
C      67.99232704      93.79460052      75.31143233
H      67.96776060      95.69755492      76.10322765
H      66.60715765      92.70044898      76.37156879
C      67.16273719      93.92688136      72.62991069
O      65.25411361      92.66265446      71.91937360
O      68.44964081      95.23268224      71.07844539
C      72.92640244      96.80115508      75.85756323
O      71.69808034      98.53214439      74.93159734
N      74.14527591      96.95233319      78.09877864
H      75.18084593      95.46133913      78.68459380
C      74.54589789      99.30882190      79.34221855
H      73.55757103     100.93587626      78.55609241
H      76.59814067      99.48078699      79.38568226
C      73.69174160      99.39196986      82.21460255
O      73.16450796     101.44799209      83.14623762
N      73.29678880      97.26980721      83.45615274
H      73.13805179      95.62007614      82.50751013
C      72.21775507      97.25468940      85.99783463
H      71.40328303      98.92331773      86.88978545
C      69.79701567      95.55393572      85.97137846
H      68.91640320      95.74290835      87.82519997
H      70.25621916      93.55460528      85.80508254
C      67.73154481      96.28148035      83.95693021
C      66.68274670      94.27837045      82.57743000
H      67.16840636      92.30549618      82.77585127
C      64.84971218      94.97378974      80.75195438
H      63.95776136      93.54515665      79.59922133
C      64.20531551      97.43799285      80.33243514
O      62.33070700      98.03325664      78.76774176
H      61.94142338      99.79259184      78.96994247
C      65.24466498      99.37874177      81.85366482
H      64.82892519     101.32138042      81.39257160
C      67.00588990      98.87418485      83.72449387
H      67.93374552     100.33683301      84.79974815
C      74.20385743      96.13408169      88.01039315
O      76.34491734      95.52370009      87.44725471
N      73.65394707      96.43454818      90.52372915
H      71.90028105      97.05059896      90.95647647
C      75.23375827      95.45378022      92.50038287
H      77.21419144      95.97723441      92.27361571
C      74.47975747      96.66131534      95.06663120
H      75.54556311      95.84495357      96.62943487
H      72.48798594      96.44210708      95.55418059
C      74.98809385      99.38630068      95.16489697
C      72.98309423     100.95855297      95.76016076
H      71.16706724     100.16108847      96.24393070
C      73.40450320     103.60794926      95.66378472
H      71.80201528     104.84949945      95.90189024
C      75.86492686     104.61328366      95.32363398
O      76.05767894     107.13984774      95.51449634
H      74.40983760     107.89195881      95.40678194
C      77.89449292     102.96355259      95.19513259
H      79.81634458     103.63629516      95.07419011
C      77.42773052     100.35573028      94.87387912
H      79.04344652      99.13874653      94.59608935
C      75.15816922      92.48313046      92.74415757
O      73.10592644      91.45322962      92.73092948
N      77.22364008      91.24724945      93.34320081
H      78.73920058      92.37352633      93.61154194
C      77.45229696      88.52037438      93.05218296
H      75.70807957      87.53204752      93.52839399
C      78.44062382      87.91377223      90.44625037
H      80.38515220      88.59218398      90.40089694
C      78.02299431      85.20579443      89.50138721
H      76.09736319      84.94123274      88.81541656
H      78.38204231      83.80928668      90.97348401
H      79.18517599      85.23036087      87.80063353
O      77.20852227      89.46712726      88.48660418
H      78.21574639      90.97323913      88.54518570
C      79.41005342      87.50937080      94.86443049
O      81.16371944      88.81706141      95.64110800
N      79.22108079      85.06784441      95.58441621
H      77.63937987      84.17778331      94.99104215
C      80.96907763      83.89243464      97.52327541
H      82.83045805      84.77493683      97.48359116
C      79.61981304      84.17778331     100.07818539
H      79.45540685      86.22435691     100.25770939
C      77.04033662      83.08363178     100.46746901
H      75.75721246      83.51448938      98.91411398
H      76.39405022      83.71291064     102.31940079
H      77.38048736      81.05784517     100.33140871
C      81.39615578      83.57118117     102.37987204
H      81.88937434      81.58318908     102.61230837
H      80.32279123      84.00959767     104.08251544
C      83.67327598      85.31539855     102.59719056
H      85.04899674      84.45746281     101.32729448
H      84.77309670      84.96201973     104.30172370
H      83.24808756      87.32984680     102.50459397
C      81.35269207      81.01627119      96.83163558
O      79.97508159      79.85031005      95.35386960
N      83.35769169      79.85219978      98.04861933
H      84.45940213      80.82162938      99.26749280
C      83.75264449      77.14044252      98.08452413
H      82.08590588      76.18991019      98.83663520
H      85.32489678      76.79273288      99.36953802
C      84.64270558      76.10487250      95.51827579
O      86.69116890      76.63966505      94.61876607
N      82.91549573      74.64033461      94.27105643
H      81.18828588      74.53262021      95.07607984
C      83.00431287      74.24538181      91.52717382
H      84.50664529      75.36409979      90.66734835
C      83.92083013      71.50905811      90.83364426
H      82.34857784      70.18247024      90.77506275
C      85.00553303      71.72070746      88.11243837
H      86.83667783      72.63722472      88.34487471
H      83.59201775      72.79029255      87.06553000
H      85.26442554      69.83287087      87.33387113
C      85.79354891      70.30719217      92.74037811
H      84.92238508      69.90845992      94.56396401
H      87.05021690      71.86432666      93.23548641
C      87.42816217      68.07164595      91.72181563
H      88.66215345      67.52740477      93.28083984
H      88.46562191      68.58376178      90.01917222
H      86.34723872      66.39545871      91.20781007
C      80.43239536      75.21103196      90.33286679
O      78.55022795      73.93168724      90.35365378
N      80.47963851      77.49571107      89.13478031
H      81.97063257      78.65600303      89.40690090
C      78.30456353      78.53695027      87.66835269
H      77.73575591      77.21603157      86.19436617
H      78.95651911      80.26793957      86.75939433
C      75.77988917      79.10764761      88.97793302
O      74.01110534      80.05251077      87.90456848
N      75.68162340      78.80529140      91.47804094
H      77.25576542      78.27238858      92.41723491
C      73.50087924      79.32874559      93.06919049
H      71.90972968      78.38388244      92.16401159
C      73.88260395      78.09664404      95.67512308
H      75.09013907      79.23425928      96.89777600
H      74.85392328      76.30329377      95.38788468
C      71.55446114      77.57318985      97.08107945
N      70.30724177      75.41890185      97.31351579
H      70.83447541      73.69736118      96.68423693
C      68.32680859      75.63244092      98.87631945
H      66.78668165      74.30585305      99.05584345
N      68.17940994      78.15522555      99.56229010
H      66.71487205      79.01694075     100.42967448
C      70.22220409      79.28528189      98.55128653
H      70.80990897      81.22414108      98.80262013
C      72.57680307      82.15577616      93.22036860
O      74.21330606      83.58818870      94.00082556
N      70.36771301      82.77938584      92.41534519
H      69.17907516      81.36398083      91.93913416
C      69.33592245      85.29083211      92.41912464
H      70.94218981      86.49458777      91.95614169
C      67.23454679      85.57807051      90.39144831
H      65.90417946      84.01148740      90.54451614
H      68.25121954      85.51193009      88.60187749
C      65.54324174      87.83818318      90.24404965
H      64.55680460      87.94400785      92.05062801
C      67.03801525      90.28537876      90.00972359
H      68.02067293      90.72568499      88.25416785
H      68.46097916      90.16632600      91.49504847
H      65.63205887      91.78015227      90.18924759
C      63.64406679      87.67755644      88.11432810
H      62.59148923      89.44256082      87.99716507
H      62.09638094      86.32451240      88.23338086
H      64.54924570      87.42811257      86.28129358
C      68.52334013      85.92200070      95.02505723
O      67.15706801      84.59352310      96.16645192
N      69.45497520      88.18400310      95.77338885
H      70.85715213      88.94745253      94.73025992
C      68.75955592      89.16099160      98.23381251
H      68.13972569      87.62464411      99.45835516
C      70.96675625      90.48191029      99.41111200
H      70.21842463      91.81227762     100.79439166
H      72.19885781      91.51181113      98.12231865
C      72.61270787      88.40132162     100.74525878
H      72.89805655      86.73080356      99.57740791
C      75.18462538      89.62964372     101.10430677
H      74.87660000      91.26236726     102.32129052
H      76.13326799      90.25136368      99.38465583
H      76.24287212      88.33896065     102.31184189
C      71.45241592      87.50937080     103.24725641
H      72.57491335      85.88231645     103.83307157
H      69.49654918      86.86497413     103.30394820
H      71.58091731      89.02304158     104.63998471
C      66.47298708      90.89198090      98.05239878
O      64.70420325      90.44978494      99.50181886
N      66.67329807      92.90075997      96.57274308
H      68.31358051      93.07461479      95.61276211
C      64.58137104      94.67143353      96.06818615
H      62.83337420      93.58295117      96.05873752
C      64.18641824      96.53470367      98.11664947