 %block lattice_cart
   140.777   0.000   0.000
   0.000 144.511   0.000
   0.000   0.000   162.462
 %endblock lattice_cart

 %block positions_abs
N      91.22462233      43.09513327      81.43509044
H      93.00285479      42.74175445      80.83982666
H      90.05677147      41.61358784      81.14785204
H      91.22840178      43.43339428      83.31347840
C      90.19283176      45.16438358      79.83449226
H      90.92793530      46.89537288      80.67731019
C      91.08100313      45.04722055      77.04903567
H      90.15881669      43.41260729      76.20054856
H      93.13324591      45.06800754      76.89974729
C      90.28731808      47.52276202      75.72811698
H      88.24452394      47.44906269      75.47867311
H      90.77864692      47.58890244      73.72878654
S      91.02053189      50.33845422      77.51390835
C      89.53709673      52.76297308      75.54670325
H      90.01330777      52.67037649      73.54548309
H      90.15692696      54.48073430      76.49912531
H      87.49052314      52.66470731      75.76024233
C      87.18627720      45.10013288      79.99511899
O      86.11480238      43.49764497      78.62506742
N      85.88236604      46.78198930      81.25934590
H      86.83100865      48.23707856      82.05303095
C      83.10257864      46.96529275      81.49745141
H      82.16149493      46.22452004      79.82315390
C      82.32968058      45.52532130      83.86905794
H      82.53377102      46.66860572      85.56792189
H      83.41627321      43.82078817      84.26779019
C      79.48753220      45.04155137      84.19220114
O      78.15149570      44.46707457      82.39507141
N      78.27810736      45.40059937      86.30491515
H      76.41294749      45.00375684      86.27467953
H      79.12659448      46.36813924      87.71465098
C      82.26165043      49.72996235      81.43509044
O      83.70729106      51.52520235      81.65996788
N      79.70107128      50.00208294      81.29903015
H      78.68250879      48.40148475      81.50312059
C      78.18551077      52.44360934      81.35572194
H      78.46896972      53.29965536      79.50567988
C      75.37548774      51.97306748      81.46343634
H      74.94274042      50.98663035      79.70788059
C      74.81990821      50.30821860      83.71787983
H      72.77333461      50.23262955      83.95220589
H      75.41895145      51.26442012      85.43942050
H      75.69107204      48.44683818      83.86716821
C      73.82213272      54.34467401      81.69020350
H      74.33802800      55.38969266      83.38906745
H      71.86437626      53.75318967      81.43886990
C      74.06779714      56.03786878      79.39229630
H      73.49898952      54.98718095      77.71610906
H      76.02366387      56.65202984      79.18253668
H      72.81301886      57.67248204      79.43576001
C      79.41005342      54.44671923      83.06214480
O      79.93161789      56.45360857      82.17586316
N      80.19428984      53.90247805      85.41107461
H      79.94673570      52.16392984      86.15751650
C      81.23552904      55.84511670      87.11749747
H      79.95429460      57.45516352      87.10426938
C      81.64370992      54.80954668      89.78579102
H      81.48875237      56.34022499      91.15395287
H      83.46918554      53.94594176      90.18452327
C      79.78610896      52.78942925      90.70041856
C      80.62703717      50.39136656      91.48654470
H      82.63392651      50.15137132      91.20308576
C      79.01510062      48.60179574      92.42006950
H      79.57256989      46.67238518      92.78856613
C      76.48097764      49.31044311      92.90572916
H      75.22808909      47.88369974      93.65784024
C      75.56446038      51.55732770      91.94574820
H      73.54056349      51.81055102      91.86826942
C      77.27088324      53.41681839      91.02167203
H      76.73798042      55.31788306      90.49821784
C      83.73374723      56.82399493      86.13295006
O      84.32712129      59.00662882      86.48065970
N      85.40048584      55.23851455      85.21832252
H      84.76553779      53.48484853      84.82903890
C      87.83823278      56.11912702      84.16007579
H      88.48829863      57.51752449      85.52445819
C      89.75252553      53.99507464      83.88417575
H      89.23285080      52.91604091      82.20798851
H      89.59000907      52.78187035      85.54146572
C      92.51908486      54.90592272      83.52323802
H      92.87435340      56.15692154      85.12005675
H      92.60601227      55.93960302      81.74311583
C      94.35400911      52.62313334      83.74622573
O      93.62646448      50.39325629      83.26434552
O      96.62734986      53.09178546      84.32448198
C      87.50753067      57.42114844      81.66185760
O      88.86057471      59.15213775      80.98344586
N      85.48930297      56.71817026      80.23700396
H      84.41026925      55.26308100      80.83982666
C      84.82033986      58.13546499      77.94098649
H      86.44361476      58.20538486      76.67298014
C      82.52054293      57.03186482      76.54636847
H      80.75364883      57.66681287      77.39107613
H      82.41660799      54.99096041      76.79392262
C      82.47707923      57.49484777      73.64374886
H      84.20995826      56.62368394      72.95210903
H      82.46196142      59.51496520      73.24123715
S      79.95429460      56.05865577      71.88441366
C      80.63459607      56.75596478      68.66432002
H      82.60558062      56.22684141      68.38841998
H      80.57223511      58.79875893      68.41487615
H      79.60469523      55.50307624      67.39442394
C      84.56900626      61.02485652      78.47955849
O      85.98252154      62.57254237      77.38729668
N      83.04777658      61.81665185      80.23889369
H      81.94984559      60.46360781      81.02124038
C      82.76620735      64.41880498      81.05336573
H      82.35991620      65.79074629      79.56993057
C      80.41538782      64.51518102      82.70120707
H      80.28688643      66.31042102      83.70087229
H      80.79711254      63.31520482      84.33204088
C      77.97386143      63.69126035      81.35005276
H      77.87181620      61.65602511      81.05903491
C      75.87815494      64.23928098      83.20576400
H      76.14838581      62.93536983      84.77612657
H      74.22086497      63.93125559      82.01901588
H      75.93295701      66.22349361      83.75567436
C      77.74331481      65.15012906      78.83293731
H      78.82801772      64.17503029      77.37973778
H      78.51243342      67.05875264      78.93309281
H      75.81768370      65.28996881      78.11484131
C      85.10379880      65.59610447      82.48955773
O      85.38536802      67.91101921      82.36861524
N      86.81589084      64.02763164      83.42119280
H      86.51542436      62.15113341      83.23788935
C      89.20828436      64.94603862      84.52479297
H      88.82655964      66.82631630      85.27312459
C      90.45928318      63.04686368      86.46365216
H      92.37546566      63.49850827      87.07592349
H      90.73707294      61.15902709      85.68697465
C      88.82089046      63.12056300      89.02612104
H      86.85557510      63.03930477      88.41007027
H      89.02120145      64.93658999      89.97854311
C      89.41993370      60.90391404      90.67207266
H      91.45516894      60.71494141      90.91773708
H      88.87569252      59.14646857      89.74610677
N      88.27853901      61.00595926      93.08147371
H      87.06911417      59.66614330      93.69941422
C      89.00608364      62.37223138      95.02222264
N      91.06021614      63.79708502      95.04111990
H      91.81232722      64.63234406      96.58313657
H      92.11279370      63.36244797      93.50855186
N      87.82122524      62.43648208      97.09147295
H      88.81144183      63.33221235      98.45396562
H      86.48518874      61.10233530      97.37493189
C      91.09612094      65.58098666      82.40074059
O      92.44727526      67.43480818      82.49522691
N      91.02242162      64.23550153      80.24078341
H      90.01897694      62.61600608      80.34849781
C      92.50018759      64.86855984      77.88618443
H      94.41070090      65.32965306      78.50223521
C      92.65136570      62.62923416      76.24779172
H      90.68982979      62.12278751      75.88118481
C      93.87401862      63.32465345      73.68721256
H      94.04976317      61.73350389      72.39463976
H      95.65792026      64.31298031      73.98012014
H      92.59467391      64.66824886      72.78770284
C      93.95149740      60.19904612      77.04336649
H      93.66236928      58.64191164      75.72811698
H      92.76663900      59.45827341      78.55703727
C      96.69349028      60.49006398      78.03736253
H      97.53252876      58.66269863      78.48522767
H      96.82010194      61.67303265      79.71921895
H      98.03141651      61.26107231      76.67298014
C      91.35501345      67.19481294      76.69376713
O      92.67593214      68.98438375      75.92653824
N      88.80388292      67.41969037      76.65408287
H      87.68894440      65.98349837      77.23233912
C      87.40737518      69.60988316      75.48812174
H      88.41837876      70.00483596      73.73823517
C      84.64459531      69.13745159      74.76813601
H      83.88114588      70.96481693      74.20499757
H      83.65248900      68.12266856      76.26101980
C      84.26665005      67.70314931      72.26235892
O      82.57345527      66.00806481      72.05070957
O      85.47229544      68.53651862      70.40664768
C      87.65492933      72.20636712      76.84872468
O      87.68327522      74.12065987      75.53725462
N      88.17082461      72.08542463      79.25245655
H      88.05177185      70.39600931      80.13495874
C      87.71918002      74.25105099      80.85305474
H      88.46940137      75.90834096      79.88362514
C      84.89214946      74.57608391      81.71099049
H      84.68427956      75.75905259      83.38339827
H      84.36869527      72.64478362      82.19853987
C      83.13470399      75.90267179      79.70410114
H      81.17694753      75.89889233      80.34849781
H      83.02509986      74.84064560      77.94287622
C      84.00019864      78.62576740      79.26946409
O      84.64081586      79.77472100      81.25934590
O      83.89248424      79.71613949      77.13218363
C      89.50686111      74.11310097      83.22088181
O      91.20950452      75.61921284      83.62339351
N      89.48607412      72.00983558      84.70242724
H      88.41081985      70.49049563      84.27912855
C      90.64258663      71.86243693      87.23466050
H      92.66270406      72.18369040      86.99088580
H      90.84478734      69.89334211      87.80157839
C      89.18371791      73.02461861      89.44564029
O      88.15192735      75.02205932      89.14139435
N      88.97584802      71.66590539      91.63961253
H      89.78654061      69.93491609      91.63394336
C      87.32989640      72.34620686      93.91862247
H      85.41182419      72.92446312      93.44241144
C      87.11446760      69.86877567      95.56457409
H      88.88325143      69.71759756      96.60770301
H      86.84612646      68.15290418      94.45530474
C      84.96584878      70.44325247      97.51099219
H      84.81089123      72.45770072      97.91350389
C      82.52621211      69.51350712      96.49053998
H      81.82890310      70.56797440      94.86159590
H      81.16371944      69.56830918      98.03255665
H      82.69817721      67.54819176      95.89716592
C      85.58945847      69.00328102      99.92984187
H      87.41115463      69.72515647     100.56290018
H      85.91638112      67.04363483      99.38182124
H      84.32523156      69.46626396     101.48886608
C      88.44861438      74.55529692      95.34158638
O      90.57833593      74.44947225      96.11259472
N      87.06155526      76.65667258      95.59858916
H      85.31166870      76.69257738      94.83325000
C      87.65114987      79.08308117      96.83635990
H      89.66370840      78.98292568      97.25398941
C      86.96139977      81.39421645      95.01655346
H      87.05210663      83.11764685      96.14094061
H      85.00175358      81.22036163      94.40428213
C      88.64325619      81.43012125      92.71297708
H      88.55632878      79.64621961      91.68685569
H      90.52542360      81.97436243      93.34981485
C      87.99696979      83.48803321      90.88750146
H      88.30877463      85.28894238      91.84370298
H      86.02976470      83.19701535      90.35648837
N      89.28765286      83.54661472      88.42518808
H      91.14336410      83.99259013      88.47243123
C      88.69616853      82.79450365      86.11216307
N      86.57589560      81.54350483      85.49989174
H      86.40393051      81.13910340      83.64229078
H      85.31166870      80.91044652      86.78301591
N      90.15314751      83.38787771      84.31125389
H      89.75441526      82.78505502      82.54435979
H      91.59878814      84.59730255      84.60983065
C      86.15259691      79.37409902      99.24387122
O      83.85468971      78.96780787      99.31379109
N      87.59067863      80.08652584     101.23564275
H      89.40292617      80.44179439     100.74809336
C      87.09746006      80.08841557     103.93039247
H      85.46662626      78.83363730     103.98519454
C      89.33489602      79.07930172     105.49319614
H      89.42371316      79.99959843     107.33189984
H      90.92037640      79.56685111     104.27243294
C      89.40292617      76.15400539     105.91838456
H      87.54532520      75.53795461     106.56467095
C      89.62591387      74.72915175     103.35591568
H      91.39469770      75.29229019     102.46207513
H      88.09712528      74.93891137     101.98964355
H      89.67882621      72.71848295     103.80567054
C      91.32099837      75.28851073     107.88936910
H      93.10301029      75.87243616     107.03710253
H      91.24351959      73.24571659     108.13503352
H      90.99218600      76.11810059     109.74697007
C      86.03921333      82.58663375     104.76187205
O      84.66160285      82.92489477     106.64403946
N      86.45495312      84.58407447     103.27087799
H      87.73807728      84.18345249     101.91783395
C      85.41371392      87.14654335     103.55811639
H      84.28554731      87.31472899     105.27209816
C      87.46784642      89.21390393     103.87181096
H      86.56833670      90.79938431     104.82423302
H      88.10468419      89.80160882     102.00098191
C      89.79787897      88.35407846     105.43272489
H      90.31755370      86.57017682     104.54077407
H      89.36513164      88.23124625     107.44339369
C      92.18082385      89.89609513     105.13225841
H      93.78709121      88.93611417     105.99208388
H      91.88980599      91.51559058     106.37191887
C      92.71561639      90.79371513     102.55278199
H      91.63091349      92.48124073     102.08224014
H      92.29609715      89.31783888     101.17706124
N      95.46705790      91.45700907     102.22396961
H      96.34956009      92.23557631     103.72630203
H      95.82799563      92.58139622     100.72352692
H      96.45160531      89.92066158     101.67027980
C      83.59768693      87.84007291     101.31312153
O      83.76209312      86.88765084      99.19095888
N      82.04433190      89.87719787     101.76476612
H      81.97252230      90.59907332     103.52977050
C      80.28121725      90.93922406      99.85803227
H      79.40438424      89.23091147      99.11159038
C      77.97575115      92.47935100     101.11658999
H      78.68817797      94.28781909     101.80067092
C      76.06145840      92.90831888      98.81490335
H      74.47786775      94.01380877      99.53110962
H      75.23375827      91.14898368      98.14027105
H      77.01010101      93.86452039      97.25398941
C      76.51499271      91.15654258     103.23119374
H      77.79055797      90.45734385     104.69006245
H      75.40572337      89.54082659     102.59813542
C      74.56101570      92.81761201     104.51809736
H      73.07380110      93.38452991     103.21229648
H      75.44351789      94.50702734     105.29855433
H      73.70496968      91.73479884     106.04499622
C      81.70040171      92.14108999      97.70374427
O      83.31989716      93.69255530      97.96641623
N      81.09190984      91.38330974      95.36048365
H      79.69351237      90.11341366      95.08458360
C      82.21251755      92.34140098      93.00210521
H      83.04588685      94.16876633      93.46319843
C      84.17405346      90.53482263      91.94952765
H      85.36458104      89.73924785      93.43107308
H      85.45528790      91.42677345      90.60404252
C      83.02509986      88.18778255      90.71364664
C      82.63959569      87.69267425      88.09826542
H      83.30666908      89.17044023      86.86049469
C      81.28844138      85.44767939      87.19497625
H      80.73664129      85.34563417      85.23155061
C      80.20373847      83.75826407      88.91840664
O      78.82234854      81.83641241      88.29668669
H      79.10013831      81.56618155      86.52412341
C      80.77821527      84.11920179      91.57347211
H      80.10169325      82.73214268      92.90950862
C      81.99897847      86.34718912      92.41251060
H      82.28999632      86.78560562      94.38538487
C      80.09413435      92.93855450      91.09348163
O      77.97953060      92.22990713      91.36560222
N      80.74797965      94.43143828      89.12627654
H      82.53944020      95.09095277      89.15651216
C      79.06423351      95.14197538      87.06269540
H      77.10269759      94.92087740      87.65229001
C      79.31367738      97.94821895      86.25578227
H      78.91116568      97.99735184      84.23566484
H      81.29789001      98.35828956      86.62805835
C      77.76788126      99.83605554      87.73543797
H      78.44251355      99.83038636      89.68185607
H      75.74587410      99.43732329      87.75244551
C      78.12503953     102.58938678      86.78679536
H      78.43117519     102.59316623      84.74778067
H      79.93350761     103.28480606      87.47843519
C      76.14649608     104.55281242      87.50678109
H      76.89104825     106.34805241      86.82270016
H      76.01232551     104.69454189      89.55902386
N      73.76355120     104.14841099      86.08948635
H      74.04134097     103.58338282      84.28668745
H      72.70719419     105.69609684      85.73610753
H      72.61648733     102.87284573      86.92663511
C      79.71807881      93.39775799      84.85360534
O      81.92716887      93.14453467      84.20542922
N      77.79811688      92.03148587      83.90118328
H      76.00476661      92.22423795      84.52290324
C      77.89638265      89.89420541      82.14184809
H      79.82012403      89.16477105      82.27979811
C      76.25610021      87.80605783      83.29836059
H      74.36259444      88.45801341      83.78402025
H      77.15938938      87.42622284      85.10871840
C      76.36570433      85.26437594      81.88673503
O      78.37448340      84.54061076      81.06281436
O      74.29834375      84.15132714      81.41241373
C      77.26332433      90.70489800      79.30347916
O      77.03277772      93.02359218      78.93687226
N      77.32757503      88.94745252      77.43076039
H      77.51087848      87.06717484      77.70288098
C      77.45040724      89.54649577      74.71522368
H      79.30800820      90.41199042      74.51113323
C      77.44851751      87.19945569      73.09761795
H      76.98742429      87.51126053      71.11718478
C      79.95618433      85.94089796      73.43587896
H      79.95807405      83.96991342      72.83494599
H      80.59491182      85.90310343      75.39363542
H      81.48686264      86.88009194      72.42487538
O      75.47186379      85.53838626      73.82327286
H      73.83347107      86.03727400      73.22422961
C      75.48509187      91.42299399      73.68910229
O      75.70618985      92.21856877      71.56693964
N      73.30623743      92.01069888      74.98167509
H      73.25332510      91.14709395      76.68053904
C      71.19163369      93.53948747      74.09350372
H      71.47887209      94.04404439      72.11685000
C      68.60648809      92.41132086      74.27302772
H      67.13250157      93.67743749      73.59083652
H      68.17752022      92.20534069      76.27613761
C      68.53656822      90.00380953      72.60628911
H      69.16773681      90.45923357      70.69955526
H      66.52589942      89.65043071      72.31905071
C      70.05968763      87.74558659      73.62863105
O      70.86660076      86.22246718      71.97512052
O      70.47164796      87.43756120      76.01346565
C      71.34848097      96.09817689      75.58827723
O      69.96520131      97.91609361      75.04592578
N      72.87537983      96.20778102      77.52713643
H      73.87126560      94.66954380      78.05625980
C      73.31001688      98.48112177      79.08994009
H      73.03978602     100.14786038      77.91075087
H      75.29233979      98.57938754      79.64551963
C      71.68485226      98.48490123      81.51634868
O      71.41651112     100.42753988      82.61427966
N      70.71542266      96.34951049      82.31759263
H      71.06691175      94.90575959      81.11950615
C      69.33025327      95.92243235      84.71187587
H      68.82947580      97.78759222      85.42808214
C      67.13439129      94.28403963      84.43030665
H      65.99110687      94.23112730      86.14239869
H      67.87138456      92.37919551      84.14495798
C      65.58859517      95.01725344      82.07192821
C      64.66829846      93.07839424      80.43731495
H      65.25978279      91.16032204      80.80014240
C      63.37383593      93.77948271      78.27735778
H      62.66329884      92.39620305      76.95643908
C      62.75778515      96.27203171      77.78980839
O      61.28379863      97.01280443      75.78669849
H      60.93419926      98.78536771      75.63741012
C      63.41352018      98.16364775      79.55103331
H      63.19242220     100.16864737      79.24489765
C      64.91018342      97.53058944      81.54658430
H      65.44875542      99.00835541      82.85049545
C      71.16517752      94.85662671      86.74522138
O      72.97742505      93.51492102      86.22365692
N      70.65117196      95.48779529      89.16407106
H      69.00144089      96.36840776      89.54012660
C      71.77366939      94.39931294      91.39961729
H      73.81079436      94.64119791      91.22765220
C      71.21808986      96.05471319      93.75799573
H      72.00799545      94.97378974      95.32268912
H      69.19986215      95.94132961      94.15294853
C      72.28200577      98.74190400      93.73909847
C      70.70408430     100.86217693      93.93374028
H      68.68585660     100.57493853      93.81846697
C      71.50910771     103.31882113      93.69374504
H      70.18818902     104.87217616      93.72020121
C      74.17929099     103.90274657      93.58036146
O      75.00132193     106.40096475      93.72776011
H      73.58402720     107.51779300      93.91862247
C      75.85358850     101.85617297      93.57469228
H      77.86236757     102.17553672      93.75421628
C      74.91061507      99.26157874      93.51422104
H      76.12948854      97.63641411      93.31391005
C      71.29934809      91.62141526      91.76055502
O      69.16395735      90.68600073      91.55079540
N      73.22875865      90.32695273      92.36337771
H      74.88037945      91.28126452      92.42195923
C      73.43662855      87.53771670      92.43329759
H      71.58091731      86.90087893      93.06257645
C      74.07346632      86.67222204      89.71587115
H      76.08791456      86.82340015      89.30957999
C      73.45363608      83.97936205      88.94864227
H      74.04701015      82.85308517      90.57002744
H      74.33424855      83.48425375      87.15340227
H      71.40139331      83.82818394      89.02990050
O      72.65995103      88.06495034      87.87527772
H      73.20041276      89.79593964      87.87338799
C      75.23753772      86.48891859      94.45530474
O      77.00632155      87.69078453      95.29245350
N      74.79156231      84.14187851      95.24710007
H      73.35159086      83.04772698      94.63104929
C      76.37515296      82.79261392      97.25398941
H      78.20629776      83.73558735      97.21052571
C      75.14872059      82.93812285      99.81834802
H      74.86715137      84.94690192     100.18117547
C      72.41428661      81.79294870      99.80700966
H      71.27100219      82.63198719      98.31034642
H      71.53745360      82.24837274     101.61358801
H      72.21964480      79.75771346      99.56701442
C      76.56979477      82.17089397     102.18428536
H      76.85703317      80.13376900     102.10491686
H      75.40005419      82.31640289     103.87181096
C      79.09446913      83.44267977     102.77199024
H      80.64593443      82.53183169     101.76854557
H      79.59713633      83.29528112     104.76376178
H      78.95840883      85.46279720     102.38837580
C      76.76632631      80.08274639      96.50943724
O      75.29045006      79.03394829      95.15639320
N      78.64660399      78.79395304      97.57713261
H      79.74831443      79.65755797      98.87159513
C      79.16438900      76.02739372      96.96297156
H      77.39938463      75.05607440      97.39382916
H      80.62136799      75.13355318      98.11192516
C      79.75965279      75.55496214      94.20964032
O      81.82701338      76.26360951      93.42162445
N      77.93795663      74.63466543      92.71108735
H      76.49609545      73.70492008      93.55012584
C      78.03811212      74.80474080      89.97098420
H      79.42328151      76.26171979      89.52122934
C      79.13604311      72.51061305      88.56691755
H      78.12881898      70.80985937      89.14895325
C      79.11336639      72.87533023      85.67941574
H      80.31901178      71.52417592      84.70242724
H      79.86925692      74.73104147      85.19753553
H      77.28789077      72.39911920      84.85171562
C      81.96307367      71.98148969      89.11682791
H      82.06322917      71.25772451      91.04245902
H      83.19328550      73.62177213      88.92218610
C      83.06856356      69.61177289      87.77323250
H      81.65504828      68.10944047      87.78646058
H      84.78632478      68.94280978      88.69352921
H      83.72051914      70.27506683      85.93452880
C      75.38304665      75.68724299      89.03367995
O      73.54056349      74.38333183      89.18296833
N      75.41517200      77.78861865      87.68819481
H      77.01388046      78.82607839      87.64473111
C      73.61804227      78.46514067      85.76634315
H      73.32135524      77.10075827      84.25078265
H      74.44763213      80.16022517      84.94242248
C      70.80235007      78.96024896      86.80758235
O      69.15639845      79.59519700      85.28446294
N      70.20519655      78.44435368      89.17162997
H      71.57713786      77.54862340      90.14861847
C      67.69752973      78.97914622      90.35648837
H      66.40306721      78.18357145      88.96753953
C      67.50288792      77.53350559      92.90950862
H      68.90506485      78.21947625      94.25499375
H      67.89217155      75.55874160      92.48054074
C      64.85349163      77.85475907      94.05846222
N      63.11872288      76.04818071      93.88082794
H      63.30769551      74.37199347      92.98509767
C      60.98711160      76.84753494      95.19796718
H      59.25612229      75.78739848      95.42284461
N      61.58048566      79.06040445      96.20897076
H      60.35216356      80.16589435      97.16706200
C      63.92374629      79.74637511      95.42284461
H      64.91585260      81.43768016      95.98976251
C      67.26100296      81.95546517      90.75900007
O      68.40617710      83.06284479      92.40873114
N      65.39773281      83.10630849      89.31902862
H      64.36594225      82.06506929      88.09637570
C      64.50578199      85.66121847      89.52122934
H      66.06102675      86.90087893      88.98265734
C      62.44787004      86.06939935      87.30458037
H      61.10805408      84.51793405      87.50111191
H      63.56091884      85.83318356      85.58681915
C      60.72443964      88.44289560      87.47087629
H      59.75312032      88.41265998      89.28879300
C      62.09260149      90.92221652      87.67118728
H      62.90518381      91.16410149      89.54768551
H      60.70932183      92.42265921      87.40095641
H      63.53824212      91.07339463      86.21042884
C      58.81581606      88.49769766      85.31091911
H      58.14685295      86.61741998      84.80636219
H      59.61706002      89.41799438      83.64984968
H      57.17553362      89.68066633      85.71154109
C      63.75367092      86.32640213      92.21597906
O      62.34960427      84.90532794      93.34603540
N      64.60971694      88.47880040      93.20430592
H      66.01000414      89.39531766      92.28778866
C      63.83870860      89.37642040      95.74031863
H      62.68408583      87.89676469      96.59258520
C      66.06858565      89.92066158      97.36737299
H      65.22387799      90.71623635      99.07190612
H      67.42729887      91.30772069      96.68329206
C      67.52367491      87.67566672      98.47286288
H      68.10193117      86.53616175      96.85714688
C      69.90095062      88.56005863     100.09613779
H      69.41907041      89.43878137     101.89515724
H      71.00455078      89.82806499      98.90372048
H      71.20297205      86.98780634     100.37581728
C      65.83048014      86.10152470     100.05645353
H      66.98132346      84.80328272     101.16194343
H      64.74199778      84.89587931      98.79033690
H      64.22799222      87.01426251     100.97297079
C      62.06236587      91.59306936      95.36048365
O      59.76634840      91.54771593      95.87259948
N      63.12061260      93.55649500      94.28900883
H      64.62105530      93.16154220      93.17973948
C      61.47655071      95.68999601      93.44997034
H      59.58871413      95.00780481      92.99832575
C      61.17986368      97.67231891      95.49465421