 %block lattice_cart
   140.777   0.000   0.000
   0.000 144.511   0.000
   0.000   0.000   162.462
 %endblock lattice_cart

 %block positions_abs
N      93.50930144      44.79305236      83.05364103
H      93.03875959      42.96190756      82.79285880
H      93.12190755      45.01415034      84.90935227
H      95.37824077      44.90265649      82.68703413
C      92.25074372      46.64687387      81.38501270
H      92.61168144      48.49880566      82.21271282
C      93.13135618      46.48246768      78.57687940
H      92.33200195      44.85352360      77.59989089
H      95.13824552      46.32939985      78.13468344
C      92.09578616      48.72746254      76.98950930
H      90.10590435      48.44211387      76.53786471
H      93.12190755      48.75958789      75.20182820
S      92.42837799      51.87574658      78.43703965
C      90.35723795      53.80893660      76.46416538
H      90.14369888      55.62307386      77.41658744
H      88.49207808      52.93399332      76.45093730
H      91.26241686      54.23979420      74.66514593
C      89.44827960      46.25192107      81.66658192
O      88.55821850      44.11086116      81.28485720
N      88.10279446      48.23802343      82.44892861
H      88.97584802      49.93688739      82.40735463
C      85.32489678      47.97724120      82.88545539
H      84.43861514      46.73002183      81.50784491
C      85.05277619      46.59585126      85.50839551
H      86.47007093      45.11052638      85.67847088
H      83.18194714      45.73791552      85.60666128
C      85.26253581      48.47990840      87.68347050
O      83.42383211      49.77059147      88.48471446
N      87.45650806      48.99958313      88.76061450
H      87.31288886      49.69500242      90.53506751
H      89.05710625      48.30038440      87.99338562
C      83.81500546      50.57750461      82.49239232
O      84.86380356      52.46723092      81.63067712
N      81.34513317      50.58695324      83.22938558
H      80.56278647      48.98446532      83.90779733
C      79.76721169      52.88297071      82.87033758
H      79.96185350      53.45555778      80.90313249
C      76.86081262      52.36140624      83.45804246
H      76.31846117      50.95544987      82.05586554
C      76.46397010      51.31260814      86.17924836
H      77.16694829      52.41431858      87.76850818
H      77.31623667      49.44933800      86.37766962
H      74.45519103      51.25591635      86.63278267
C      74.92762261      54.68954906      82.97427253
H      75.29045006      56.10495407      84.42558234
H      73.05112438      53.89397428      83.27473901
C      75.15250004      55.82338485      80.21905156
H      77.09135924      56.43754590      79.90346727
H      73.91472930      57.45988784      80.03196866
H      74.65172257      54.31727298      78.90380205
C      80.81412007      55.07883268      84.36322137
O      80.52499195      57.26713575      83.70181716
N      82.13503876      54.69899769      86.43814086
H      82.37692373      52.90564742      87.04474301
C      83.33690470      56.52825276      88.07464385
H      82.23330453      58.25924207      88.22960140
C      83.59579720      55.45866767      90.86387989
H      84.58601379      56.89296994      91.95992115
H      84.75419943      53.75791399      90.92813058
C      81.22797013      55.14119365      92.33975614
C      81.50575990      54.84072717      94.94379899
H      83.34635333      54.93521348      95.82252173
C      79.34769245      54.61584974      96.60297870
H      79.58579797      54.44388464      98.62498585
C      76.91561469      54.71411550      95.46536346
H      75.18651511      54.37585449      96.49526430
C      76.68884753      55.28670258      92.90856376
H      74.85959246      55.24512860      92.00338485
C      78.75620812      55.68543483      91.36087791
H      78.58424302      56.04637256      89.35965774
C      85.85779960      57.55059470      87.22048755
O      85.94850646      59.85795053      86.92002107
N      87.61902452      56.04070338      86.46459703
H      87.22407173      54.17932296      86.59120869
C      90.04165366      56.79281445      85.44981400
H      91.04320860      58.00979819      86.77640187
C      91.59122923      54.49112780      84.93769817
H      93.27497538      54.90119841      83.82653910
H      90.62935854      52.96611866      83.94181240
C      92.71750612      53.18721664      87.25261290
H      91.14336410      52.90186797      88.55085488
H      94.16881593      54.41175929      88.05007741
C      93.85323163      50.50002583      86.69703337
O      96.16625664      50.27703812      86.56853198
O      92.26964098      48.75013926      86.27562440
C      89.54276591      58.36884619      82.98750061
O      90.84667707      60.30203621      82.59443754
N      87.68327522      57.53169744      81.52107299
H      86.75164015      55.92731980      81.97460731
C      86.71006617      58.81293188      79.29497540
H      88.20106023      58.82615996      77.87201148
C      84.78065560      57.27658438      77.82287860
H      83.11202727      57.22367205      79.02852399
H      85.55544339      55.39252725      77.51863266
C      83.97941165      58.41230990      75.10923161
H      85.51197969      58.02113655      73.79020265
H      83.69406297      60.44187596      75.30765288
S      81.06545367      57.04036860      74.05854378
C      80.60247072      58.13452013      70.91025975
H      78.78455401      57.47311592      70.20161238
H      82.10858260      57.25201794      69.81988766
H      80.82356870      60.18109373      70.87435495
C      85.64992971      61.51901996      79.83165767
O      86.63825657      63.40307709      78.95671439
N      83.83579245      61.87239878      81.62500794
H      82.84368613      60.33416156      82.16357994
C      82.86825257      64.46888273      82.31286832
H      82.66983131      65.39484863      80.48361325
C      80.14326723      64.28935873      83.69236853
H      79.63682058      66.08459873      84.56731181
H      80.39649056      62.72088589      85.00383859
C      77.94173608      63.66763878      81.95382032
H      78.52566151      62.07648922      80.78219001
C      75.49643023      62.96655031      83.42969657
H      74.04512042      62.63395848      82.00484293
H      75.05045482      64.60872248      84.58998853
H      76.11248101      61.18264867      84.25361724
C      77.25954488      65.97499460      80.29653034
H      78.85447389      66.42852892      79.07387742
H      76.68317835      67.43764277      81.62500794
H      75.63060080      65.58004180      79.10222331
C      84.75797889      65.92775145      83.91535623
O      84.68994874      68.24644563      83.62433838
N      86.48707846      64.77312867      85.36099686
H      86.12236128      62.97788867      85.90145859
C      88.60168221      65.97310488      86.41924360
H      87.83823278      67.38095098      87.71181640
C      89.86968856      64.17219570      88.35621307
H      91.03187025      62.74923179      87.42646772
H      88.37491505      63.25189899      89.43335707
C      91.29643193      65.47799658      90.58042094
H      91.91815189      63.97188471      91.84464784
H      90.03976393      66.71387759      91.64244713
C      93.76063504      66.98410845      89.99271605
H      94.75652081      67.35638454      91.75961016
H      93.30332127      68.81525325      89.16690566
N      95.57099285      65.64051305      88.23716031
H      95.53508805      63.74700728      88.47148637
C      97.16781158      66.50033852      86.44381004
N      97.54386712      68.87950395      86.01106271
H      98.81376320      69.43319376      84.69770293
H      96.71049782      70.20987127      87.09576562
N      98.54164261      64.83359991      85.41012975
H     100.03452640      65.21154517      84.28763232
H      98.12401310      63.02324210      85.84854625
C      90.27786945      67.26189822      84.63912141
O      90.65203526      69.50311363      84.93580844
N      91.30777029      65.97499460      82.63601152
H      90.45361399      64.29124846      82.34499367
C      92.72506502      67.21465506      80.66502697
H      94.31243513      68.04613464      81.68358946
C      93.74362751      65.31548012      78.76585203
H      92.21105947      64.01534842      78.31609717
C      94.37857555      66.39073439      76.19015506
H      92.76663900      67.08615368      75.11112134
H      95.34233597      65.13595612      74.87301582
H      95.69949424      67.90251544      76.64935856
C      95.72406068      63.54480657      79.86567274
H      95.28564418      62.87773318      81.76484769
H      97.47583697      64.59360467      80.13590361
C      96.19838199      61.09383154      78.38412731
H      97.72717057      61.43020282      77.04431136
H      94.60345298      60.81982122      77.11045178
H      96.73695399      59.46110800      79.51985283
C      91.21139425      69.33492799      79.45938159
O      92.42270881      71.27189746      78.83199245
N      88.75663977      68.87194504      79.06442879
H      87.94783690      67.27701603      79.73528163
C      87.26186625      70.81458369      77.70004639
H      88.20106023      71.59315093      76.03897696
C      84.50664529      69.73554997      77.08021616
H      83.17060878      71.30024335      77.03864218
H      84.14192811      68.48077169      78.67325544
C      84.39704116      68.35416003      74.53286509
O      85.82000507      69.14784508      72.88691347
O      82.92116491      66.51734606      74.24184724
C      86.63636684      73.24666146      79.13812811
O      86.71006617      75.29512478      78.03830740
N      86.39259215      73.30146352      81.60611068
H      86.26598048      71.58559203      82.43003135
C      85.44583926      75.38394192      83.19537051
H      85.20017484      77.02989353      81.98216621
C      83.07423274      74.47876301      84.45392823
H      82.59991144      75.66929059      86.06586478
H      83.13659371      72.46809422      84.90746255
C      80.72341321      74.38805615      82.76073346
H      79.32879519      73.25044091      83.76417813
H      81.17883725      73.37894230      81.02218525
C      79.50265001      76.94485585      81.98405594
O      80.82923788      78.65316844      81.26407022
O      77.16883801      77.06579833      81.75917851
C      87.10123952      76.12849408      85.37800440
O      87.01998128      78.40561429      86.08854149
N      88.44672465      74.28034175      86.49294292
H      88.16704516      72.55502163      85.72571404
C      90.17582423      74.50143973      88.69258435
H      91.53264772      76.04723585      88.58109050
H      91.31910865      72.81013468      88.96470494
C      88.64325619      74.96442267      91.15300801
O      86.36046680      75.29890423      91.07741896
N      90.07755846      75.13260832      93.23926586
H      91.91437243      74.64694865      93.06352131
C      89.12702612      75.68251867      95.73370459
H      87.07667307      75.68440840      95.54662169
C      89.84890157      73.58303274      97.59319529
H      91.84634229      73.08036554      97.55729049
H      88.98151720      71.84070508      96.92234244
C      89.27631450      73.94397047     100.41833612
H      90.63502772      75.31591177     101.13832185
C      86.59857232      74.86237745     100.68667726
H      86.17149417      76.54612360      99.57929764
H      86.23763459      75.20630764     102.68411797
H      85.46473653      73.26366899     100.05550867
C      89.65237004      71.38528104     101.75248290
H      88.42593766      69.84893355     101.13454240
H      89.36324191      71.77645438     103.75370307
H      91.66114911      70.94497481     101.87342538
C      89.69961320      78.42829101      96.51227183
O      91.97673340      78.88749450      97.02627739
N      87.90437320      80.08558098      96.61431706
H      86.32645173      79.65094393      95.63165937
C      88.06499993      82.82190468      97.26816236
H      90.05110229      83.32835134      97.46469390
C      87.17304912      84.46974603      94.99482161
H      87.51697930      86.48041483      95.28017028
H      85.18505703      84.20518435      94.52616948
C      88.82089046      83.91605622      92.60431782
H      88.42971711      81.94507167      92.15645268
H      90.79754418      84.21652270      93.09942611
C      87.74374646      85.70562704      90.49727298
H      89.42749261      86.28010384      89.45981323
H      86.81778057      87.30811495      91.40245188
N      85.93905783      84.49242274      88.82108574
H      85.31922760      82.74631563      89.27273033
C      85.18883649      85.28421807      86.49861210
N      85.92394002      87.27976906      85.27406945
H      84.83923712      87.91849655      83.83976718
H      86.96517922      88.51187061      86.29074221
N      83.64870954      83.56267740      85.48949825
H      82.43739497      84.02377062      84.08921105
H      83.34446360      82.10380869      86.68002583
C      86.88392099      83.56267740      99.87031549
O      84.60302133      83.88771032     100.06495730
N      88.37491505      83.25276228     101.85641785
H      90.14747833      82.68773412     101.43311915
C      87.51131013      83.11292254     104.46235043
H      85.85779960      81.88837989     104.36030521
C      89.74685635      82.23231007     106.17066302
H      89.26119669      82.65371904     108.12652975
H      91.23974014      83.62314864     105.89476298
C      90.69549896      79.45630212     105.72657734
H      90.68227088      79.02166507     103.71401881
C      93.33922607      79.30890347     106.64498433
H      93.46583774      79.62448776     108.67644011
H      94.60345298      80.68840368     105.78137940
H      94.11968304      77.40972852     106.47301923
C      89.04198844      77.38894153     107.05694466
H      89.24040970      77.73665118     109.07706209
H      89.78087143      75.53512002     106.55049801
H      87.15037240      77.13571821     106.27837742
C      86.41337914      85.72263457     105.56217115
O      84.98663577      85.59224346     107.41032348
N      86.99919429      87.82589996     104.38487165
H      88.34467943      87.75409036     103.03371734
C      85.57812011      90.33167705     104.74391965
H      84.37625417      90.27498526     106.41254799
C      87.40548545      92.57478219     105.20312315
H      88.50152671      92.77698290     103.47213385
H      88.80199320      92.16093212     106.66010214
C      86.22629623      95.06544147     105.54894306
H      84.82411931      94.70450374     107.01159123
H      85.16427004      95.46795317     103.83118185
C      88.04988212      97.12524315     106.34829729
H      89.22151244      97.47484251     104.69100732
H      89.17993846      96.25596904     107.83551190
C      86.90092853      99.72361683     107.09473919
H      85.93716811      99.50629830     108.90509700
H      85.54221531     100.19793813     105.61886294
N      88.71695551     101.69649110     107.50669952
H      89.65614949     101.18437527     109.08651072
H      88.12547118     103.50684891     107.64653927
H      89.96417488     101.73806508     106.06294862
C      83.75264449      90.88725659     102.54805768
O      84.31767266      89.95373179     100.52416080
N      81.58134895      92.08156362     103.04316597
H      81.09379957      92.19683692     104.88375940
C      79.95807405      92.90359456     100.97391566
H      78.95651911      91.22362787     100.33329844
C      77.72819700      94.81410787     101.80728496
H      78.65983207      96.59234033     102.26459873
C      75.82524261      95.47740180      99.68512231
H      77.08380033      96.44683140      98.37554198
H      74.39471979      96.66037047     100.57896286
H      74.98431440      93.88247279      98.68923655
C      76.42995503      93.87491389     104.24881136
H      77.50331957      93.05666240     105.80594584
H      75.25454526      92.30077187     103.62709140
C      74.99754248      96.00652517     105.52248690
H      73.60670391      96.83044584     104.24503191
H      76.39782968      97.34823085     106.22168563
H      74.09614303      95.19961203     107.19111523
C      81.55111333      94.16026256      98.73458998
O      82.68683885      96.15203410      99.08607907
N      81.43584003      93.07366993      96.45558005
H      80.30578369      91.55810943      96.18534918
C      82.39015182      94.07900433      94.03484064
H      83.61847392      95.70983814      94.29562287
C      83.98130137      92.14581431      92.77061374
H      85.46095708      91.33512172      93.95169268
H      84.77309670      93.17193570      91.16812582
C      82.44873333      89.98774686      91.90889854
C      81.64182020      90.14837360      89.40123172
H      82.21251754      91.73196425      88.24471922
C      80.06011927      88.29077263      88.35432334
H      79.12092530      88.64037200      86.57420115
C      79.51398837      86.10246956      89.72248519
O      78.34424778      84.09369049      88.67935627
H      77.75087372      84.68139538      87.06741972
C      80.40027001      85.97207845      92.27550544
H      79.68784319      84.35636245      93.29784738
C      81.83646201      87.89204038      93.42067959
H      82.62636761      87.50275676      95.25938329
C      80.07523708      94.98607296      92.45880889
O      78.07779637      93.75019195      92.44369108
N      80.36436521      96.93627052      90.86010043
H      81.81000584      98.08522411      91.33442174
C      78.44818273      97.70538913      89.03840427
H      76.58869204      97.55232129      89.91334755
C      79.10202803     100.35289569      88.24282949
H      79.74453498     100.72517177      86.32097783
H      80.69884677     100.84422453      89.44469542
C      77.03088799     102.32010078      88.75116587
H      76.15027553     102.00451649      90.58609012
H      75.53800421     101.76452125      87.44725471
C      77.80000660     105.16224916      88.13322536
H      78.67872934     105.41736221      86.28885248
H      79.29289039     105.44570810      89.52406393
C      75.72508711     107.00473231      88.38833842
H      75.26588362     107.02173985      90.39711749
H      74.11504029     106.19215000      87.39623210
N      76.49042627     109.39901555      87.20725947
H      77.99842787     110.08120675      88.16157126
H      75.08635962     110.69158835      87.29607661
H      76.92506332     109.19870456      85.35910714
C      78.38015258      96.09156285      86.70648200
O      80.45129262      95.72873540      85.64823526
N      76.16917279      95.40937165      85.60477156
H      74.65928147      95.70794841      86.73104844
C      75.63060080      94.08089406      83.26151093
H      77.10647705      92.77320345      82.67191632
C      73.09836754      92.58423082      83.81142129
H      71.60548375      93.97884884      84.07787270
H      73.32702442      91.43716694      85.50650579
C      72.36137427      90.97796345      81.57398533
O      72.91506408      88.64037200      81.38123325
O      71.29556863      91.97573894      79.72205354
C      75.38493637      96.07266559      81.18848116
O      74.40605814      98.17404125      81.67981000
N      76.21263650      95.38102576      79.03041371
H      76.65105300      93.52342479      78.99828837
C      76.60003039      96.92871161      76.68715309
H      78.19684913      98.19671797      76.97250176
C      77.19529418      95.05788256      74.39869452
H      75.60981381      93.76342004      74.17381709
C      77.70929974      96.38258071      71.78898248
H      78.13070871      95.04654420      70.27720143
H      79.36658972      97.60334390      71.86079208
H      76.26554884      97.75830146      71.26930775
O      79.44028904      93.67082345      74.76341170
H      79.25698559      92.08156362      73.90925540
C      74.30023347      98.39702896      75.81976871
O      74.47219857     100.57399367      74.99962749
N      72.02689272      97.27642125      76.12590437
H      71.80957419      95.55866003      76.92903805
C      69.56835878      98.53497898      75.81976871
H      69.34915053      99.40047363      73.96594719
C      67.49154957      96.52808963      75.96527763
H      65.68875066      97.40681237      76.43204003
H      67.76178043      95.46039427      77.70760529
C      67.39139407      94.72907018      73.80343073
H      66.00433496      93.25886311      74.20594244
H      69.15261899      93.67838235      73.61256837
C      66.89061660      96.10479094      71.20316732
O      65.30513622      97.85845696      71.05009949
O      68.38350038      95.64936690      69.47595747
C      69.09592720     100.81965809      77.51863266
O      67.97909895     102.65647207      76.63046130
N      69.83669992     100.61556765      79.94693098
H      71.04423503      99.25118525      80.51573860
C      69.59103550     102.78308373      81.72138398
H      67.97909895     103.92825787      81.14501746
H      71.24454602     104.01140583      81.66091274
C      68.90317512     101.96483223      84.49739194
O      69.32458409     103.31787627      86.35688263
N      67.99421676      99.62346133      84.76573307
H      67.41785024      98.81276874      83.13489927
C      67.30068721      98.35545498      87.14300877
H      66.09315209      99.63857914      88.21070414
C      65.86449521      95.92337721      86.51184019
H      65.39773281      94.72151128      88.11999728
H      67.36493790      94.83678458      85.61233046
C      63.75556064      96.02731216      84.51817893
C      63.25289345      93.96562075      82.93647800
H      64.36783197      92.26108762      83.05931021
C      61.46521235      94.13191667      80.85777906
H      61.02679585      92.52753903      79.67292066
C      59.99878473      96.24841014      80.62912217
O      58.33960503      96.50163346      78.61845338
H      57.74812070      98.21561523      78.51640816
C      60.35405328      98.27797620      82.24105872
H      59.13895926      99.91447919      82.16924912
C      62.17008027      98.20427687      84.30086040
H      62.28913303      99.76708053      85.60855101
C      69.57213824      97.64869734      88.84565218
O      71.78878720      98.17971043      88.16535071
N      68.98821281      96.61501704      91.09064704
H      67.12305293      96.44494167      91.45347449
C      70.81179870      95.77975801      92.95202746
H      72.69207638      96.30888138      92.29062325
C      70.50377331      97.24996508      95.43512784
H      71.75666185      96.61312732      96.94123971
H      68.65751070      96.84367393      96.25337933
C      70.98943297     100.11856963      95.32930316
C      68.95608746     101.60389451      94.32585849
H      67.23076733     100.73273068      93.67390291
C      69.20742106     104.24573189      94.30696123
H      67.72776535     105.42303139      93.53784262
C      71.50532825     105.40035467      95.20647095
O      71.86626598     107.91369067      94.91923255
H      70.83636514     108.48249829      93.53973234
C      73.51977650     103.88857362      95.85464708
H      75.26588362     104.87879021      96.22881289
C      73.31190661     101.25618487      96.04361971
H      74.76321642      99.96172234      96.66156021
C      70.64928223      92.89036648      93.56240906
O      68.61026754      91.83211974      93.58697550
N      72.67884829      91.67338273      94.29940232
H      74.27944648      92.70706303      94.36932220
C      73.08702918      88.91627204      93.86665500
H      71.44674674      88.01865204      94.73214965
C      73.50087924      88.37203087      91.00371963
H      74.63282530      86.65237992      90.91301277
C      71.29178918      87.95251162      89.32186321
H      69.82536156      89.35468855      89.66957286
H      70.45275070      86.14404354      89.84342768
H      71.75288240      87.82589996      87.31875332
O      74.88793835      90.33734623      89.90200919
H      76.06523785      90.98930181      91.11899294
C      75.33391376      88.05266712      95.64866691
O      76.87593044      89.58145571      96.28361495
N      75.47753296      85.65271470      96.55006636
H      74.08858412      84.43384123      96.07763478
C      77.52221683      84.64549058      98.22058442
H      79.27966231      85.63570716      97.80295491
C      76.76821604      85.24075436     101.11375541
H      75.94807482      87.13048068     101.15910884
C      74.78400341      83.63826645     102.36475423
H      72.86215175      84.05022679     101.74870345
H      74.76132669      83.76676784     104.42266618
H      75.18840484      81.64838464     102.01326513
C      79.14360201      85.39760165     102.78994265
H      80.68561868      86.37081070     101.82996168
H      79.78043978      83.44929382     102.99781254
C      78.79400264      86.71852034     105.30516837
H      80.59491182      87.34024030     106.08940479
H      78.07212719      85.39571192     106.71112475
H      77.50142985      88.31911853     105.21635123
C      77.95307443      81.90160797      97.83885971
O      76.34869679      80.63549134      96.62754514
N      79.92027953      80.86603795      98.95379823
H      81.38103797      81.70507643      99.85141823
C      80.19240011      78.07491219      98.98781330
H      78.35369641      77.30390385      99.50748804
H      81.53221607      77.51744292     100.44857174
C      81.07868176      77.14894629      96.31007112
O      82.57156554      78.35459168      95.03450586
N      80.40215974      74.78867813      95.74504295
H      79.48375275      73.88349922      97.14910960
C      80.50042550      73.79279236      93.12777201
H      82.00464765      74.85292882      92.20558557
C      81.24686740      70.93174672      93.04651378
H      79.66138702      69.96798630      93.93846460
C      81.33001536      69.68641708      90.38577913
H      81.63615102      67.65307157      90.48215517
H      82.92116491      70.59537544      89.44091597
H      79.54233426      70.07192125      89.43524679
C      83.85468971      70.43096925      94.51672085
H      84.38381308      71.98810373      95.75827104
H      85.40048583      70.42341034      93.15422818
C      83.80555683      67.93086134      96.04172998
H      83.75264449      66.34349123      94.72648047
H      82.09724424      67.92519216      97.19068358
H      85.44583926      67.77212433      97.27383154
C      78.01921485      74.56569042      91.71992591
O      76.11815018      73.51311287      92.09787117
N      77.97197170      76.82202364      90.54829559
H      79.53666508      77.90672654      90.68435589
C      75.80256589      78.16750878      89.16501593
H      75.41517200      76.93540722      87.56063829
H      76.67372972      79.95518987      88.62077475
C      73.34781141      78.76655202      90.58797984
O      71.54879196      79.47330966      89.36154747
N      73.12104425      78.67206570      93.11265420
H      74.59881023      78.69474242      94.31829959
C      70.68140758      78.90261231      94.32018931
H      69.48332110      77.57413471      93.29784738
C      70.81179870      77.73287172      96.92801162
H      72.06657697      78.77033147      98.19223853
H      71.47131318      75.78267417      96.83352531
C      68.26066817      77.69507720      98.25459950
N      66.84337344      75.55779674      98.61553722
H      67.11360430      73.85326360      97.79728573
C      65.07836906      76.07369202     100.25392993
H      63.53068321      74.90395143     100.88509852
N      65.30702595      78.39805539     100.99659238
H      63.94264355      79.04245206     102.16444324
C      67.45753449      79.46008157     100.04417031
H      68.07358527      81.40272022     100.13487718
C      69.59292523      81.60870039      94.31263041
O      70.83447541      83.29811571      95.41623057
N      67.22698788      82.14160321      93.18257407
H      66.15929251      80.81312561      92.32085887
C      66.28023500      84.75509470      93.16178708
H      67.89028182      86.02121133      92.96336582
C      64.58326077      85.16894476      90.87521824
H      62.91085298      83.98975555      91.11899294
H      65.64339723      84.38470834      89.28973787
C      63.81981134      87.85802531      90.09665100
H      65.12372249      89.13737002      91.04907306
C      63.72532502      88.20573495      87.28662797
H      65.47521159      87.35157866      86.61199568
H      63.93508464      90.22207293      86.91624162
H      62.08315286      87.32512249      86.40979497
C      61.21765821      88.76698366      90.97726346
H      60.72254991      90.53954695      90.05507702
H      60.95120680      88.75753503      93.02005761
H      60.14429366      87.18906219      90.20058595
C      64.94419850      85.50531605      95.64866691
O      63.56469829      84.05967542      96.72770063
N      65.20498073      87.90904792      96.21936426
H      66.28212472      88.94461794      95.03450586
C      64.38861896      89.07122960      98.70813381
H      63.78012709      87.61991979     100.03661141
C      66.64117272      90.30144143      99.95535318
H      66.02512195      91.65448547     101.38398627
H      67.71453727      91.29921692      98.51160227
C      68.45530998      88.48163499     101.22902871
H      68.82758607      86.80166830     100.10086210
C      70.86282131      90.10679962     101.55406164
H      72.14594547      89.21673853     102.89576732
H      70.51511167      91.99085675     102.31184189
H      71.68863171      90.46773735      99.70212985
C      67.55768999      87.62747870     103.81228458
H      67.08903786      89.34901937     104.84029570
H      69.07136076      86.40671550     104.48880660
H      65.94764317      86.36136207     103.57795852
C      62.03590970      90.87591823      98.44924131
O      60.25200806      90.51498050      99.99692716
N      62.15874191      92.53509793      96.51983074
H      63.84437778      92.71273221      95.64110800
C      60.23689025      94.34923519      95.86031626
H      58.29992078      93.66515427      96.02661217
C      60.44287042      96.69438555      97.63476926