 %block lattice_cart
   140.777   0.000   0.000
   0.000 144.511   0.000
   0.000   0.000   162.462
 %endblock lattice_cart

 %block positions_abs
N      90.74652158      44.84596469      83.01017733
H      90.28164889      43.47969257      81.76106823
H      89.94338788      44.62108726      84.72793855
H      92.61924035      44.99336335      83.35788697
C      89.75441525      47.19489450      81.65713329
H      90.26086190      48.84651530      82.78152044
C      90.74274211      47.39142604      78.92080959
H      89.97551323      45.98546966      77.62634706
H      92.79498489      47.20056368      78.89813287
C      89.95094679      49.71012022      77.51674293
H      87.89492456      49.61563391      77.42603607
H      90.77486746      49.64020035      75.63079607
S      90.94872229      52.63541656      78.96238356
C      90.08700709      54.73112304      76.45660647
H      88.18972186      54.24168392      75.82543788
H      91.41170523      54.50057643      74.89191309
H      90.14180916      56.68698977      77.09911342
C      86.87447235      47.31205753      81.67981000
O      85.62158381      45.78704840      80.44014954
N      85.79921809      49.05627492      83.06686912
H      86.95195114      50.09373466      84.17991791
C      83.01754095      49.58350856      82.90813211
H      82.13881821      48.36274536      81.50028600
C      81.90071270      48.48746730      85.24194410
H      82.16338465      49.80082709      86.80663749
H      82.90604709      46.79049307      85.83720789
C      79.01888007      47.82984254      85.08509682
O      77.66205658      48.23235425      83.15946571
N      78.01543541      46.91899446      87.14111905
H      76.26365910      46.16499366      87.11277315
H      78.94140129      46.74513964      88.80218848
C      82.19739974      52.36329597      82.38089846
O      83.78665955      54.13585925      81.96137922
N      79.84280075      53.00769264      82.48483341
H      78.59747111      51.61307462      82.87978621
C      78.94518074      55.51913891      82.28263270
H      79.65571783      56.16542531      80.46282626
C      75.92161864      55.54370535      82.47727451
H      75.12793360      54.22845584      81.10344348
C      75.20352264      54.61018055      85.08887627
H      73.22686892      54.13019007      84.76384335
H      75.37359801      55.97078350      86.62522376
H      76.24665157      53.04359744      85.92413530
C      74.61014858      58.06648998      81.89712853
H      75.32446513      59.64819090      83.00450815
H      72.59003115      57.91531187      82.26751489
C      75.10336716      58.81293187      79.20993771
H      74.25488003      57.52791798      77.84366559
H      77.10836676      58.96977916      78.75262394
H      74.21141633      60.57037734      78.61467392
C      80.22074600      57.31059945      84.26684532
O      80.97285708      59.42520320      83.65457400
N      80.56278646      56.39597192      86.57987033
H      79.60847469      54.80482236      87.02017656
C      81.83079283      57.74334678      88.57920077
H      80.82545842      59.48189499      89.04218372
C      81.83835174      55.89708417      90.89600523
H      82.79266351      56.86084459      92.44747053
H      82.79455325      54.07727773      90.75238603
C      79.19273490      55.20733407      91.84086839
C      77.98331006      52.83950700      91.58197588
H      78.97730609      51.17843757      90.93191003
C      75.60792407      52.36707542      92.48148561
H      74.81234929      50.50002582      92.68935550
C      74.05456904      54.33805996      93.31485491
H      72.07602560      54.15286679      93.77783786
C      75.10903633      56.86273432      93.48870973
H      73.92417793      58.42364825      94.06318653
C      77.69607165      57.24445903      92.78384182
H      78.58235329      59.06993465      92.99927062
C      84.57089597      58.54648046      88.05763631
O      85.58945847      60.01857726      89.61288106
N      85.75764410      57.54681524      86.08665176
H      84.84679603      56.06904927      85.29107699
C      88.25586229      58.26113179      85.08320709
H      89.19505627      59.52346897      86.41546414
C      89.80354815      55.91409171      84.45392823
H      91.58178061      56.40542055      83.53741097
H      88.69427880      54.63663672      83.27851846
C      90.62557908      54.56671685      86.93702861
H      88.97395829      54.62151891      88.16724043
H      92.20728002      55.48323411      87.88756094
C      90.96384009      51.70945066      86.69892309
O      89.11757748      50.26758949      87.10710397
O      93.14836371      51.00458275      86.24349905
C      87.71162111      59.93164985      82.68892385
O      88.73585277      62.07459949      82.34121421
N      86.02031607      59.10206000      80.98628045
H      85.17749812      57.45610838      81.45493257
C      85.39103719      60.40975061      78.68081434
H      87.11068815      60.46644240      77.54697856
C      83.27832319      58.97544834      77.28997578
H      81.69284280      59.00190450      78.60711502
H      84.02098563      57.05737613      77.16525384
C      82.53566075      60.13196084      74.78419869
H      84.15893564      59.82771490      73.55398686
H      81.90449215      62.08026867      75.00907612
S      79.82201376      58.69576884      73.33666833
C      80.66672142      59.12095726      70.07311099
H      82.66605186      59.30237099      69.61201777
H      80.02988364      60.91430753      69.27942594
H      79.67461510      57.74523651      68.90526013
C      84.73341244      63.23489145      79.08710550
O      85.93338865      64.82793073      77.88523957
N      82.82100941      63.94353881      80.60077628
H      81.67394555      62.56025915      81.24139350
C      82.18984083      66.62128100      80.96927291
H      81.70040171      67.57559279      79.21182744
C      79.78043977      66.64395771      82.67191632
H      79.64060002      68.45242580      83.65079455
H      79.94484596      65.44209178      84.33676520
C      77.24253734      66.06381174      81.50595518
H      77.48820176      64.28746900      80.49306188
C      74.86715136      65.60838769      83.18025269
H      75.48887132      64.36116833      84.69770292
H      73.33647304      64.82415127      82.04830663
H      74.36448416      67.42441468      84.01362200
C      76.60380985      68.18030521      79.60678024
H      74.64605338      67.93464079      79.01718563
H      77.90772100      68.10093670      78.01374096
H      76.72853179      70.01333973      80.53274613
C      84.27420894      68.02534765      82.39223682
O      84.45940212      70.41396171      82.24861762
N      85.65559888      66.78190773      83.90401787
H      85.25308717      64.95832184      84.29708095
C      87.84957113      67.95920723      85.34587905
H      87.19950528      69.66751981      86.29452166
C      88.81711100      66.11483435      87.54741020
H      90.04165366      64.70320879      86.67624637
H      87.10879841      65.11705885      88.12755618
C      90.08322763      67.25811877      89.97759824
H      88.70183771      68.24077645      91.14733883
H      91.52508882      68.56202992      89.29918650
C      91.43249223      65.35894382      91.58764506
H      92.53042321      66.31325561      93.04840350
H      92.98773697      64.59927384      90.46892708
N      89.89425500      63.21032500      92.43235272
H      89.73740771      61.69287477      91.28717858
C      88.51286506      63.15174349      94.37310165
N      88.95317130      64.78446702      96.18723891
H      87.72862864      64.81470264      97.64988707
H      90.46306262      65.94475898      96.06440670
N      86.67983054      61.56815284      94.57530236
H      85.59890709      61.66830833      96.14377520
H      86.30566473      60.16975537      93.32997272
C      90.03976392      68.68864158      83.59032330
O      91.58744978      70.33648293      84.11944667
N      90.34023042      67.10505093      81.47760929
H      89.24985833      65.63673359      80.93147838
C      92.40570127      67.39795851      79.61811859
H      93.99307137      68.30880660      80.56487148
C      93.13324590      64.65029645      78.61656365
H      91.37202099      63.63929288      78.28019237
C      95.15525306      64.71265742      76.54920306
H      94.17826455      65.62161578      74.98073022
H      96.09633676      62.89096126      76.34889207
H      96.66892383      66.06948091      76.88935380
C      94.43904678      63.22922227      80.89746331
H      92.88002257      63.24811953      82.24294844
H      96.03964497      64.24211557      81.70437644
C      95.36879214      60.37006635      80.59510710
H      93.89858506      59.13796480      79.84677548
H      96.03775524      59.63874227      82.40168545
H      96.81254304      60.12440193      79.14568702
C      91.60823676      69.34626634      77.49973540
O      93.21450413      70.41585143      76.25440576
N      89.20450489      70.00956028      77.44871279
H      87.96295471      68.76045118      78.18381632
C      88.21806777      72.08447977      75.78575363
H      89.32166793      72.12983320      74.04720542
C      85.44205981      71.68952697      75.13190833
H      84.34412882      73.35248613      74.61412332
H      84.38948225      71.05457893      76.78541885
C      84.91293644      69.62405611      73.05698884
O      82.76809707      68.79446626      72.69605111
O      86.70817643      68.97776971      71.66804000
C      88.53176233      74.64316920      77.10478260
O      89.33111657      76.51021879      76.01063106
N      87.63225260      74.80190621      79.48961721
H      86.80833193      73.25988954      80.25684609
C      87.27509434      77.33224974      80.76518247
H      88.06499994      78.72686776      79.47071994
C      84.31578293      78.01255121      80.95226537
H      83.94917602      79.41661786      82.41113409
H      83.25564646      76.26833383      81.23761405
C      83.35958142      78.97631163      78.43703965
H      81.30355919      79.12371028      78.41247321
H      84.02665480      77.74421008      76.92903805
C      84.10224386      81.60681066      77.50918403
O      85.40804474      83.00142868      78.99261919
O      83.28588208      82.53088683      75.46827961
C      88.37113559      77.56846553      83.42213766
O      88.87758224      79.71141517      84.17424874
N      88.77931648      75.47464877      84.83187349
H      88.58845412      73.82491770      83.89078979
C      89.66370839      75.61070907      87.38489374
H      91.06777504      77.09981340      87.62866844
H      90.34023042      73.70397522      87.77795681
C      87.76075399      76.12093517      89.42201871
O      85.80110780      77.42673606      89.17635429
N      88.16326570      74.82647265      91.51961491
H      89.73551800      73.75121838      91.64244712
C      86.63636683      75.30646313      93.90633925
H      84.64459530      75.38772136      93.38855424
C      87.21273336      72.99910730      95.62599019
H      89.22907134      73.11249088      96.03039162
H      86.91415660      71.42496529      94.33152767
C      85.66315779      72.59659560      97.99948644
H      85.85024069      74.32002600      99.11253524
C      82.97974643      71.81046945      97.39099457
H      81.98008121      73.49232587      96.75037735
H      81.77788048      71.12827825      98.91789343
H      82.88714984      70.33837266      95.95291284
C      86.84234700      70.53112474      99.48859078
H      86.85935455      68.99666697      98.11664947
H      85.75386466      70.10404659     101.18367528
H      88.80199319      71.00733577      99.91566892
C      87.32989639      77.86326283      95.10820518
O      88.84356718      78.26010536      96.77116434
N      86.06755921      79.84558574      94.14255504
H      84.94506179      79.50543500      92.63455344
C      86.31322364      82.39104708      95.21402986
H      88.31444380      82.85214030      95.34820042
C      85.02632002      84.17872817      93.36965697
H      84.66160285      85.93806337      94.37310165
H      83.20273413      83.27543899      93.04840350
C      86.77242713      84.22786106      91.04907306
H      86.78565521      82.39860599      90.10232018
H      88.79443428      84.44328986      91.37221626
C      85.88614549      86.31222918      89.14044949
H      85.87291741      88.11313836      90.13822498
H      83.92838904      86.03065996      88.56408296
N      87.20328474      86.49931208      86.67624637
H      88.92293567      87.32512248      86.68947446
C      86.57211614      85.51476468      84.39534671
N      84.51798364      84.18250762      84.04574735
H      84.09090549      83.54378013      82.29775051
H      83.60713556      83.28866708      85.46304208
N      87.94216772      86.19884560      82.39979573
H      87.45272861      85.33335095      80.77085165
H      89.39914670      87.42905743      82.51128958
C      85.37591939      82.84647112      97.89177204
O      83.05722521      82.91828072      98.43601322
N      87.24107926      82.79922796      99.61709217
H      89.01175281      82.63104232      98.92356261
C      86.85935455      82.98820060     102.50648370
H      85.33056595      81.79011411     103.19434408
C      89.21395354      82.01688127     103.81984349
H      88.86435417      81.80712165     105.83618146
H      90.72951403      83.40960956     103.74236471
C      90.32133315      79.56023706     102.81072963
H      90.85990514      79.80968094     100.83974509
C      92.56065883      78.72497803     104.40187919
H      93.64914118      77.22264561     103.50803864
H      91.92382106      78.37915812     106.32940003
H      93.90425423      80.27077416     104.61919772
C      88.41081984      77.36248536     103.20757216
H      89.38780836      75.60315016     102.77104538
H      86.98974566      77.70641555     101.75626235
H      87.67760603      77.45319222     105.13131355
C      85.96929345      85.60736126     103.50614892
O      85.15671113      86.00420379     105.70579035
N      85.95039618      87.44606497     101.82429250
H      86.67227163      87.12670122     100.08763402
C      85.32678651      90.20506538     102.39687957
H      84.38381308      90.32600787     104.22424492
C      87.67949576      91.79810467     102.39121039
H      87.27131489      93.80688374     102.60852892
H      88.56955686      91.65448547     100.54116833
C      89.39914670      90.91560248     104.43589426
H      90.06433037      88.99186109     104.11842024
H      88.54876986      91.02520660     106.30672331
C      91.82744503      92.56533355     104.83273679
H      92.74018283      91.95873140     106.57695418
H      90.94305310      94.40403725     105.11808546
C      93.44316101      92.71651165     102.42900492
H      92.23562591      92.85446168     100.76604576
H      94.55243036      91.00441961     102.14932542
N      95.10045099      95.00308049     102.37987203
H      96.60467314      94.60812769     103.48725165
H      94.32755293      96.62446567     103.02426871
H      95.52374968      95.46795317     100.57707313
C      83.43517046      91.05355250     100.28794501
O      83.62414309      90.37325103      98.06940631
N      81.67583526      92.66170959     101.02871772
H      81.81756474      93.39492340     102.78616319
C      79.55934179      93.57066795      99.23347772
H      78.38393203      91.93227523      98.81584821
C      77.81134496      95.49818879     100.65644164
H      78.92061430      97.18004521     101.07785061
C      75.69296177      96.08400394      98.86498109
H      74.67250956      97.64302815      99.74559355
H      74.42873485      94.53631809      98.36420362
H      76.40916803      96.75485679      97.05462328
C      77.02332909      94.50797220     103.28694067
H      78.67683960      93.90703923     104.36030521
H      76.03122278      92.73918837     102.93356184
C      75.52666584      96.15203409     105.04249641
H      76.72286260      97.68460213     105.73035679
H      75.10714660      94.98985241     106.69222748
H      73.79000737      96.55076634     104.01070584
C      80.59680155      94.61379687      96.63132459
O      82.38448264      96.07833477      96.67289857
N      79.45918631      93.90137005      94.53561811
H      78.12692925      92.53320820      94.56774346
C      79.99775830      94.89536609      91.99771567
H      81.08435094      96.64714239      92.02039239
C      81.50575990      92.83367469      90.52183942
H      83.29533072      92.69194521      91.53095327
H      81.95929421      93.56121932      88.64723092
C      80.41349809      90.35246404      89.94547290
C      79.71996853      89.78743587      87.39056292
H      79.79366787      91.30866555      86.03373943
C      78.67872933      87.54244101      86.71026145
H      78.27054846      87.21362863      84.73738718
C      78.25543064      85.73397293      88.56975214
O      76.95151949      83.61558973      88.04440822
H      76.51877217      83.69873769      86.28318330
C      79.15494036      86.15916135      91.10198540
H      79.12092530      84.54911453      92.35676367
C      80.39271110      88.50431170      91.75205125
H      80.85947351      88.72163023      93.72681525
C      77.38993600      95.30543670      90.73348877
O      75.52288640      94.34167628      91.57819643
N      77.40883325      96.68493691      88.62455420
H      79.03966707      97.53720348      88.11810755
C      75.22619936      96.96461641      86.80852722
H      73.51788677      96.57722251      87.89134039
C      74.75187805      99.47984213      85.49138798
H      73.11726480      99.12457358      84.28952204
H      76.37326323     100.08077510      84.37078027
C      74.10370194     101.46783421      87.49260814
H      75.75721246     101.61334314      88.71337134
H      72.42940441     100.75540739      88.45636856
C      73.57079911     104.28352642      86.55719362
H      71.67351389     104.04731063      85.78807501
H      74.91817398     104.85044431      85.10399408
C      73.56512993     106.31876166      88.85321109
H      75.34714185     106.12978902      89.86799412
H      72.16484274     105.99750818      90.32908734
N      73.32135523     108.98516548      87.83086915
H      74.23598277     109.25350662      86.17546890
H      73.94307520     110.37222460      88.98171248
H      71.50910770     109.57664982      87.72882393
C      75.31312678      94.77442361      84.86777829
O      77.18584555      94.61379687      83.51284453
N      73.30245798      93.32878298      84.66935703
H      71.86626598      93.51208643      85.91468667
C      72.99821203      91.47496147      82.64546015
H      74.67061982      90.76253465      81.67792028
C      71.70374951      89.27720976      84.10621859
H      69.95953212      90.05955646      84.87155774
H      72.85837230      88.61958501      85.67847088
C      71.36737823      86.89804434      82.36011147
O      69.58725605      85.43728590      82.81742524
O      72.85648256      86.47096619      80.55164339
C      71.42029056      92.43305271      80.37778857
O      70.83825487      94.65726058      80.43259064
N      70.95163844      90.99308126      78.33499443
H      71.28045083      89.11469330      78.40491430
C      70.37527191      92.20439582      75.95771873
H      72.02122353      93.31366517      75.40780837
C      69.84614855      90.21640374      74.00185199
H      68.17374076      89.28098922      74.75774252
C      69.05246349      91.09134703      71.46961873
H      68.62349563      89.69105983      70.02397810
H      70.54345756      92.22896227      70.61735217
H      67.39139407      92.28187460      71.71906261
O      71.99476737      88.51753979      73.54453822
H      71.62627073      87.07000943      74.57254934
C      68.23043255      94.06199679      75.95582900
O      68.47420725      95.81755253      74.42326096
N      66.16118223      93.76153031      77.43737443
H      66.31236035      92.34045612      78.70349106
C      64.12027782      95.63613881      77.53752992
H      63.61950034      96.10101148      75.59489127
C      61.75245075      94.42104479      78.83388217
H      60.31058957      95.87046487      79.08143632
H      62.18708780      94.08278378      80.81998453
C      60.53735673      92.09290197      77.67170049
H      58.81203660      91.48818955      78.61656365
H      62.03024051      90.67182778      77.63768542
C      59.66430318      92.52753902      74.91081035
O      58.74967563      94.60623797      74.23617806
O      60.05736624      90.78710109      73.37635258
C      64.67396763      98.13624672      78.86600752
O      63.22265782      99.95227371      78.75640340
N      66.88305769      98.42537485      80.18692622
H      67.95264278      96.84556365      80.27952280
C      67.63516877     100.44738200      82.06342444
H      66.52023023     102.09711307      81.54374971
H      69.65339647     100.83855535      81.94626141
C      66.81691727      99.87668465      84.82431459
O      67.39517352     101.35445063      86.60632650
N      65.72654518      97.58255691      85.20981875
H      65.40529172      96.44305194      83.71126579
C      64.67774708      97.01374929      87.61544035
H      64.20342577      98.89213725      88.31463909
C      62.29480220      95.46039426      87.38300401
H      61.47466098      94.88591746      89.18013374
H      62.69164472      93.65192618      86.47782511
C      60.16130120      96.58289169      85.72004486
C      58.54180574      95.07677982      84.14401311
H      58.66463795      93.04154458      84.19314600
C      56.65018970      96.20683615      82.62845261
H      55.38218334      94.96339624      81.62500794
C      56.50846024      98.83166600      82.38467792
O      54.79447846      99.85589766      80.74439548
H      54.80581683     101.62846095      80.34944268
C      57.91063715     100.36990322      83.91724596
H      57.69331863     102.39757956      83.86055417
C      59.65296481      99.27008251      85.72193459
H      60.76223416     100.53808886      86.87655736
C      66.79990973      95.90259022      89.25005361
O      68.24177090      94.34545574      88.23716031
N      67.07392004      96.82477666      91.66701357
H      65.74166299      98.04176040      92.28684380
C      69.23765667      96.21439506      93.19769188
H      70.92140283      96.68115746      92.10731980
C      69.56268961      97.75074255      95.68079226
H      70.63983361      96.71517253      97.09619726
H      67.60871260      98.13435699      96.20802590
C      70.81557814     100.24518129      95.33875179
C      69.60048413     102.50907341      96.06440670
H      67.71831672     102.41080764      96.84486366
C      70.75888635     104.77296553      95.60331348
H      69.68930126     106.50017538      95.79417583
C      73.27033263     104.65958195      94.70191403
O      74.57235406     106.91591517      94.52427975
H      73.64827790     108.30486401      95.24048602
C      74.65928146     102.49206587      94.09153243
H      76.57924340     102.37301311      93.40745150
C      73.33080387     100.29242444      94.32585849
H      74.30968211      98.53308925      93.99893584
C      69.03734568      93.44216656      94.06318653
O      67.08903786      92.68060685      94.90600447
N      71.16895697      92.16093212      94.03295091
H      72.76388597      92.99430142      93.39800287
C      71.34848096      89.45673376      94.07641462
H      69.72142661      88.34746442      94.68301676
C      71.54879195      88.54021650      91.25127378
H      73.34592169      89.28665840      90.58042094
C      71.68863171      85.76987773      90.60687710
H      71.47698235      85.38626329      88.59431858
H      70.04834926      84.83446320      91.42512860
H      73.46686417      84.97619268      91.28339912
O      69.43040876      89.36980635      89.73571327
H      69.73654443      91.08189839      89.21414881
C      73.62371144      88.47218636      95.50504771
O      75.46052542      89.82900985      95.97747929
N      73.47820253      86.13648463      96.28361495
H      71.73020568      85.36925575      96.22314371
C      75.48887132      84.73241798      97.67256379
H      77.32379557      85.66594278      97.70090968
C      74.61392803      84.84769129     100.54305806
H      73.97520055      86.72229979     101.11186568
C      72.36704345      82.90694236     101.06462252
H      70.79101170      83.50598560      99.88354358
H      71.81335365      83.09969445     103.03749679
H      72.95474834      80.95296536     100.78494303
C      76.90049687      84.39226725     102.21924530
H      77.68851274      82.53655601     101.79405688
H      76.27121801      84.37525971     104.18078121
C      78.91116568      86.46718674     102.32506997
H      80.11303161      86.30089082     100.66022109
H      79.98830968      85.98719625     104.01448530
H      77.98708951      88.30589044     102.37609258
C      76.02555359      81.87515180      96.84864312
O      74.42495540      80.49187214      95.96803065
N      78.32157107      80.93028864      97.13210206
H      79.89382335      81.94318194      97.51004733
C      78.85636360      78.21097248      96.55951499
H      77.68473330      77.01855517      97.76516038
H      80.81789953      77.83302721      97.06596164
C      78.97919581      77.50799429      93.71169744
O      80.48719741      78.57757938      92.30385133
N      77.38426681      75.64850360      92.94824801
H      76.35625569      74.97009185      94.40711672
C      76.82679755      75.01355555      90.25538801
H      78.17417241      75.99054406      89.04218372
C      77.15938938      72.04479552      90.06074620
H      75.91217001      70.89206247      91.22670734
C      76.55656669      71.43630364      87.33009168
H      77.87937511      69.91318424      86.91057244
H      77.10458732      73.02934293      86.14712301
H      74.55534653      71.18685977      86.91435189
C      79.92027952      71.40039884      90.79962919
H      80.05445009      69.34815607      90.87332852
H      80.27365835      71.90873522      92.76683428
C      82.08401616      72.24699623      88.96848439
H      83.89059450      71.30402280      89.25383306
H      82.16716411      74.30490819      88.93635904
H      81.68906336      71.52134133      87.08064780
C      74.11315056      75.95841871      89.65823450
O      72.24799069      74.80379593      90.62388464
N      74.00732590      78.31301770      88.78518094
H      75.61737271      79.04434178      88.06897467
C      71.57713785      79.32024182      88.12755618
H      70.59636990      78.06168410      86.82364503
H      71.84358926      81.11548182      87.15056768
C      69.52111562      79.65850283      90.14011471
O      67.29690776      80.10636797      89.48626940
N      70.14283559      79.64149529      92.54006712
H      71.92673722      79.25599113      93.09375693
C      68.10193116      79.65661311      94.49026468
H      66.52967886      78.69474241      93.57185769
C      68.85026278      78.06735328      96.70691364
H      70.52078084      78.90639176      97.56862884
H      69.53434370      76.32124616      95.85275735
C      66.91896249      77.38138262      98.57396324
N      65.94953290      75.02300419      99.12576332
H      66.15929252      73.57547383      97.89933095
C      64.60026831      75.14016722     101.23280816
H      63.70453803      73.60193000     102.23247338
N      64.49255390      77.56657580     102.02082404
H      63.34360030      78.26388481     103.37575780
C      65.92685617      78.95363492     100.36164433
H      66.45975899      80.89438384     100.70368480
C      67.22698787      82.32679639      94.89466611
O      68.61593672      83.77999592      95.89055188
N      65.06703071      82.92772935      93.77027895
H      64.37350115      81.56712641      92.62321508
C      64.04468876      85.40894000      93.99137693
H      65.48654995      86.61836484      93.15233845
C      61.55780894      85.47697015      92.23960064
H      60.23689024      84.08613158      92.98793226
H      62.15685218      85.32957150      90.27428527
C      60.19909572      88.05077739      92.57975138
H      59.55847850      88.49864252      94.48648523
C      61.83937816      90.14459414      91.70291837
H      63.60816198      90.30522088      92.74604729
H      60.94742735      91.99463620      91.84653757
H      62.28535357      89.59468379      89.76972835
C      57.78969467      88.01676231      90.86765934
H      56.85994932      86.21207369      91.21536898
H      58.32448721      87.91660682      88.88155698
H      56.60861572      89.55310981      91.56685807
C      63.63272843      86.17049971      96.72959036
O      62.68786528      84.52265836      98.14877482
N      64.22799223      88.47029663      97.46658362
H      65.19364236      89.62113995      96.29117385
C      63.76122983      89.59090433      99.92322783
H      63.36249756      88.24352947     101.43122943
C      65.98354796      91.41260050     100.72447178
H      65.38828417      92.22329309     102.52160151
H      66.29724253      93.00375005      99.45079625
C      68.28334488      89.80822286     100.97202593
H      68.85782169      89.07689878      99.13521196
C      70.35259521      91.51275599     102.12853844
H      72.01933381      90.50931132     102.80506046
H      69.52300535      92.67493768     103.61386332
H      70.99321242      92.86202058     100.71313343
C      67.91295854      87.63881705     102.96001801
H      66.76211521      86.23097095     101.99058841
H      67.13817074      88.27376509     104.76092719
H      69.72331633      86.75064568     103.37386808
C      61.27812944      91.06867031      99.87220522
O      59.62650865      90.39970719     101.46524450
N      60.95120679      93.08878774      98.29050429
H      62.34771453      93.51397616      97.06029246
C      58.51723930      94.47773658      97.92578712
H      57.08671648      92.99619115      97.88421314
C      57.66119328      96.26730740     100.10464155