 %block lattice_cart
   140.777   0.000   0.000
   0.000 144.511   0.000
   0.000   0.000   162.462
 %endblock lattice_cart

 %block positions_abs
N      90.67849143      37.85114275      81.65335384
H      92.33767112      37.47886666      80.78596946
H      89.31410902      37.06501660      80.57432010
H      90.45928317      37.03100153      83.36166643
C      90.53676196      40.61203289      81.88012099
H      91.86146009      41.09202337      83.38245342
C      91.13202573      42.03121735      79.44804323
H      89.86968857      41.51343234      77.90413683
H      93.00663425      41.61358784      78.70538079
C      91.20572506      44.85824791      79.76362753
H      89.56355290      45.74641928      80.63290163
H      91.50997100      45.85224396      77.98161561
S      93.53953707      45.61035899      81.95382032
C      93.70016379      49.00052799      81.79886277
H      93.82866519      49.61846850      79.83921658
H      95.17792977      49.72996235      83.03474377
H      91.91059298      49.64870412      82.58309919
C      87.84957114      41.27721655      82.95537527
O      86.03165442      41.05044939      81.57965451
N      87.94783691      42.21452080      85.31564343
H      89.54843508      42.14271120      86.35310318
C      85.80488727      43.35024632      86.74427653
H      84.13814865      42.14082148      86.80852721
C      86.94250250      43.88314914      89.32753240
H      88.40515066      45.32312059      89.14422894
H      88.09712529      42.34302219      90.05696674
C      85.25308718      44.83935065      91.37221627
O      83.06289438      45.50642404      91.02450663
N      85.94283728      44.95462396      93.74571252
H      84.93183371      46.00342206      94.97970380
H      87.71729029      44.46140539      94.25026944
C      84.85624465      45.77476518      85.45359345
O      86.38503325      47.46795995      84.74683581
N      82.38448263      46.06011385      85.07564819
H      81.02010024      44.98296985      85.86744352
C      81.39993522      48.32211625      83.70181716
H      82.83990667      48.75864302      82.29397106
C      78.82234854      47.87803056      82.55475329
H      78.85447389      46.40026459      81.12045102
C      76.96285785      47.39048117      84.80352760
H      77.27466268      45.49130623      85.53674141
H      75.02777810      47.65504286      84.14212339
H      77.16883801      48.54510395      86.49861211
C      77.68095385      50.10034871      81.12612019
H      77.20852226      51.55543797      82.50373067
H      75.84225014      49.63736576      80.32298651
C      79.24753696      51.23985367      79.00584726
H      80.42483644      52.75730390      79.74473026
H      77.90394154      52.03164900      77.65847240
H      80.36436520      49.76586715      78.10066837
C      81.70607089      50.79954744      85.23249548
O      82.21251754      52.86312858      84.31786794
N      81.81378530      50.53309603      87.80630271
H      81.67772500      48.77943001      88.54896516
C      82.22952507      52.52675729      89.53918173
H      80.66294197      53.81177119      89.17446457
C      82.22574563      51.49874618      92.24715955
H      83.77343147      50.15137132      92.41534519
H      80.56656592      50.30065970      92.50227260
C      82.25031207      53.59256293      94.09342215
C      80.06200899      55.21961729      94.37877083
H      78.39149093      55.17426386      93.20903024
C      80.05256037      57.13202032      96.22503344
H      78.39904984      58.23939994      96.67478829
C      82.10102369      57.39280255      97.89933095
H      81.97819148      58.85356099      99.31851540
C      84.31389320      55.86779341      97.60831309
H      85.85779960      56.09078112      98.92356261
C      84.29121648      53.80988146      95.86031626
H      85.91260166      52.57589018      95.80929364
C      84.85435492      53.85712462      89.04785290
O      85.16993922      56.13802428      89.38044473
N      86.66282300      52.30565931      88.26361648
H      86.35668734      50.44427890      87.96503972
C      89.26686586      53.01619641      87.94614246
H      89.60323716      54.49207266      89.34642966
C      91.08478258      50.71073031      88.42991240
H      92.98395752      51.38725233      88.00094452
H      90.83722844      49.10635267      87.16379577
C      91.01297299      49.72996235      91.18324363
H      92.50207731      48.31077789      91.27206077
H      89.21017407      48.85312934      91.64811631
C      91.60067786      51.77464622      93.04273432
O      90.48573934      51.85212500      95.17434560
O      93.20127605      53.42626702      92.39455820
C      89.63725222      53.91948559      85.23438520
O      91.37769017      55.44827417      84.90746255
N      88.19350132      53.15225670      83.37300477
H      86.86502373      51.84834555      83.80386238
C      88.05177185      54.28042331      80.94659619
H      89.95472625      54.12735548      80.17369814
C      86.32834146      52.81588542      79.10600276
H      84.76931724      51.93149350      80.12267553
H      87.51697930      51.43827494      78.14224234
C      85.16427004      54.43538087      77.01974492
H      86.58912369      55.84322697      76.54542362
H      83.69973215      55.72039476      77.68681831
S      84.27231923      52.81021624      74.15869928
C      82.61313952      55.31410360      72.49007094
H      81.59835650      54.28231304      71.02364333
H      83.95484520      56.67092710      71.71339343
H      81.32245645      56.17770853      73.84311498
C      87.28076352      57.17170457      81.18092225
O      88.37491504      58.67592672      79.72772273
N      85.44961871      57.73862246      82.74750537
H      84.96206933      56.56510242      84.17235901
C      84.59168297      60.39557766      83.07064856
H      84.53688091      61.26485176      81.20359898
C      81.94795586      60.06487556      84.37078028
H      81.11647629      61.93948406      84.56542209
H      82.06889834      59.29197749      86.27751412
C      80.03177338      58.37734996      82.84010196
H      80.94829063      56.55943325      82.52640740
C      77.46741477      58.10522937      84.25928642
H      76.16161388      57.27186007      82.90246293
H      76.97230647      59.97794815      84.96415434
H      77.45985586      56.80698739      85.85988461
C      79.45540685      59.58110562      80.28141254
H      77.99275868      58.48317463      79.33654938
H      81.11458656      59.81543168      79.08521578
H      78.53133069      61.41980932      80.40613447
C      86.46629148      61.82610048      84.71848992
O      86.70817644      64.06542616      84.14590285
N      88.01397732      60.71683113      86.33798537
H      87.67760603      58.91970141      86.88600600
C      90.07566873      62.19270738      87.58709445
H      89.15726174      63.70070898      88.64912064
C      91.44572030      60.60155783      89.68847012
H      92.08255807      58.75340549      89.04407345
H      89.75063581      60.09511118      90.74293739
C      93.26174729      62.05853682      91.37788545
H      92.15625741      63.10544519      92.76494455
H      94.52597420      63.08087875      90.11365853
C      95.04186948      60.27652490      92.69313496
H      96.10200595      61.48783947      93.97814885
H      96.12846212      59.02363636      91.46859231
N      93.61323638      58.46238764      94.19168792
H      93.49229390      56.69360381      93.48304056
C      92.35278893      58.71750069      96.27038687
N      92.07877862      60.81698663      97.53083432
H      91.24540932      60.73572840      99.24859554
H      92.67026295      62.37790056      96.60675815
N      91.11501820      56.79564903      97.32107470
H      90.08889681      57.32666213      98.84041466
H      90.86935379      55.04576247      96.59730952
C      91.81610666      63.40402195      85.53107223
O      91.91248271      65.70759833      85.28540781
N      93.04631849      61.81476212      84.06464460
H      92.58522527      59.98550705      84.33865493
C      94.76596944      62.60844717      81.88201072
H      96.21727925      63.86322544      82.63034234
C      96.23617651      60.38045985      80.74628521
H      97.49284450      61.34422027      79.42914597
C      97.87645896      59.19371173      82.85521977
H      99.32209957      57.95216154      82.06909363
H      96.71427726      58.07310402      84.13267475
H      98.79864539      60.60722701      84.03818845
C      94.71116738      58.25829720      79.38568226
H      93.56788296      59.24095488      77.98161561
H      93.23529113      57.46272242      80.58187901
C      96.22861760      56.25329758      78.01185123
H      97.42481437      55.27252963      79.37434391
H      97.38135066      57.06587990      76.50951882
H      94.96439070      54.87190765      77.15391548
C      93.53953707      64.22983235      79.80331177
O      94.80187423      65.56397913      78.38034787
N      91.07155450      64.16747138      79.45371241
H      89.97551323      62.86733968      80.31731733
C      89.78843034      65.58098666      77.50540458
H      90.93738392      65.47705172      75.79898171
C      87.25241761      64.34888511      76.90069216
H      85.89370440      64.70037420      78.40869376
H      87.59823753      62.32120877      76.82132366
C      86.09779484      65.32587361      74.44782740
O      87.49241287      65.30130717      72.49385040
O      83.77532120      65.80019492      74.37412808
C      89.28576313      68.35321516      78.15736016
O      88.95884048      69.74783318      76.38101742
N      89.41804398      69.18091529      80.55353313
H      89.31410902      67.83543015      81.90468743
C      88.84545690      71.72637663      81.34154899
H      89.19883572      73.10587684      79.85433439
C      85.99008045      71.98526914      81.97838676
H      85.52709749      73.02083916      83.69614798
H      85.19828512      70.13711680      82.42058272
C      84.53688091      73.34398236      79.99417414
H      82.52432239      73.36098989      80.43259063
H      84.78065560      72.41612674      78.17247796
C      85.18694675      76.14644648      79.63134668
O      86.99919429      76.63777532      78.32176635
O      83.79988764      77.85097961      80.41369338
C      90.44605508      72.74871857      83.68480962
O      90.89014077      75.04284631      83.83409800
N      91.23596068      71.05174434      85.47060099
H      90.87502296      69.21682009      85.09832490
C      92.62679925      71.43913823      87.92157601
H      94.09889605      72.84698434      87.61166089
H      93.46961719      69.64200851      88.47904528
C      90.96572982      72.55596648      90.13633526
O      89.42182342      74.34553730      89.87555303
N      91.22462232      71.54307318      92.50983151
H      92.25830262      69.94058527      92.62888426
C      89.76575361      72.39722947      94.84553322
H      87.81177661      72.65234253      94.24460026
C      90.07566873      70.23160312      96.73336982
H      92.09389644      70.00105651      97.06974109
H      89.38969807      68.56675424      95.73181487
C      88.42026848      70.67190935      98.96324687
H      88.84167745      72.53328977      99.73803464
C      85.67071669      70.56986413      98.32262965
H      85.03954810      72.44825208      97.76327065
H      84.67105147      70.13333735     100.07062649
H      85.51575913      69.10343651      96.88076847
C      89.04387816      68.77084468     100.98714374
H      91.07911341      68.47793710     101.13454239
H      88.22562668      66.90568481     100.69801562
H      88.47885000      69.66090577     102.75781730
C      90.64258662      74.94458054      95.67890252
O      92.79687463      75.10331755      96.50849238
N      88.98529665      76.82674795      95.68079226
H      87.29966077      76.39966981      94.89277639
C      89.46150767      79.40433464      96.56140472
H      91.41737441      79.83897169      97.03761574
C      88.73207333      81.25248698      94.42979344
H      88.59601303      83.22347152      95.00993942
H      86.74030178      80.88965952      94.05184818
C      89.84701184      80.73848142      91.93157525
H      89.44450014      78.80718113      91.34009092
H      91.90303407      80.76682731      92.06574581
C      88.94561239      82.74537076      90.03995921
H      89.29710148      84.58596419      90.89411551
H      86.91037715      82.54694950      89.78673588
N      90.15692696      82.55450841      87.53985130
H      91.71217171      81.46602605      87.36221703
C      89.87913719      84.20046003      85.61610992
N      88.41459930      86.08451716      85.78429555
H      88.29554654      87.25425775      84.28196313
H      87.27509434      86.24514390      87.30552524
N      91.54209635      84.01148739      83.81898019
H      91.65925938      85.18689716      82.32042723
H      92.81955133      82.61875910      84.10432886
C      88.18216297      79.91834020      99.15788868
O      86.00897770      79.32496614      99.39032501
N      89.47473577      81.50571030     100.74147933
H      91.28320385      81.78350007     100.20101759
C      89.10812886      81.50193085     103.52315646
H      87.62847315      80.19801969     104.11653052
C      91.65170047      80.85375472     104.88753886
H      91.37013126      80.88588007     106.92655355
H      93.00096507      82.28616727     104.27715726
C      92.67593213      78.20435843     104.23936273
H      92.93860410      78.20624816     102.19656859
C      95.18170922      77.79617755     105.51114854
H      96.39491352      79.41189355     105.10863683
H      95.87334906      76.13888757     104.50014495
H      94.69982901      77.58074875     107.50103035
C      91.12635656      76.02361427     105.23902795
H      92.11468342      74.30963250     104.66077170
H      89.24418916      76.15967456     104.41510727
H      90.80132364      75.89700261     107.26859400
C      88.16137597      83.93400862     104.63053608
O      86.85746482      83.91322163     106.65443296
N      88.62057946      85.99570002     103.17922626
H      89.60701660      85.57618078     101.59941507
C      87.69461358      88.58651480     103.53638453
H      86.77431687      88.43533669     105.37319851
C      89.70528237      90.77859732     103.71968800
H      91.08100312      90.34207054     105.18800533
H      88.68105071      92.47368182     104.28849562
C      91.20950451      91.39275837     101.30272804
H      89.97740296      92.16376671      99.84574905
H      92.22617727      89.68633551     100.75470741
C      92.98584725      93.67176831     101.98869869
H      94.00440973      93.07083534     103.67433456
H      91.74240733      95.31016102     102.11908981
C      94.63935777      94.25758346      99.64354834
H      93.47339664      95.35173500      98.34719609
H      95.03620030      92.46234347      98.71569272
N      96.78797660      95.86007138     100.28416556
H      97.76118564      95.08150414     101.72980619
H      96.02452716      97.48901546     100.92478277
H      97.95204800      95.93566043      98.77427424
C      85.77087219      89.18177859     101.52949520
O      85.78976945      88.22557707      99.41489146
N      83.93972740      90.74269252     102.26459874
H      83.84713080      91.57417210     103.97858050
C      82.10102369      91.37386111     100.31251144
H      81.12970436      89.72035059      99.56229011
C      79.91650008      93.01414355     101.54839245
H      80.80278171      94.74513285     102.22491448
C      77.91527991      93.80215942      99.61331272
H      76.75687767      92.15620780      99.18056539
H      78.72408277      94.72623559      97.95980219
H      76.64349409      95.23835142     100.36353406
C      78.62959645      91.59306936     103.76315170
H      79.95618432      91.28315425     105.30894783
H      77.99464842      89.75247593     103.09229886
C      76.51499270      93.14075521     104.87053132
H      75.84225014      92.46801264     106.69600693
H      74.87848972      93.23335180     103.62331194
H      77.26143461      95.01158426     105.29949919
C      83.08935055      92.80060448      98.03161179
O      84.24775279      94.72434586      98.26215840
N      82.69439775      91.84440296      95.76016077
H      81.77032159      90.17766435      95.69968952
C      83.40115540      92.84784763      93.25438367
H      84.11925139      94.75647121      93.53406317
C      85.19072621      91.04882818      91.99771568
H      86.71762508      90.66332402      93.32808300
H      86.18661198      91.86518995      90.39144830
C      83.83012326      88.66966276      91.17757445
C      83.33690470      88.06872979      88.63589257
H      83.66760681      89.41421492      87.13733960
C      82.51676348      85.73680752      87.83464860
H      81.89693324      85.40610541      85.91846613
C      82.09535451      83.78283051      89.56752764
O      81.23552903      81.51137948      88.83998301
H      81.27710301      81.36965001      87.03340465
C      82.71140528      84.12487097      92.12621707
H      82.38448263      82.55261868      93.38477479
C      83.55800267      86.60608162      92.96525555
H      84.15704591      86.78749535      94.90600447
C      80.98041598      93.39208881      91.64244713
O      78.82423827      93.05004835      92.35109449
N      81.38481742      94.30860607      89.27273032
H      83.21029303      94.70166915      88.87588781
C      79.47241438      94.80560409      87.32442250
H      77.72441754      94.37852595      88.33164663
C      79.53288563      97.61940657      86.46459703
H      78.54077931      97.84806346      84.67691593
H      81.45851674      98.06538198      85.88445105
C      78.70896495      99.52425070      88.57920078
H      79.89382335      99.37685205      90.25916747
H      76.70774479      99.24079175      88.97793302
C      79.02265952     102.31159701      87.90078903
H      80.92372420     102.69899090      87.19970057
H      78.72219304     103.36417457      89.64500641
C      77.13104348     103.18654029      85.89012023
H      75.23375826     102.65174775      86.48727374
H      77.73575591     102.57426897      84.01929118
N      77.28978050     105.97577633      85.88445105
H      75.75910219     106.65040862      84.96793378
H      78.74864922     106.85827852      85.02651531
H      77.33891338     106.59938601      87.68724995
C      79.76910141      93.23524153      84.84510158
O      81.76654213      93.51492102      83.61677948
N      78.03811212      91.42677345      84.44447960
H      76.60380985      91.52881867      85.69925788
C      77.58079835      89.97735336      82.04830664
H      79.17761708      88.70367783      81.77996549
C      75.18084593      88.28415859      82.18436693
H      73.47253335      89.43500191      82.20515391
H      75.56635010      87.10118992      83.82653910
C      75.13738222      86.49080832      79.92236453
O      72.91884353      86.14120895      78.99639864
O      77.04033662      85.23414032      79.12301031
C      77.73575591      91.60629745      79.67292065
O      77.31056748      93.88719711      79.60111106
N      78.05700937      90.36663698      77.46194087
H      78.24220255      88.47124149      77.34855730
C      77.67906412      91.68566595      74.91458981
H      78.87148142      93.36374292      74.86923637
C      78.54455877      89.97924309      72.84533948
H      78.13070871      90.64442675      70.93860564
C      81.48119345      89.73357867      72.88124429
H      82.29377578      91.40409673      71.98740375
H      82.21629699      88.10652431      71.85512291
H      82.15771548      89.51437042      74.81443431
O      77.55434218      87.47157627      72.81132442
H      78.16283406      86.80072343      71.23907213
C      74.98620413      92.62485993      74.34200273
O      74.33802800      94.10829508      72.50896821
N      73.20419220      91.97290435      75.97283653
H      73.67095461      90.76914869      77.38068265
C      70.75510691      93.19933673      76.16180917
H      70.13527668      93.56027445      74.23239861
C      68.72176140      91.37575084      77.28619633
H      68.57247301      91.78771117      79.30064458
H      69.34915052      89.47846562      76.78163939
C      66.01378358      92.05227286      76.41503250
H      65.35048965      93.98357315      76.67203527
H      64.83648410      90.72946444      77.46949978
C      65.77945752      91.62330498      73.58422248
O      65.92685617      93.34673538      72.06677225
O      65.09915606      89.50681151      72.81510386
C      70.83069595      95.65409121      77.66981077
O      68.99766143      97.12996746      77.39580045
N      72.77711406      96.14353032      79.14946647
H      74.10937112      94.78103765      79.20804799
C      72.98120450      98.55671083      80.56487148
H      71.97209066     100.09872750      79.64646449
H      74.89738698      99.22189449      80.92202975
C      71.62438101      98.35451011      83.08387665
O      72.17240164      99.86062198      84.78085089
N      70.17118147      96.33628241      83.57331577
H      69.42662930      95.42921378      82.06720390
C      68.92018265      95.76747479      86.00161408
H      68.23988119      97.60428876      86.63845185
C      66.53912750      94.17065605      85.64634554
H      65.55269036      94.11963344      87.45292389
H      67.03801524      92.19589206      85.34587905
C      64.86671972      95.22134388      83.50150617
C      63.38895374      93.59995871      82.00862239
H      63.17163522      91.63653307      82.52073822
C      61.75623021      94.63930818      80.19826457
H      60.55436426      93.34484565      79.17403291
C      61.73733294      97.20933596      79.82598848
O      60.15185256      98.29970805      78.17814714
H      59.91752650     100.03636653      78.64868900
C      63.31147496      98.81371360      81.06753868
H      63.38139484     100.73556526      80.38534748
C      64.86294026      97.82916619      82.98372115
H      66.09315209      99.03670131      84.07031378
C      70.82691650      94.70355887      87.82708969
O      72.59947978      93.36374292      87.13544986
N      70.55857536      95.20433635      90.32530789
H      68.94096964      96.13786114      90.72781959
C      72.02689272      94.56182940      92.40022738
H      73.99409780      94.84906780      91.86354511
C      71.78122830      96.46289407      94.63766333
H      72.67317911      95.37252199      96.13810602
H      69.78567730      96.77847836      95.03639559
C      73.14183123      98.87418485      94.39577836
C      71.77177966     101.12106943      93.96492077
H      69.78189785     101.31193179      93.54351180
C      73.08702917     103.41897663      93.78161732
H      72.11570985     105.18776046      93.48682000
C      75.65705696     103.48133760      94.07452489
O      77.08002088     105.70743519      94.05373791
H      76.27499746     107.25890050      93.57374741
C      77.02143936     101.34027768      94.71703184
H      79.03399789     101.47444825      95.02316750
C      75.85736796      98.94788417      94.70569348
H      76.96285785      97.30949146      95.21969904
C      71.84358927      91.90109475      93.19769188
O      69.79323621      90.86174528      93.14100010
N      73.91094985      90.81450212      94.12554751
H      75.42462063      91.97479408      94.22948245
C      74.44007321      88.13298048      93.51516591
H      72.62404623      87.18055842      93.71358717
C      75.39438501      87.63787219      90.80907783
H      77.07435170      88.76792852      90.42168392
C      75.83280150      84.86375396      90.03429003
H      76.10870155      84.39321211      88.05007740
H      74.21708551      83.69779283      90.55963395
H      77.53922438      84.05495110      90.85254153
O      73.56135049      88.45990313      88.94769740
H      73.75599229      90.22301778      88.57164187
C      76.36948378      87.03315977      95.41056140
O      78.07023747      88.31817366      96.45935950
N      76.10303237      84.58596419      95.90944914
H      74.66117119      83.62409350      95.11009490
C      78.03622239      83.18945645      97.36453841
H      79.81067540      84.20234975      97.11320481
C      77.14805103      83.28583249     100.18212034
H      76.78711329      85.19823552     100.85297318
C      74.76699586      81.67389594     100.47313818
H      73.73142585      82.09341519     102.20790695
H      75.25454525      79.68401414     100.28038611
H      73.34214223      82.14821725      99.06340236
C      78.72408277      81.87420693     102.17578160
H      79.05100542      79.84842033     102.00003704
H      77.73575591      82.38254331     103.90866062
C      81.12025574      83.34252428     102.53671931
H      80.57601456      85.23414032     103.13954202
H      82.22196618      83.39354689     100.79817112
H      82.24086343      82.48647826     104.03905174
C      78.35180668      80.37565397      96.53872801
O      76.86081262      79.49504151      95.02316750
N      80.11492134      79.02260993      97.71602750
H      81.39993522      80.05440049      98.67789819
C      80.90860638      76.30329376      97.23792674
H      79.20785270      75.19402442      97.57996721
H      82.36369564      75.75905259      98.59286051
C      81.76087295      75.70614025      94.47325715
O      83.79610820      76.43179515      93.60209332
N      79.99019940      74.58175309      93.10320556
H      78.22330530      74.25105099      93.74382279
C      80.11870079      74.15845440      90.37633050
H      81.47741400      75.50204981      89.61288106
C      80.85569404      71.39189508      89.82642014
H      79.47052466      70.02751268      90.50294215
C      80.83679679      70.90623541      87.03907383
H      82.05944971      72.34053768      86.20570453
H      78.99431363      70.99883200      86.12444629
H      81.54922360      69.03162691      86.56475253
C      83.42383211      71.06497242      91.11521348
H      83.23485947      70.73616005      93.13911037
H      84.52743227      72.76950556      90.77884220
C      84.97907686      68.84832346      90.05129756
H      86.06566949      69.24705571      88.35054389
H      83.86224861      67.13245197      89.82453041
H      86.35101816      68.23416241      91.46103340
C      77.59213671      74.97670589      89.39556253
O      75.65894669      73.73137625      89.47115160
N      77.51276821      77.29351035      88.62077475
H      79.02076979      78.45380231      88.77762204
C      75.35659048      78.38388243      87.19781083
H      75.02777810      77.23870829      85.51973388
H      75.85358849      80.29817519      86.62333403
C      72.85270311      78.91678525      88.59053913
O      71.11982409      80.02605460      87.37355539
N      72.68073802      78.40655915      91.01694772
H      74.18118071      77.82830290      92.04495883
C      70.22598353      78.72781262      92.47959589
H      68.76900455      77.87554606      91.29662721
C      70.54156783      77.69035288      95.18946342
H      71.74343376      78.99993321      96.23448207
H      71.59225566      75.91778960      95.14599971
C      68.06602636      77.27083364      96.51416156
N      66.92841112      74.92001410      96.96013697
H      67.70130918      73.25894467      96.42345470
C      64.89506560      75.29984909      98.54750707
H      63.54202156      73.87688518      99.10686607
N      64.91774233      77.69791178      99.12765305
H      63.68375105      78.72970235     100.15755390
C      66.82258644      79.01883048      98.00326589
H      67.48210094      80.89910816      98.43979268
C      69.54190261      81.51326921      92.76494455
O      70.94974871      83.07040369      93.71925635
N      67.19675226      82.18034260      92.12054789
H      66.00244523      80.98036639      91.24182515
C      66.26322746      84.83351834      92.27550543
H      67.68241192      86.23758499      91.77094852
C      63.88973121      84.86564369      90.63144354
H      62.62550430      83.40299552      91.34198065
H      64.35271416      84.11542234      88.76817340
C      62.43842140      87.27315501      90.14200444
H      61.71087677      88.05172225      91.90511909
C      64.26200729      89.26303682      89.27273032
H      63.26234207      90.79371513      88.32408772
H      65.65662531      88.42021888      88.01606234
H      65.27112114      90.01136844      90.90545386
C      60.14618339      86.92544537      88.38077951
H      58.62306398      85.80294794      89.19336182
H      60.54302592      86.07506853      86.54774499
H      59.53580178      88.86052511      88.02362124
C      65.51300611      85.61208558      94.91167365
O      63.83114970      84.36486621      95.97558957
N      66.42385419      87.80605783      95.84519845
H      67.93374553      88.52226410      94.92679146
C      65.67552258      89.10807926      98.16200291
H      65.11994304      87.65110027      99.50748804
C      67.99421677      90.44978494      99.26182361
H      67.51044683      91.52314949     100.95123895
H      68.64995179      91.85574132      97.90500013
C      70.03512118      88.59407370     100.12542855
H      71.09147819      87.79471947      98.54939680
C      71.92862695      90.26081231     101.55406163
H      71.35603987      90.78993568     103.46079549
H      72.26310851      91.88219749     100.32762926
H      73.71441832      89.24980873     101.72035756
C      69.13939090      86.41710899     101.88287401
H      70.77400416      85.80483767     102.97324610
H      68.29468325      84.94312247     100.71880261
H      67.60493314      87.15032280     103.04505570
C      63.62705925      91.00158503      97.87665424
O      61.79402474      90.78237677      99.26182361
N      63.94264354      92.62108048      95.93779504
H      65.69064038      92.61919075      95.17434560
C      62.31747891      94.85851643      95.33686207
H      60.40318617      94.11585399      95.48426072
C      62.58015088      96.94099483      97.37776649