 %block lattice_cart
   140.777   0.000   0.000
   0.000 144.511   0.000
   0.000   0.000   162.462
 %endblock lattice_cart

 %block positions_abs
N      94.25479848      44.52471122      82.25145222
H      93.75402099      44.31873105      84.08448673
H      96.13318642      44.46423997      81.91508092
H      93.47434150      43.00915072      81.39540620
C      92.86584963      46.84529513      81.32926578
H      93.35339902      48.53282073      82.40640978
C      93.76535935      47.74858431      78.64963386
H      93.38363465      46.32939984      77.20588296
H      95.70421856      48.39676044      78.91041610
C      92.35751325      50.09751412      77.70855015
H      90.46022804      49.55327294      77.12084528
H      93.20222091      50.69655736      75.92842798
S      92.24035022      52.67888026      79.95165530
C      95.29225822      54.13207980      79.52079769
H      96.50168306      53.22690089      80.92108488
H      95.20344109      56.02369583      80.32960055
H      96.03870011      54.15097705      77.60272549
C      89.99535536      46.29349505      81.55603294
O      89.33584088      44.48313724      80.40518961
N      88.46089760      47.70890006      82.95820986
H      89.25836209      48.98068586      84.13550935
C      85.77937596      47.59740620      83.41363390
H      85.03482378      46.63553551      81.75445420
C      85.26159094      45.91932924      85.77957124
H      85.92299515      47.07962120      87.34993381
H      86.32172740      44.15999404      85.63784177
C      82.64620973      45.04816541      86.23121583
O      81.00403757      45.46201547      84.65518409
N      82.09818910      43.96913167      88.42140862
H      80.28783129      43.64976793      88.93541418
H      83.52682219      43.59118642      89.63272319
C      84.53404631      50.22601551      83.56103255
O      85.76803760      52.06471921      83.56859146
N      82.01315142      50.43577513      83.31725786
H      81.01159646      48.91643517      83.88795520
C      80.50892927      52.88297069      83.17741811
H      80.70168136      53.45744750      81.20832329
C      77.62331719      52.36896515      83.67819558
H      77.27560754      51.07261288      82.11539192
C      77.02049450      51.19922456      86.31247407
H      76.88065474      52.79793301      87.60504685
H      78.50392966      49.91610039      86.93797346
H      75.12131955      50.40742923      86.19909048
C      76.10397724      54.83316826      83.39095719
H      76.65388759      56.10684379      84.91218687
H      74.12921324      54.53459150      83.89740384
C      76.16822792      56.15030750      80.74534035
H      74.59030645      57.46933646      80.67542047
H      75.80162103      54.69143878      79.33938397
H      78.05039533      56.89296994      80.35794645
C      81.56339655      55.03347925      84.85549508
O      81.86764249      57.18209805      83.94275726
N      82.28527200      54.49490725      87.25733722
H      82.30983844      52.71478506      87.94330787
C      83.17533309      56.48289933      88.97887789
H      81.68811848      57.90775297      89.04123886
C      83.67044139      55.35284299      91.50733170
H      84.23924901      57.03658913      92.54857089
H      85.26537040      54.09050582      91.18607823
C      81.46891024      53.74090645      92.66573392
C      81.55961711      51.06316426      92.25755305
H      83.10163378      50.05971959      91.37316113
C      79.43556473      49.65720789      93.24021072
H      79.39210102      47.62764182      93.03989974
C      77.32851988      50.82127930      94.30412664
H      75.92823268      49.49847088      94.97875894
C      77.27182809      53.40264544      94.74821232
H      75.64855320      54.39097229      95.49276449
C      79.38643185      54.91253676      93.97342454
H      79.43556473      56.94588228      94.14916908
C      85.52993208      57.67720636      87.85827019
O      85.83228829      59.83338407      88.07180926
N      87.33651044      56.37518492      86.74711112
H      87.27225974      54.47600998      86.56758712
C      89.77614711      57.43343166      85.81736577
H      90.49613283      59.12473671      86.74711112
C      91.85673578      55.35473271      86.18019322
H      91.44099600      53.70878110      85.01045264
H      91.86429469      54.69143878      88.13039078
C      94.61006701      56.36384657      86.07814800
H      94.90108488      57.63752211      87.66929755
H      94.95399721      57.48256455      84.38495323
C      96.58672075      54.31160380      86.16885487
O      96.03114120      52.20833841      87.18930707
O      98.44243198      54.47223053      84.72321424
C      89.58906420      58.29325714      83.07915234
O      90.99313086      60.02046698      82.18909125
N      87.61996938      57.55059470      81.79791789
H      86.51636921      56.21266847      82.59349268
C      86.90376312      58.63529759      79.44898810
H      88.58184008      58.75435035      78.25846052
C      84.82884362      56.87974184      78.44176397
H      83.06761869      56.88163158      79.50756961
H      85.45434303      54.92387512      78.58349344
C      84.14287297      57.21422340      75.61473341
H      85.69433828      56.67754113      74.37129349
H      83.86697292      59.24756892      75.43142995
S      81.21379719      55.66842729      74.66798052
C      81.75803837      55.90086362      71.29292933
H      81.48591777      57.83972282      70.65231211
H      80.26326485      54.85206552      70.33861753
H      83.60241124      55.17898817      70.72601144
C      86.02881984      61.39807747      79.87606624
O      86.72045966      63.01190374      78.40207971
N      84.65687852      61.96877482      81.94531656
H      84.16932913      60.47022184      83.02057083
C      83.63264686      64.43297793      82.59538241
H      83.41532833      65.49500412      80.84738557
C      80.91711015      64.27802037      83.79535861
H      80.54105462      66.19798230      84.44542447
H      81.43300543      63.02324210      85.34493418
C      78.84974956      63.37851065      82.05114123
H      79.39210102      61.71933094      80.95887941
C      76.36286974      62.55836943      83.54402502
H      76.98836915      60.94832261      84.66652244
H      74.86620650      62.01223852      82.23822413
H      75.87909981      64.16463678      84.73833205
C      78.06740287      65.32681847      80.18409163
H      76.53483483      64.58982521      79.02002022
H      79.56973529      65.93720006      78.91419554
H      77.15655480      67.00678517      80.95509997
C      85.56583689      65.97688433      84.26590047
O      85.62819785      68.31636550      84.04102304
N      87.51981389      64.72588551      85.29013212
H      87.46312210      62.81915165      85.20320471
C      89.84228753      65.96365624      86.38239394
H      89.56071830      67.68519691      87.47276602
C      91.01958702      64.04180458      88.23999490
H      92.35940297      62.81915165      87.25922695
H      89.53993132      62.84749755      89.03745941
C      92.46144821      65.19453763      90.48876922
H      91.15942677      66.12050353      91.79079065
H      93.71433674      66.71576730      89.88783625
C      94.18487859      63.44843051      91.91362285
H      95.36028837      64.61817111      93.13438606
H      95.30170684      62.31270500      90.60404252
N      92.63908248      61.83460425      93.63705325
H      91.76224946      60.35683827      92.80746339
C      92.27814474      61.89696522      96.09558718
N      93.45544424      63.39362845      97.75854634
H      92.94332840      63.23111198      99.59158086
H      94.26424711      65.05847734      97.30123258
N      90.83250412      60.25290331      97.13682639
H      90.76825342      60.05259233      99.03411159
H      89.88386150      59.06237574      95.98409333
C      91.63752752      66.77812828      84.23188538
O      92.87529826      68.76234091      84.43408611
N      91.84917687      65.37406163      82.08704603
H      91.38241447      63.52212984      82.09838439
C      93.06238117      66.16585696      79.70410115
H      94.77636294      67.22032424      80.14440738
C      93.80882306      63.82448605      78.04681117
H      92.28003448      62.47900092      78.36806465
C      94.08850255      64.33849161      75.25568541
H      95.56437880      65.76334525      75.06482304
H      92.36318243      65.10383076      74.43176474
H      94.64786154      62.61128176      74.28436608
C      96.18420904      62.83615918      79.36395040
H      95.74201307      62.36372761      81.31981715
H      97.49189964      64.39140395      79.70032169
C      97.33316264      60.44754513      77.91642006
H      95.89319119      58.99623533      77.67075564
H      98.66541968      59.65763953      79.27324354
H      97.98322848      61.16753086      76.10039307
C      91.47312134      68.29368879      78.40396945
O      92.51058108      70.03979590      77.42698094
N      89.06749974      67.88928735      78.22633517
H      88.37585992      66.22065902      78.84805513
C      87.52170362      69.55035678      76.65597261
H      88.65742914      70.03790617      75.00624153
C      85.15954572      68.25967371      75.74512452
H      83.97846678      69.79035203      75.03269770
H      84.09751954      67.26378794      77.20210350
C      85.28993684      66.49466933      73.45099678
O      83.47390985      65.18319926      72.64219392
O      87.23446522      66.89529131      72.15464453
C      86.79415898      71.99188318      78.09405433
O      86.53526648      74.04412596      76.94699046
N      86.52203840      72.02400853      80.58471361
H      86.65620896      70.47821240      81.69587268
C      85.89464926      74.22742941      82.16074536
H      86.02126093      75.89794747      80.96076915
C      83.09407487      74.12727391      83.08860098
H      82.69156316      75.51244330      84.55691832
H      82.77471112      72.30557775      83.99944905
C      81.05694991      74.32758490      81.14218287
H      79.48658733      73.05957855      81.54280485
H      81.80717125      73.63216562      79.35261205
C      80.14421210      77.02422435      80.76612734
O      78.79116805      78.19207521      82.32326182
O      80.93222797      78.24876700      78.80459142
C      87.54815978      74.72820688      84.57014640
O      88.01114273      76.93918667      85.12005676
N      88.53270720      72.82525248      85.78901988
H      87.96012013      71.03757139      85.44508968
C      90.10684922      72.98776895      88.03590446
H      91.62429944      74.37860751      88.09826543
H      91.14619869      71.26622828      88.47810042
C      88.54404555      73.56035602      90.43396714
O      86.89620421      75.26299943      90.43018770
N      89.00324904      72.27534213      92.63549830
H      90.56416298      71.17741114      92.63171886
C      87.68799953      72.88005455      95.02600209
H      85.73591225      72.96698196      94.37593623
C      88.23035099      70.74088436      96.93651540
H      90.26936567      70.72198710      97.22186407
H      88.21334344      68.84359914      96.13338171
C      86.68077540      70.84670903      99.49331509
H      86.75447474      72.70619973     100.38148647
C      84.01626131      69.77523421      98.96608146
H      83.17911255      69.29524373     100.78777762
H      84.07862227      68.02723737      97.88137855
H      82.81061591      71.09993236      97.94751897
C      88.09807015      68.94375464     101.36981333
H      87.12297136      68.61305253     103.15371497
H      89.73646285      69.95286849     102.10869632
H      88.59128871      67.16363245     100.45707551
C      88.47412568      75.51811248      96.02188786
O      90.62652396      76.28723109      95.73653918
N      86.71101103      77.06201888      96.99320719
H      84.83262307      76.72942705      96.90439004
C      87.26848029      79.28055757      98.33302314
H      89.30182580      79.39205142      98.64671771
C      86.49747196      81.67862026      96.92517704
H      86.98313161      83.44551436      97.86815046
H      84.45278809      81.86759289      96.77021948
C      87.53493170      81.85058535      94.31546499
H      86.98124190      80.16494948      93.26666690
H      89.59284365      81.77877575      94.24932458
C      86.48802333      84.13148501      92.86226547
H      86.55605347      85.81712089      94.04145469
H      84.53593604      83.92928430      92.23865577
N      88.05082698      84.73997689      90.61160143
H      89.58339502      85.87759213      90.67018293
C      87.20989877      84.38470834      88.22865655
N      85.26537040      83.01087731      87.40851533
H      84.92899912      82.81056632      85.54146573
H      84.29405107      82.23042034      88.85604568
N      88.40420581      85.35224821      86.31625351
H      87.98468657      84.79855840      84.53802106
H      89.85551562      86.58246004      86.47310080
C      86.01748148      79.27866784     101.02399340
O      83.81595032      78.60970473     101.31690099
N      87.45367347      79.98542548     102.84002040
H      89.18844222      80.66572696     102.42428061
C      87.09840493      80.16305976     105.65382288
H      85.80016295      78.60214582     105.99775306
C      89.50402653      79.49976582     107.06922789
H      89.62118956      80.39171664     108.92304940
H      90.89675482      80.67895504     106.11113665
C      90.66998765      76.70675033     107.11080186
H      89.27159019      75.52000221     108.04621639
C      91.46178298      75.30268368     104.61636313
H      92.96222567      76.34959206     103.66772051
H      89.73268340      74.94741513     103.55622666
H      92.24035022      73.48476697     105.20028856
C      93.03592499      76.90895105     108.88147541
H      92.48412491      77.78389433     110.66348733
H      94.45321974      78.19396494     108.11802599
H      93.90708882      75.09103433     109.29910494
C      85.85874447      82.71608001     106.63081138
O      84.80427718      82.79544851     108.65470826
N      85.90976707      84.69273373     105.07178717
H      86.18377738      84.39037752     103.20662730
C      84.73624703      87.16827520     105.64248452
H      84.06350446      87.21362863     107.58701290
C      86.64487060      89.29799675     105.57256464
H      87.87319271      89.09012686     107.21284709
H      85.82661911      91.18205389     105.70673522
C      88.51003048      89.43783650     103.40882801
H      87.41020976      88.94083848     101.74019967
H      89.88575123      87.96573970     103.84913425
C      89.77803683      92.05888690     102.99875741
H      91.22934664      92.17982938     101.54177842
H      90.68321574      92.48218559     104.79777686
C      87.96012013      94.11490913     102.34113265
H      86.16676985      93.77475839     103.29922389
H      87.63697692      93.96373102     100.31156659
N      88.89364492      96.57533279     103.29922389
H      90.50369173      97.02319792     102.37892718
H      89.15442716      96.74729788     105.18139129
H      87.75225022      98.05498849     102.91183000
C      82.66321726      87.68794994     103.76976574
O      82.62353301      86.50309154     101.82712709
N      80.98514030      89.35846800     104.49920010
H      81.03805263      90.14648387     106.23774830
C      78.96880232      90.23530101     102.64726830
H      77.97291655      88.54021650     102.03877644
C      77.15466506      92.30833077     103.74897876
H      78.43400977      93.89948033     104.03054798
C      75.23281341      93.19083296     101.72319214
H      73.74370906      91.79243549     101.45296128
H      75.95468886      93.79932483      99.89204735
H      74.24637627      94.83867430     102.46585459
C      75.88476898      91.27842993     106.12814418
H      77.29072536      90.31844896     107.28654641
H      74.52227631      89.81578176     105.63114616
C      74.77360992      93.48185081     107.63803551
H      74.13110296      92.87524866     109.49941593
H      72.94246512      94.05065843     106.88592442
H      76.14933067      95.01441885     107.67583003
C      80.31806692      91.37480597     100.31534604
O      82.11141718      92.86957949     100.46274469
N      79.43556473      90.73607848      98.12893270
H      78.18834535      89.29421730      98.09302790
C      80.50326010      91.99841566      95.83669468
H      81.50670476      93.70294879      96.40928176
C      82.36653023      90.18427839      94.59703422
H      83.76492770      89.83656875      96.06913102
H      83.47390985      91.14614909      93.14950386
C      81.20623828      87.76353899      93.59736899
C      80.35964089      87.54244101      91.07269464
H      80.63365121      89.11658303      89.80468828
C      79.09730372      85.38059411      90.24688425
H      78.41511252      85.13681941      88.33826067
C      78.75337353      83.27921845      91.95330711
O      77.81228982      81.16272498      90.92151654
H      77.91811449      81.10225373      89.10926901
C      79.65855243      83.34157942      94.49687873
H      79.51115377      81.91672578      95.95007826
C      80.87931563      85.63192771      95.22820281
H      81.58607327      85.76420855      97.13871611
C      78.33007484      92.68249658      94.07169031
O      76.28350123      91.52787380      94.07546976
N      78.74959408      94.65159140      92.58447570
H      80.23491895      95.82133199      92.83769901
C      77.12065000      95.34701068      90.43018770
H      75.11565038      94.95394761      90.68530075
C      77.59497129      98.07199603      89.54201633
H      76.74459445      98.25152003      87.67307701
H      79.61697846      98.46127965      89.51556016
C      76.39121564     100.09022373      91.34481523
H      77.31907125      99.72739628      93.14572441
H      74.35975984      99.94093535      91.64528172
C      76.98269998     102.79820153      90.40373152
H      78.91022080     103.34433244      90.87616311
H      75.67878881     104.00573665      91.44308100
C      76.69546157     103.28953038      87.55591398
H      77.38143222     101.73806507      86.38806312
H      77.76882611     105.03374776      87.33859545
N      74.06685226     103.66180646      87.03623924
H      73.31474120     101.95538360      87.44064067
H      73.96480704     104.06242844      85.17296909
H      73.51127274     105.18114641      88.04913255
C      77.39843975      93.51964534      88.18708256
O      79.46391062      93.24374530      87.22521187
N      75.25549012      92.49352395      87.24410914
H      73.61520769      93.22862749      87.88661608
C      75.09486338      90.95150728      84.97643756
H      76.62932115      89.58145570      85.08604168
C      72.77616919      89.29610703      85.38272871
H      71.09053332      90.41860446      84.99911427
H      72.89711168      88.47785553      87.26867558
C      72.67790343      87.17583410      83.47032569
O      71.23793198      87.50086703      81.55981239
O      74.13299269      85.25587217      83.58559899
C      75.34430725      92.40092736      82.42152759
O      75.78461348      94.76686470      82.10027410
N      75.20824697      91.04221414      80.34849782
H      74.76416127      89.20351044      80.59605197
C      75.14588599      91.98707730      77.73311659
H      76.81829379      93.17571515      77.55170288
C      75.45580111      89.95751124      75.70733000
H      74.92856746      90.66426888      73.84594958
C      78.10141795      88.78210147      75.57882860
H      79.15588523      89.85357629      74.16909278
H      77.84630490      86.95284640      74.66798052
H      79.10486262      88.55344459      77.36273025
O      73.95724814      87.89393010      76.36873421
H      72.31318626      88.19250686      75.66197657
C      72.58152738      93.44594601      77.48178300
O      72.43223900      95.29409835      76.16275404
N      70.59731475      92.44061161      78.74600991
H      70.72014696      90.65104079      79.39607575
C      68.16901644      93.76153031      78.87829075
H      67.49627387      94.54954618      77.09627884
C      66.08086887      91.86235536      79.53024633
H      65.82008663      92.30644104      81.52390759
H      66.81975185      89.94995233      79.35072233
C      63.42202394      91.90392934      78.10539268
H      62.46204298      93.60090357      78.76490716
H      62.32598268      90.32978732      78.85561403
C      63.40123695      91.79243549      75.14986073
O      65.23049202      90.64348189      74.25413046
O      61.68725519      92.79776989      73.83272149
C      68.21625961      95.93660529      80.66597184
O      66.36432781      97.19516302      81.04391709
N      70.42534966      96.46194921      81.75067474
H      71.95980743      95.55110112      81.07037327
C      70.75983122      98.54820706      83.46276678
H      69.90189548     100.20360731      82.58782350
H      72.80451509      98.69560571      83.64795996
C      69.64678242      98.20994605      86.11027335
O      70.39889349      99.52708529      87.79779894
N      67.82130681      96.58289169      86.54491040
H      67.15990260      95.67204361      85.00667318
C      66.69502993      95.87991350      89.07903339
H      65.71804141      97.47106306      89.94830749
C      64.39712273      94.09979132      88.61227099
H      63.62800411      93.66893372      90.47365140
H      65.23994067      92.37069174      87.87905717
C      62.23338610      95.24496546      87.07970295
C      61.40568597      93.71239742      85.13706430
H      61.97260386      91.78109713      84.79124438
C      59.54430555      94.78765169      83.43442089
H      58.90179860      93.59712412      81.90752203
C      58.63723692      97.24618563      83.64984969
O      57.35978193      98.38002141      81.78091036
H      57.36167166     100.13368743      82.25334194
C      59.53674664      98.69560571      85.73988698
H      58.83943763     100.60800874      85.87783701
C      61.26395649      97.68838158      87.43497149
H      62.03307510      98.83922491      88.93541418
C      68.58475624      94.59112016      90.72309528
O      70.17401606      92.94705826      89.88405680
N      68.37121716      94.89725582      93.19863675
H      67.02195258      96.13124710      93.75043683
C      69.96047699      93.80310428      95.08269388
H      71.89555673      94.08278378      94.43073831
C      69.72804066      94.99363186      97.58847096
H      70.82030246      93.99585637      99.02277325
H      67.83642461      94.89158664      98.39538411
C      70.69558052      97.66381514      97.45807986
C      68.94947341      99.70849901      97.82090731
H      66.95014298      99.30598731      97.93996007
C      69.76205572     102.11978979      98.24042655
H      68.51483636     103.70527016      98.55601085
C      72.41523147     102.77930427      97.86437102
O      73.30529257     105.23027930      98.12515325
H      72.22247938     106.48694730      98.85458759
C      74.14244132     100.86690124      96.93273593
H      76.09641833     101.45271640      96.88360306
C      73.35253572      98.33844744      97.02533253
H      74.64132907      96.77564377      96.78722701
C      69.58631118      90.85324151      95.43607270
O      67.39800811      90.05388728      95.89716592
N      71.67823820      89.44350568      95.72142138
H      73.32796928      90.22396265      95.16395212
C      71.87288001      86.64293128      95.63638368
H      69.98882288      85.85113596      95.89527620
C      72.58719656      85.93617364      92.88683191
H      74.50526877      86.49742236      92.39172361
C      71.97114579      83.21496775      92.35770854
H      72.86309661      82.70096220      90.57380690
H      69.94724890      82.83891222      92.41062088
H      72.87254523      81.97152784      93.72964984
O      70.81085383      87.15315739      91.29757208
H      71.08108469      88.91816177      90.96875970
C      73.73615016      85.64515579      97.61870660
O      75.43501412      87.04922244      98.36703822
N      73.28639530      83.38126367      98.49931906
H      71.58564162      82.66883685      98.00987994
C      75.22147505      81.88837988     100.03566654
H      76.98269998      82.95418552      99.95251859
C      74.42023108      81.81846001     102.78332861
H      74.36164958      83.86125415     103.04222111
C      71.72170192      80.83958178     103.23308347
H      70.27984073      81.97530729     102.29766894
H      71.38722036      80.70352148     105.26075981
H      71.65556150      78.95741437     102.40349362
C      76.19468409      80.74509546     104.71651863
H      76.52349648      78.75899311     104.27243293
H      75.45391138      80.96808317     106.62514220
C      78.71557899      82.25687651     104.60880423
H      79.81162026      82.05089634     102.87970465
H      80.04216687      81.45941201     105.96751744
H      78.33007484      84.26565558     104.85824810
C      76.07941080      79.36370553      98.84324925
O      74.73770512      78.26766427      97.27099695
N      78.15999946      78.15994987      99.79756103
H      79.39588047      79.22764523     100.78399816
C      79.10864208      75.60881934      98.90938967
H      77.62331719      74.23309859      99.29300411
H      80.77349095      74.99276856      99.95251859
C      79.58296337      75.55023783      96.03700567
O      81.59552190      76.63872018      95.25276925
N      77.86709189      74.41073286      94.65750546
H      76.37420810      73.64161425      95.56457409
C      77.67433980      74.57513905      91.79834955
H      78.93478726      76.01322077      91.03112067
C      78.67589474      72.04290579      90.54735073
H      77.32851988      70.65017750      91.24654947
C      78.44156868      72.40195379      87.63150303
H      76.64065951      73.03123265      86.85860496
H      78.82896257      70.69742066      86.54113095
H      79.67178051      73.91562457      86.96253992
C      81.35552666      71.48165708      91.35993305
H      81.53127120      71.29646390      93.40461692
H      82.40054531      73.18807994      90.87049393
C      82.22669049      68.98910807      90.15806711
H      81.00970674      67.53779826      90.96686997
H      84.19578530      69.05146904      90.76088981
H      82.57440013      69.07036630      88.12850105
C      75.03061268      75.01166583      91.15395288
O      73.35253572      73.59437109      92.01755780
N      74.36731875      76.82769281      89.58359031
H      75.75626759      77.95585942      88.92029638
C      71.60075943      77.26044014      88.71431621
H      70.91478878      75.58236317      87.73543798
H      71.38155117      78.86103833      87.43497149
C      69.56552419      77.70452582      90.69852884
O      67.55107594      78.63994035      89.94263831
N      69.81496806      77.27933740      93.20619565
H      71.35131555      76.25132629      93.68240669
C      67.80051982      77.57035526      95.16395212
H      66.09598668      76.63872018      94.48176092
C      68.90411998      76.39683522      97.55445590
H      70.38944487      77.57980389      98.35003067
H      69.72237147      74.58458768      97.01966334
C      66.84998748      75.93952145      99.52921989
N      65.73315922      73.67562932     100.14149122
H      66.37188672      72.06558251      99.33835754
C      63.86610963      73.92507320     101.83279626
H      62.76439919      72.38872571     102.60191488
N      63.88311716      76.30423863     102.33735320
H      62.62455944      76.95430448     103.61858763
C      65.65001127      77.65539294     100.98430916
H      65.93158049      79.67740009     101.01076533
C      67.12966697      80.37092965      95.73842891
O      68.35987880      81.61625929      97.26721749
N      65.03585021      81.17406333      94.58569585
H      64.00028019      79.85881382      93.67106833
C      64.00594938      83.77054729      94.62915957
H      65.31552971      85.21807764      93.96964509
C      61.95181687      83.76676784      92.48243048
H      60.69514887      82.24742788      93.07391481
H      62.79652453      83.11859171      90.71931583
C      60.40224130      86.24797848      92.04023452
H      59.20982400      86.34435453      93.71642175
C      62.03874428      88.66871789      91.52622896
H      63.45603902      88.97485355      92.99265657
H      60.81420163      90.31466951      91.33725632
H      62.94014373      88.30966989      89.71020198
C      58.54086088      85.60736126      89.81980610
H      57.73961692      83.72330413      90.04846299
H      59.79185971      85.38815301      88.19842093
H      57.10466888      87.06622998      89.60815675
C      63.05919649      84.30156038      97.31824011
O      61.39623734      82.99009032      98.39349438
N      63.93036032      86.48986345      98.22719847
H      65.23616121      87.46874168      97.23887160
C      63.22927186      87.57645608     100.75187281
H      62.51684504      85.98341680     101.84413463
C      65.65757017      88.53076787     102.15971893
H      64.95081253      89.93294480     103.49386569
H      66.79140596      89.55688926     100.78210843
C      67.40745674      86.61836484     103.40315883
H      67.61721636      84.89115499     102.30333813
C      70.01527906      87.90904791     103.57701366
H      69.72426121      89.56444816     104.76754124
H      70.50093871      88.27754455     101.60791884
H      71.37777173      86.55600387     104.32534528
C      66.25472369      85.86058459     106.02042977
H      67.30730124      84.32045765     106.89348333
H      64.30263641      85.27287971     105.72563247
H      66.30952575      87.56511773     107.17883201
C      61.17513936      89.73641326     100.39849400
O      59.25895688      89.51342555     101.65894145
N      61.38867843      91.66015465      98.72986567
H      62.96282045      92.15715267      97.76988470
C      59.34777401      93.48563026      98.51254714
H      57.54686484      92.48596504      98.44073753
C      59.23061098      95.27709081     100.86714613