 %block lattice_cart
   140.777   0.000   0.000
   0.000 144.511   0.000
   0.000   0.000   162.462
 %endblock lattice_cart

 %block positions_abs
N      93.68693572      43.30772748      81.92641928
H      95.52185997      43.09796786      81.44264935
H      92.86112532      42.05483893      80.74911979
H      93.19749660      42.76915548      83.69142366
C      92.94427328      45.84940937      81.16863903
H      93.78142203      47.01914996      82.64262556
C      94.05543235      46.42010672      78.64774413
H      93.50363226      44.84785442      77.44020902
H      96.09255731      46.46168070      78.95387979
C      93.26363702      48.95233998      77.43265011
H      91.29643193      48.73691118      76.86195277
H      94.58077626      49.36241059      75.90197180
S      93.77764258      51.21245265      79.95165529
C      93.37135142      54.26625037      78.23767352
H      93.82866519      55.94621706      79.33749424
H      91.46461757      54.49868670      77.49879053
H      94.78486670      54.48923807      76.75423837
C      89.99630023      46.03838200      81.01557120
O      88.78876511      44.60974891      79.61906346
N      88.96073021      47.71267951      82.65018446
H      90.18905231      48.82383859      83.59882707
C      86.36991543      48.23046452      83.05836535
H      85.18127758      46.95300954      81.96610354
C      85.80299754      47.46890482      85.88161646
H      86.61369013      48.81438996      87.21198378
H      86.76486823      45.71523880      86.37105557
C      83.01754095      47.07206229      86.50522614
O      81.37536879      47.02670886      84.90651768
N      82.40904908      46.62230743      88.91084774
H      80.80845089      45.59051687      89.03556967
H      83.73941641      46.16877312      90.20531026
C      85.75953383      51.08773071      82.75033996
O      87.43950053      52.71667479      82.31948236
N      83.28966154      51.44677871      82.71443516
H      82.27865797      49.82728326      82.70876598
C      81.85724900      53.82027496      82.50278581
H      82.02165519      54.57238603      80.59227251
C      79.10013831      53.41020435      82.97332766
H      78.44629300      51.96834317      81.65618842
C      78.43117519      52.31416309      85.68697465
H      79.27588285      50.47356966      86.05925073
H      76.41294749      51.97212262      85.92696989
H      78.91305540      53.64830986      87.17985843
C      77.36914900      55.69677319      82.49900636
H      77.57512917      56.96666927      84.11094290
H      75.47564324      54.96922856      82.13239945
C      77.85858812      57.02147133      79.85527925
H      78.27432791      55.62874304      78.39830026
H      79.21352189      58.55592910      80.09716421
H      76.08224538      57.96822422      79.41875247
C      82.76809708      56.11440270      84.08637646
O      82.75108954      58.27247015      83.26056606
N      83.55044377      55.57205125      86.37483503
H      83.59201775      53.78248043      87.03434951
C      84.50853501      57.32382754      88.24755380
H      83.12525535      58.84505722      88.36282711
C      84.56144735      55.92920952      90.85159666
H      85.31922760      57.02714051      92.42195923
H      85.64237080      54.18688186      90.66073430
C      81.99141957      54.88419087      91.77000365
C      81.35647152      52.31983227      91.99677081
H      82.78321489      50.96111905      91.46575771
C      79.00943144      51.59984654      93.03045110
H      78.47274917      49.64209008      93.24965935
C      77.52032711      53.56705163      93.96964508
H      75.82902206      52.96800839      94.94096440
C      78.13259843      56.13707942      93.65028133
H      76.87782016      57.59594813      94.33058280
C      80.45885153      56.82682952      92.53345308
H      80.97663654      58.75057091      92.08558794
C      87.12391623      58.34239003      87.32158791
O      87.49241286      60.68754038      87.18363789
N      88.95695076      56.81738089      86.68852959
H      88.60546166      54.97300801      87.03623923
C      91.45894839      57.40508577      85.77957124
H      92.37168620      58.64096678      87.15151254
C      92.85923559      54.87663197      85.65106985
H      94.18015428      55.03158952      84.07692783
H      91.45138949      53.43099134      85.23344033
C      94.08566797      53.93176881      88.10393460
H      95.36690241      52.38597269      87.63528248
H      92.53987184      53.14375294      89.21320395
C      95.52374969      56.09172599      89.50611153
O      97.40591710      57.04603777      88.47621069
O      94.73573382      56.94966173      91.59425910
C      91.36257235      58.77702708      83.26245579
O      92.99907534      60.56470817      83.12072631
N      89.50308166      58.08727697      81.49934114
H      88.55821850      56.43754590      81.65807815
C      88.88136170      59.50268198      79.15608051
H      90.57455648      59.72000051      78.00145773
C      86.78376550      58.11940232      77.66319672
H      85.21907211      57.74523651      78.94821062
H      87.58878890      56.31849314      77.07171239
C      85.45150844      59.66141899      75.59205668
H      86.91793606      59.96188548      74.17665168
H      84.87514192      61.51901996      76.27613761
S      82.70573611      57.82838447      74.47144898
C      83.02132041      58.42931744      71.11907450
H      85.01876112      58.40286127      70.61451758
H      82.13881822      60.22833689      70.64097374
H      82.12559013      56.93832337      70.01736406
C      88.17838351      62.25412349      79.81370527
O      89.20828435      64.01912787      78.56837563
N      86.62502849      62.56025916      81.64862952
H      85.79921809      61.14674387      82.63317693
C      85.75575438      65.07926433      82.43475566
H      85.28710226      66.13940079      80.73211225
C      83.22919030      64.96210130      83.83504286
H      82.82289914      66.68553170      84.88762042
H      83.42572184      63.36717229      85.12194648
C      81.04088723      64.47644164      81.92641928
H      81.37914824      62.91741743      80.62250813
C      78.72597250      63.92275183      83.50623048
H      79.08313077      62.05759196      84.29991553
H      77.07246197      63.49378395      82.35349743
H      78.34991696      65.56114454      84.69675806
C      80.36436521      66.67419334      80.37306426
H      78.38393203      66.74789267      79.80614636
H      81.48875237      66.95576256      78.67231057
H      80.62136799      68.49777923      81.29336097
C      87.82878415      66.64773717      83.78024080
O      87.99885951      69.00989506      83.43064143
N      89.65992894      65.34571574      84.91974576
H      89.83945294      63.44654080      84.90840741
C      91.83878338      66.57970702      86.17641376
H      91.26430658      68.28801961      87.17229953
C      92.79309517      64.60872248      88.05480172
H      93.77764258      63.17253048      86.95687073
H      91.19060726      63.91897237      89.14895325
C      94.63557833      65.74822745      90.09948559
H      93.71528161      67.11072012      91.34103578
H      96.20972034      66.74222349      89.22076285
C      95.67870725      63.62417507      91.67362761
H      97.34544586      64.28557928      92.69219009
H      96.59144506      62.32782282      90.35837809
N      94.01196864      62.21821869      93.28178470
H      93.94393850      60.42864787      92.62415994
C      92.58144582      62.86261537      95.27166651
N      92.88380203      64.90351978      96.63415918
H      91.54965526      65.29658286      97.94184979
H      94.41070089      66.02601721      96.41117147
N      90.66526334      61.42642337      95.85559194
H      89.58433989      62.04058442      97.30312229
H      90.14369888      60.00156973      94.69718971
C      93.92882068      67.16174273      84.23188539
O      95.42926338      68.90973957      84.59282311
N      93.93637959      65.89562610      82.03602341
H      92.79120544      64.40274231      81.71665966
C      95.47461681      66.68553170      79.87039706
H      97.36056367      67.33748728      80.38251289
C      96.00940936      64.53124370      77.94665567
H      94.26519197      63.59393945      77.38918641
C      97.48150615      65.56681372      75.63552039
H      98.05220350      63.95676690      74.48467706
H      99.14257558      66.51356660      76.40274927
H      96.52341491      66.94631393      74.44310309
C      97.97472472      62.71143726      79.10505790
H      97.08844308      62.25034404      80.90407735
H      99.72461129      63.76023536      79.38662712
C      98.47550219      60.11873276      77.78791866
H      96.87112455      58.89419011      78.19609954
H     100.15168943      59.16631070      78.50979411
H      98.74573306      60.30014649      75.75457315
C      94.41825980      69.13461700      78.51357356
O      95.80531891      70.88072411      78.04492144
N      91.97295395      69.05524849      77.97122211
H      90.91092776      67.63228458      78.67042085
C      90.52542360      70.94875426      76.63896506
H      91.47595593      71.27756664      74.83994561
C      87.81555606      70.19097401      76.07393689
H      86.60991067      71.80857973      75.65819710
H      87.09934979      69.25933894      77.76713167
C      87.65492933      68.37494702      73.79681669
O      89.34056520      68.72643612      72.22834385
O      85.92205030      66.99922627      73.34139264
C      90.71061677      73.57358411      78.07515706
O      91.48918401      75.34236794      76.94132127
N      89.73551800      73.88538895      80.40707933
H      89.30277067      72.28290104      81.35005276
C      89.61079606      76.28912082      81.92075011
H      90.31944343      77.94074162      80.91163625
C      86.89525935      76.68596335      82.66341255
H      86.54188053      77.81035050      84.35282787
H      86.23385514      74.84159046      83.29458114
C      85.37780912      77.40027989      80.25401150
H      83.42950129      76.76344212      80.45054303
H      86.09401539      76.45163728      78.57404481
C      85.47796461      80.22164128      79.89874295
O      83.60335611      81.52744216      80.05936969
O      87.44894916      81.25154212      79.22977984
C      91.29076275      76.24943657      84.29235663
O      91.95216696      78.27333345      84.94431221
N      91.81043749      73.95152937      85.37139035
H      90.85423597      72.42840996      84.73266286
C      93.19371715      73.36004503      87.77134277
H      95.10423045      74.12916364      87.80157839
H      93.55465487      71.34937624      88.03212500
C      91.74051761      74.35404108      90.12027258
O      89.51064056      74.83403156      90.12216230
N      93.13891509      74.66206646      92.08369822
H      94.98895715      74.29734929      91.78701119
C      92.36979648      75.75432827      94.54412188
H      90.33645096      76.03589749      94.71419724
C      93.19938633      73.90050676      96.66817425
H      95.23840102      73.64917316      96.50754752
H      92.26019235      72.09392840      96.36392832
C      92.71750612      74.56002124      99.34591644
H      93.89291588      76.18329615      99.81645829
C      89.96606461      75.19874874      99.95251858
H      89.69394402      75.51622276     101.97074629
H      88.71884524      73.74554920      99.19662806
H      89.50686111      76.81824419      98.76388073
C      93.51119117      72.30368803     101.12792835
H      92.31121496      70.66151586     100.80667488
H      93.34300553      73.01233539     103.05544919
H      95.42926338      71.59882011     100.87659475
C      93.34111580      78.37915812      95.10537059
O      95.46705790      78.93473766      94.28900882
N      91.63469294      79.97030768      96.15038924
H      89.97551324      79.16339454      96.64171808
C      92.14113959      82.55923273      97.03478116
H      94.13291113      83.08079719      97.09147295
C      90.98462709      84.54533508      95.21308499
H      91.26997576      86.18939697      96.41873038
H      88.99285556      84.21463298      94.80868356
C      92.25452317      84.85147074      92.59581405
H      92.05043273      83.12237117      91.49410361
H      94.26897142      85.23697491      92.80368394
C      90.83533871      86.88292653      91.02545148
H      90.68794006      88.76131449      91.85504133
H      88.88325143      86.30089083      90.70797746
N      92.00318957      87.33268139      88.49888740
H      92.99340616      88.95406657      88.33259149
C      91.93893888      85.81901062      86.48065970
N      91.09234149      83.57212603      86.56947684
H      90.41770920      82.71419028      85.00289372
H      90.26653109      82.95985470      88.17952365
N      92.76096982      86.77143268      84.24322374
H      92.71939584      85.75475992      82.62750775
H      93.65103092      88.45517882      84.13361962
C      90.99785517      82.81812523      99.67472882
O      88.68671989      82.78977934     100.06401244
N      92.40003210      82.76332317     101.80822982
H      94.27275087      82.86725812     101.45485100
C      91.53453745      83.10536363     104.46140557
H      90.13802970      81.68806890     104.98863921
C      93.70961243      82.82946359     106.43427984
H      93.33733635      83.23953420     108.41849247
H      95.19682704      84.17683845     105.97129689
C      94.82644068      80.03644810     106.20184350
H      95.63146409      79.83046793     104.31778637
C      97.01285403      79.89093917     107.92716363
H      96.43459778      79.29189593     109.81311049
H      97.92937129      81.72586342     108.12747461
H      98.39802342      78.46230608     107.39804026
C      92.89325067      77.92940326     106.87080662
H      94.00252001      76.20030368     107.02387445
H      91.32477783      77.83113749     105.53854957
H      91.92571079      78.31679715     108.64714935
C      90.27220027      85.63759689     105.16816321
O      89.05332680      85.94373255     107.08812514
N      90.52731332      87.61803007     103.49197597
H      91.90870326      87.37047592     102.19940317
C      89.44072069      90.14081469     103.76598628
H      88.39003286      90.27498526     105.53288039
C      91.70083336      92.00975402     104.09857812
H      92.95939109      92.14959376     102.47530321
H      92.69860886      91.04410387     105.61791807
C      90.93927366      94.74040854     104.96218304
H      89.65992894      94.57789208     106.56845041
H      89.69016456      95.74763266     103.67338969
C      93.26552675      96.43171359     105.54799820
H      94.66581395      96.47328757     104.03810687
H      94.16881593      95.76464020     107.27709777
C      92.47940060      99.17370647     105.97318662
H      94.01952755      99.98250933     107.07678678
H      90.66904279      99.06221262     106.95017512
N      92.20350056     100.64391354     103.51843214
H      90.62935854     100.03731140     102.62081214
H      93.88157753     100.22817375     102.70962928
H      92.06177109     102.52041177     103.82456780
C      87.49052314      90.90615385     101.70618460
O      87.86846840      90.18616813      99.58969113
N      85.46851598      92.25163899     102.32223538
H      85.28143308      92.53131848     104.20062334
C      83.39359649      93.06233157     100.64793787
H      82.46574087      91.30110665     100.11125559
C      81.15049136      94.66292976     101.93295176
H      81.87992571      96.57911224     102.12003467
C      78.82234854      94.53064892     100.14527067
H      79.30044930      95.09378736      98.22152928
H      77.45607641      95.86668542     100.91627900
H      77.91905936      92.68060686     100.07724052
C      80.64782416      93.71239743     104.68250355
H      82.36180592      93.82578100     105.82200851
H      80.26609944      91.70172863     104.44628776
C      78.52377178      95.19016340     106.08090102
H      78.72975195      97.23106782     105.87114140
H      78.53322041      95.00685995     108.13125407
H      76.76632631      94.30010231     105.47996805
C      84.30444457      94.24907970      98.15349913
O      86.00708798      95.92148749      98.35758958
N      83.39926567      93.39114395      95.98409333
H      82.32779085      91.81322248      95.94440907
C      84.14192811      94.32466875      93.50477240
H      84.81656040      96.22573342      93.91862247
C      86.10724348      92.44439107      92.35392908
H      87.75697455      92.44250134      93.58981009
H      86.90659771      93.24374530      90.63238841
C      85.11891661      89.72318518      91.79457009
C      84.40271034      89.08823714      89.39083822
H      84.28365758      90.58112093      88.00566883
C      83.56934104      86.56923196      88.87305321
H      82.99297451      86.16672026      86.95498100
C      83.69595270      84.67005702      90.73065418
O      83.11202727      82.13593403      90.19586163
H      82.96462862      82.07735252      88.38928328
C      84.51420419      85.37681466      93.11737851
H      84.38570280      84.07101378      94.68207190
C      85.12836525      87.91471710      93.76744436
H      85.56867148      88.36825141      95.70819329
C      81.96496340      94.61001742      91.62260500
O      80.03933228      93.36279806      91.63772281
N      82.36936483      96.46761839      89.99744037
H      84.01909590      97.41437127      90.17129519
C      80.81600980      96.93816024      87.69008454
H      78.93951157      97.02508765      88.53668193
C      81.49253182      99.37779691      86.32759187
H      80.57790428      99.28897978      84.48321899
H      83.49564171      99.29275923      85.85327056
C      80.73286184     102.03853156      87.45764820
H      81.19395506     103.68259345      86.30491515
H      81.66260719     102.34655695      89.26989574
C      77.75654290     101.78719796      87.77323250
H      77.26521406     100.51541215      89.31713889
H      76.79278248     101.06532251      86.10082471
C      76.34491734     104.34588739      88.28345860
H      76.78900303     105.64979854      86.75089056
H      77.16316884     105.28508137      89.92563077
N      73.58402720     104.04731063      88.74077237
H      72.60892842     103.32732491      87.26489612
H      72.66562021     105.69704170      89.02423132
H      73.22308947     102.96260773      90.26956096
C      80.90104748      94.72718046      85.64918012
O      82.89281902      93.66515427      85.09738004
N      78.72597250      93.87302416      84.59471284
H      77.08380033      94.72718046      85.06336496
C      78.58046357      91.87369372      82.60672076
H      79.90327199      90.31089006      82.84293655
C      76.02933305      90.45450926      83.01868109
H      74.56668488      91.87747318      82.74278105
H      75.76477136      89.81011259      84.95943002
C      75.82713233      88.10180000      81.25745617
O      75.19785347      88.37581032      79.02568939
O      76.12003991      85.97207845      82.24578303
C      78.78455401      93.22484804      80.09716421
O      78.77699511      95.55866003      80.04992106
N      79.22863970      91.91526770      77.92208923
H      79.27588285      90.01609276      78.11106186
C      79.34391300      93.26831174      75.46355529
H      80.58546319      94.90481473      75.61662313
C      80.54010976      91.87180400      73.22800907
H      80.28310698      93.14736926      71.63308006
C      83.37280950      91.47118202      73.43020978
H      83.54666432      90.05766674      74.91553466
H      84.23263497      93.25508366      73.99334822
H      84.41404870      90.70584286      71.82772187
O      79.33635410      89.56633789      72.91431450
H      80.09413435      88.56667268      71.60284444
C      76.76821604      94.58167153      74.78514355
O      76.81356947      96.53753826      73.58138789
N      74.68195819      93.51019671      75.77913959
H      74.79723149      91.65826492      76.22889445
C      72.19129891      94.90481473      75.38985597
H      72.09681259      95.56243949      73.43965841
C      70.14472531      92.91304320      75.83394165
H      68.26633735      93.75397140      75.78480877
H      70.33747739      92.22518282      77.76713167
C      69.92929651      90.91182303      73.77225024
H      68.51767095      89.61736051      74.53003050
H      71.51099743      89.59090434      73.79114751
C      69.13561146      91.89826017      71.11529505
O      70.57558291      91.44661558      69.39564410
O      67.09659677      92.95650690      70.85073336
C      71.97587011      97.13280205      77.14919117
O      70.33747739      98.70127489      76.73723083
N      73.64260871      97.47295279      78.98978459
H      74.85392328      96.01219435      79.19198531
C      73.66339570      99.46283460      80.86439310
H      73.06624219     101.23539788      80.00078817
H      75.65516724      99.81054424      81.25367672
C      72.59192088      98.90725506      83.58181953
O      72.47286813     100.65525190      85.14840265
N      72.10248177      96.48840538      84.14117852
H      72.42562497      94.93127090      83.08671124
C      70.82313706      95.80999363      86.48254943
H      69.60615331      97.45027607      86.75467001
C      69.22820805      93.42893848      86.12539115
H      67.94319415      93.35712888      87.73354824
H      70.56235482      91.86235537      86.21609802
C      67.59170506      93.45539465      83.74811545
C      67.01911799      91.11780320      82.53680088
H      67.78445714      89.46429267      83.45331815
C      65.42229925      90.89481549      80.45810194
H      65.15017866      89.12414194      79.48111344
C      64.54735597      93.22295831      79.47166480
O      63.16785576      93.18327406      77.29847954
H      62.59337896      94.86702020      76.94699045
C      65.11805332      95.57377784      80.53369099
H      64.35460389      97.27075207      79.69465251
C      66.59581929      95.79298610      82.76923722
H      66.67896725      97.57688774      83.75756408
C      72.76388598      95.60212374      88.74833127
O      75.01266029      95.04465448      88.36471683
N      71.82091255      95.88558269      91.07836382
H      70.25243971      96.88902736      91.50166251
C      73.22497920      95.25630382      93.38760937
H      75.22053019      95.70227923      93.14950386
C      72.12137903      96.56210471      95.79512070
H      73.23631756      95.76652993      97.33335791
H      70.10882051      96.15581355      95.97275497
C      72.65239213      99.44582706      95.85370221
C      70.54912674     101.08988895      95.81968714
H      68.76144565     100.30754226      96.42439956
C      70.88171857     103.70715990      95.49654394
H      69.44552657     105.14713135      95.64583232
C      73.21742029     104.67281004      95.03545072
O      73.42340046     107.30897825      94.98253838
H      71.88516324     108.19148044      94.59892394
C      75.43217953     103.05520432      95.12804731
H      77.25387570     103.96794213      95.25087952
C      75.10714661     100.40391830      95.35859392
H      76.75309823      99.20394209      95.24143089
C      73.22686893      92.25730816      93.87704849
O      71.34848097      91.07244977      93.68807586
N      75.49076105      91.28409911      94.29656773
H      77.01577018      92.42549381      94.20586087
C      76.05956867      88.55155486      94.21530950
H      74.29267457      87.57267663      94.62160066
C      76.96285785      87.91849655      91.53000841
H      78.78644374      88.85580080      91.33536660
C      77.25387570      85.13115024      90.94608298
H      78.04567102      84.99131049      89.04879776
H      75.43028981      84.22030216      91.24843919
H      78.63337591      84.26754531      92.20842015
O      75.28478088      88.96162547      89.71776087
H      75.85736795      90.60946682      89.22265258
C      78.29511490      87.94495272      96.07480019
O      79.94673569      89.35657827      96.82691126
N      78.38015258      85.53555167      96.84202907
H      76.95907839      84.39226725      96.28267008
C      80.01098639      84.51320973      98.96986090
H      81.69851199      85.68295032      99.15127463
C      78.79589237      85.12737079     101.58713185
H      78.42739574      87.14937794     101.44918182
C      76.36948378      83.72708359     102.14838056
H      75.54367339      84.74753580     103.73575066
H      76.93262223      81.78444494     102.54522309
H      75.29989869      83.59669247     100.39282482
C      80.39460083      84.67383647     104.13448292
H      80.99742352      82.70474165     104.15149045
H      79.26832395      85.18784203     105.78232426
C      82.86636285      86.24608876     104.18172607
H      82.41849771      88.25675756     104.19495416
H      84.12303085      86.04766750     102.56412035
H      83.97185274      85.61869963     105.80311125
C      80.88781940      81.74665041      98.64671770
O      79.59902605      80.41628309      97.26532777
N      83.06856356      80.90950166      99.82590692
H      84.23074525      82.19829500     100.61959197
C      83.95295548      78.36970949      99.47063837
H      82.76998681      77.10359286     100.58746663
H      85.84268179      78.41884237     100.29077959
C      84.29877539      77.49665593      96.70974823
O      85.98819072      78.22798002      95.31513021
N      82.75486900      75.73732074      95.95763716
H      81.88181544      74.47498356      97.09525240
C      82.83801695      74.55435206      93.39516828
H      84.29688567      75.42929535      92.23676605
C      83.81878491      71.76511603      93.44808062
H      82.46196142      70.60293434      94.47042255
C      84.15893565      70.59726517      90.83647885
H      82.35235729      70.86371658      89.88216706
H      84.31578293      68.55825047      91.08214327
H      85.66315779      71.51189270      89.76878348
C      86.31700310      71.47031872      94.84836781
H      86.05055169      71.84259481      96.85714688
H      87.64359097      72.86871619      94.12082318
C      87.41871354      68.85304778      94.87482398
H      89.25930697      68.76234092      95.79323097
H      87.60579644      68.05180382      92.98509767
H      86.03543388      67.68330719      95.85559194
C      80.43995426      75.00788638      91.94007902
O      78.56345603      73.59248137      91.90417422
N      80.11681106      77.35492646      90.80057405
H      81.52465717      78.64183008      90.88561173
C      77.78299907      77.85570393      89.37383068
H      77.24820652      76.22109067      88.23999490
H      78.09480391      79.55078844      88.24566408
C      75.44540762      78.41506292      90.85726584
O      73.48954088      79.00465753      89.79712938
N      75.59469600      78.36404031      93.37060184
H      77.26899351      78.63805063      94.24365539
C      73.24198674      78.55679240      94.77466849
H      71.98909819      77.31146276      93.72020120
C      73.68607242      77.63271623      97.48453602
H      75.13360278      78.74009585      98.44262726
H      74.48353692      75.74487964      97.26910722
C      71.34470152      77.74232035      99.00765543
N      69.73276497      75.83747623      99.54622743
H      69.93874514      74.02900815      98.96986090
C      67.79579550      76.61415375     100.87659475
H      66.37850077      75.37071383     101.66272090
N      67.98287841      79.12560002     101.12603862
H      66.71865150      80.23864881     102.01987917
C      70.20708628      79.87204191      99.96952612
H      70.91573365      81.78066549     100.05645353
C      72.01933381      81.10792292      94.68963080
O      73.17962577      82.91450127      95.50032339
N      69.75355196      81.42161749      93.48209569
H      68.75010729      79.93062342      92.83958874
C      68.66884906      83.84046717      92.87738327
H      70.14094586      85.23319546      92.52589417
C      66.80368919      83.48708835      90.69474938
H      65.25222389      82.20018473      91.11615834
H      67.98287841      82.51576902      89.31335944
C      65.69441984      85.93428392      89.71209169
H      64.83837382      87.17772384      91.11237889
C      67.86760510      87.40260127      88.50266685
H      67.30824611      89.10146522      87.48221464
H      69.07514022      86.38592851      87.17796871
H      68.95041828      88.01298287      90.14483902
C      63.92374629      85.58846401      87.63150302
H      63.24533454      87.46496223      87.12316665
H      62.22110288      84.58501933      88.21542845
H      64.74955669      84.65304948      85.99500004
C      67.22698788      84.90627281      95.16773156
O      65.56780818      83.59480275      96.10314608
N      67.86760510      87.26843070      95.97653442
H      69.38316561      88.09613082      95.16395211
C      66.86038098      88.53265760      98.25932381
H      66.25566856      87.12670122      99.63693429
C      68.89561622      90.16538114      99.53299934
H      67.93374552      91.42204913     100.85013858
H      69.74410333      91.46740257      98.18184503
C      70.99699188      88.83123436     101.16005370
H      71.88516324      87.72574447      99.66528018
C      72.76577571      90.57167229     102.44128814
H      73.32702442      92.07967389     101.15816397
H      74.41928623      89.65515503     103.26142936
H      71.76233103      91.70550808     103.83968561
C      69.81402320      86.97363339     103.00631631
H      68.22854283      87.75409036     104.06267332
H      71.10281655      86.43884085     104.52187681
H      69.16962653      85.41271946     101.82901681
C      64.56247378      90.13892497      97.50343328
O      62.60660705      89.95562152      98.67506360
N      64.82892519      91.86613482      95.76299535
H      66.56558367      92.08345334      95.00143564
C      62.70109336      93.54421178      94.87860343
H      61.06270065      92.34801503      94.52144516
C      62.05480696      95.56054976      96.87415442