 %block lattice_cart
   140.777   0.000   0.000
   0.000 144.511   0.000
   0.000   0.000   162.462
 %endblock lattice_cart

 %block positions_abs
N      91.45611381      43.61575285      78.91041608
H      89.93866358      42.90521576      77.99578855
H      92.04192896      42.34018760      80.20298888
H      92.65420029      43.74803370      77.42887066
C      90.70022328      46.13853749      79.96299364
H      92.33105709      46.77348552      81.04769654
C      90.39030816      48.17755218      78.02035499
H      88.41743389      48.26070013      77.43642956
H      91.31060488      47.69378224      76.24212253
C      91.25580282      50.74002105      78.79136333
H      93.21733873      50.35640661      79.28458189
H      90.06905469      51.35985129      80.35605671
S      91.57138711      53.19666526      76.44810270
C      94.56282386      52.73179260      75.03647714
H      95.08438833      54.58750383      74.31838114
H      94.54770605      51.35607183      73.50579883
H      95.87240420      52.00424797      76.44999242
C      88.29838114      45.91743951      81.59382745
O      86.42377263      44.59652082      80.82659857
N      88.01492219      47.30449862      83.68953394
H      89.61741010      47.93755694      84.51156488
C      85.50914510      47.87897542      84.90084850
H      84.10885790      46.39931972      84.58715393
C      86.25747672      47.84685008      87.85449072
H      87.37619470      49.50225033      88.35148874
H      87.34028990      46.13475804      88.22865653
C      84.05027638      47.96590283      89.58548003
O      81.82417879      48.02070489      88.82392032
N      84.41310384      48.11708094      92.00621943
H      82.88998443      48.30416385      93.14194495
H      86.14409314      47.82228364      92.75644078
C      84.45467782      50.52081281      83.88606547
O      85.67733074      52.12896989      82.69553790
N      81.91866510      50.81372038      84.19598059
H      80.74703479      49.46634552      84.87061288
C      80.47302447      53.11162758      83.36639073
H      80.99647866      53.29115158      81.38028839
C      77.63087610      52.76580766      83.58748871
H      77.00348696      51.18599647      82.42341731
C      76.73892528      51.91543083      86.22743637
H      77.77449530      50.29026620      86.95120155
H      74.72258730      51.50536021      86.24444391
H      77.07151711      53.36296119      87.65606947
C      76.08507998      55.14686282      82.86750299
H      76.63876978      56.79470416      83.97488260
H      74.06496255      55.01080253      83.23788934
C      76.63499033      55.96889377      80.13306901
H      75.41233741      54.80482235      78.95576952
H      78.53038582      55.81582594      79.33938396
H      76.07752107      57.93609885      79.88173541
C      81.31395268      55.47000603      84.86494371
O      81.78260481      57.42020358      83.62906269
N      81.82039934      55.03914842      87.35371325
H      81.60874999      53.25146732      87.99433047
C      83.03171390      57.08761175      88.85415594
H      81.81473016      58.72033527      88.53668192
C      82.70668098      56.56793701      91.71142213
H      83.61374961      58.14207903      92.68085173
H      83.87075238      54.90686757      92.07047013
C      79.94012165      56.11818215      92.58825514
C      79.09541399      53.54248519      92.77722778
H      80.57884915      52.16487469      92.53912225
C      76.68412322      52.89808851      93.58981008
H      76.24570671      50.98190603      94.13027182
C      75.13454764      54.90875730      94.34570061
H      73.20702680      54.64419562      94.96553084
C      75.72414225      57.49957208      93.83736423
H      74.50526878      59.02836066      94.42695885
C      78.21858098      58.13074067      93.07958398
H      78.91400027      60.03747451      92.87738326
C      85.89464927      57.79247965      88.03401472
O      86.81494598      60.01668752      88.24566407
N      87.25903166      55.81204648      87.25733721
H      86.46723634      54.10373390      86.93986320
C      89.83850808      56.09172598      86.38995283
H      90.92132126      57.17453916      87.76756331
C      91.00257949      53.44799887      86.23499527
H      89.94055330      52.21967677      84.96509919
H      90.73045890      52.52959187      88.05858118
C      93.77669772      53.37240981      85.46776639
H      95.01824791      54.13585925      86.92096593
H      94.12251763      54.50057643      83.78024079
C      94.61195675      50.63230665      84.79124437
O      96.92309203      50.43010594      84.68919915
O      93.02269692      48.96556806      84.56069777
C      90.00102454      57.59027894      83.91441136
O      91.73012412      59.10583945      83.42308252
N      87.95445095      57.39941658      82.21743713
H      86.41432400      56.47534042      82.86561326
C      87.74658105      58.57860580      79.72110867
H      89.57583612      58.39341262      78.79325305
C      85.82094994      57.33705561      77.83705154
H      83.84996540      57.63185293      78.35672627
H      86.27826371      55.33016627      77.91453033
C      86.07984244      57.96066531      75.02702851
H      87.50469608      56.68887949      74.25413045
H      86.94722682      59.81259708      74.79081272
S      83.25470161      57.96444476      73.05604397
C      82.13031445      61.12028770      73.94232562
H      83.64776468      62.49600845      73.74201462
H      81.53505066      60.95399178      75.90764097
H      80.80372658      61.53224803      72.42298565
C      87.16832480      61.47933570      79.91575048
O      88.34373457      63.06859553      78.59672152
N      85.46190194      62.10483511      81.42186235
H      84.31483807      60.67998146      81.96988299
C      84.69845251      64.67297317      81.86594804
H      84.47924426      65.54602673      80.01401626
C      82.23802885      64.80336429      83.46276677
H      82.07551239      66.45309536      84.68730942
H      81.78071508      63.23867089      84.72132450
C      79.79650245      64.80903346      81.78091035
H      79.79650245      63.01190374      80.77557597
C      77.40410894      64.88840196      83.29269140
H      77.38710140      63.22733254      84.51156488
H      75.65611210      64.80903346      82.20609878
H      77.48158772      66.56269948      84.49455734
C      79.80406136      67.09182285      79.98567036
H      80.54861353      66.61939127      78.12428995
H      81.00592729      68.62628061      80.64707457
H      77.85008435      67.72299143      79.79291827
C      86.75258501      66.20176175      83.12828522
O      86.91132202      68.42785935      82.60672075
N      88.23979962      64.97343964      84.73266286
H      87.61241048      63.24056061      85.22966089
C      90.44699995      66.26601245      85.88350619
H      89.75536012      67.90440517      86.92285565
C      91.86618441      64.55203069      87.77134277
H      93.69354976      65.30981094      88.34770930
H      92.15720227      62.64907629      87.03812896
C      90.20700471      63.98133334      90.25633287
H      90.08039305      61.97822344      90.71931582
H      88.23224072      64.52557452      90.06358078
C      90.99124113      65.49500412      92.68085173
H      90.61518560      67.50189346      92.42006951
H      93.01135856      65.14918420      92.87927299
N      89.81961082      64.30825599      94.73498423
H      88.44577979      63.00434483      94.48554036
C      90.37519035      64.65407590      97.12926747
N      91.89264058      66.36616795      97.89082717
H      92.03248033      66.68931115      99.76732540
H      92.94710787      67.45276057      96.73053522
N      89.10529427      63.39740790      98.78655744
H      89.02781549      63.41252572     100.69518102
H      87.74847078      62.31837418      97.98909294
C      92.41231532      67.00678516      83.90874218
O      94.15842243      68.50533813      84.30369498
N      92.35373380      65.86539047      81.58626854
H      90.91376235      64.63517864      81.36706030
C      93.99212652      66.28868916      79.35450177
H      95.81004323      67.15229409      79.79291827
C      94.54959578      63.86794975      77.72555769
H      92.74679688      63.02513183      77.19454459
C      96.02358230      64.38762449      75.20655251
H      97.88496272      65.21721435      75.50323954
H      95.02202736      65.67452812      73.94988451
H      96.45066045      62.77190850      74.00090712
C      95.90075009      61.94420836      79.50190042
H      94.78203212      61.79303026      81.22344109
H      97.84149902      62.57159750      79.79669773
C      95.82894049      59.31748880      78.33593929
H      94.45321974      58.09105641      79.25245655
H      97.76213051      58.62395924      78.51168383
H      95.42075961      59.34583468      76.31771158
C      92.50302218      68.32203467      77.83705154
O      93.60662235      70.21365071      77.06037403
N      90.04259852      68.15762849      77.55926177
H      89.15820661      66.55325085      78.08649542
C      88.42688253      69.77523421      76.05881908
H      89.28292855      69.86027189      74.18799003
C      85.72268417      68.56769910      75.67709436
H      84.56050249      69.10249165      77.29281036
H      86.05149655      66.53435359      75.72244779
C      84.46601617      69.45587047      73.20722207
O      82.31739736      70.43285897      73.25824468
O      85.76803760      69.32169990      71.19466355
C      88.03948863      72.37171817      76.99612333
O      87.63508720      74.04412595      75.49568064
N      88.30216059      72.68541273      79.47166480
H      88.45900787      71.12449880      80.55825744
C      88.06216535      75.08536514      80.75478897
H      88.56105309      76.45352700      79.29780999
C      85.32773137      75.89794747      81.62028362
H      85.33906973      77.09792368      83.29269140
H      84.47357508      74.10459719      82.16641452
C      83.42666670      76.93540721      79.61150455
H      81.45568216      76.99020927      80.21243751
H      83.46446123      75.66362141      77.99200910
C      84.27704354      79.64338502      78.63829550
O      84.42255247      81.45374283      80.12928956
O      84.97813200      79.79267340      76.39141091
C      89.93866358      75.24410217      82.99789411
O      91.15564732      77.25666068      83.24166879
N      90.25991705      73.39406010      84.67597107
H      89.43977583      71.69141670      84.41896829
C      91.49579806      73.76822591      87.12883582
H      92.81482702      75.33669875      86.94553237
H      92.42365368      72.05613388      87.80346812
C      89.42276829      74.46175547      89.11493817
O      87.80894202      75.99243379      88.53101274
N      89.40198130      73.52256148      91.42229400
H      90.95722606      72.50021956      91.84937215
C      87.66154337      74.03845678      93.48020596
H      85.81717049      74.46553492      92.67140310
C      87.42721731      71.76322630      95.35670419
H      89.28103882      71.59126120      96.24109610
H      87.19856042      69.98499383      94.34381088
C      85.44300468      71.85960234      97.43540314
H      85.45623276      73.63405535      98.47853206
C      82.74447550      71.66873998      96.23920637
H      81.32529104      71.26244881      97.67728810
H      82.68022481      70.01522945      95.01466372
H      82.18700624      73.38083202      95.23954116
C      85.99858421      69.65051227      99.29489382
H      85.62063895      67.81369830      98.44073753
H      84.75136485      69.91507395     100.91060982
H      87.96012013      69.69964515      99.92039323
C      88.33617566      76.46297564      94.87104452
O      90.26558623      76.67651471      96.03700566
N      86.63542198      78.24687728      94.77655821
H      84.98002173      77.64405457      94.03956495
C      86.85651996      80.75265436      95.79890014
H      88.88230657      81.12115100      95.81590768
C      85.36930535      82.65560876      94.24365539
H      85.10663339      84.29211174      95.46819804
H      83.60241125      81.78255521      93.64461215
C      86.88675558      83.35480750      91.82669543
H      87.36674606      81.63704628      90.79868432
H      88.68010585      84.28644257      92.22731742
C      85.21245807      85.00642830      90.13916984
H      84.71923950      86.59946758      91.34859468
H      83.47957904      84.04644733      89.57414167
N      86.52014868      85.88704076      87.81669620
H      88.00925301      87.06811971      87.98866129
C      86.28204316      84.94784678      85.58492942
N      84.92144021      82.92961908      84.97832728
H      84.78349019      82.36270119      83.15852084
H      83.93878253      81.93373331      86.27656925
N      87.45745293      86.00987296      83.74055654
H      87.04549259      85.52988249      81.93775764
H      88.41743389      87.57645608      84.25834156
C      85.72646362      81.12493045      98.43317862
O      83.64020577      80.32557621      99.18528970
N      87.31194400      82.30222993     100.01865900
H      89.00513878      82.89560401      99.36292398
C      87.02848505      82.46474640     102.81545395
H      85.55827798      81.14193798     103.38993075
C      89.60040257      81.66917163     104.00220207
H      89.52103406      82.01877099     106.02987840
H      91.01958703      82.97308279     103.28032663
C      90.41676433      78.95363492     103.45796089
H      91.04415347      78.77978010     101.50398388
C      92.46711738      78.32246633     105.38926118
H      91.73201385      78.38860675     107.31300257
H      93.95055254      79.75298915     105.40437899
H      93.53292302      76.61415374     104.95651386
C      88.13397495      77.07524695     103.62236708
H      86.85651996      77.23020451     102.01421000
H      87.24391385      77.35303673     105.45918106
H      88.81616615      75.15906448     103.29733416
C      86.06472463      85.08201734     103.63370544
O      85.76425815      85.52799275     105.82389824
N      85.47890948      86.71096143     101.81389900
H      85.51859373      86.30467028      99.94873913
C      84.50003125      89.18083372     102.42050114
H      83.34729820      89.03532480     104.12125483
C      86.67699596      90.90615385     103.15560469
H      87.63697693      90.21451402     104.84124055
H      85.90598762      92.72973974     103.73008148
C      88.44011061      91.34268062     100.83502077
H      87.22312686      92.12691704      99.36859315
H      89.42654774      89.58712488     100.40983235
C      90.47723557      93.31366517     101.30934207
H      91.19344185      93.20217132     103.23875264
H      89.60985120      95.17504559     101.15627424
C      92.39341806      93.21539940      99.30245273
H      91.39753229      93.36657751      97.50721273
H      93.43465725      91.44661557      99.47252810
N      94.26991629      95.25819354      99.58402195
H      94.79903965      95.48496069     101.40193866
H      93.35339902      96.83989447      99.03033214
H      95.68910075      94.84623321      98.37459712
C      82.78038030      90.01987220     100.21330081
O      83.27737832      89.38114470      98.00987994
N      80.89254372      91.67527245     100.90494064
H      80.75081424      91.89637044     102.79655668
C      79.00659685      92.97729389      99.35914452
H      77.85575353      91.74708206      98.17428612
C      77.06962738      94.62135577     100.80667487
H      78.06362342      96.03676078     101.92728259
C      75.38210179      96.05565805      98.79411635
H      73.94213034      97.26319315      99.63882401
H      74.37865711      94.66670921      97.65461138
H      76.65199787      97.15547876      97.60358877
C      75.28761547      93.14170008     102.49420047
H      76.31184713      92.22140336     104.02676852
H      74.46747425      91.60913204     101.39249003
C      73.41111724      94.78765169     103.97574590
H      72.18657459      93.80310429     105.30800295
H      72.05618348      95.61724154     102.66427584
H      74.34653177      96.31833001     104.98485975
C      80.41255323      94.27364614      97.25209968
O      82.43645011      95.41315110      97.50721273
N      79.41477774      93.91270841      94.96931029
H      77.75370831      92.98107334      94.88238288
C      80.31050801      94.76308524      92.48998937
H      81.33473967      96.53753826      92.69219010
C      82.07551239      92.66548904      91.50166251
H      83.11297213      92.10235060      93.18918811
H      83.46446123      93.39492340      90.16373628
C      80.92844852      90.27687499      90.33381165
C      81.05128073      89.95562150      87.72976879
H      81.72024384      91.32378336      86.37105557
C      80.23302923      87.67094239      86.70175767
H      80.64309984      87.42905742      84.71754504
C      79.25037155      85.53744139      88.27212024
O      78.43400978      83.31323352      87.36505161
H      78.33007483      83.03733347      85.57548079
C      79.32407088      85.95318117      90.88372200
H      78.91966944      84.45651794      92.21030989
C      80.11208675      88.21896303      91.93440983
H      80.24625732      88.48352471      93.95452726
C      77.89354806      95.08244900      90.70230829
O      75.75626760      94.17349064      91.32969741
N      78.05984397      96.37880125      88.52345384
H      79.65477298      97.38791509      88.24566407
C      75.69201690      96.47895673      86.85482550
H      73.93646116      96.27675602      87.91307224
C      75.41800659      99.15669893      85.61327532
H      73.71536318      99.17181674      84.45298336
H      77.06962738      99.73306546      84.52668269
C      74.90967021     101.25807459      87.65040028
H      76.47625332     101.55098217      88.95620116
H      73.19190899     100.83477590      88.70297784
C      74.32196533     103.90558114      86.52412340
H      73.12009939     103.44637766      84.91596631
H      76.08696970     104.82587787      86.00066921
C      72.83664044     105.85577871      88.16251611
H      73.89677690     106.48505757      89.81413691
H      71.08864360     104.91847446      88.71809565
N      72.32074516     108.32565100      86.83214879
H      73.97236596     108.77729559      85.98744113
H      72.10342663     109.79585807      88.03023527
H      70.78250794     108.02140506      85.74555616
C      75.97358612      94.45317014      84.90462795
O      77.93323231      94.00341527      83.73866681
N      73.92890225      93.18705351      84.21487785
H      72.40389312      93.85790635      85.14462319
C      73.56229535      91.71873616      81.84705077
H      75.12887846      90.41671473      81.53146648
C      70.92801687      90.39781747      81.99066997
H      69.34820567      91.61858066      82.49333717
H      71.13777649      88.90304396      83.39284690
C      70.51227708      89.07122960      79.48867234
O      68.70947818      89.36602690      78.04870089
O      72.12421362      87.51787456      78.81781950
C      73.71158373      93.45161519      79.58126893
O      73.24104187      95.70605868      79.68142442
N      74.33330368      92.42738352      77.39674531
H      74.61676263      90.54143667      77.45532683
C      74.44668726      93.76719949      74.87962986
H      75.92445324      95.19583257      74.74545929
C      74.98147981      91.80377385      72.88974805
H      73.15033501      91.13481073      72.22456440
C      76.32507522      92.98107334      70.70900389
H      77.89732751      94.18104955      71.27781151
H      74.83408116      93.83900909      69.57705782
H      77.23403357      91.61102176      69.46556397
O      76.60853416      89.91026808      73.74768380
H      75.90177652      88.30022125      73.29792894
C      72.09019855      95.39803328      74.19554893
O      72.46625409      97.44082744      73.11273576
N      69.87543931      94.58167153      75.08372030
H      69.87921876      92.98485279      76.13062868
C      67.47170744      96.01786352      75.13285318
H      67.03329094      96.68682664      73.23367824
C      65.34576534      94.16404200      75.69788135
H      65.27962492      93.58389603      77.67264536
H      66.02606681      92.44817052      74.78325382
C      62.70203823      95.10512571      74.58672228
H      62.02551621      96.96650613      75.15175045
H      61.36222227      93.73129469      75.33316417
C      62.92313621      94.81032841      71.63496978
O      63.30486092      96.65659102      70.21200587
O      62.79841427      92.74107810      70.56349496
C      67.34698550      98.40080839      76.91108565
O      65.68969553      99.96172234      76.64841369
N      69.18379948      98.63135501      78.67986947
H      70.41779076      97.17437603      78.68175920
C      69.47292761     100.50407379      80.69053827
H      68.44491649     102.20293774      80.14629709
H      71.48170668     100.95760811      80.76801706
C      68.42979868      99.92959699      83.41363389
O      68.89656108     101.41681159      85.14840264
N      67.32997797      97.69594049      83.77835107
H      67.09376218      96.77564378      82.12295082
C      66.06008188      96.90036570      86.11405279
H      65.06041667      98.61623719      86.65829397
C      64.42735835      94.68371674      85.48288420
H      63.35021435      94.02798172      87.11371801
H      65.67835717      93.19083296      84.81014163
C      62.51306560      95.12213325      83.44197979
C      61.66646821      93.11524390      81.94342682
H      62.60377246      91.33890117      82.30814400
C      59.76162408      93.51019670      80.08960530
H      59.18903701      92.07778416      78.75545853
C      58.53519171      95.81755252      80.04047242
O      56.48483866      95.93282584      78.52302219
H      55.49462207      97.45216579      78.50790438
C      58.95660067      97.72806584      81.85838913
H      57.64135116      99.28709004      81.77146172
C      61.03718934      97.33878222      83.59882707
H      61.47371612      98.83544545      84.91785603
C      68.01594862      95.98951763      88.17952365
O      69.78095299      94.57978180      87.59748795
N      68.01027944      96.91926298      90.52089455
H      66.59676416      98.11923918      90.97631859
C      69.64678243      95.84967787      92.59203460
H      71.65178204      95.92904639      92.12716192
C      69.56930365      97.64113843      94.95797193
H      71.08297442      96.95327805      96.17495569
H      67.79674037      97.30476714      95.95385770
C      70.30818664     100.41147720      94.61971092
C      68.85309738     102.43159463      95.53055901
H      66.98415805     102.15758431      96.30723652
C      69.85465232     104.85989294      95.12804730
H      68.61121241     106.44915277      95.43796242
C      72.38310613     105.28508136      94.32302389
O      73.58686179     107.55275294      94.25121429
H      72.21114103     108.73383188      94.28144991
C      73.86843101     103.14591118      93.77878272
H      75.78839294     103.43314958      93.14761413
C      72.81585345     100.74784849      93.85815123
H      73.80984949      99.01874891      93.42729362
C      69.07419535      93.01130896      93.08147372
O      67.08053409      91.97384921      93.69941421
N      71.11509977      91.74330260      92.53156335
H      72.66656507      92.79965961      92.18763316
C      71.45147106      88.99941999      92.30479619
H      69.69402558      88.02999039      92.78100722
C      71.98248415      88.31344935      89.53445742
H      73.49048575      89.49074884      88.77100799
C      72.70435960      85.56200783      88.84092786
H      70.95447304      84.49998165      89.04879775
H      74.29361943      84.90249334      89.97476365
H      73.30151312      85.52421331      86.86994332
O      69.62221598      88.69139460      88.26267161
H      69.37466184      90.43561200      87.82992428
C      73.57552343      88.01109314      94.00743960
O      75.17801134      89.35846799      95.08458360
N      73.71347345      85.53555166      94.54601160
H      71.98626360      84.76265360      94.30223691
C      75.49548537      84.07101377      96.05590292
H      77.30206372      85.04989200      95.91606318
C      74.56196057      84.24108914      98.84135951
H      73.74181935      86.09491064      99.20229723
C      72.47192326      82.21530252      99.23253285
H      71.01305455      82.85969920      97.92862170
H      71.94091017      82.13782375     101.22052494
H      73.09742267      80.29723033      98.81301361
C      76.43845880      83.70629659     100.95785298
H      77.53072060      81.99987373     100.59124608
H      75.56162579      83.48330888     102.80789504
C      78.43400978      85.80956198     101.09769273
H      79.90988603      85.18028312     102.38837580
H      77.67622953      87.59346362     101.79878119
H      79.17289277      86.17805861      99.20985614
C      76.09641833      81.27610856      95.14883430
O      74.70935922      80.35581183      93.53878747
N      77.97102684      79.99487412      96.32424406
H      79.34674759      81.07201810      97.09336267
C      78.56440090      77.26799904      95.93118099
H      76.79939652      76.23053929      96.15227896
H      80.13287374      76.61982292      97.09903185
C      79.27871744      76.91650995      93.12493741
O      81.46324106      77.49854566      92.44463595
N      77.49859526      76.01322076      91.67551733
H      75.82618747      75.85070431      92.57502705
C      77.42867538      76.30801808      88.97320870
H      78.37542827      78.04656628      88.41007027
C      78.43400978      73.98743416      87.38394888
H      76.99025888      72.54746272      87.08159266
C      79.14265715      74.59025686      84.54557995
H      77.60630966      75.62771661      83.65173941
H      79.42422637      72.83281138      83.50812020
H      80.83396220      75.72976182      84.24889292
C      80.84341083      72.98209977      88.75777990
H      80.42389159      72.35849008      90.67774184
H      82.30416927      74.41829177      88.97887788
C      82.17188843      70.51789666      87.53134753
H      83.79327361      69.83381573      88.60093262
H      82.94478649      70.93930562      85.66807738
H      80.92655879      68.88328340      87.68819481
C      74.63565989      76.55179277      88.53101274
O      73.12387884      74.91151033      89.26611628
N      73.97236596      78.56813075      87.15151254
H      75.35564562      79.63771584      86.38806311
C      71.35887447      78.78544928      86.05925073
H      71.10187169      77.27177850      84.68919915
H      71.08108470      80.59013789      85.10682866
C      69.14978441      79.04056232      87.92819006
O      67.06352656      79.50165555      87.17796870
N      69.79607081      79.06134932      90.39617261
H      71.64422314      79.25977058      90.83269939
C      68.06130205      79.22953496      92.48054074
H      66.44747578      78.07491218      91.92496120
C      69.36521321      78.19018549      94.86348562
H      70.84486891      79.53378090      95.36048364
H      70.40834213      76.46297564      94.46286364
C      67.56997321      77.99554368      97.07446541
N      66.45314496      75.84503513      98.01365938
H      67.05974710      74.17829651      97.31068120
C      64.84687759      76.45919618      99.87692953
H      63.85855073      75.16851311     101.10903108
N      64.61066180      78.95741437      99.94118022
H      63.21037460      79.98920494     100.72541664
C      66.22448807      79.95707959      98.17995530
H      66.58542580      81.91672578      97.73209016
C      67.21281494      82.03766825      92.85092710
O      68.67357338      83.58535411      93.64461215
N      64.86577485      82.54033546      92.20842015
H      63.88122745      81.06823866      91.49788306
C      63.61666576      85.05556118      92.31424482
H      64.90923856      86.46529700      91.55268512
C      61.15246265      85.03288447      90.80813295
H      59.96193507      83.42472737      91.29568234
H      61.66457848      84.69273372      88.84092786
C      59.55942337      87.43850606      90.94797270
H      59.07943288      87.97707806      92.87738326
C      61.02774071      89.71562626      90.03334517
H      59.73516791      91.27842992      89.66862799
H      62.05764155      89.37547552      88.28156887
H      62.49227861      90.39970720      91.31268988
C      57.21427301      87.19284164      89.30202108
H      56.33744000      85.40893999      89.84248281
H      57.51096004      87.31378412      87.26489611
H      55.86878788      88.66682816      89.81035746
C      63.08376294      86.04766749      95.14127539
O      62.37322585      84.52265836      96.77966810
N      63.25194858      88.49864252      95.71575219
H      64.30452614      89.53421254      94.50821707
C      62.56030875      89.63625776      98.17050667
H      62.20504021      88.20573495      99.60858839
C      64.86766458      90.92694083      99.20985614
H      64.41601999      91.41449023     101.16005369
H      65.23238176      92.66548904      98.17050667
C      67.19391767      89.07500905      99.35158561
H      67.61343691      88.13770480      97.56390452
C      69.47103788      90.56978256     100.23975698
H      71.24738061      89.58145570      99.91094460
H      69.10821043      90.89859494     102.23719769
H      69.46725843      92.28565406      99.10214174
C      66.75550117      86.93961832     101.27721673
H      68.45625485      85.84357705     101.65327226
H      65.51017153      85.50153658     100.48353167
H      65.68591607      87.54622045     102.93072725
C      60.21137895      91.24063539      97.79256141
O      58.21771769      90.42616335      98.78655744
N      60.30397554      93.34579052      96.34503105
H      61.94425797      93.47618163      95.38316036
C      58.20826905      94.90103527      95.68173711
H      56.55853798      93.69538988      95.41717543
C      57.58087992      96.94571914      97.64138330