 %block lattice_cart
   140.777   0.000   0.000
   0.000 144.511   0.000
   0.000   0.000   162.462
 %endblock lattice_cart

 %block positions_abs
N      92.99907533      47.68622334      84.07031379
H      94.86612493      48.07550696      84.15913092
H      92.66459377      45.92688815      83.41079930
H      92.18460329      47.81850419      85.78996473
C      91.83878338      49.47390444      82.27696352
H      92.19594165      51.42032254      82.84388141
C      93.08789247      49.16398932      79.58221379
H      92.77230818      47.28560137      78.79986710
H      95.11934826      49.12619479      79.91669535
C      92.14680877      51.22568073      77.86634230
H      90.10401462      50.96300877      77.76807653
H      93.03120068      51.28804170      76.00685161
S      92.82899997      54.15097706      79.21182744
C      90.99785517      56.02180611      76.98195039
H      89.00230418      55.55126426      77.17848192
H      91.36446208      55.36985053      75.06198845
H      91.57422170      57.98712148      77.20115864
C      89.09112132      48.82572831      82.39601627
O      88.14814789      46.93033282      81.45115312
N      87.78909989      50.37719361      83.69425825
H      88.59601302      51.96645344      84.37833918
C      84.98474605      50.31294292      83.84921581
H      84.16649455      48.95045025      82.53963547
C      84.27987812      49.33973387      86.52695799
H      85.10757825      47.45378701      86.59120869
H      82.22952507      49.23390919      86.69514364
C      85.28143307      50.91198616      88.65667955
O      85.36458103      53.26091597      88.56408296
N      85.38536802      49.90287231      90.85065180
H      85.95984483      50.89308890      92.37755066
H      85.03954810      48.03582271      91.03584498
C      83.91327122      52.95855976      83.27284928
O      85.34568376      54.75002030      82.76640263
N      81.44339894      53.19099609      83.42591711
H      80.35491658      51.62819243      83.54496987
C      80.28877615      55.71944990      83.13111981
H      80.48908714      56.21077874      81.14123800
C      77.44284832      55.23945942      83.66969181
H      76.94396058      53.64642013      82.46026697
C      76.88348934      54.45333327      86.52128882
H      77.64315931      52.55982750      86.80663749
H      74.87093082      54.01869622      86.45703812
H      77.26143461      55.87818691      87.96126027
C      75.84413986      57.46177756      82.99316979
H      75.93484674      58.88663120      84.47660494
H      73.82213272      57.08005285      83.10277392
C      76.16728306      58.87907230      80.43825981
H      77.95874362      59.88062724      80.26629472
H      74.82179794      60.43809650      80.36645021
H      75.83469124      57.64319129      78.82443354
C      81.36592015      57.67909609      84.78463033
O      81.67772500      59.68220598      83.71504524
N      82.04811136      57.21422341      87.30930469
H      82.06889835      55.43788068      88.00661370
C      83.06478411      59.23812030      88.90990287
H      82.02354492      61.01257330      88.82108574
C      83.14604234      58.32349276      91.70858754
H      84.01531644      59.72566968      92.94257883
H      84.54066037      56.80982198      91.78228687
C      80.76687691      57.27091520      92.88966649
C      79.11903556      58.78458598      94.16901120
H      79.47619384      60.79336505      94.09909133
C      76.90805578      57.73956733      95.29717781
H      75.33391377      58.72600446      96.13999575
C      76.49042626      55.08828131      95.31607508
H      74.77833423      54.38530312      96.17212110
C      78.38393203      53.49713176      94.24082080
H      78.06834774      51.49402186      94.47514687
C      80.50609468      54.57805521      93.00116034
H      82.00275792      53.35729201      92.33975613
C      85.77087219      59.99590055      87.95181163
O      86.37558462      62.24467486      88.56030351
N      87.15415186      58.36884619      86.62333404
H      86.53621134      56.56226784      86.69703336
C      89.73173854      58.77702707      85.77106747
H      90.75408047      60.00534918      87.07308890
C      91.03753943      56.25235272      85.59721265
H      92.86112532      56.49801714      84.66935703
H      89.87913719      54.96166965      84.48605358
C      91.60445731      55.14686283      88.04818768
H      89.97740296      55.06182514      89.30674540
H      92.84411778      56.46589179      89.02895563
C      92.52664376      52.58250422      87.94803218
O      91.25674767      50.81372039      88.85321109
O      94.49006940      52.30471445      86.69703336
C      89.69772346      60.23778551      83.27284928
O      91.01108325      62.10483511      83.06497939
N      87.90437320      59.60283747      81.66658192
H      87.18438747      57.86239954      81.98027649
C      87.01431210      61.01635276      79.43292542
H      88.52420342      60.97288905      78.03452794
C      84.93939262      59.64630118      78.14413207
H      83.34068415      59.42331347      79.42347678
H      85.68394477      57.76791322      77.74162037
C      83.79610819      60.57415680      75.63835498
H      85.23418992      60.21321907      74.20783216
H      83.43328074      62.59994341      75.60622963
S      80.80656117      58.87718257      74.81821376
C      81.10135847      59.31937853      71.40914749
H      81.42072221      61.31303979      71.00663579
H      79.41572260      58.73167364      70.37924665
H      82.74542037      58.33105166      70.66459532
C      86.17716334      63.71677166      80.23605910
O      87.26564570      65.59515961      79.31198293
N      84.60491106      64.07581966      82.20704364
H      83.98130137      62.49789818      83.08387665
C      83.70162188      66.59860428      82.97616225
H      83.14226289      67.73621952      81.35666680
C      81.36592015      66.36238850      84.70715155
H      80.97096735      68.23132782      85.47815989
H      81.95362503      65.16241229      86.27562439
C      78.90549649      65.25122942      83.63945619
H      79.23808833      63.65063124      82.38656764
C      77.18962500      64.23455667      85.86177433
H      76.63971464      65.82381650      87.05230191
H      78.38582175      62.75112151      86.64601075
H      75.48320215      63.57504218      84.91502145
C      77.50142984      67.21843451      82.00106347
H      76.72286260      68.79635599      83.07253829
H      75.96697208      66.36805767      80.92014002
H      78.73353141      67.79669077      80.45715708
C      85.77465165      68.38817510      84.11755695
O      85.78032082      70.64261859      83.54308015
N      87.63603206      67.44142222      85.55941812
H      87.47162588      65.59326989      86.01295244
C      89.81299677      68.82092243      86.41735387
H      89.01931172      70.55569118      87.19403138
C      91.02053188      67.16741190      88.44691993
H      91.84067311      65.52712946      87.51339513
H      89.44261041      66.56647894      89.62421942
C      92.88191230      68.53746348      90.03995921
H      92.03720465      70.32136512      90.62955382
H      94.68471120      68.85115805      89.09509605
C      93.38835896      67.24867014      92.56274384
H      91.65547993      66.24900492      93.05596241
H      93.89102615      68.68108268      93.95547213
N      95.38957912      65.32114930      92.32085887
H      94.94927290      63.49567368      92.67045824
C      97.86701031      65.67452812      92.40400683
N      99.11611941      67.89684626      92.18290885
H     101.02096353      67.94030997      92.08086363
H      98.05220349      69.43508348      91.79740468
N      99.35233521      63.69976412      92.76116510
H     101.20993616      63.98700252      93.07863912
H      98.53786317      62.06515086      93.31863436
C      91.65170047      69.54090815      84.27818368
O      93.04820822      71.47031872      84.67880566
N      91.66492856      68.25589426      82.03318882
H      91.08478258      66.43986727      82.12011623
C      93.05387741      69.08170466      79.80709123
H      94.86423520      69.87727944      80.37589885
C      93.62835419      66.95387283      77.98161561
H      91.81988612      66.12050353      77.46194087
C      95.03620030      68.12550315      75.68748786
H      93.87779807      69.31603072      74.46672466
H      95.72217095      66.51923578      74.59711578
H      96.59711423      69.30469236      76.33755371
C      95.52563942      65.00556500      79.30253430
H      94.86234548      64.86383553      81.24706268
H      97.46449861      65.69720483      79.40457952
C      95.49351408      62.49222901      78.01941013
H      93.68882544      61.54547612      78.32554580
H      96.85600675      61.25067882      78.93970685
H      95.85823124      62.57726669      75.99362353
C      91.52319908      71.15284470      78.46160609
O      92.81577189      72.94997442      77.66981077
N      88.93427403      71.07536592      78.45971636
H      88.26720065      69.35760470      78.95293493
C      87.41493408      73.09548335      77.35800592
H      88.42026849      73.97231636      75.78953308
C      84.83923712      72.21676061      76.35456125
H      83.70918079      73.88349922      75.92559338
H      83.71107051      71.32103034      77.82854778
C      85.00553303      70.68608230      73.94516020
O      86.29432637      71.62527628      72.18204555
O      83.88681505      68.70564912      73.72217250
C      86.90092852      75.41417753      79.13434866
O      86.37747433      77.45508195      78.19893413
N      87.03320937      75.10993160      81.69114836
H      87.53398684      73.39783956      82.36389093
C      86.82722920      77.32658056      83.37678423
H      86.49085791      78.96875273      82.17869775
C      84.57467543      77.00910654      85.32320233
H      84.70506654      78.46608553      86.77451214
H      84.89781863      75.24410217      86.33609564
C      81.91772023      77.04123189      84.22338162
H      80.92372420      76.32880507      85.88256132
H      81.93661750      75.87527075      82.52829712
C      81.02576941      79.65472338      83.24072394
O      79.30611848      79.59425214      81.64390520
O      81.76654214      81.62570793      84.41046452
C      89.22340216      78.25065673      84.81297623
O      89.33867546      80.49376186      85.44792427
N      90.99029626      76.62738183      85.40257084
H      90.77108802      74.74521442      85.17013450
C      92.97450889      77.27555795      87.26206153
H      93.88157752      79.09347467      86.92569025
H      94.17637483      75.60315017      87.24316427
C      92.00696902      77.33036002      90.01917222
O      89.85079129      76.76155240      90.47081681
N      93.71906107      77.76877652      91.85409647
H      95.53508805      77.98042587      91.30418611
C      92.90836848      78.05790465      94.43357289
H      90.99407572      77.34736755      94.71136266
C      94.54298173      76.37037905      96.19857726
H      96.51018683      76.97509147      96.13243684
H      94.31243513      74.43907876      95.52394497
C      93.60945693      76.62549210      98.94057014
H      93.85323163      78.47364444      99.81740315
C      90.73140376      76.08503038      99.28639006
H      89.75630498      77.86326284      98.92167288
H      90.62179964      75.43496452     101.23658761
H      90.39881193      74.58836714      97.91066930
C      95.03809003      74.77733977     100.73392042
H      97.02041293      75.21386655     100.37109296
H      94.69604956      72.80635522     100.24637103
H      94.57699680      75.37827273     102.65010290
C      93.05765686      80.90761193      95.19324287
O      95.08155373      82.08302169      94.90222501
N      91.06021614      81.99987374      96.23070261
H      89.39347753      81.08902565      96.43290333
C      90.94494284      84.58123988      97.12076370
H      92.89136093      85.16138586      97.46280417
C      89.83567349      86.35191343      95.23292712
H      89.33867546      88.10180000      96.20046699
H      88.26909037      85.58657428      94.13310640
C      92.00507930      87.32134303      93.46414329
H      92.98395752      85.62814826      92.81596716
H      93.50174254      88.31155962      94.47514687
C      91.12824628      88.82556518      91.20214089
H      92.74396229      89.73074408      90.30074144
H      89.59756798      90.05388728      91.82386085
N      90.02653584      87.12859095      89.28217896
H      89.42560287      85.40894000      89.85287631
C      89.69205428      87.89959928      87.00883820
N      89.87913719      90.14081469      85.93169421
H      89.52953783      90.35057431      84.06842406
H      90.30243588      91.65826492      87.00694848
N      89.09679051      86.03254969      85.54052086
H      88.89270006      86.41238468      83.68103017
H      89.01931172      84.15227201      85.85988461
C      89.66937757      84.39037752      99.63220997
O      87.29966078      84.58690906      99.82685179
N      91.14147438      84.31478847     101.74114454
H      93.00852396      83.94629184     101.59941507
C      90.16637560      84.25998641     104.35274630
H      88.40515067      83.19418076     104.45101207
C      92.21105947      83.06189992     106.14420685
H      91.74051761      83.75731921     108.02637426
H      94.11023440      83.46630135     105.45256702
C      92.34334030      80.16683921     106.09318424
H      92.73640338      79.55834734     104.16188395
C      94.30109676      79.38071307     108.07928659
H      94.47495158      77.35681618     108.42132706
H      93.94771794      80.35770157     109.85751905
H      96.17381554      80.03077892     107.51803788
C      89.90748308      78.92717875     106.90576655
H      90.07944818      76.89950242     106.58262335
H      88.35412805      79.66417201     105.77193077
H      89.59945770      79.28811648     108.91076617
C      89.33489601      87.00008956     105.30705809
O      88.64514592      87.29488686     107.57661939
N      89.01364254      88.99375082     103.67622428
H      89.60134743      88.73863777     101.87720483
C      87.67004714      91.51653545     104.05227982
H      86.62124904      91.52031490     105.82295338
C      89.76953306      93.55177069     104.33195932
H      90.99596544      93.42137957     102.68411797
H      90.74274211      92.89792538     106.02515409
C      88.69427880      96.17093136     104.65510251
H      87.30155050      96.31455056     106.16688357
H      87.82122523      96.73595952     102.87687005
C      91.09234148      97.79798571     105.37508824
H      92.26208207      98.06065767     103.69890100
H      92.28664851      97.16303767     106.92844327
C      89.99063104     100.40580802     106.13286849
H      88.42593765     100.03164221     107.41788238
H      89.00986309     101.19382390     104.50014496
N      92.05610190     102.02908293     107.24780702
H      91.57422170     103.71849825     107.99424891
H      93.15970207     102.58655219     105.79271776
H      92.60601227     101.20894171     108.88242028
C      85.92582974      91.94361359     101.79405688
O      86.28676748      90.81544699      99.79850589
N      83.71862942      93.19650214     102.18523022
H      83.41249375      93.88436252     103.93889624
C      81.77599076      93.77475839     100.22369431
H      80.79522281      92.07211498      99.60575381
C      79.79366787      95.72873540     101.28761023
H      80.84057623      97.29153906     102.12664871
C      78.39527039      97.00430066      99.16166812
H      76.77010576      97.95861245      99.99314770
H      77.60158533      95.54165249      97.94846383
H      79.61414386      98.29876318      98.12420838
C      78.10425254      94.65915031     103.53638454
H      79.45729657      93.94672349     104.91588475
H      77.01954964      92.96406580     103.09229885
C      76.15027553      96.42793413     104.64565388
H      74.99943221      95.36023877     105.97980066
H      74.88982807      97.11390479     103.16599818
H      77.05356470      97.86979531     105.80783557
C      83.10824781      94.92560172      97.88232341
O      84.98852550      96.25029986      98.12231865
N      82.25976070      94.40025780      95.64299773
H      81.20529341      92.81666715      95.78283748
C      82.88714984      95.34323123      93.15044872
H      83.37469923      97.33122331      93.38099533
C      84.88837000      93.70672824      91.69913891
H      86.41904831      93.51775561      93.06352131
H      85.78221054      94.51553111      90.02862085
C      84.38570280      90.96473536      91.13411075
C      84.15893564      90.22396265      88.58486995
H      84.28932676      91.80566357      87.30363551
C      83.49564170      87.72385474      87.81575134
H      83.21785195      87.10213478      85.89200995
C      83.39548622      85.90026885      89.72248519
O      82.92116490      83.47197053      89.13478031
H      82.68116966      83.22630611      87.35276839
C      83.84713081      86.61080594      92.33975613
H      83.88492532      85.02154611      93.62099057
C      84.22696579      89.13548029      93.02383706
H      84.50286583      89.72885436      94.95702708
C      80.46830016      95.73251485      91.56685807
O      78.39149094      96.15959300      92.63455344
N      80.62136799      95.82322171      89.03084536
H      82.38448263      95.86101624      88.29952128
C      78.56345604      96.18037999      87.33387113
H      76.79278247      95.85156761      88.33542608
C      78.35558613      98.93560095      86.43436140
H      76.77577494      98.98851329      85.11344271
H      80.04878092      99.29842840      85.31753315
C      78.06834774     101.09555813      88.36755142
H      79.32312601     101.02563825      90.00027496
H      76.15027553     100.96327729      89.11021386
C      78.13637789     103.69204208      86.90301353
H      76.73042151     103.34622217      85.43658591
H      79.99586858     104.16447366      86.15279218
C      77.02710853     105.82743282      88.49605281
H      78.20440804     106.09955340      90.16279142
H      75.09202880     105.40035467      89.05163235
N      77.18773527     108.12722974      86.85954983
H      76.34680707     108.00250780      85.14934751
H      79.03588762     108.21415715      86.39467715
H      76.65861190     109.75806355      87.69669858
C      78.53511013      94.06388652      85.20037012
O      80.57223511      93.16437679      84.58053989
N      76.22775430      93.33067271      84.42936179
H      74.76699586      94.18671873      85.30808452
C      75.60225489      91.74708206      82.23916899
H      76.55089750      89.94617288      82.56609164
C      72.65806130      91.20851006      82.44703888
H      71.66028582      92.86957949      81.74406070
H      72.04390025      90.64915107      84.33298574
C      71.88327351      89.01075836      80.75384411
O      70.92518227      89.67027284      78.67136571
O      72.26688795      86.77143268      81.50973463
C      76.20696731      93.09067747      79.78630424
O      76.65294273      95.46417372      79.73717135
N      75.89138302      91.87936290      77.64146487
H      75.63626998      90.00097494      77.85689367
C      75.90650084      93.15492816      75.12812887
H      77.76032234      94.03365090      74.93915624
C      75.60981380      91.45228475      72.82833195
H      73.57646829      91.28976829      72.55054218
C      77.15372020      92.46139860      70.54554257
H      79.13037392      92.69950412      71.06521730
H      76.24854129      94.26608723      70.13358223
H      76.97419620      91.35401898      68.81833272
O      76.60003040      89.03532480      73.18549022
H      75.18651511      88.03565958      73.72784168
C      73.86937588      95.22606820      75.13757751
O      74.19818824      97.13658150      73.74106976
N      71.75099267      94.77820306      76.52463662
H      71.46375427      93.23429667      77.61311898
C      69.59292522      96.39391906      76.13157355
H      69.09403747      97.04020546      74.23995751
C      67.20431116      94.84245376      76.73061679
H      65.56780817      96.08778340      76.67581472
H      67.23832623      93.98073856      78.60333556
C      66.96809537      92.49730340      74.94671515
H      65.17852455      91.72818479      75.61945772
H      68.41373601      91.06489086      75.26229944
C      66.63550355      93.11146446      72.12346404
O      66.22354320      95.35456959      71.37891187
O      66.72432068      91.35779844      70.52286585
C      69.69874989      98.74473859      77.98917451
O      67.85248730     100.05431893      78.32554580
N      71.86059679      98.91103451      79.41213843
H      73.34403195      97.75263228      79.09655413
C      72.40672771     100.79509164      81.51351409
H      71.46186454     102.53930903      80.95982428
H      74.44574239     101.02374853      81.71193535
C      71.34281179     100.05053948      84.08732132
O      71.78311802     101.37901707      85.92791475
N      70.13527668      97.86034668      84.27251450
H      70.09181297      96.57722251      82.86088895
C      68.88049840      97.13469178      86.68569500
H      68.13594624      98.84867354      87.55307938
C      67.02478716      94.97095515      86.15468191
H      66.21976376      94.10735022      87.84031778
H      68.09626198      93.29476791      85.62177909
C      64.81758683      95.53976277      84.31030903
C      64.07303466      93.72751523      82.47538478
H      65.11616358      91.97573894      82.42436217
C      62.20976451      94.39458862      80.78219000
H      61.58426510      93.08689801      79.34788773
C      61.04380338      96.71706226      80.82565371
O      59.25423256      97.26508289      79.04742125
H      58.79880852      98.98095438      79.43103569
C      61.57103702      98.41781594      82.76451291
H      60.25578751      99.95983261      83.00639787
C      63.52690375      97.88869257      84.50117139
H      63.98421752      99.44771678      85.73516267
C      70.71731238      96.33533755      88.56597269
O      72.29712358      94.64025304      88.07653357
N      70.45841988      97.01185957      90.85254152
H      68.84837305      97.96428163      91.23237651
C      72.24232151      96.75107733      92.94257883
H      74.09047384      97.32366441      92.23960064
C      71.68674197      98.49718445      95.22347849
H      72.49932430      97.75263228      96.96391642
H      69.64205810      98.64458310      95.41056139
C      72.71286337     101.09366840      94.94379899
C      71.17273642     103.16858789      94.99293188
H      69.16017790     102.83032688      94.98348324
C      72.22909343     105.58554785      94.93246063
H      70.76455553     106.99717340      95.09119764
C      74.81234930     106.08821505      94.72648047
O      75.81201452     108.45982157      94.33341739
H      74.59692050     109.71837929      93.85720636
C      76.44507283     103.92636814      94.57530236
H      78.43117520     104.36856410      94.42223453
C      75.38115692     101.50373901      94.91923255
H      76.74931878     100.02219358      95.23670657
C      72.25932905      93.86924471      93.61910085
O      70.28645478      92.77698290      94.04050981
N      74.31535128      92.58801027      93.30540628
H      75.82902205      93.69538989      92.95013773
C      74.81990820      89.79499478      93.18635352
H      73.33269359      88.41171512      93.52083508
C      75.59091654      89.35657827      90.48593462
H      76.98553456      90.83245452      90.14767361
C      76.93640167      86.82812446      89.76216944
H      77.36159009      87.17583411      87.77606709
H      75.77421999      85.12737078      89.68469066
H      78.69006769      86.56167305      90.81096755
O      73.46119498      89.74964134      89.02706591
H      72.91695380      91.47496147      89.17257483
C      76.99498320      89.30744539      95.11954354
O      78.36692450      90.96851482      95.84519844
N      77.29733941      87.00953819      96.11920876
H      76.05200977      85.68861950      95.52394497
C      79.42706096      86.15727162      97.60453364
H      80.98419544      87.36102729      96.99226232
C      78.69762660      86.79788884     100.35219570
H      78.23842311      88.80477819     100.44290256
C      76.42617558      85.26532080     101.34052256
H      74.69518626      85.51854413     100.25392993
H      75.87248576      86.13459491     103.12631393
H      76.95529894      83.29433626     101.61831233
C      80.80656117      86.38214905     102.29861380
H      82.50731484      87.15126766     101.42744997
H      81.31300781      84.39415697     102.50081452
C      80.49286660      87.79377461     104.88942858
H      79.50076028      89.55310981     104.48691687
H      82.36369565      87.89770956     105.74547460
H      79.10958693      86.91883133     106.14042740
C      80.36436520      83.40016093      97.38154594
O      79.28533149      81.96585866      95.95480257
N      82.51487375      82.65182931      98.56073516
H      83.48997253      83.91416649      99.60953326
C      83.39926567      80.06101454      98.76482560
H      81.85535927      78.94418629      99.55284147
H      84.86947273      80.14038304     100.20290732
C      84.19673017      79.09158494      96.17023137
O      86.20172978      79.87960081      95.21591958
N      82.80400187      77.22642507      95.13088190
H      81.26576465      76.73698595      96.14755465
C      83.15738070      75.93196254      92.67234796
H      84.44995349      77.09036477      91.56118889
C      84.06444932      73.06524773      93.02383706
H      82.53944019      72.27912158      94.16334203
C      84.44806378      71.80857973      90.44058119
H      85.89370440      72.71375863      89.28595841
H      82.76053817      71.95786811      89.26895087
H      85.04710701      69.86783081      90.78073192
C      86.51542435      72.66462575      94.56207428
H      86.59290314      74.05924377      96.07385533
H      88.12736090      72.96320251      93.31485491
C      86.93305387      70.04357535      95.70535870
H      88.68483016      69.97932466      96.78628215
H      87.04643745      68.62061144      94.22003381
H      85.41938310      69.77523422      97.07352055
C      80.57223511      76.17573724      91.48371011
O      79.13037392      74.39183560      91.22103816
N      79.87114664      78.50954923      90.73537849
H      81.06923312      79.97975631      90.95836620
C      77.72063809      79.18040208      89.25383306
H      77.47119423      77.79145324      87.75339037
H      77.96063333      80.99642906      88.31274936
C      75.18462539      79.40905896      90.65034081
O      73.18151549      79.23142469      89.31430431
N      75.22430963      79.52055281      93.26194257
H      76.80034138      79.87582136      94.27105642
C      72.87537983      79.62448776      94.61876607
H      71.59414538      78.24876700      93.77783786
C      73.27978126      79.00843698      97.44768636
H      74.54967734      80.38226801      98.30562210
H      74.20763688      77.18674082      97.70090968
C      70.92707200      78.81190545      98.92167288
N      69.16017790      76.81257501      98.56262488
H      69.52678481      75.32158094      97.42878909
C      66.98888236      77.62515732      99.61520244
H      65.29001840      76.51021880      99.43756816
N      67.31769474      79.91361589     100.82840673
H      65.98165825      81.14571744     101.41233216
C      69.70252935      80.79989753     100.22747376
H      70.38850000      82.70852110     100.45235119
C      71.57902757      82.21341281      94.46569824
O      72.61837705      84.10124940      95.40111276
N      69.20931078      82.25687651      93.50382754
H      68.37783120      80.62982216      92.95202746
C      67.97154004      84.55478371      93.27139121
H      69.27545120      85.93617365      92.47014725
C      65.85693631      84.41494396      91.30985529
H      64.60593748      82.95607525      92.05440746
H      66.62794464      83.70440687      89.53729201
C      63.95209218      86.60324703      90.87143879
H      62.56314333      86.55600388      92.39077874
C      65.48654994      89.12225221      90.52183942
H      64.31869908      90.81166753      90.39522776
H      66.86416042      89.12603166      88.99116111
H      66.39550830      89.39248307      92.35109449
C      62.56503306      86.35002371      88.35999252
H      61.40852056      84.64549057      88.38455896
H      63.97287916      85.78121609      86.96915395
H      61.45009454      88.00920341      87.86110477
C      66.94919812      85.41460918      95.74315322
O      65.77756779      83.93306375      97.05273356
N      67.31013583      87.83723832      96.48014648
H      67.91862771      89.08256796      95.17056615
C      66.12527743      88.99753027      98.77049478
H      65.80969314      87.52543347     100.17645115
C      67.78823660      90.97418400      99.97991962
H      66.85849124      91.66393410     101.68256302
H      68.19263802      92.41037599      98.56073516
C      70.36771301      89.87436328     100.74147932
H      71.14061108      88.47407608      99.44512707
C      72.38972016      91.92471633     101.45768559
H      72.83569557      93.03398568      99.77960863
H      74.11315056      90.80032917     101.56162054
H      72.07224615      93.05855212     103.14710092
C      69.99732665      88.40415621     103.21135161
H      71.80957419      87.58023554     103.74425443
H      68.65184152      86.84702173     103.12064475
H      69.28301010      89.66838311     104.66833060
C      63.60249281      90.38269966      98.35097553
O      61.80347336      89.82334067      99.67378395
N      63.65729487      92.18738829      96.56518417
H      65.30702594      92.94516854      95.97936901
C      61.53891167      93.82578100      96.17023137
H      59.76823812      92.77509317      96.11920876
C      60.99089104      95.57188812      98.40199815