 %block lattice_cart
   139.898   0.000   0.000
   0.000 144.87   0.000
   0.000   0.000   168.12
 %endblock lattice_cart

 %block positions_abs
N      93.57152378      44.42642146      87.01553196
H      95.27605691      44.22233102      86.18027293
H      92.98759834      42.61984311      87.21773267
H      93.92112314      45.24467295      88.70305756
C      91.93691051      45.87206209      85.29966047
H      92.30540715      47.80714183      85.90248316
C      92.85531751      45.82481893      82.55955731
H      92.43390854      43.99367413      81.71673938
H      94.91133973      45.95709977      82.51231415
C      91.58164197      48.21343299      81.23107971
H      89.54640674      48.07170352      81.50509003
H      91.96147695      48.04524735      79.21285201
S      92.88933257      51.10849370      82.48963744
C      91.39833851      53.17207484      80.18039188
H      89.34609574      53.04924263      80.33534944
H      91.93502078      52.57870077      78.28310667
H      92.02950710      55.12227239      80.40148986
C      89.20247654      45.36939489      85.39225705
O      88.19525241      43.50801447      84.65715352
N      87.96470580      47.17975270      86.55254901
H      89.14200530      48.42130289      87.39536695
C      85.31719924      47.33093080      87.23096076
H      84.24194497      45.97221758      86.11791196
C      84.94870262      46.31614777      89.96917418
H      86.33387199      44.80625645      90.17704408
H      83.17802905      45.26734967      90.05988105
C      85.02807112      48.43075152      91.90803338
O      83.23283111      49.12050162      93.05320753
N      87.17102076      49.63450718      92.26708138
H      87.26550708      50.34504427      94.03397548
H      88.76594977      49.31136398      91.26741616
C      84.22682715      50.00111408      86.92860455
O      85.60443765      51.92107602      86.53743120
N      81.74750624      50.26378604      87.18560733
H      80.52485332      48.92774954      87.79409920
C      80.45115399      52.69019463      87.07978265
H      80.50028686      53.16451593      85.07289331
C      77.62412342      52.32925690      87.36135187
H      77.22728089      50.73999707      86.11224278
C      76.88524044      51.49966705      90.04854269
H      77.74695563      49.76678802      90.75530033
H      74.85189492      51.17274440      90.13547010
H      77.36901036      52.99822002      91.37324084
C      75.71361011      54.29646199      86.47507023
H      76.01974578      55.96509033      87.64481082
H      73.89191395      53.35159884      86.65648396
C      75.96116426      55.11093403      83.68016502
H      74.93126342      53.70119820      82.58601348
H      77.84144194      55.59092452      82.99041491
H      74.92370453      56.87593841      83.46662594
C      81.43759112      54.97487374      88.66715276
O      81.01996160      57.02522679      87.78654029
N      82.39946181      54.52700860      90.91025789
H      82.56953719      52.80924739      91.72284020
C      83.69959352      56.54145685      92.30487591
H      82.31820358      58.04189955      92.58833485
C      84.38556417      55.64005740      94.90891877
H      85.55719448      57.21986860      95.51741064
H      85.66490889      54.03379004      94.76152011
C      82.24639398      55.14116966      96.77407864
C      82.19537137      56.15406296      99.30631190
H      83.64668119      57.50710700      99.78252293
C      80.32265259      55.68352111     101.01084503
H      80.22060738      56.70019386     102.77962886
C      78.30631462      54.05646675     100.38345590
H      76.76429794      53.63505778     101.64957253
C      78.36678586      52.91696178      98.12901240
H      77.14035349      51.36738621      97.61689657
C      80.26218135      53.48954886      96.38290529
H      80.45682317      52.45208911      94.63679818
C      86.08064867      57.59970359      90.95939077
O      86.04852333      59.78989639      90.10334475
N      87.88722703      55.84603757      90.10523448
H      87.41290573      54.01678250      90.38680370
C      90.14167052      56.41484519      88.66526303
H      91.37377208      57.74521251      89.64036181
C      91.70636391      53.93930372      88.12102185
H      93.22759358      54.41551475      86.81522097
H      90.31741507      52.54279597      87.52008888
C      92.74571337      52.81113711      90.48884892
H      91.18101999      52.62216448      91.81732652
H      94.09686770      54.11126881      91.34111549
C      93.74726832      50.10504903      89.91248240
O      96.03194743      49.67041198      89.58744947
O      92.05785300      48.39295699      90.00318926
C      89.45192042      57.73576388      86.19917019
O      90.87299461      59.41573058      85.38280842
N      87.54518656      56.74932675      84.88014122
H      86.77228851      55.32069366      85.87980644
C      86.89134126      57.71875635      82.38570249
H      88.60910248      57.29167820      81.32556603
C      84.37800526      56.47342671      81.44272906
H      82.78685570      57.18963298      82.53499087
H      84.43847650      54.41929420      81.59390717
C      83.87344833      57.19908161      78.57412452
H      85.29263280      56.53200822      77.23619829
H      83.85077162      59.25510384      78.43239504
S      80.89901912      55.83847866      77.42895037
C      81.35255344      55.99532595      74.01610465
H      81.64735074      57.88316254      73.25076549
H      79.86344911      55.01644772      72.98242436
H      82.98338725      54.86715934      73.46430457
C      86.46426311      60.58925062      82.45373264
O      87.77951262      62.13126729      81.28588178
N      84.71059709      61.31301579      84.09590480
H      83.49550308      60.16973137      85.02376042
C      84.25328332      63.88304358      84.74030148
H      83.82431546      64.92806223      83.02065053
C      81.72671924      64.30067308      86.06499962
H      81.78152131      66.26220901      86.69238876
H      81.51506991      62.92873179      87.58622930
C      79.31164902      64.33657788      84.48707815
H      77.95860498      64.64460328      86.01019756
C      79.16236064      66.66661043      82.97151765
H      77.20082473      66.70818442      82.34223879
H      80.43036699      66.60047002      81.34824274
H      79.11700720      68.37870248      84.11291234
C      78.64646536      62.07268577      82.85624434
H      80.04864228      61.86481588      81.36147083
H      76.70949588      62.25220977      82.18350178
H      78.72772358      60.43240333      84.10346371
C      86.47749119      65.19451364      85.89870371
O      86.69291999      67.58690714      85.66059819
N      88.21603941      64.03422167      87.31221899
H      88.03840514      62.20874607      87.83378345
C      90.41568084      65.51576711      88.09834513
H      89.73915881      67.35447082      88.73140345
C      91.62321594      64.48586626      90.53798181
H      93.25404975      65.72552673      90.76663869
H      92.06730163      62.47708720      90.45294412
C      90.14544998      64.97530539      92.99462601
H      88.32942298      64.00587579      93.06454589
H      89.53128892      66.91227486      93.33666647
C      91.60053923      64.05122922      95.25662841
H      90.41946028      64.37815187      96.91013893
H      93.46380937      64.91105469      95.42670378
N      92.12210369      61.38860485      95.27174622
H      93.43546348      60.87459929      93.98673233
C      91.04118024      59.28344973      96.21849910
N      89.14956421      59.55934978      97.85500209
H      88.55241068      58.17984957      99.02852213
H      88.57319768      61.31490552      98.33121312
N      91.91045435      57.17640489      95.62512504
H      91.21881452      55.56446835      96.37723611
H      93.20491687      57.12538228      94.22105839
C      92.29784824      65.98063978      85.86468863
O      93.78317313      67.74942362      86.21428800
N      92.19202356      64.69373617      83.70851091
H      90.88055350      63.36336884      83.30977866
C      93.82474711      65.73497536      81.59390717
H      95.48014735      66.64960290      82.40837921
C      94.59953490      63.69596067      79.75898292
H      92.94035519      62.51110228      79.46418561
C      95.59731039      64.50476353      77.24753665
H      97.15255514      65.82568223      77.53855450
H      94.15544920      65.61214316      76.27999677
H      95.99415292      62.99298249      75.90583096
C      96.44768722      61.96875082      81.26509479
H      95.44235283      60.97286506      82.76364775
H      98.09741829      62.97030577      81.98130106
C      97.69679632      59.85792653      79.84024115
H      96.44012833      58.84881268      78.55711698
H      98.30150873      58.46897769      81.23674889
H      99.25204107      60.57035335      78.69695673
C      92.52650512      68.02721338      80.27865765
O      93.88521834      69.87725543      79.71551921
N      90.00372049      67.98374968      80.02543433
H      89.06074707      66.36236450      80.38259260
C      88.43902712      69.96985202      78.95018005
H      89.18168956      70.50842403      77.10580717
C      85.57798148      69.19317452      78.55333753
H      84.39879226      70.86747203      78.32657037
H      84.98082795      68.40515865      80.35991588
C      85.41735474      67.28833040      76.47463858
O      86.46426311      67.82690239      74.40727800
O      83.89045588      65.37592736      76.56156599
C      88.41824012      72.34712774      80.65282346
O      89.29318340      74.42204723      80.01787542
N      87.43180299      72.07122768      82.86947243
H      86.88756181      70.30433358      83.34568346
C      87.31652968      74.13858828      84.57778501
H      87.23149199      75.82800360      83.40426497
C      84.82398068      74.07244786      86.13869895
H      84.72571491      75.92248991      87.04576758
H      84.91279782      72.37547363      87.30277036
C      82.52985293      73.78898890      84.57400556
H      81.04263832      74.40503968      85.85712973
H      82.46560224      71.79343793      84.06944864
C      82.29552686      75.58611863      82.27231891
O      81.67947609      77.83489295      82.82411900
O      82.57520636      74.97573704      79.99141925
C      89.65412113      74.38803215      86.25586198
O      90.67835279      76.41003930      86.56388737
N      90.47804181      72.19217018      87.28387309
H      89.82608622      70.49330621      86.71317575
C      91.74604815      72.25453115      89.81043717
H      93.22192440      73.69072314      89.75941456
H      92.45658525      70.33834866      90.07499886
C      90.02072804      72.73074218      92.15180808
O      87.74549756      73.07845181      92.09889574
N      91.17724053      72.69672709      94.40247212
H      92.91200930      71.91249068      94.27019127
C      90.09442737      73.15215113      96.85344714
H      88.04407432      72.95372987      96.89691085
C      91.18857889      71.12825426      98.74695291
H      93.21247578      71.46840500      98.92647691
H      91.14889464      69.24041768      97.92303224
C      89.95080816      70.66149186     101.35477522
H      90.27962053      72.39248116     102.41869113
C      87.06708581      70.12291985     100.84076966
H      86.30741582      69.11380601     102.46782402
H      86.67780219      69.02498887      99.14190571
H      86.14300964      71.95028521     100.62912032
C      91.35109535      68.55633675     102.70403981
H      93.31074154      69.00042243     103.15379467
H      91.34542618      66.95006939     101.41335674
H      90.50449797      68.16327367     104.54085378
C      90.89945078      75.72406865      97.87011990
O      92.98948807      76.44783383      97.71516234
N      89.00405527      77.13002503      98.69593030
H      87.28251461      76.35334751      98.96616116
C      89.19302790      79.74162680      99.53874823
H      91.11865902      80.23673508     100.07920996
C      88.13100173      81.43293185      97.40146777
H      87.06708581      83.03164030      98.14601994
H      86.53796245      80.60145227      96.39424365
C      90.54418223      82.24362444      95.71394218
H      91.70825364      80.65247487      95.12434757
H      91.85187283      83.20549512      96.98572799
C      89.80529923      83.79320001      93.31021031
H      91.52117073      84.49617819      92.41259031
H      88.74327304      85.46371806      93.87901793
N      88.30863600      82.29464705      91.53386757
H      87.88155785      80.45594334      91.83244433
C      87.73226947      82.91069781      89.18871722
N      88.38800450      85.04419882      88.04354307
H      88.13478118      85.25962763      86.16326539
H      89.37444163      86.36322780      89.00730349
N      86.33765145      81.54820514      87.87346770
H      85.79907945      82.33055185      86.21617773
H      85.63467327      79.94193778      88.62368905
C      87.81541742      80.03264465     101.96515682
O      85.57798148      79.76808296     102.07287122
N      89.09287242      80.43893580     103.98905370
H      90.97692955      80.57688583     103.71315366
C      88.11210445      80.33689058     106.59498629
H      86.54552134      79.01219244     106.78962810
C      90.04340475      79.35045344     108.35810094
H      89.07019569      79.50541101     110.16845874
H      91.70069473      80.56554747     108.23526873
C      91.13944602      76.67460099     107.89133854
H      92.00683039      76.64247564     106.02617867
C      93.21436551      76.16626461     109.76216759
H      92.69469077      76.46484137     111.73315213
H      94.74693355      77.49474220     109.40878877
H      94.13466222      74.34078899     109.51272371
C      89.09287242      74.71117535     108.18613584
H      89.89789582      72.84790521     107.83275702
H      87.50172285      75.11746651     106.94080620
H      88.39745313      74.79999248     110.12121559
C      87.19369747      82.97494851     107.42835559
O      86.29985693      83.19226704     109.42579630
N      87.67368796      85.04230911     106.00917113
H      88.87555389      84.90624880     104.53329488
C      86.94236387      87.77674308     106.70081096
H      85.79529999      87.71816157     108.40912355
C      89.44436151      89.18458918     107.22804460
H      90.46292399      89.17892001     105.43469433
H      90.52717469      88.02807667     108.54329412
C      89.04940871      91.91335398     108.10298788
H      88.11021473      91.91902315     109.93791213
H      87.80596879      92.95648289     106.83687125
C      91.36621317      93.66890972     108.40156464
H      92.49249006      93.84087482     106.68569315
H      92.89878121      92.82609179     109.49193672
C      90.54985140      96.34476217     108.91934965
H      89.45003069      96.35043136     110.66167731
H      89.36877245      97.17057257     107.44914258
N      92.86665586      97.76205692     109.35776616
H      93.72837107      96.94569515     110.85064994
H      92.51138731      99.61209898     109.67146072
H      93.91167452      97.50694387     107.78173441
C      85.24538965      88.74995212     104.54841269
O      85.65923971      87.90902392     102.38845551
N      83.27818455      90.21826947     105.17013265
H      82.90401875      90.67180379     106.98615963
C      81.41869386      91.04030041     103.19914810
H      80.37367520      89.35088509     102.65112747
C      79.29842093      92.83554041     104.29896882
H      80.22249711      94.36621873     105.32509020
C      77.69215356      94.14512075     102.26373358
H      76.55642805      92.70136985     101.33020878
H      78.93937293      94.95014416     100.83510048
H      76.42225749      95.52840041     103.10844124
C      77.52396792      91.32375937     106.07909100
H      78.78252566      90.61133255     107.54362890
H      76.43359584      89.79686051     105.22871416
C      75.48306351      92.92813700     107.28662612
H      76.25029240      94.64022905     108.13133378
H      74.78386477      91.63934366     108.73415647
H      73.96750300      93.44214257     105.98838414
C      82.83976804      92.19303347     100.98060941
O      84.47060185      93.78607275     101.52296086
N      82.02340627      91.65446148      98.66947413
H      80.70815676      90.29007907      98.42947889
C      82.98905643      92.85632741      96.27897034
H      84.00383946      94.61755232      96.60022382
C      84.96759988      91.12344838      95.12434757
H      86.53418299      90.79463599      96.42258954
H      85.95781646      92.10043688      93.60689734
C      84.10966412      88.47216235      94.31176525
C      83.61833529      87.96760543      91.75496555
H      84.03596480      89.24317070      90.21672833
C      82.65457487      85.57521192      90.98962639
H      82.18214328      85.20860502      89.03942884
C      82.14245904      83.65147054      92.72061570
O      80.92925474      81.41592431      91.82677515
H      80.97082873      81.08144275      90.04287351
C      82.90968791      84.02941580      95.25284896
H      82.50150704      82.53464228      96.57943683
C      83.81675655      86.39724287      96.10889498
H      84.20604017      86.99439639      98.02129800
C      81.01996160      93.57631313      94.25129401
O      79.04330789      92.33854239      94.11145426
N      81.76640350      95.27895653      92.51274580
H      83.30653044      96.33153409      92.90958833
C      80.04108337      95.77595455      90.40948042
H      78.12679062      95.46981890      91.09923052
C      80.34910876      98.58030841      89.37391040
H      78.82598936      99.12454959      88.09834513
H      82.12545149      98.70503035      88.34023010
C      80.06564982     100.72892723      91.46205797
H      81.54530553     100.51349842      92.87935271
H      78.29497627     100.55507241      92.50140744
C      80.18092312     103.53139135      90.28475848
H      78.70882633     103.70146672      88.85423566
H      81.91569187     103.86209346      89.22462202
C      79.65368949     105.52505261      92.28219919
H      77.94726662     105.04884158      93.32910757
H      79.17180928     107.33730015      91.42993262
N      82.04797272     105.88410061      93.73350900
H      82.78307625     104.41767298      94.71049750
H      81.98372203     107.32218234      94.98828727
H      83.38589894     106.75715417      92.68849035
C      80.50595605      93.96181730      88.24952324
O      82.74339201      93.16435280      87.74496631
N      78.58788384      93.41379667      86.78120589
H      76.82476920      93.58198230      87.49363271
C      78.66725234      91.63367449      84.60613091
H      80.37556493      91.86989027      83.47796430
C      78.33088106      88.78018775      85.40737487
H      76.36745543      88.17358560      85.52831735
H      78.95071130      88.75184186      87.37269023
C      79.83132375      86.96038130      83.89559381
O      81.83632337      87.62178551      82.65215390
O      78.78630510      84.92136662      83.40237525
C      76.54319997      92.22704855      82.68427925
O      74.63646612      93.38545078      83.36647045
N      76.86256371      91.18958879      80.47896864
H      78.49528725      90.21449001      80.29755491
C      75.26196554      91.39367924      78.32846010
H      76.50351571      90.81542298      76.79022288
C      73.09822890      89.51718102      78.40404915
H      72.18549110      89.65324130      76.55967627
C      73.58955774      86.70337854      78.86325264
H      75.09755934      86.17992435      77.56123121
H      71.83967117      85.82654553      78.21885597
H      73.91081121      86.37078669      80.87014199
O      71.45605674      90.06142218      80.43361521
H      72.40469934      89.94425915      81.97563188
C      74.42670650      93.92402277      77.39115585
O      75.28653198      94.72904619      75.36536924
N      72.86201311      95.26005928      78.74608961
H      72.21005754      94.17724610      80.17661243
C      72.01163628      97.91323501      78.34546763
H      73.25885564      98.91667969      77.04722566
C      69.19594406      97.83764597      77.39304557
H      68.20194803      99.60831953      77.73130658
H      68.34934667      96.14634091      78.20562789
C      68.87469060      97.59765072      74.50743349
H      70.19749902      96.18980462      73.78933749
H      69.43593931      99.33430921      73.55123198
C      66.31411144      96.90601090      73.58146760
O      65.19728319      98.09275902      71.84291939
O      65.57333872      94.79518660      74.38271156
C      72.34989728      99.62154761      80.79455294
O      70.64158470     100.86120806      81.67327567
N      74.64591475      99.49682567      81.83957159
H      75.97250263      98.38566660      81.03454818
C      75.36967993     100.52105733      84.23574455
H      75.29031142     102.57330011      84.07700754
H      77.36334120     100.11665590      84.55510830
C      73.85222970      99.81240997      86.53176202
O      73.74640503     101.29395540      88.45172396
N      72.45005278      97.68268840      86.36168665
H      72.65036376      96.66979510      84.75730901
C      70.80032171      96.65089785      88.31944311
H      69.66648591      98.13433299      89.18493776
C      69.18649543      94.66101604      87.07033402
H      68.17738159      93.67835836      88.57455617
H      70.49229632      93.34387679      86.17460375
C      67.15881910      95.53029014      85.12391592
C      66.16104361      93.58765149      83.55544308
H      66.64103410      91.62800531      83.86724792
C      64.33178854      94.14890020      81.70540102
H      63.57400828      92.67302395      80.51676317
C      63.40960209      96.73026634      81.50131058
O      61.48586071      97.39545001      79.97441172
H      61.44239700      99.20013864      79.79110826
C      64.44139266      98.58408786      83.09246013
H      63.46629388     100.37554841      83.11324712
C      66.37647241      98.00961107      84.85557478
H      67.23629787      99.42879552      86.04421263
C      72.22706507      95.16368324      90.35656808
O      74.14324756      93.88244880      89.84823170
N      71.21795122      95.55674630      92.72061570
H      69.48129273      96.30507793      93.00218492
C      72.50296511      94.36243928      95.01663317
H      74.51363391      94.45125642      94.58388584
C      71.69416225      95.85910252      97.31076091
H      71.66770608      94.83298113      99.09655228
H      69.72506743      96.39011562      97.02730196
C      73.06421382      98.35732071      97.75862605
C      71.70739033     100.56641077      97.58288150
H      69.70050099     100.39255594      97.25406912
C      73.02641931     102.95124537      97.91169388
H      71.94927531     104.68034495      98.05342335
C      75.70227176     102.96825291      98.15357885
O      76.95327058     105.19057105      98.06854116
H      75.80053752     106.58896853      98.04397472
C      77.05720553     100.71569915      98.01562883
H      79.09433049     100.76861148      98.14601994
C      75.73439710      98.39133578      97.90791443
H      76.72839314      96.61688277      98.09499733
C      72.14202739      91.43336350      95.04497906
O      70.21072709      90.27874071      94.50451734
N      74.16025509      90.11055508      95.76118533
H      75.81754507      90.98927781      96.11645388
C      74.49473665      87.36856220      95.28686403
H      72.67681993      86.43314767      95.04119961
C      75.69660258      86.86400527      92.67337254
H      77.72049947      87.23250190      92.65825473
C      75.32432649      84.22783707      91.83433406
H      73.34767277      83.80264863      91.43938126
H      76.23139513      82.93526427      93.15714247
H      76.36556570      84.03508497      90.06743995
O      74.46261130      88.11122464      90.77041814
H      74.63079695      89.89512627      91.05198736
C      76.24084376      86.26496203      97.37312188
O      77.61278506      87.59721907      98.73183510
N      76.13312937      83.77808219      98.00240074
H      74.89346889      82.73495328      96.99139716
C      77.70160221      82.44960460      99.84677362
H      79.51007028      83.43604174      99.80708937
C      76.58855340      82.60456215     102.56231033
H      75.75140464      84.40925079     103.08954398
C      74.40214006      80.69026941     102.85710764
H      73.54231458      81.09467084     104.68447298
H      75.17503811      78.78542527     102.95726313
H      72.97539670      80.76396873     101.37367248
C      78.65780372      82.00551892     104.69770107
H      79.30220038      80.05532136     104.54463324
H      77.71483029      82.20394018     106.51750751
C      81.00484379      83.70438287     104.69770107
H      82.15568713      83.13368553     106.30963761
H      80.48894852      85.69426467     104.83376136
H      82.21993781      83.36045269     103.06875699
C      78.10222418      79.63958157      99.19103859
O      76.63201711      78.36023686      97.97027539
N      80.15257723      78.65503417     100.07732023
H      81.41302468      79.81532612     100.91824844
C      81.00862324      76.05288103      99.88645788
H      79.46282713      74.79243357     100.39857371
H      82.68103104      75.76186318     101.05430874
C      81.77774186      75.29321106      97.18792870
O      82.94370299      76.78609484      95.87645864
N      80.87634241      73.16348949      96.25818335
H      79.73872717      72.24319278      97.48461573
C      80.52296358      72.70617573      93.54642610
H      82.01773710      73.45450734      92.34267043
C      80.53619167      69.68450336      93.20249591
H      79.20015516      68.74908884      94.45727418
C      79.91636143      69.08923957      90.43404686
H      79.88990528      67.04077625      90.22239751
H      81.36389180      69.89804242      89.21139393
H      78.18915159      69.96418285      89.73106867
C      83.12889617      68.54499839      93.77319325
H      83.70148325      69.26876357      95.61756613
H      84.41391006      69.05900395      92.24629439
C      83.08921191      65.68206303      94.21727894
H      84.47438130      65.16427802      95.65158121
H      83.48605444      64.74853823      92.42581839
H      81.36956097      64.87703962      95.01663317
C      77.91514127      73.77765055      92.91903696
O      75.94982590      72.77231615      93.56154391
N      77.80175769      75.83178306      91.47150660
H      79.52140864      76.57822495      91.11245860
C      75.68148478      76.70294689      89.73484812
H      75.26385525      75.14014323      88.46117259
H      76.55642805      78.19016149      88.60857124
C      73.19838440      77.57411072      90.89891953
O      71.36157042      77.90103337      89.43060219
N      72.99996314      77.88024638      93.43682197
H      74.61567913      78.10512381      94.42892828
C      70.55276756      78.16370532      94.65380571
H      69.13925227      76.95617021      93.76752407
C      70.79087307      77.01286200      97.39201914
H      72.14391711      78.26386082      98.31420558
H      71.37479851      75.04376717      97.23517186
C      68.46273025      76.86357362      98.82632141
N      67.06244305      74.62991712      99.19292832
H      67.30810747      72.94050180      98.34444120
C      65.00642082      75.24596790     100.59132579
H      63.52298568      73.99307935     101.22249438
N      65.02909754      77.69883265     101.29052453
H      63.71951721      78.45661291     102.45648566
C      67.03220744      78.73251294      99.88645788
H      67.44794723      80.72806393      99.78252293
C      69.58333795      80.97750781      94.60089338
O      70.58678264      82.62912859      95.91803262
N      67.86368701      81.63513256      93.01352328
H      67.14748074      80.18760220      91.99874024
C      66.67126971      84.26941103      92.94927258
H      68.13013842      85.62812426      92.42581839
C      64.77965367      84.23539597      90.74963115
H      63.49463977      82.62534915      90.80443322
H      65.74719355      83.75918494      88.99596513
C      63.18850412      86.58999496      90.03153515
H      62.24364096      86.18370380      88.24763351
C      61.13248188      87.38179028      91.84189296
H      59.77187894      88.55153086      90.83088938
H      61.61247237      88.55908977      93.46138841
H      60.13659612      85.73583866      92.58077595
C      65.00264137      88.85010762      89.47406589
H      63.94061518      90.07465028      88.20228008
H      66.76953547      88.22271849      88.62368905
H      65.41649143      89.95181806      91.16537094
C      65.70939902      84.93270498      95.49662365
O      64.24864057      83.39068830      96.50951695
N      66.47851762      87.20604572      96.38101556
H      67.72951645      88.25106439      95.39268870
C      65.46184487      88.14146025      98.90568992
H      64.88925779      86.52763398     100.04897434
C      67.62558150      89.47371731     100.40991206
H      66.88669852      90.31653525     102.13901164
H      68.55154740      90.92691684      99.27985573
C      69.91592979      87.89579584     101.16958204
H      70.46961961      86.75062168      99.54630714
C      72.18549110      89.46426867     102.23916714
H      72.72595281      91.04785932     101.03919093
H      73.90514203      88.33043288     102.19570343
H      71.71116978      90.19559276     104.10621673
C      69.07878103      85.86622977     103.05741863
H      68.50241450      86.76573949     104.81864355
H      70.58678264      84.46972203     103.19914810
H      67.50274928      84.77207824     102.31097674
C      63.26220344      89.93103107      98.41247135
O      61.20429148      89.39812826      99.48394617
N      63.65148706      91.81130875      96.70982794
H      65.39192499      91.69603545      95.93504015
C      61.90537996      93.77473439      95.89724563
H      59.99675637      93.05663839      95.62134559
C      61.54255249      95.86477170      97.83043565