 %block lattice_cart
   139.898   0.000   0.000
   0.000 144.87   0.000
   0.000   0.000   168.12
 %endblock lattice_cart

 %block positions_abs
N      97.43790381      43.27746785      84.47668465
H      96.98814895      41.43687442      84.24046886
H      97.44735245      43.57415488      86.36263152
H      99.26337943      43.47966857      83.96267909
C      95.56518504      45.10861265      83.37497422
H      95.84297481      46.93030881      84.29905038
C      96.03005770      45.46955037      80.51581831
H      95.79384192      43.67431038      79.52938116
H      98.04261623      45.74922987      80.17944701
C      94.41245198      47.68053016      79.42355649
H      92.39989346      47.32715134      79.69189762
H      94.92456781      47.98288637      77.45068223
S      95.12298907      50.65684910      81.13942798
C      93.28995456      52.89995424      79.48969691
H      91.29440357      52.41429457      79.63142638
H      93.82285738      52.89239533      77.49981511
H      93.73026079      54.78212164      80.19456482
C      92.75894146      44.47555433      84.01181199
O      91.87643927      42.43276019      83.26725981
N      91.23015287      46.17441829      85.11352242
H      92.10698589      47.85060553      85.37052521
C      88.37666615      46.03457854      85.44422453
H      87.49794341      44.83271261      84.01937089
C      87.86832976      44.60594545      87.93488380
H      89.38389026      43.28313703      88.37519004
H      86.02206716      43.69887682      87.86118448
C      87.93447019      46.35016283      90.13263550
O      85.87655822      47.27612873      90.81104726
N      90.15300888      47.00211841      90.98679180
H      90.12466299      48.50634056      92.16409129
H      91.76116597      46.19709500      90.34617458
C      87.19180775      48.57815016      85.41398890
O      88.62611001      50.39417714      85.43666562
N      84.70303818      48.73688717      85.21178819
H      83.79219011      47.11172254      84.79982785
C      83.21771330      51.07825807      85.02470529
H      83.44637020      51.52234375      83.02726458
C      80.36233684      50.41307441      85.33651012
H      79.88045664      49.13372969      83.79638318
C      79.71982991      49.01845639      87.82338996
H      80.90468829      47.34604860      88.01992150
H      77.88112620      48.10949803      87.64764540
H      79.72738881      50.18252780      89.52414364
C      78.57465576      52.64484118      85.17399367
H      79.13590447      54.25110855      86.33617534
H      76.65469383      52.04201849      85.61618963
C      78.07009884      53.67285230      82.45467749
H      76.49028763      54.99377099      82.52081792
H      77.38412818      51.99477533      81.47579927
H      79.62345386      54.52133941      81.40021021
C      83.89612505      53.20042072      86.85962954
O      83.63156337      55.39439297      86.12074655
N      84.60099296      52.60137748      89.18399290
H      84.68225119      50.78346077      89.75846970
C      85.19625676      54.63850244      90.93576920
H      83.80730791      56.15028349      91.10773428
C      85.54396640      53.46687213      93.60595248
H      86.10521511      54.93896893      94.93065061
H      86.88189263      51.90406847      93.70232852
C      83.27818454      52.10437946      94.79459033
C      80.79697390      52.34059525      93.83838880
H      80.37367521      53.79568451      92.47022695
C      78.82976881      50.75322514      94.67742730
H      77.04208772      50.95542586      93.71366688
C      79.27763394      49.10727353      96.68620637
H      77.86978784      47.69186852      97.10950505
C      81.69459389      49.20175984      97.91263874
H      81.74750624      48.15296174      99.66063557
C      83.70904215      50.38850797      96.73911870
H      85.57042257      50.36205180      97.57815719
C      87.64345234      56.05768690      90.06460537
O      87.69825439      58.39905781      90.60128764
N      89.43113343      54.93518947      88.61140582
H      89.10421078      53.21742826      87.84228721
C      91.58731115      56.34681503      87.60985088
H      92.28273043      57.67151318      89.02714561
C      93.79073203      54.51189078      86.97679257
H      95.46313982      55.62304985      86.51003016
H      93.15200454      53.54435091      85.27414916
C      94.24993553      52.52578843      89.08383740
H      92.54729212      51.40140127      89.36351690
H      94.90567056      53.49710775      90.77703218
C      96.45335640      50.58692923      88.36385168
O      96.06785224      48.33626519      88.01803176
O      98.58685741      51.52990266      88.45077910
C      90.88055350      57.76033031      85.18344229
O      91.74226870      59.87304433      84.98502103
N      89.20247654      56.80790825      83.65276399
H      88.59209495      55.06747032      84.14787227
C      88.42768875      57.84914745      81.14320743
H      89.95458762      57.71497688      79.76748668
C      86.23371650      56.33169722      79.92811341
H      84.66146421      56.17296021      81.24903212
H      86.73827342      54.33992569      80.08118125
C      85.28507390      57.09514665      77.34863701
H      86.83464947      56.83436442      76.01449023
H      84.94492315      59.11715381      77.16722327
S      82.38245427      55.46809230      76.37353823
C      82.83220913      56.10870952      73.01927402
H      84.71626628      55.47565120      72.48070201
H      82.56008855      58.10615023      72.60164450
H      81.36389180      55.09959566      71.98937317
C      87.51495095      60.58736088      81.61941846
O      88.06864075      62.29189401      80.22480046
N      85.93325001      60.98420340      83.56772629
H      85.30019171      59.51210660      84.60329631
C      84.93736426      63.50320858      84.11952639
H      84.41202033      64.47452790      82.38097817
C      82.54875019      63.13849140      85.69744786
H      82.29552686      64.84680399      86.81994528
H      83.15346261      61.69285077      87.03726381
C      80.06564982      62.41472622      84.38975724
H      79.17369899      64.15705388      83.74914003
C      80.30375534      60.41917524      82.29216103
H      78.47261054      60.20185671      81.37375404
H      81.11255819      58.69952429      83.08395637
H      81.65679937      61.05601300      80.87486631
C      78.34221941      61.45285553      86.43822056
H      79.36456136      59.73509431      86.93143914
H      76.63012738      60.75743625      85.53115193
H      78.25529201      62.82479683      87.97267834
C      86.85543645      65.12648348      85.39887110
O      86.95370223      67.42061122      84.88864499
N      88.55996960      64.08902373      87.06183025
H      88.64500728      62.18417961      87.16765492
C      90.58197674      65.66127603      88.27881400
H      89.57664235      67.34691190      88.89864422
C      91.60620841      64.00965523      90.53703695
H      92.67390378      62.56401460      89.52981281
H      89.99994105      63.18195510      91.52347407
C      93.35231552      65.52143628      92.28503377
H      92.25816399      66.91605430      93.33572161
H      94.75260273      66.44551245      91.09261647
C      94.73559518      63.86036685      94.16909091
H      93.61687721      62.33157826      94.97789377
H      95.40833775      64.79767110      95.87362404
N      97.16011405      63.15360921      92.89352565
H      98.63410057      64.34602651      93.10328527
C      97.66467096      61.09569726      91.61985011
N      96.18312554      59.07935928      91.57071723
H      96.80295577      57.70552825      90.40097664
H      94.71291847      58.88660720      92.77258316
N      99.68667813      60.82357667      90.38963828
H     100.28005218      59.23053738      89.52036419
H     100.75626321      62.34669607      89.97011904
C      92.69091131      66.37748230      86.41554386
O      93.87199026      68.25209080      86.75758432
N      93.07074631      64.94318003      84.34440381
H      92.31107632      63.21030100      84.60329631
C      94.80551506      65.68206302      82.43389052
H      96.44012832      66.64960289      83.23135501
C      95.89588714      63.43517843      80.90321220
H      94.25182524      62.34669607      80.30416895
C      97.60231000      64.06256757      78.54294404
H      98.76449168      65.71040891      78.96624273
H      96.22658925      64.68239780      77.14265683
H      98.74181497      62.48842555      77.86453228
C      97.33396887      61.58702610      82.60963505
H      96.58941670      61.56812883      84.52959699
H      99.23503354      62.35614471      82.78348987
C      97.35286612      58.95085789      81.65154381
H      95.45558091      58.39338863      81.07895674
H      98.15599982      57.68285153      83.06127964
H      98.65110810      58.91495309      80.05094562
C      93.53939843      67.56045097      80.63487106
O      94.92078836      69.03443750      79.41788732
N      91.07897476      67.81178457      80.44967788
H      90.08875818      66.37370285      81.21312732
C      89.82797594      69.86591707      79.03427287
H      90.88055350      70.23441370      77.29950411
C      87.11243924      69.08357038      78.45979607
H      85.96915481      70.78810351      78.28405152
H      86.50205763      67.80800512      79.95834905
C      86.79307550      67.60958386      76.02393886
O      88.33887161      67.40171396      74.22113995
O      84.70870737      66.56267548      75.97480598
C      89.89222664      72.54743871      80.45156761
O      90.17379586      74.54676915      79.24781194
N      90.12088353      72.60224078      82.99135978
H      89.92057253      70.94495080      83.91732566
C      89.97159515      75.04943635      84.43700040
H      90.26261300      76.56877631      83.07828718
C      87.30708104      75.44816860      85.59162317
H      87.22771255      76.99585445      86.94655694
H      86.90834879      73.60001627      86.40987467
C      85.16980058      76.16437488      83.72079412
H      83.39156812      76.06610911      84.75825388
H      85.03563002      74.52409244      82.48113366
C      85.52317941      78.77975609      82.55672272
O      85.10554989      80.66570295      83.95134074
O      85.63845271      79.06510477      80.12086551
C      91.95202833      75.36502064      86.54215551
O      92.91578875      77.40025588      86.88419598
N      92.50571813      73.39403610      87.97645779
H      91.94824887      71.62714200      87.51536456
C      93.90600534      73.63592107      90.27814444
H      95.35920487      75.02298018      89.81894095
H      94.60898353      71.79910709      90.88852603
C      92.29973796      74.82833837      92.41731462
O      90.22859793      75.92437963      91.88630152
N      92.97248053      74.39559105      94.73033962
H      94.70724928      73.60190599      94.65664030
C      91.69691528      75.24785761      96.99990093
H      89.68246702      75.18927610      96.58038168
C      92.14100096      73.18616621      98.99923136
H      94.05529372      73.50741968      99.68709175
H      92.32052495      71.32289606      98.14129562
C      90.37599658      73.02931892     101.35005090
H      88.62422029      73.81355534     100.60171929
C      89.65034167      70.25142124     102.03602155
H      91.28495494      69.17994642     102.68797714
H      88.70736824      69.37458823     100.42975419
H      88.56941822      70.21551644     103.79157729
C      91.12810766      74.37102460     103.84637936
H      92.05407354      76.10768309     103.23977722
H      92.73815447      73.32600595     104.59282125
H      89.56341427      74.48440818     105.18052614
C      92.39233455      77.92937925      97.61028253
O      94.63732942      78.48873824      97.44776606
N      90.58764593      79.30132055      98.61183747
H      88.77539839      78.72306430      98.45499019
C      91.10921039      81.57655104     100.24267129
H      93.10098193      81.37246059     100.73022067
C      90.69158087      84.04453360      98.75356694
H      91.01661380      85.70938248      99.92141781
H      88.74894223      84.05020278      98.07704492
C      92.63044007      84.36956653      96.66352965
H      92.64177843      82.93526425      95.18765339
H      94.46914377      84.63790766      97.55548046
C      92.23170781      86.96227103      95.29158835
H      94.09497796      87.75028690      94.90041500
H      91.26605768      88.26996164      96.55392553
N      90.69913978      86.66936345      92.92943045
H      89.52561973      85.16703103      92.85384139
C      91.15645355      88.02807667      90.87718767
N      92.65878596      89.93481052      90.86584931
H      92.73815447      90.99116753      89.27847922
H      93.89844643      90.37511675      92.25101871
N      89.93002118      87.72572046      88.71912023
H      90.10765545      88.86711515      87.19978027
H      88.83775937      86.17236543      88.51880923
C      89.71081291      81.73339832     102.85616278
O      87.43747217      81.14758316     102.90529566
N      90.94669393      82.67070257     104.72699182
H      92.74193393      83.17903895     104.32070067
C      90.10387600      82.92203617     107.41985182
H      88.47871137      81.73339832     107.85259914
C      92.36020920      81.82788464     109.02989863
H      91.97281531      82.22283743     111.01411126
H      94.08930879      82.85400602     108.58203350
C      92.89878121      79.02164106     108.59148214
H      93.21058605      78.69471841     106.58081333
C      95.30629254      78.41881837     110.06357894
H      95.76927548      76.47428999     109.56280145
H      95.03228222      78.54920948     112.09881418
H      96.88610372      79.58100005     109.42863089
C      90.77094937      77.31899765     109.64594941
H      90.37977603      77.54198536     111.65661822
H      91.55707552      75.45194806     109.27745279
H      89.03807036      77.30199012     108.53290061
C      89.47270740      85.66780850     108.20975741
O      88.20470105      86.09110720     110.10515291
N      90.11332462      87.58399098     106.69797636
H      91.00338572      87.07943406     105.08792955
C      88.83964908      90.03307629     106.86049284
H      87.43558244      90.16535713     108.36282525
C      90.76528021      92.05319371     107.40473402
H      91.67234884      91.71115325     109.22265072
H      89.69947457      93.75394740     107.86582724
C      92.84586888      92.62578079     105.43185973
H      91.89911599      93.17002197     103.68386290
H      93.70191489      90.75684146     105.28824053
C      94.72614656      94.60243451     106.25578042
H      93.80207039      96.35043135     106.83592638
H      95.74092959      94.86132702     104.48132741
C      96.31918584      93.38167131     108.35526634
H      96.96547223      91.52596007     107.73543611
H      95.23448293      93.11333018     110.08436592
N      98.68512318      94.66857493     109.10737742
H      98.17678681      96.47137383     109.47965350
H      99.78683362      94.84242975     107.55780185
H      99.71880347      93.69536588     110.38294268
C      87.14645431      90.48661060     104.62116715
O      87.76817426      89.53796799     102.60482917
N      85.12822661      92.00595056     105.13139326
H      84.81264232      92.51050748     106.94364078
C      83.16102151      92.61066298     103.31725600
H      82.21048919      90.92691683     102.60860862
C      81.24294930      94.42668996     104.48699658
H      82.39001318      96.00650116     105.14084188
C      79.39668671      95.38856066     102.51223258
H      80.12612105      96.66034647     101.06470222
H      77.84900086      96.47893274     103.32481491
H      78.35544751      93.83331590     101.65240711
C      79.82565457      93.13033771     106.66018185
H      81.12389655      92.09854715     107.88283476
H      78.51607424      91.67146900     106.02901325
C      78.42914683      95.05407910     108.45353212
H      76.56776641      95.49438533     107.68630323
H      79.50062164      96.80963484     108.36093553
H      78.14946733      94.17346664     110.29412554
C      84.36288745      93.77851384     100.88517823
O      85.93325001      95.31108188     101.09871731
N      83.63156337      93.05474866      98.51546143
H      82.28418851      91.70359435      98.46254909
C      84.52918336      94.04496525      96.11172956
H      85.34365540      95.91957375      96.37818097
C      86.53985217      92.25917388      94.99679104
H      88.12722227      92.17602593      96.30448165
H      87.20314611      93.34387679      93.37540587
C      85.53262804      89.66457966      94.17853955
C      84.89201082      89.24506041      91.61607066
H      84.76917861      90.81353325      90.31593896
C      84.13989975      86.89235115      90.76947327
H      83.63345309      86.69959907      88.80226819
C      83.95659629      84.85333646      92.39085846
O      83.27818454      82.54976009      91.44032612
H      82.74150227      82.48928884      89.70933682
C      84.51784502      85.31820914      95.00246021
H      84.19848126      83.71572122      96.22511314
C      85.41546500      87.69548484      95.81882198
H      85.65923971      87.95248762      97.82949078
C      82.17647411      94.50416874      94.28247450
O      80.09210598      94.30763721      95.19143285
N      82.46749196      95.19202912      91.92220632
H      84.17580455      95.47548807      91.11718292
C      80.22816628      95.38289148      90.15153277
H      78.48772834      94.82731194      91.10206511
C      79.83132375      98.11165627      89.07438877
H      78.66158316      98.09464874      87.37741454
H      81.70215280      98.87699543      88.67754625
C      78.65213453      99.84642503      91.08883703
H      79.86911829      99.98626478      92.74423727
H      76.85878426      99.12832903      91.80693303
C      78.19104132     102.47125488      90.08539236
H      78.04931185     102.43912953      88.02937012
H      79.87667719     103.55217833      90.56916229
C      75.84400124     103.86776262      91.12285209
H      75.81565534     104.00004347      93.17887433
H      74.09789413     102.84353096      90.74112738
N      75.73628683     106.30173011      89.97767795
H      74.03364343     107.05006173      90.41231501
H      75.96683344     106.28850203      88.08228245
H      77.12901512     107.43556590      90.62018489
C      80.64012662      93.63678437      87.93299408
O      82.72827420      93.01128496      87.13930902
N      78.63701672      92.74483355      86.80482747
H      76.88146098      93.15868361      87.43410633
C      78.71638523      91.07431548      84.59951686
H      80.46060261      90.06898109      85.03793336
C      76.78697467      88.88979187      84.80927648
H      74.91614562      89.53229881      84.24046886
H      76.52808215      88.49105961      86.81427611
C      77.48806312      86.42180930      83.39009203
O      76.46761091      84.53586244      84.30660929
O      79.29842093      86.27441065      81.90098768
C      78.62378864      92.29696841      81.89909797
O      78.60867082      94.71014891      81.81406028
N      78.57654548      90.83243052      79.87520108
H      78.43670574      88.95026311      80.16621893
C      78.31765297      91.81886765      77.29194521
H      79.70471209      93.23049321      76.72313759
C      78.41780847      89.88756736      75.28127642
H      78.19104132      90.87778395      73.48981588
C      81.01618215      88.63089936      75.45135178
H      81.16924998      87.24572997      76.96502256
H      82.47127141      90.08220917      75.57985318
H      81.39790687      87.44415124      73.80917962
O      76.83421782      87.85989103      75.70835457
H      75.74384574      87.75406635      74.26082421
C      75.76652246      93.21726512      77.04817052
O      75.54542448      95.20336748      75.87276076
N      73.83900162      92.31019649      78.31995632
H      73.90514204      90.46582361      78.80750571
C      71.42960056      93.61221792      78.54105430
H      71.01764023      94.01850908      76.56440058
C      69.39625506      91.81319847      79.44434348
H      67.52164656      92.59743489      79.10419275
H      69.83278183      91.40123814      81.41721775
C      69.21106188      89.25072959      77.95523915
H      67.66148630      88.11122463      78.69034268
H      70.92126419      88.10744517      77.84941448
C      68.57044466      89.54552690      75.19056955
O      67.95628361      91.62611557      74.29294956
O      68.44950217      87.58966016      73.75437755
C      71.27653273      96.08586967      79.98669494
O      69.18082625      97.10821160      80.38731691
N      73.40058512      96.87955472      81.11675127
H      75.13346413      96.11232584      80.88809438
C      73.28720154      99.22470507      82.57184054
H      71.82455337     100.32641551      81.62508765
H      75.19204565      99.99382368      82.43955969
C      72.57477471      98.98659956      85.16643476
O      72.42737605     100.92356903      86.28326301
N      71.83589173      96.69436154      86.02059106
H      71.75085404      95.24305173      84.78282032
C      70.66615114      96.28240120      88.61140582
H      69.90648115      98.10976655      89.17643399
C      68.53453985      94.33220365      88.37330031
H      67.80699523      94.06764196      90.28192388
H      69.28665093      92.55964037      87.64008650
C      66.22718402      95.12588870      86.85585008
C      65.66215586      93.61032820      84.79982785
H      66.49363544      91.77729367      84.45967712
C      63.58345691      94.47015367      83.19356049
H      63.26409316      93.27017746      81.57406503
C      62.50253346      96.89467253      83.55449821
O      60.74319827      97.91890419      82.01248154
H      60.28777422      99.64044486      82.35263227
C      63.22440891      98.25905493      85.66154306
H      62.43450332     100.13744288      85.78626499
C      65.14437084      97.42190617      87.30371522
H      65.98529905      98.64266937      88.70778186
C      72.56721580      95.29596407      90.50491160
O      74.35111744      93.79363165      89.97011904
N      72.00785681      95.93091211      92.97100443
H      70.29576478      96.67924373      93.36406751
C      73.72939748      95.12021952      94.95521706
H      75.62101352      95.57375384      94.27302586
C      73.11145698      96.55074234      97.38351538
H      74.13001947      95.72493194      98.97088547
H      71.11968545      96.31263682      97.85405722
C      73.70294133      99.38911126      97.55548046
C      71.76219239     101.31285265      97.54225239
H      69.79309757     100.78372928      97.43831743
C      72.49918565     103.75815850      97.92775656
H      71.27464301     105.38710258      97.99011752
C      75.05220590     104.39121681      97.84460860
O      75.86856768     106.91589117      97.60839280
H      74.66859146     108.26137630      97.40241263
C      76.95138085     102.58085900      97.71232775
H      78.93181402     103.07596730      97.73878391
C      76.26352048      99.98248532      97.68776131
H      77.76585289      98.60676457      97.55170101
C      73.60656528      92.33098348      95.30859588
O      71.55243277      91.26706757      95.35394931
N      75.77219164      91.23494222      95.76968910
H      77.26696515      92.40468281      95.55992948
C      76.15580607      88.48728016      95.63929798
H      74.45694212      87.41013616      96.08338366
C      76.70760616      87.85800130      92.89919484
H      78.19482077      89.06175696      92.13007623
C      77.45782751      85.05175773      92.37385091
H      76.08777592      83.55509449      92.72722974
H      79.03952843      84.46216312      93.55492986
H      77.91892072      84.77018850      90.38396911
O      74.46828048      88.27752054      91.52158435
H      74.44749348      90.05575300      91.16442607
C      78.25718173      87.57832181      97.47044278
O      79.98817103      88.98805764      98.15830317
N      78.14001870      85.26151735      98.38696004
H      76.56587669      84.26185213      97.97688944
C      79.99195049      84.12390211     100.19731785
H      81.83065419      85.02530156      99.98377877
C      79.04330788      84.24862404     102.88639839
H      78.55575849      86.19315242     103.36638887
C      76.58855340      82.81054232     103.12450391
H      76.89090961      80.86034476     103.71409852
H      75.40747445      82.82566013     101.43697832
H      75.48873269      83.69682396     104.62494660
C      80.63256771      83.48139516     105.17674668
H      80.83098897      81.43104211     105.11060627
H      79.45715795      83.82154590     106.83214693
C      83.19503660      84.87601318     105.49044126
H      84.08131823      84.34311036     107.27245317
H      82.88134203      86.90935869     105.38650631
H      84.40257171      84.67192274     103.83504100
C      80.37556493      81.34033525      99.62662051
O      78.82787909      80.29720632      98.37373196
N      82.39946181      80.19894055     100.68675697
H      83.77896202      81.12112699     101.62973039
C      82.56386800      77.44182986     100.72833095
H      80.65335470      76.71428523     100.97966454
H      83.53518733      76.72751332     102.39884900
C      83.65046064      76.59712220      98.07893466
O      85.58554037      77.45316822      97.08871806
N      81.97616311      75.12124595      96.85061255
H      80.47949987      74.29354583      97.70098939
C      82.22560699      74.60913012      94.11806831
H      83.63156337      75.85068031      93.26391201
C      82.97393862      71.83312217      93.54548124
H      81.40924523      70.57078499      93.98956692
C      83.91313260      71.45895636      90.82994451
H      82.34465976      72.15815509      89.69421901
H      84.30619566      69.51064853      90.28570335
H      85.68191641      72.42271678      90.39530747
C      85.27751499      71.11502617      95.25001436
H      84.74650189      71.03754739      97.23800644
H      86.76472960      72.53043118      95.05537255
C      86.38300488      68.57145455      95.01190884
H      84.84665739      67.39793451      94.30326149
H      87.25794816      67.79288731      96.70699336
H      87.79274072      68.76609636      93.52469425
C      79.52518810      75.15715075      93.13730034
O      77.78852961      73.62269298      93.74579221
N      79.05275651      77.12435584      91.62551930
H      80.54186085      78.26386081      91.27025074
C      76.71516507      77.83867239      90.21578346
H      75.95927453      76.33256052      89.03281480
H      77.26696515      79.39769660      88.98746137
C      74.41536815      78.75329992      91.71811589
O      72.43115552      79.16337053      90.58239037
N      74.66859146      78.79865336      94.17287036
H      76.36745543      78.66637251      95.03458556
C      72.34989728      78.85912460      95.67142333
H      70.77953472      77.85001075      94.80403896
C      72.81476996      77.51174974      98.27735591
H      74.12246057      78.72684376      99.30536703
H      73.32877551      75.58233917      97.77846818
C      70.46584014      77.03364898      99.91007945
N      69.26586393      74.70361644     100.36928295
H      70.04254145      72.98963467     100.06314728
C      67.20606226      75.01353155     101.89429208
H      66.10435182      73.38269774     102.42908463
N      66.95661838      77.50986001     102.31759077
H      65.53176475      78.32244232     103.29457927
C      68.83500634      78.79676363     100.97777482
H      69.20161325      80.79987352     100.85494260
C      71.34834234      81.64269146      96.02480216
O      72.00407737      82.89180055      97.83327023
N      70.01797501      82.53464228      94.14830392
H      69.82333321      81.30632017      92.69888385
C      68.66871043      84.87979263      94.44121150
H      69.94049624      86.31976408      93.69287988
C      66.41804638      84.61901040      92.66675850
H      65.48452159      82.88235192      93.26202229
H      67.03220744      84.05020278      90.78459108
C      64.37147279      86.77329840      92.49857285
H      63.36424866      86.89424088      94.29192313
C      65.29176950      89.40568715      91.94110359
H      66.47284845      89.19592753      90.26680608
H      66.21206621      90.19937220      93.60406274
H      63.55511103      90.42802909      91.52158435
C      62.49119511      85.73772838      90.38018966
H      60.80744896      86.87345389      90.02870057
H      61.91860803      83.80264863      90.78837053
H      63.48330143      85.67914686      88.57550102
C      67.58022807      85.38434956      97.04525437
O      66.21206621      83.76863356      98.00523533
N      68.36824394      87.50840193      98.26223810
H      69.39247560      88.70837814      97.18887356
C      67.20606226      88.45137536     100.58660148
H      66.66371080      86.83376964     101.74311397
C      69.18271598      89.92536189     102.05869828
H      68.27753707      90.82865106     103.67252454
H      69.94805514      91.35210525     100.78313300
C      71.39936495      88.33610206     103.11127583
H      72.25163152      87.21360463     101.60894340
C      73.37223922      90.09165780     104.02779308
H      74.93882232      89.15435355     104.97832543
H      72.52375210      91.52973953     105.23721793
H      74.03931260      91.21604496     102.43475380
C      70.58111346      86.59944358     105.31658644
H      72.17982191      85.64891124     106.20097835
H      69.39058587      85.12734678     104.50211440
H      69.51908726      87.56698345     106.79435241
C      64.79855094      90.11433452     100.24645073
O      63.02976710      89.72127144     101.78657768
N      64.68516736      91.73949915      98.20365659
H      65.91726891      91.52407035      96.76179541
C      62.55544580      93.49694462      97.89374147
H      60.72808045      92.54452256      97.86161613
C      62.59513005      95.34887640     100.23322265