 %block lattice_cart
   139.898   0.000   0.000
   0.000 144.87   0.000
   0.000   0.000   168.12
 %endblock lattice_cart

 %block positions_abs
N      93.80962929      42.42047697      83.19733994
H      95.48014735      42.30331394      82.27893295
H      93.11232028      40.65358286      83.01970567
H      94.13844167      42.88157019      85.02092583
C      92.02761738      44.38390261      82.19578500
H      92.34887086      46.16402479      83.17844268
C      92.28462015      44.88468008      79.41221814
H      90.38922467      45.09254997      78.62798172
H      93.14255590      43.45226753      78.20657275
C      93.63577448      47.41691334      78.98325026
H      94.31607594      47.74950517      77.06895751
H      95.40455830      47.38289826      80.03582782
S      91.89344682      50.04930209      80.18322647
C      94.65811641      52.08642706      80.88053548
H      94.21781017      53.93079994      81.68744862
H      95.94690975      52.36610655      79.29883456
H      95.90344604      51.21904268      82.27326377
C      89.35176492      43.81320527      83.09151527
O      88.39556341      41.74962413      82.65876794
N      88.11210445      45.58198909      84.29149148
H      89.01350392      47.26195578      84.37463943
C      85.40979583      45.46671578      84.86218882
H      84.43469706      44.66547183      83.23513447
C      84.79374506      44.28752657      87.52670292
H      85.81230754      42.49984548      87.43032688
H      82.76984817      43.90202240      87.52670292
C      85.43436227      45.81442542      89.80004368
O      85.89356576      48.04808193      89.56760734
N      85.52506913      44.66547183      91.94677277
H      86.12222266      45.61222471      93.49256889
H      85.32853760      42.77007633      92.02236182
C      84.35154909      48.28807717      84.51069973
O      85.70837258      49.88300618      83.52615232
N      81.96482477      48.80964163      85.41965809
H      81.01051297      47.30730921      86.10940819
C      80.75728965      51.26250639      85.62185880
H      81.13334518      52.08453734      83.77370647
C      77.89813374      50.71637549      85.98090680
H      77.27452406      49.30852938      84.61463468
C      77.40491517      49.59954723      88.51314006
H      75.37723883      49.24805814      88.58117021
H      77.72238920      50.93180428      90.05137728
H      78.38568312      47.80430723      88.75691475
C      76.14635744      53.08231282      85.70311703
H      76.53375134      54.60921169      87.02970490
H      74.21694688      52.41712916      85.97712735
C      76.36367597      54.22181779      83.06694883
H      76.81532056      52.76105936      81.68744862
H      77.61467479      55.85832078      83.08017691
H      74.45505239      54.90589873      82.70223165
C      81.81553639      53.14089434      87.45489332
O      81.86466927      55.37077139      86.94277749
N      83.00984341      52.44169560      89.51658473
H      83.23094140      50.55385903      89.68477037
C      84.19848126      54.20669999      91.39308296
H      83.00417423      55.85076187      91.72567479
C      84.34587991      52.73271346      93.83649908
H      85.40979583      53.92891021      95.13285133
H      85.49672324      51.13778445      93.22611748
C      81.82120556      51.93335923      95.01946776
C      80.68548004      53.52828823      96.70888308
H      81.77963159      55.00416448      97.59705445
C      78.21182830      53.01806214      97.58382636
H      77.35200283      54.33709110      98.88017861
C      76.74162123      50.98849608      96.51424127
H      74.85567437      50.63889671      97.21344000
C      77.99828924      49.28018348      94.84750266
H      77.14413294      47.49817158      94.33727656
C      80.52674303      49.81686576      94.14452447
H      81.49050345      48.44114500      92.98612224
C      86.73260425      55.09298163      90.55404448
O      87.68691603      57.23971072      90.54837530
N      88.16312707      53.27128546      89.46556212
H      87.43558244      51.52895780      89.16320591
C      90.62166100      53.81930609      88.20889412
H      91.77817350      54.97770832      89.45800322
C      91.99549203      51.33620571      87.47568031
H      93.94379987      51.73871742      86.94466722
H      91.08464396      50.40457064      85.87886158
C      92.23548727      49.28018348      89.54115117
H      90.37788631      48.82664918      90.30649033
H      93.35042579      49.86788837      91.17009526
C      93.64711284      47.00873246      88.43188183
O      92.60209418      45.05097599      87.70055774
O      95.97903510      47.14101330      88.15220233
C      90.23615684      55.31974878      85.68044032
O      91.89722627      56.78995585      84.99824912
N      88.12911200      55.15345286      84.47668465
H      87.09354197      53.66056908      85.06438954
C      87.41857490      56.82019147      82.42444188
H      88.96437102      56.73893324      81.06572866
C      85.17169031      55.45580907      81.36052596
H      83.57109212      55.25927754      82.64176040
H      85.87088905      53.64734100      80.66132723
C      84.17769427      56.54429143      78.93033793
H      85.50239242      56.33642155      77.36753427
H      83.89990450      58.58141640      79.06072904
S      81.25617739      55.24604945      77.80217132
C      81.47538565      56.32886264      74.66711536
H      81.55475415      58.37354651      74.90522088
H      79.79163950      56.16634618      73.48981587
H      83.18180850      55.78840090      73.64855288
C      86.94425359      59.56029463      83.31072352
O      88.09509692      61.31018119      82.36208091
N      85.51373077      59.83241521      85.29682587
H      84.85799574      58.28094992      86.19633560
C      84.70870738      62.31362586      86.40987467
H      84.09832577      63.53438906      84.86407855
C      82.33899057      62.09630734      88.20700440
H      82.08009807      63.84619390      89.26525113
H      82.60733172      60.48626052      89.46367239
C      79.95226625      61.56718397      86.51380962
H      80.20171011      59.92312208      85.29871560
C      77.69026385      61.10042157      88.14275370
H      77.18003773      62.78227800      89.21989770
H      78.07198856      59.53383846      89.42587787
H      76.09155538      60.73192494      86.89931379
C      79.30031066      63.90099598      84.84707101
H      80.75917938      64.43389880      83.49591670
H      79.06787432      65.62442637      85.95256091
H      77.61467479      63.37754178      83.78504482
C      86.99149676      63.71580279      87.65331459
O      87.11243925      66.02882779      87.40387071
N      88.83397992      62.20402174      88.63597227
H      88.23115721      60.41445092      88.90242368
C      91.36243371      63.14888489      89.46178267
H      91.09220285      64.83263104      90.61640545
C      92.29406880      61.06073732      91.23623568
H      92.37532703      59.33541719      90.11184852
H      90.97503982      61.08530376      92.81604687
C      94.98125960      61.73725934      92.09228170
H      95.05684867      63.75737677      92.48534477
H      96.34942145      61.19112843      90.65042052
C      95.39510968      60.19713239      94.53380809
H      94.05151426      60.83397016      95.95866173
H      97.25082090      60.62610027      95.31426506
N      95.51416242      57.44947034      94.17476009
H      97.16578322      56.87310382      93.41320039
C      93.95135876      55.82808516      94.98167323
N      91.95580779      56.46870239      96.16086245
H      91.33597754      55.30463097      97.54036266
H      91.48337620      58.31496499      96.03236106
N      94.37465746      53.44136082      94.79648005
H      93.04995931      52.15634693      95.28402944
H      95.98848374      53.01617240      93.86862443
C      92.97248054      64.20713163      87.20733918
O      94.11198550      66.13276275      87.67788103
N      93.28428537      63.10164174      84.99069021
H      92.84019969      61.24970996      84.87730663
C      94.51071776      64.23358780      82.76459262
H      96.37398790      64.81751324      83.42221737
C      94.76016162      62.27583135      80.50825940
H      92.88177368      61.45946957      80.29283060
C      95.68801724      63.51927125      78.02326930
H      94.80740479      65.34096743      77.62831650
H      95.39133021      62.35708957      76.34708206
H      97.66467097      64.00682065      78.33129468
C      96.78405851      60.19902212      81.27926773
H      96.16044883      59.01227400      82.84396112
H      98.49237109      61.22703324      81.80083220
C      97.56640520      58.34898006      79.16466399
H      98.44323821      56.65200583      79.93567232
H      98.73425606      59.24093088      77.72280281
H      95.92423304      57.66678887      78.12909397
C      93.09342302      66.60330459      81.81972946
O      94.34253211      68.41744185      80.99202933
N      90.56307949      66.59007651      81.89909796
H      89.49916357      65.21246604      82.68522411
C      89.17791010      68.64231929      80.84085123
H      90.03584584      69.33017967      79.09852357
C      86.41890969      67.82784724      80.11330660
H      85.31908896      69.51348312      79.66733119
H      85.47593625      66.99825739      81.74603013
C      86.03151578      66.25181550      77.70201582
O      86.78740631      67.09085398      75.58741208
O      84.89390054      64.25626451      77.91555490
C      89.19302792      70.94022649      82.58884807
O      89.59931907      73.03593297      81.57217531
N      88.90012033      70.71912850      85.08517653
H      88.50138809      68.98247002      85.76925745
C      89.03618063      73.01703570      86.86151926
H      89.95458761      74.50047087      85.76547800
C      86.36788707      73.51403372      87.50402621
H      86.50772682      74.51369894      89.29926621
H      85.61010683      71.64509441      87.91220709
C      84.83531903      74.94077709      85.47823960
H      82.92858519      75.14297780      86.22846095
H      84.80697313      73.91276597      83.69244823
C      85.74238766      77.64497545      84.92454979
O      86.25072404      78.24590842      82.70412137
O      86.41701996      78.96778387      86.75758431
C      90.69536032      72.86018842      89.18210317
O      92.49437977      74.21512218      89.72445463
N      90.63677881      70.69645180      90.49924241
H      89.75994581      69.12797896      89.85673547
C      91.83486530      70.18811541      92.97667361
H      93.84364437      70.63409082      92.88218730
H      91.83108585      68.16043909      93.34517024
C      90.37788631      71.50336492      95.18009449
O      89.08531351      73.37986316      94.80970813
N      90.51961578      70.38842640      97.44398661
H      91.60620841      68.82373301      97.56681883
C      89.36688274      71.35218682      99.77023971
H      87.35432420      71.74902934      99.56992872
C      89.56152454      69.34529747     101.92641743
H      91.57219333      69.48135777     102.34971612
H      88.86421553      67.59730063     101.09115840
C      87.87588867      69.69489684     104.25456025
H      88.14611953      71.66021222     104.81391924
C      85.11310880      69.13931731     103.64228892
H      84.70492791      67.20423756     103.06592240
H      84.49138885      70.61141410     102.34026749
H      83.99817027      69.20167828     105.37516795
C      88.73760386      67.96768700     106.29924412
H      90.78795691      68.01115071     106.48443730
H      88.12722227      66.05717369     105.82492281
H      87.92313182      68.63287066     108.06991767
C      90.23237738      74.00914202     100.72644122
O      92.45658525      74.56472156     101.04202551
N      88.44091683      75.84406627     101.14973991
H      86.68347137      75.30738400     100.63573436
C      88.76783950      78.43866049     102.37995174
H      90.73882403      78.49346256     102.98088471
C      88.27651065      80.70633208     100.56203503
H      88.47682163      82.52613851     101.50689819
H      86.36410763      80.40019642      99.85905684
C      90.08686846      80.76491358      98.35105524
H      90.46103426      78.84306193      97.70476885
H      91.90667489      81.55670892      98.90474505
C      88.97948883      82.36929122      96.21566451
H      88.77728812      84.23823056      97.06037217
H      87.04062964      81.84772677      95.76590965
N      90.65189662      82.64708100      93.98956691
H      91.99171259      83.97555859      94.27113614
C      89.93758007      82.08583229      91.67276245
N      88.35020997      80.23579022      91.23623568
H      87.73226947      79.74257166      89.49957719
H      87.32030914      79.52525313      92.67431740
N      90.95992202      83.17809410      89.83972793
H      90.52906441      82.84172280      88.01236259
H      92.12210369      84.61806555      90.30838006
C      87.20314611      78.78259069     104.76100690
O      85.03185056      78.21567279     104.99911241
N      88.44091683      79.91642648     106.69230719
H      90.26828219      80.23201076     106.23688315
C      87.64723179      80.18476761     109.24154799
H      85.82364589      79.28525788     109.56847064
C      89.85443213      79.00746811     110.69285780
H      89.58231154      79.69343876     112.61470946
H      91.74604815      79.60084217     110.12971935
C      89.79018143      76.21823208     111.24465788
H      88.06108185      75.87808134     112.31424297
C      89.86388075      74.40031537     108.97131712
H      89.76183554      72.53704522     109.84059123
H      91.58542142      74.78959898     107.90740121
H      88.21414968      74.63842088     107.76000256
C      91.88966736      75.42454703     113.08336158
H      93.73404025      75.39809085     112.17062377
H      91.35865426      73.53482071     113.71264044
H      92.08808862      76.83050341     114.57624537
C      87.08598308      82.94376802     109.95964399
O      86.17513498      83.22344753     112.14038815
N      87.56975300      84.74845665     108.18330125
H      88.40312232      84.22500246     106.54868799
C      86.85165700      87.34683033     108.68407872
H      85.58365065      87.48100091     110.30168445
C      89.32341902      88.94553880     109.13572331
H      90.78795691      88.47877640     107.76378201
H      89.78073279      88.19720717     110.99710373
C      88.65256618      91.80658443     109.37193910
H      87.06330635      91.92752691     110.67585026
H      88.03273595      92.39050986     107.49544087
C      90.96370146      93.29379904     110.31680226
H      92.53028457      92.85160308     109.05446508
H      91.54951662      92.67963800     112.19330049
C      90.40623220      96.16051386     110.56246668
H      88.72248606      96.37594266     111.72842781
H      89.89789582      96.90506602     108.71053489
N      92.50949759      97.62316202     111.40906407
H      93.69246626      96.42507554     112.30857379
H      92.19202356      99.06691292     112.61470946
H      93.60175940      98.28456623     109.98987961
C      85.31908896      88.32948802     106.42207633
O      85.40412665      87.16541661     104.51534248
N      83.67124762      90.14551500     106.82836749
H      83.70148324      90.97321514     108.54801843
C      82.03285492      91.10171653     104.77612471
H      80.99917462      89.38962448     104.27534724
C      80.00517858      93.13506204     105.59248648
H      80.95760063      94.52590059     106.77734487
C      78.77496675      94.28779508     103.24355667
H      77.39357682      95.71642818     103.77645949
H      77.98506115      92.78357293     102.08326471
H      80.09399571      95.34415209     102.06436745
C      78.14379815      92.07681529     107.48788197
H      79.17936817      90.94297951     108.86171300
H      76.90413770      90.79747058     106.45420168
C      76.63957602      94.12149916     108.95430959
H      77.76585289      95.28935003     110.22420567
H      75.16181004      93.18419492     110.04090222
H      75.73817657      95.18919453     107.44252854
C      83.56542296      92.02012350     102.51412231
O      85.59120955      93.01978872     102.81080934
N      82.75284063      91.52312549     100.15196442
H      81.18814724      90.47999656      99.82882122
C      83.82620518      92.34137699      97.72177638
H      84.67847174      94.19519849      97.99578670
C      85.73104930      90.44409176      96.59172005
H      87.27306597      90.00189581      97.88429285
H      86.65701519      91.25667408      94.94198898
C      84.67469229      87.88540234      95.81882199
C      84.44603541      87.39407349      93.26769146
H      85.12822662      88.71310246      91.86740426
C      83.44825991      85.16419644      92.39841736
H      83.45014964      85.04703341      90.36129239
C      82.52607348      83.35383863      94.04247925
O      81.79096995      81.05026226      93.09950582
H      81.84766174      80.96144513      91.28725829
C      82.75662008      83.92075654      96.59927895
H      81.97616312      82.49968234      97.83704969
C      83.78652093      86.12984660      97.53091403
H      83.98683191      86.59093981      99.50945747
C      81.72482953      93.01600927      95.81315281
O      79.50629084      92.68719689      96.40841660
N      82.28607824      94.17252178      93.65130590
H      84.08887714      94.63739445      93.23178666
C      80.64012661      94.70920405      91.45355420
H      78.73150304      94.45976017      92.18865774
C      80.90468830      97.38505652      90.45010953
H      79.76140388      97.61938258      88.75124557
H      82.90779819      97.74599424      90.12507660
C      79.70282237      99.40139448      92.18487829
H      80.72705403      99.52989587      93.96689020
H      77.73183782      98.87038140      92.45888860
C      79.88423609     101.96575309      90.95088700
H      78.74851057     102.07724694      89.23690524
H      81.89490489     102.36070589      90.72789930
C      78.97527773     104.27499865      92.41542490
H      80.12612106     104.55656787      94.10106077
H      76.91736579     104.23531439      92.51935984
N      79.54597508     106.45574282      90.84317260
H      81.25806712     107.29289157      90.95088700
H      78.43292628     107.87303754      91.46678229
H      79.22661134     106.09669482      88.99691000
C      80.97838762      92.75144760      89.32950183
O      83.06842493      91.83115087      88.91754149
N      78.95449075      92.14484544      87.99535505
H      77.33688503      93.00278120      88.53959623
C      79.09999967      90.35527462      85.72768347
H      81.07476367      90.09827184      85.20044983
C      78.24962283      87.66808381      86.49869181
H      76.38446296      87.57926667      87.36418646
H      79.31164902      86.87817821      88.07661328
C      78.66347289      85.61962048      84.33306546
O      80.43603617      84.05303738      84.48235383
O      76.85878426      85.67820201      82.85152003
C      77.42948162      91.37005766      83.42221737
O      75.29787033      92.00689543      83.97968663
N      78.43292628      91.26423299      81.02226495
H      80.22816629      90.61605686      80.95612453
C      77.11200759      91.34738094      78.67522487
H      78.44426465      91.94453445      77.22202534
C      75.90636220      88.92853127      77.67366993
H      74.84811546      89.48222107      75.99748269
C      77.73939672      86.93487000      76.81573418
H      79.19637572      86.60794734      78.23491864
H      78.53497151      87.56792831      75.02427364
H      76.94004250      85.07915876      76.43023001
O      74.31332292      87.80603383      79.40276950
H      75.42259226      87.12951182      80.66699641
C      75.15992031      93.54324292      78.54105431
O      75.84400123      95.53690417      77.52816100
N      72.93004326      93.17663601      79.55016816
H      72.40658907      91.43997753      80.14921140
C      71.02141968      95.04557533      80.01693056
H      70.44316344      95.86949601      78.21791111
C      68.50997341      93.90607037      80.99580879
H      67.26653350      95.54257336      81.13942799
H      68.71595358      92.97065585      82.81939468
C      67.61235342      91.86327622      79.13253864
H      65.66782505      91.71965703      79.79961203
H      68.57233439      90.10394103      79.60874967
C      67.79943632      92.57570305      76.39054576
O      68.92760293      91.01100966      75.05450926
O      66.84512453      94.44275264      75.34174766
C      71.80565610      97.25844484      81.67799999
O      71.01764023      99.43918902      81.34162870
N      73.62357282      96.91640438      83.45245299
H      74.50607500      95.22509934      83.35229750
C      74.35867636      98.84392522      85.18155257
H      74.24529277     100.74310016      84.39164697
H      76.33533008      98.33936829      85.47823960
C      73.03964738      98.60959916      87.78748516
O      73.76341256     100.05523980      89.54304090
N      71.28787109      96.79546190      88.22968111
H      70.94394091      95.79012750      86.64609046
C      69.89892226      96.24177209      90.61640545
H      69.24885640      97.98598947      91.49890763
C      67.65014795      94.44464236      90.15342250
H      66.50119434      94.29157453      91.85417618
H      68.56666520      92.65696127      89.69232928
C      65.98340934      95.37627744      88.07472355
C      65.22562909      93.55836073      86.29838082
H      65.75664217      91.60060426      86.52325825
C      63.51542677      94.31614097      84.46534630
H      62.83512529      92.88372843      83.18033240
C      62.58946088      96.83136670      84.29716066
O      61.02665722      97.54946270      82.39987544
H      60.58446126      99.30312871      82.52837683
C      63.60991308      98.63038615      85.97523762
H      62.92772188     100.55223781      85.91098693
C      65.32011539      97.91417988      87.86685366
H      66.01931414      99.23131911      89.25958195
C      71.70928007      95.18352536      92.59683862
O      73.50263033      93.82670186      91.85984536
N      71.48629236      95.86571656      94.96277597
H      70.20127847      97.23198869      95.31048561
C      73.16625905      94.89250750      96.98856257
H      75.13535386      94.82447735      96.38951933
C      73.02075012      96.58570228      99.26568278
H      73.78230982      95.60304460     100.90974467
H      71.04787586      96.88616877      99.76834998
C      74.42670650      99.04045676      98.99356219
C      73.26641455     101.35348176      99.36772800
H      71.28220192     101.32891532      99.84204931
C      74.52875172     103.76099310      99.20143209
H      73.45727691     105.48820295      99.37339718
C      77.09122061     103.77044172      98.53246897
O      78.27040983     106.00598795      98.26979701
H      77.16303020     107.43462105      98.45687992
C      78.48205916     101.49143179      98.50979226
H      80.50406632     101.60292564      98.25278948
C      77.14602267      99.19541431      98.80081011
H      78.06065021      97.42474076      98.36050388
C      72.56154663      92.09382283      97.78224762
O      70.49607577      91.10738570      97.58004691
N      74.64780448      90.79558085      98.44176211
H      76.37123487      91.57414809      98.69498543
C      74.86701274      88.13106676      98.24712030
H      72.98106587      87.31092553      98.36617306
C      75.75140464      87.37328651      95.50134796
H      77.41247407      88.46365858      94.96277597
C      76.21060814      84.46310798      94.86828965
H      74.33977909      83.70343801      95.27836026
H      77.64113095      83.72422499      96.15141382
H      76.82287946      84.24389973      92.91431264
O      73.80309682      88.14429484      93.82516073
H      74.24529277      89.81670263      93.27902982
C      76.58666367      86.96699534     100.21432539
O      78.42914683      88.17830991     100.92864194
N      76.21438760      84.54436621     100.96643646
H      74.92370453      83.56170854      99.96299179
C      77.80553715      82.98912146     102.76167646
H      79.64424085      83.92075654     102.74844838
C      76.60745067      83.22344753     105.32981452
H      76.13879855      85.21143961     105.59626593
C      74.11301194      81.78347608     105.63406046
H      72.80343159      82.19543641     104.09960269
H      73.30798852      82.40708575     107.42552100
H      74.42292704      79.76335865     105.89673241
C      78.24773310      82.15386242     107.37827784
H      78.42914683      80.10350937     107.45386689
H      77.21594253      82.69054471     109.07903152
C      80.84610679      83.53336264     107.52945595
H      81.43570139      82.99290092     109.42674117
H      80.69492868      85.55159033     107.14962096
H      82.15946657      82.84928171     106.09704340
C      78.20237968      80.26602585     101.72043726
O      76.77185685      79.48745861     100.06881646
N      79.90502308      78.67487629     102.72388193
H      81.19948560      79.38352366     103.93330677
C      80.04486282      76.10484851     102.17586130
H      78.27985845      75.13919835     102.61616753
H      81.21271370      75.41887784     103.73110606
C      81.19381642      75.53982034      99.56048009
O      83.19503660      76.56216226      98.92364232
N      80.01840667      74.08095162      98.07137575
H      78.70882633      73.03026378      98.97655465
C      80.21493820      73.90520707      95.30103698
H      81.55475415      75.36785524      94.74167799
C      81.03507941      71.22179571      94.49979302
H      79.49495248      69.87631057      94.73411908
C      81.81364665      71.28604641      91.75402069
H      82.32576248      69.39820982      91.10962401
H      83.39723731      72.54460413      91.35906789
H      80.36989576      71.72068345      90.35184376
C      83.30464072      70.39598531      96.03236106
H      82.61111116      70.15410034      97.95610245
H      84.73138409      71.87942047      95.92653639
C      84.54052173      67.81650889      95.34639041
H      85.72726986      67.79572190      93.66264426
H      83.18369823      66.29149975      95.07238009
H      85.56853284      67.25714991      97.04147491
C      77.63924124      74.79337843      94.32026902
O      75.71172040      73.37797344      94.54892590
N      77.45782750      77.19144113      93.63051892
H      79.05275651      78.18732689      93.95933129
C      75.47739433      78.24401868      92.15086321
H      74.93693260      76.99301987      90.60506709
H      76.18604170      79.98823608      91.31182473
C      72.96594806      78.75424480      93.51713534
O      71.02519914      79.41753872      92.26613652
N      73.05854465      78.52180845      96.04558914
H      74.73473189      78.12307620      96.86384064
C      70.80788061      78.86384892      97.72555584
H      69.35468108      77.81694054      96.70699335
C      71.30109918      77.60340146     100.42975419
H      72.51619319      78.66920710     101.70531945
H      72.32155138      75.84217655     100.11039044
C      68.81043990      77.20277949     101.90185099
N      67.43849859      74.95211545     102.32703941
H      68.04321101      73.22679533     101.77901878
C      65.28799005      75.52281279     103.65173755
H      63.86502614      74.31716740     104.48510686
N      65.35979965      78.05693579     104.01834446
H      63.98407889      79.14352841     104.77612471
C      67.37802736      79.10006470     102.79569153
H      68.11124116      81.00112938     102.92797237
C      70.10301269      81.68521030      97.96555108
O      71.12724435      83.23289615      99.36772800
N      68.27942680      82.23890012      96.46321866
H      67.65959657      80.68176564      95.55048085
C      67.15503964      84.75601556      96.14196519
H      68.75941728      86.00323492      95.80937335
C      65.23885716      84.75790528      93.93287513
H      64.01620424      83.12707148      94.23334161
H      66.21017649      84.43854154      92.14330431
C      63.68361241      87.21454949      93.41886957
H      63.13181232      88.04602908      95.21977874
C      64.94594958      89.41419092      91.97133921
H      65.88703329      88.50901201      90.37829993
H      66.19694841      90.45731985      93.22989694
H      63.43038909      90.67652810      91.38174460
C      61.30633670      86.43598225      91.80504330
H      61.77498883      85.75001160      89.92098616
H      60.27643586      88.20098663      91.54237134
H      60.18005983      84.87506831      92.53825711
C      65.88703329      85.43820676      98.59671967
O      64.49241527      83.90374900      99.69276093
N      66.19883813      87.77012903      99.29969785
H      67.41393215      88.95120797      98.42286484
C      65.03665645      88.69609493     101.68642219
H      64.35068580      87.14273990     102.85049360
C      67.04165606      89.97543963     103.23977722
H      66.32922924      90.72188153     105.02178913
H      67.68416301      91.69509059     102.30436269
C      69.34145299      88.21043527     103.87661498
H      70.16915312      87.15596798     102.31381132
C      71.47684372      89.86394578     104.86305212
H      72.07777669      91.07526036     103.30780736
H      73.05665493      88.69609493     105.48099262
H      70.79276280      91.05825282     106.39373043
C      68.37769257      86.32070895     105.90618104
H      66.84512453      85.17742452     105.13895216
H      67.66904521      87.28257964     107.58425801
H      69.89892226      85.17931426     106.69608664
C      62.68205746      90.31748010     101.25178514
O      60.61847633      89.48600053     101.81870303
N      62.85591228      92.54168798     100.10283154
H      64.63414475      93.01789901      99.60205406
C      60.77154417      94.28023617      99.28835950
H      59.01220896      93.46954360      98.58916076
C      60.14982421      96.04524055     101.41430160