 %block lattice_cart
   139.898   0.000   0.000
   0.000 144.87   0.000
   0.000   0.000   168.12
 %endblock lattice_cart

 %block positions_abs
N      93.40806245      42.81920922      86.28893218
H      93.27011243      40.97483634      85.81839034
H      92.78445277      42.86834212      88.09362082
H      95.23920725      43.35967095      86.27003493
C      91.91328894      44.57476497      84.65998810
H      92.37060271      46.46827074      85.32328204
C      92.82413702      44.38012317      81.93500277
H      92.28934447      42.50551465      81.26792937
H      94.88204898      44.42925605      81.91799522
C      92.15139445      46.43614539      80.10385797
H      90.12371812      46.73850160      79.88275999
H      92.86193155      45.94103709      78.23491864
S      93.30412750      49.57120134      81.12053073
C      92.57280342      51.21148378      78.17633713
H      93.46286451      53.06719503      78.29350016
H      90.54512709      51.32486737      77.83807612
H      93.49876931      50.14945760      76.67211499
C      89.08058919      44.27429849      85.04549227
O      87.99399656      42.64913386      83.81339071
N      87.88439244      45.67647541      86.79537884
H      89.00122069      46.59488240      88.04259820
C      85.16507627      46.25851112      86.98813093
H      84.42241383      44.92625406      85.60485127
C      84.21265421      45.40813427      89.60351214
H      85.08759749      43.62045319      90.13641497
H      82.16419089      45.20971301      89.60729159
C      84.68697552      47.49061267      91.60662203
O      83.43219724      49.28774239      91.67654190
N      86.38583947      47.32053731      93.38863395
H      86.20442575      48.61688956      94.77758278
H      87.93352532      46.20181933      93.35083941
C      84.51501042      48.92869439      86.05460612
O      86.03624010      50.58220492      85.33273067
N      82.00167443      49.51261983      86.31916781
H      81.00767839      48.10666346      87.14308848
C      80.75256533      51.80107840      85.42154781
H      81.14562841      52.00894829      83.41087902
C      77.77057721      51.59131878      85.78437526
H      77.05248121      50.06064045      84.60518605
C      77.17531342      50.89023031      88.58494966
H      77.75356967      52.38122438      89.88508136
H      78.24867797      49.32364719      89.38241417
H      75.17220353      50.40268092      88.60006746
C      76.12651532      54.05363216      85.21934709
H      76.68209485      55.72226050      86.29460137
H      74.14797187      53.92135131      85.78437526
C      76.03391873      54.95125215      82.52081792
H      75.16842408      56.79940450      82.23924869
H      74.98134117      53.58498004      81.39265131
H      77.93687313      55.11943779      81.74980959
C      81.93175455      54.23504588      86.74435622
O      81.77301754      56.30429619      85.60863072
N      82.90496360      53.88922596      89.06682986
H      83.02023691      52.12611132      89.78870531
C      84.06903501      55.96981463      90.49546297
H      82.92008141      57.65922996      90.21011429
C      84.31091998      55.20069602      93.25635310
H      85.62239004      53.66812799      93.66075453
H      82.36450188      54.66401375      93.67209289
C      84.79846937      57.26805661      95.13474106
C      86.93952928      57.00538466      96.70321390
H      88.01667328      55.27817480      96.55770498
C      87.56124924      58.86676508      98.39829840
H      89.13350153      58.74582259      99.69465066
C      86.00222503      60.94924348      98.64774227
H      86.64095252      62.23992655     100.09527263
C      83.92163636      61.03050170      97.21910919
H      82.62150466      62.59897455      97.34761058
C      83.17141501      59.34486583      95.42386919
H      81.52735312      59.64344259      94.24656970
C      86.74299775      56.60287295      89.66398338
O      87.27023139      58.85542671      89.34461963
N      88.32280894      54.67346238      88.99502026
H      87.61983075      52.89900938      89.00635862
C      90.65095176      55.00794394      87.81583105
H      91.80179509      56.39878251      88.80415791
C      92.21564515      52.55507920      87.94433244
H      93.94285500      52.80830251      86.84829117
H      90.99866140      51.27762420      86.88230626
C      92.99043294      51.56108315      90.43877117
H      91.38416557      51.53462699      91.72756451
H      94.44174274      52.84042786      91.13985963
C      94.09592283      48.89656904      90.23657045
O      96.30312316      48.59421283      90.74868628
O      92.85248292      47.36778046      89.19722099
C      90.51489147      55.93202012      85.01903610
O      92.16273281      57.37766075      84.25369695
N      88.44942061      55.22715220      83.56394685
H      87.29857728      53.90623351      84.32172709
C      87.77100886      56.59153459      81.11675127
H      89.40373239      56.56696815      79.86008327
C      85.80380377      55.08731246      79.44623320
H      85.03468516      53.57175195      80.61030461
H      86.80913817      54.11032395      77.93634188
C      83.64006714      56.64255721      78.24814672
H      84.54146659      57.92379164      76.91022050
H      82.91252251      57.84253341      79.75992777
S      80.99445030      54.94369325      76.89510268
C      82.03946895      54.97581859      73.36887339
H      83.86494457      54.05174243      73.13076788
H      82.11316828      57.01294357      73.07974526
H      80.62973312      54.02528626      72.20858143
C      87.24377522      59.42045488      81.38698213
O      88.40973635      61.06262705      80.14732168
N      85.59971333      60.24437556      83.20300911
H      84.61138646      58.88188288      84.10251884
C      84.84382280      62.89377185      83.60363109
H      84.28446381      63.58730140      81.74791985
C      82.29647173      62.64054852      85.00391830
H      81.96576963      64.22980836      86.27003493
H      82.42119367      61.12876748      86.39664658
C      79.91730630      62.34575121      83.32962079
H      80.12706592      60.65822563      82.16743909
C      77.59294294      61.85064293      85.03226419
H      76.97122298      63.46635892      86.14909245
H      77.77435666      60.19902212      86.24735820
H      76.00935229      61.26293804      83.85685442
C      79.34849868      64.78160843      81.88398015
H      78.97622260      66.39732444      83.10474336
H      77.68176007      64.47547278      80.71423956
H      81.02090647      64.96113243      80.69345258
C      86.80535871      64.64932760      84.91510116
O      86.46520798      67.03038274      84.90565252
N      88.74988709      63.52683016      85.91476637
H      88.59303981      61.63899358      86.16043079
C      90.99866140      64.79672625      86.97112338
H      90.68874629      66.09118877      88.54337567
C      92.90350553      62.81629308      87.77047762
H      93.26066380      61.60308878      86.14342326
H      91.98698826      61.67489837      89.22367715
C      95.54534291      63.47202810      88.72100995
H      95.34692165      64.96113243      90.13074578
H      96.52044169      64.36019946      87.13741931
C      96.91728421      61.21947434      90.07405399
H      95.72864636      60.59019548      91.63307821
H      98.67850914      61.79017169      90.97545344
N      97.45774594      59.09353223      88.22401193
H      97.16294863      59.24093088      86.34562397
C      98.45363171      56.86365518      88.91376203
N      99.10369756      56.34209072      91.20977951
H      99.96352303      54.68480075      91.60851175
H      99.06779276      57.67623749      92.57416190
N      98.85236396      55.12510697      87.16198575
H      99.69707162      53.47537590      87.61174060
H      98.31757141      55.55029539      85.38186355
C      92.45375066      66.37464771      85.02848474
O      93.42506999      68.29838910      85.83917733
N      92.37060271      65.72836132      82.65498848
H      91.45975462      64.10319669      82.24113843
C      93.47798232      67.30628280      80.58006900
H      94.69685580      68.65365766      81.55327804
C      95.37148809      65.84363462      78.80372626
H      96.56201567      67.13053824      77.72280281
C      97.11570548      64.27894124      80.55172311
H      96.09903272      62.64999715      81.30005472
H      97.89994190      65.31073181      82.15421101
H      98.58591255      63.57407333      79.29316538
C      93.93151664      64.14099121      76.90077186
H      92.59736986      65.19167905      75.73670046
H      92.96019731      62.68590195      77.98736450
C      95.66061622      62.73125538      75.14332640
H      94.40961740      61.79206140      73.80540017
H      96.43918346      61.16089283      76.22236011
H      96.87948969      64.00493092      74.07563103
C      91.49565942      68.88042481      79.19489960
O      92.17218144      70.67755453      78.08563026
N      89.02956658      68.32673501      79.51048391
H      88.68941585      66.66377585      80.38731691
C      87.05858204      69.50025505      77.97980559
H      87.89762052      70.20323323      76.23369847
C      85.11216394      67.45179171      77.35619590
H      83.26968078      68.34374254      77.58296307
H      85.32381328      65.80961955      78.58073856
C      85.27279067      66.37464771      74.70868935
O      83.61172124      64.62098170      74.29861873
O      86.97543408      67.00581630      73.21958500
C      85.87372364      71.76981634      79.40087977
O      85.15940709      73.79938241      78.37475839
N      85.72632499      71.80005197      81.88398015
H      86.05324764      70.16543870      82.81183577
C      84.84571253      73.85229474      83.49591670
H      84.57737139      75.60974022      82.45845696
C      82.43064230      72.97357201      84.83573265
H      82.88228689      71.38431218      86.06405476
H      81.17775375      72.19689449      83.39765092
C      80.93775851      74.88219557      86.26058629
H      82.11316828      75.97067793      87.55504881
H      79.55069940      73.74647006      87.27158987
C      79.69998778      76.46389651      84.22157161
O      80.57493106      78.55204407      83.50914478
O      77.77624639      75.53793062      83.12364061
C      86.83181488      74.29449070      85.44233479
O      87.40818141      76.47334514      85.87319239
N      87.81636229      72.35374178      86.68577472
H      87.17385534      70.61897301      86.22090205
C      89.58892557      72.58995757      88.88919559
H      90.99866140      74.04693655      88.52825787
H      90.86071138      70.97235183      88.94210793
C      88.13383631      72.75247402      91.44788503
O      85.81514213      73.07750696      91.43843639
N      89.59270503      72.30649861      93.43587711
H      91.43896763      71.91910472      93.15619760
C      88.59303981      72.42555137      96.03614051
H      86.53890730      72.40098493      95.89819048
C      89.48877008      69.97835579      97.31359549
H      91.53723340      70.09929829      97.49878867
H      89.08058919      68.34374254      96.13062683
C      88.09604179      69.61363861      99.92897672
H      87.82581092      71.45045260     100.82281726
C      85.50333728      68.37208843      99.34694101
H      85.65262566      66.93211698      97.88240311
H      84.40351657      69.94812017      98.60805802
H      84.79280019      67.34029786     100.98344399
C      89.66451462      67.75036848     101.58059751
H      90.40339761      66.28205112     100.34093705
H      88.53256856      66.97558068     103.11694500
H      91.30290734      68.76137205     102.31759077
C      89.34893033      74.91432092      97.32304412
O      90.65662094      74.94833601      99.22221907
N      88.55902473      77.02892467      96.21566451
H      87.33259235      76.94955617      94.75490608
C      88.65351105      79.50635587      97.61973116
H      90.57914216      79.94288264      98.20365659
C      87.56124924      81.61340071      95.81315280
H      87.15117863      83.26502151      96.97344477
H      85.75278116      80.86695882      95.17064586
C      89.41696048      82.27291519      93.55115040
H      89.82325164      80.69877317      92.28692351
H      91.18007513      83.11762286      94.19932653
C      87.98643766      84.11161890      91.97133922
H      89.40751185      85.30970538      91.08316784
H      87.01133888      85.32860263      93.31871408
N      86.12316751      83.06848996      90.16476085
H      85.66774347      81.27513970      90.63152325
C      85.37483589      83.98122778      87.91409681
N      85.88506200      86.30937060      87.22245699
H      85.19720162      86.54936584      85.45934234
H      86.56347375      87.65296600      88.39597703
N      84.10116036      82.42598303      86.45333837
H      83.40007190      82.55448442      84.68266482
H      84.05202748      80.68743482      87.23946452
C      87.31747454      79.45911270     100.19353839
O      85.04791324      79.04337292     100.35983432
N      88.71776174      79.85406551     102.29302433
H      90.57347298      80.23579023     102.06247773
C      87.82392120      79.88052167     104.91407473
H      86.37828057      78.44810913     105.23910765
C      89.95553248      78.99235031     106.69230719
H      89.35648924      78.50480092     108.60282050
H      91.28589980      80.54759506     106.93419216
C      91.51644641      76.60562597     105.74177485
H      92.71264317      77.07994729     104.13361776
C      93.40617272      75.70611625     107.84881970
H      94.25654957      73.98268585     107.10804698
H      92.38761024      75.37919360     109.61004461
H      94.83102636      77.18955141     107.74299501
C      89.67774271      74.35874139     105.36005013
H      90.76055589      72.61641373     105.17674668
H      88.23021235      74.48535306     103.90118143
H      88.53445829      74.40031538     107.07403190
C      86.78835118      82.36173233     105.94775502
O      86.23655109      82.50157207     108.13794781
N      86.73543884      84.36484221     104.46809931
H      87.11149438      84.17397987     102.60671891
C      85.95309215      86.94620837     105.25989465
H      84.91941185      86.72700011     107.02678875
C      88.45508978      88.33704692     105.87594542
H      89.84214890      88.28413459     104.35282602
H      89.14483989      87.43753720     107.59937582
C      87.92974587      91.16029805     106.24444206
H      86.38583947      91.40974191     107.58614773
H      87.13606082      91.84626870     104.47187877
C      90.29568321      92.66074074     107.11560589
H      91.17440595      93.06703189     105.29768917
H      91.39739365      91.59493509     108.48943691
C      89.55680023      95.23076852     108.41762732
H      88.84059395      94.81880818     110.30357417
H      88.01289383      96.27578716     107.53890458
N      91.82636153      96.73499066     108.71998353
H      92.27233694      97.59103669     107.07214218
H      93.17184666      95.54446309     109.36249047
H      91.51266696      98.04268128     110.07491728
C      84.16541105      87.97232974     103.19253406
O      84.63028373      87.40541185     100.99478235
N      82.18875733      89.34049160     104.01834446
H      81.96954908      89.79969510     105.85704816
C      80.17241935      90.39684861     102.39506955
H      79.06881919      88.77924289     101.75067289
C      78.20710399      92.20531670     103.69898070
H      79.16897468      93.79646625     104.57959317
C      76.39863591      93.32970384     101.72232698
H      77.39452167      94.65818144     100.50345351
H      74.97567199      94.42196566     102.73522030
H      75.43298576      91.92185774     100.57148366
C      76.70477157      90.75589661     105.60004538
H      78.11072795      89.89040196     106.83214693
H      75.49156728      89.36883750     104.68163839
C      74.93787747      92.39050986     107.30457852
H      75.92053515      94.17819096     107.61260390
H      74.81315553      91.69320087     109.23965825
H      73.07271760      92.93475104     106.62049759
C      81.36672638      91.69509059     100.06125755
O      83.17330474      93.10860587     100.35794458
N      80.39351733      90.83526511      97.80870379
H      79.00456849      89.53135396      97.93720519
C      81.05492154      91.54391249      95.21788901
H      82.09049156      93.31269631      95.42575891
C      82.72354988      89.51056696      94.20499571
H      84.26178710      89.06459156      95.50134797
H      83.60605207      90.26078831      92.50424204
C      81.64829561      86.95943645      93.52658396
C      80.43698104      86.63062407      91.10206511
H      80.55603380      88.28791405      89.91909644
C      79.53558159      84.29870179      90.25546772
H      78.47733485      84.16831068      88.51502978
C      79.74345148      82.20677477      91.80693303
O      78.93653835      79.91642648      91.02269660
H      78.20899372      79.87107305      89.36162717
C      80.96043523      82.42787275      94.12562721
H      81.33271131      80.84617182      95.36150821
C      81.86561413      84.78814091      95.05915200
H      82.81992592      84.94687792      96.85628174
C      78.77402188      92.18641942      93.44532573
O      76.59705717      91.51178714      94.02169226
N      79.46566171      93.54324293      91.37418569
H      81.25145308      94.19141905      91.17576443
C      77.48522854      94.20086767      89.52414364
H      75.73723170      94.11960944      90.61073626
C      77.74979022      96.82569752      88.46211744
H      76.28147288      97.11671537      87.04671243
H      79.54125077      96.92396330      87.45300359
C      77.42475730      99.00266224      90.42932253
H      78.93842807      98.97053689      91.82394056
H      75.59550222      98.57369437      91.27403021
C      77.43987511     101.66528661      89.23312578
H      76.15108176     101.36670985      87.65331459
H      79.26535072     102.19063053      88.43755100
C      76.64430033     103.48887251      91.18332333
H      78.19765536     103.86114858      92.48345504
H      75.03425351     102.53078127      92.04503854
N      75.67676046     105.92850918      90.08350262
H      74.25379654     105.77922080      88.82305518
H      76.93531818     107.01132236      89.14241892
H      74.88685486     106.96218946      91.48001036
C      77.13751890      92.20720642      87.39253235
O      78.91953081      91.14895969      86.40042604
N      74.80559663      91.63461935      86.80671720
H      73.41475806      92.47365783      87.81394133
C      74.23111983      90.24378078      84.54471480
H      75.16275490      88.40696680      84.54660452
C      71.38708173      89.63906836      84.65431892
H      70.28348156      91.33226314      84.25180722
H      70.87685562      89.18364431      86.59695758
C      70.63119120      87.54336188      82.96868305
O      71.37763309      85.33427182      83.41087902
O      69.38586156      88.04224962      81.13942798
C      74.86039869      91.55714056      82.03326853
O      75.29881519      93.86260667      81.86130343
N      74.75646374      90.04158007      80.06984289
H      74.27080408      88.19909691      80.16810867
C      74.69032332      90.94486925      77.40910824
H      76.26635507      92.18830915      76.95368421
C      75.01535625      88.84160386      75.46457986
H      74.76591237      89.62395054      73.57485356
C      77.54947923      87.64918655      75.56851481
H      77.50412580      85.85961574      74.54995234
H      78.45087868      87.22777758      77.37320345
H      78.86850820      88.97199497      74.69735098
O      73.27302859      86.87439876      75.86142240
H      72.13730307      86.79503026      74.44790711
C      72.33950379      92.48877563      76.78738828
O      72.37729831      93.60749361      74.82585238
N      70.43843912      92.68908663      78.46357553
H      70.16442880      91.32659396      79.77126613
C      68.25202577      94.38606085      78.23680837
H      68.75658270      95.58225762      76.63998964
C      65.74813841      92.86105172      77.59808087
H      64.98657870      92.35838453      79.44434348
H      66.08261997      91.33037341      76.26393409
C      63.53715862      94.54857732      76.64565881
H      63.29338393      96.38161184      77.55083772
H      61.80238987      93.53379428      77.10486230
C      63.59196068      95.00022191      73.84697414
O      64.08328953      93.17285657      72.35409035
O      63.83573538      97.13939210      73.02305347
C      68.23123878      96.27956663      80.54416420
O      66.32450493      97.46820448      80.91077111
N      70.27781238      96.55735639      81.98602537
H      71.77069617      95.59548570      81.29438554
C      70.71055971      98.30346350      84.08173185
H      69.62396708      99.99854801      83.64709480
H      72.72500796      98.72676220      84.09495993
C      69.77325545      97.58347778      86.69900279
O      70.81638438      98.48109777      88.48101471
N      67.92510312      95.81847341      86.74246651
H      67.05015984      95.30635758      85.12486078
C      66.86118721      94.72810132      89.03848397
H      65.84640418      96.21720566      90.03436974
C      65.11696982      92.58326195      88.23535029
H      64.04171555      91.78957691      89.80193340
H      66.13175285      90.99967131      87.39064262
C      63.11385993      93.31836549      86.46845619
C      62.35418995      91.39651382      84.70156209
H      63.31228119      89.59560466      84.73179770
C      60.26226292      91.84626870      83.10663307
H      59.87486903      90.39495889      81.72713286
C      59.09630179      94.27645673      83.08773582
O      57.04594874      94.81691846      81.66099245
H      56.72469526      96.59326119      81.49658625
C      59.80494915      96.05279947      84.92454979
H      58.69001063      97.75922232      85.00391830
C      61.76837479      95.66918503      86.61396511
H      62.42977900      97.08647975      87.92165572
C      68.83784093      93.60938334      90.89797466
O      70.90520152      92.61349757      90.28948279
N      68.28982030      93.64906760      93.34517024
H      66.78559815      94.68274788      93.90074978
C      70.13230345      92.95364831      95.30481642
H      72.03336812      93.49033058      94.71711154
C      69.78648354      94.34826634      97.91263874
H      70.86551726      93.33915248      99.35072046
H      67.87030106      94.07047657      98.61750665
C      70.46489528      96.97687563      97.89563121
C      68.52792581      98.82124852      98.02413259
H      66.52859537      98.40928818      97.98255861
C      69.17799167     101.43851946      98.25656893
H      67.59629074     102.72164362      98.38129086
C      71.71400438     102.19818944      98.33971689
O      72.20722295     104.70963570      98.63829365
H      70.71055971     105.69040367      98.33782715
C      73.61128960     100.36515492      98.22822303
H      75.58416387     100.85459402      98.41719567
C      72.94043675      97.82158329      97.92964628
H      74.46166644      96.47231871      97.74823255
C      70.13797263      90.12850748      95.66764388
O      68.27281276      88.74900727      96.07393504
N      72.47934353      89.11939363      95.74134320
H      74.10261844      90.08315405      95.46922262
C      72.80626619      86.34149595      95.34828014
H      71.03937208      85.38718415      95.80559390
C      73.47333958      85.78213695      92.54203656
H      75.44243439      86.26212743      92.17920910
C      73.19177035      83.04392352      91.68599054
H      73.77569579      82.81904610      89.72445462
H      71.36818446      82.16142133      92.04881800
H      74.37473903      81.72678429      92.74045782
O      72.02958867      87.10872482      90.80915752
H      72.26013528      88.87939839      91.13608018
C      74.94543637      85.38718415      97.10383587
O      76.75579418      86.76668437      97.78413735
N      74.76969183      82.95132693      97.85405722
H      73.34861764      81.79292471      97.32871331
C      76.63674142      81.72111510      99.54347254
H      78.36206155      82.84172281      99.56048008
C      75.55770770      81.79670416     102.43664354
H      75.38763233      83.82627022     102.74655864
C      72.95366484      80.62696358     102.95820800
H      71.46456050      81.24112462     101.67697355
H      72.30359899      80.90853279     104.89328774
H      73.25035187      78.59361806     102.81269907
C      77.40397031      80.86506909     104.57581372
H      77.82159982      78.84873112     104.62872605
H      76.62918252      81.28836779     106.43719413
C      79.88518096      82.35228369     104.22621435
H      80.96043523      82.15575216     105.97232146
H      79.83793780      84.28169426     103.50811835
H      81.09838525      81.41497945     102.85049359
C      77.12051136      79.02447566      98.60049911
O      75.51046454      77.91331659      97.30225714
N      79.06503974      77.84339671      99.55481091
H      80.36517144      78.60495642     100.72455149
C      79.43920555      75.11841137      99.26568277
H      77.79514365      74.08095162      99.94409452
H      81.15696676      74.70645104     100.32581924
C      79.90974740      74.48157361      96.42920359
O      80.92075097      75.84406628      94.86451020
N      78.92897944      72.22713012      95.72055621
H      78.13340466      71.23313407      97.14163041
C      78.52835746      71.37864300      93.03336540
H      79.82093026      72.36508013      91.77102823
C      78.99134041      68.61397340      92.58550027
H      77.75734913      67.51415268      93.81382236
C      78.52835746      68.11319592      89.80382313
H      76.51768867      68.42122131      89.47690048
H      78.86850820      66.12898329      89.37107581
H      79.74912066      69.29994405      88.64353117
C      81.68609013      68.12831374      93.55870931
H      81.97143880      68.68767272      95.52213495
H      82.85394099      69.32262076      92.35495366
C      82.71221152      65.47891744      93.15430789
H      84.61894537      65.41088729      93.92531622
H      82.47032655      65.03294204      91.15686718
H      81.35160857      64.18445492      94.00090528
C      75.98478585      72.45200755      92.24912897
O      74.09505953      70.99880801      92.07338444
N      75.90352761      74.93321819      91.69165971
H      77.54003060      75.89697861      91.89952962
C      73.93821225      76.25791634      90.26302663
H      73.88341019      75.21289769      88.48857362
H      74.53914522      78.18921663      89.86618409
C      71.39275090      76.53948555      91.63874738
O      69.48790678      76.05760534      90.36318212
N      71.35684610      77.16120552      94.01413335
H      73.07649705      77.68654942      94.65853003
C      69.11185124      76.99113014      95.63740825
H      67.73613049      75.99335466      94.47333685
C      69.67309996      75.81005119      98.19798742
H      70.84284055      77.08372673      99.31670539
H      70.64441928      73.99780367      98.06948603
C      67.27125782      75.36785525      99.53591364
N      65.74624868      73.22301588      99.27891087
H      66.00136173      71.64887386      98.22633330
C      63.48802574      73.88819953     100.32015007
H      61.82506658      72.70901032     100.24078155
N      63.65810111      76.29004169     101.33682282
H      62.18411458      77.26703018     102.05680854
C      66.03915626      77.20088976     100.75667684
H      66.69678102      79.05471128     101.29713856
C      67.93077230      79.66698261      95.85850623
O      69.26113962      81.46789179      96.69376526
N      65.80483020      80.26602585      94.56215399
H      64.77492936      78.88274619      93.74579221
C      64.70123003      82.70944196      94.90041500
H      66.16765765      84.11539835      94.55837453
C      62.98346881      83.27069069      92.66108931
H      61.43011378      81.91575692      92.64597151
H      64.15887858      83.03636463      90.98490208
C      61.84207412      86.00701439      92.55715437
H      63.09496266      87.46966255      93.28658873
C      61.35263500      86.43598225      89.61485049
H      63.18000035      86.63818298      88.68699488
H      60.29249854      88.18586883      89.37296553
H      60.08651837      84.94687792      88.96478465
C      59.26259770      86.05803699      93.82894017
H      58.30072701      87.87028453      93.67776208
H      59.70857311      85.72166572      95.81126307
H      58.09474684      84.51224088      93.12785171
C      63.59951959      83.00423928      97.60461335
O      62.30883652      81.38474383      98.76490530
N      64.12486350      85.25679304      98.77813339
H      65.27003765      86.45676925      97.83893941
C      63.11763938      86.26401716     101.23477759
H      62.42410982      84.88640668     102.60293945
C      65.37964178      87.59249476     102.49711478
H      64.60674371      88.75656616     104.01078555
H      66.16576792      88.95120798     101.16107827
C      67.54337841      86.12606715     103.65929646
H      68.63186076      85.33049236     102.10216198
C      69.28759579      88.04980853     105.04446584
H      68.21612097      88.71877165     106.67152019
H      69.92443356      89.60694301     103.85393827
H      71.13196867      87.32226390     105.60949401
C      66.72134746      84.22500247     105.75689267
H      68.52036691      83.51446538     106.46554004
H      65.40609795      82.73778787     105.20698230
H      65.88041925      85.46844239     107.16662849
C      60.92555686      87.98933729     100.87950905
O      58.86764490      87.77957767     102.05869827
N      61.54160763      89.82993072      99.53213418
H      63.27070721      89.92630675      98.73277995
C      59.99770124      92.01634406      99.18253483
H      58.00215025      91.50611796      99.22599852
C      60.57595749      93.97032107     101.26879267