 %block lattice_cart
   139.898   0.000   0.000
   0.000 144.87   0.000
   0.000   0.000   168.12
 %endblock lattice_cart

 %block positions_abs
N      94.48237186      46.60149644      85.88642048
H      94.36520883      45.00467771      84.84896074
H      94.13277249      46.14418267      87.70433720
H      96.26249405      47.23644449      85.60296154
C      92.57563801      48.33248574      84.93021897
H      92.83642024      50.15229219      85.86185404
C      92.55296130      48.87672692      82.01248154
H      91.76872488      47.28179791      80.97691152
H      94.55040201      49.17530367      81.60430066
C      90.92779667      51.14061904      81.26603965
H      88.95492240      50.59826759      81.50981434
H      91.18479944      51.16896494      79.22324550
S      91.49282483      54.40795583      82.39231653
C      94.82441232      54.41173529      82.50381038
H      95.57652340      52.88861589      83.66977152
H      95.41967611      56.27311570      83.15387623
H      95.58597203      54.14339415      80.60841489
C      89.92246227      47.45187329      85.72012457
O      89.25538888      45.26545993      85.76736773
N      88.41068122      49.24711328      86.55349387
H      89.01161418      51.05936082      86.60262676
C      85.84065343      48.99766940      87.42465770
H      84.84854712      47.58226439      86.30405000
C      85.73482876      48.10760832      90.28948279
H      87.31841941      46.80558688      90.48790406
H      84.10021550      46.93975744      90.73545820
C      86.33009255      49.98788599      92.25668788
O      86.50961655      52.28390346      91.76157959
N      86.68347137      49.22632628      94.59805879
H      86.78173714      50.55669362      95.96244118
H      86.59087478      47.38762259      95.09883626
C      84.34021074      51.52801294      86.99757955
O      85.54774585      53.53301255      86.50058153
N      81.91947133      51.47888006      87.46245223
H      81.19003697      49.75544966      87.83283859
C      80.16013613      53.62560914      87.12230149
H      80.05053201      54.10182018      85.12108133
C      77.37845900      52.73176860      87.79882351
H      76.76996713      51.27101015      86.47790482
C      77.10255896      51.67352186      90.62207462
H      75.39424637      50.53401689      90.76191437
H      77.08366170      53.25711252      91.93921386
H      78.73528249      50.55858333      91.19655142
C      75.46983543      54.82936480      87.20544945
H      75.90258275      56.52255958      88.29960098
H      73.64624953      54.09426127      87.81961050
C      75.38479774      55.89517045      84.44833876
H      77.20460418      56.68129660      83.88709004
H      74.01852562      57.43529740      84.48613328
H      74.65725311      54.55535450      83.06316937
C      80.81398144      56.01044375      88.60384692
O      80.30753479      58.21953382      87.74591117
N      81.79852885      55.55312998      90.82427534
H      82.52229403      53.81836123      91.15875690
C      82.40513099      57.59970359      92.48534477
H      80.80075335      58.89038666      92.44377079
C      82.73016392      56.75310620      95.20466093
H      82.97015916      58.45952906      96.33093781
H      84.42335870      55.60037315      95.42764864
C      80.74595129      55.12605183      96.44243167
C      78.94126266      56.42618355      98.09216274
H      79.26818531      58.40850645      98.45876964
C      76.74351096      55.22242787      98.73277996
H      75.34133404      56.10304034      99.92519726
C      76.34288898      52.64106173      98.05058876
H      74.84811547      51.48076977      98.81592792
C      78.26663037      51.26723071      96.82604611
H      78.27229955      49.26790026      96.41975495
C      80.47005125      52.45964801      95.89252131
H      81.92703024      51.43919580      94.88718691
C      84.72004573      59.16439696      91.70677753
O      84.81075259      61.49820897      92.01291319
N      86.60221314      58.08536324      90.50113214
H      86.71181726      56.18240884      90.58616982
C      88.86988471      59.21541957      89.40698060
H      89.48404576      60.88971709      90.43877117
C      91.03362134      57.36915697      89.66965256
H      90.64622745      55.65517521      88.59250856
H      91.27361658      56.80979799      91.63874738
C      93.62821557      58.32157903      88.51502978
H      93.35420525      58.84881268      86.54404524
H      94.86031712      56.67562741      88.59817774
C      94.81307397      60.35492455      90.07594372
O      93.95135877      61.01632876      92.19243719
O      96.81051468      61.29411853      89.22556688
C      88.43524766      60.10359094      86.69333362
O      89.08531351      62.17473098      85.98846570
N      86.87811318      58.77322362      85.22123682
H      86.26395213      57.06869049      85.82216979
C      86.27906994      59.61037237      82.65498849
H      87.91935238      59.62549019      81.40965885
C      84.10777440      57.87938308      81.72146369
H      82.40891045      58.13827559      82.85907893
H      84.45359432      55.97453895      82.42255215
C      83.62967365      57.68663100      78.89443312
H      85.17546977      56.72853975      77.92878298
H      83.50873116      59.60470319      78.15366041
S      80.68925950      56.16918077      77.99303367
C      80.72516430      55.96509033      74.67656399
H      82.30119605      54.71976068      74.23058858
H      80.80075335      57.83969882      73.82429743
H      79.10188940      54.84826207      74.07941048
C      85.22649238      62.32401936      82.65498849
O      86.05419250      63.87548467      81.18856087
N      83.48605445      62.86826054      84.53148672
H      82.74150228      61.81757271      85.93933282
C      82.42213853      65.44206777      84.71667990
H      82.15568712      65.92583772      82.73246727
C      79.68014565      65.44584724      86.01303215
H      79.28897230      67.34691190      86.70467198
H      79.86155938      64.10792100      87.56827690
C      77.50885012      64.58035258      84.40487505
H      75.68904368      64.73719986      85.35540739
C      76.94193222      66.18095077      81.97090756
H      78.41780847      65.87481510      80.56684091
H      77.10633841      68.20484765      82.31294802
H      75.12401551      65.65938630      81.15265607
C      77.60333643      61.88560286      83.41276874
H      77.38790763      60.76499515      85.12675051
H      79.33243601      61.39427401      82.40743434
H      76.00084852      61.34703085      82.23735897
C      84.24950388      67.48675165      85.65209442
O      83.79974901      69.73363623      85.23635463
N      86.34710008      66.73653031      86.83884254
H      86.61544122      64.85247318      86.95222612
C      88.34076134      68.49586550      87.77236734
H      87.56975301      70.26086987      88.49991197
C      89.62388551      67.10880638      89.98901631
H      91.29062412      68.08201544      90.71278149
H      90.09253764      65.18506500      89.42020869
C      88.11588391      67.12959337      92.43243243
H      86.29607747      66.19039940      92.20377555
H      87.66045987      69.08357039      92.89730510
C      89.49160467      66.15827406      94.85884102
H      88.24249558      66.69306660      96.40652687
H      91.15267410      67.33179409      95.18576367
N      90.30418698      63.48809078      94.89663554
H      91.56841389      63.01565919      93.54548123
C      89.78640197      62.01788371      96.83927419
N      88.00250033      62.27488648      98.55514569
H      87.65857014      61.06357191      99.98944796
H      86.76661932      63.72430657      98.64396282
N      91.15267410      59.94863338      97.09627697
H      90.94102475      58.81101815      98.61561693
H      92.43768799      59.43084837      95.78291718
C      90.23237738      69.14026218      85.62941770
O      91.86888037      70.67849940      85.88642048
N      89.94513898      67.80989485      83.49591670
H      88.51839562      66.54944740      83.37686394
C      91.23015288      68.23697300      81.11108209
H      92.83830997      69.49742045      81.36619514
C      92.25249481      65.80300551      79.85630382
H      90.65756580      64.51043270      79.68811818
C      92.95925245      66.18850968      77.03872189
H      93.78884230      64.48775600      76.22424984
H      94.28584032      67.74942361      76.83652117
H      91.31141111      66.45307136      75.82929705
C      94.31985540      64.43862311      81.35863624
H      93.86632108      64.64838273      83.35796668
H      96.03761662      65.50631848      80.98258070
C      94.86976575      61.61159254      80.70101148
H      93.10854083      60.57980197      80.41755253
H      95.79951110      60.84058420      82.36775009
H      96.04139607      61.61348227      79.00781670
C      89.48026631      69.66938554      79.24214277
O      90.26261300      71.25108647      77.88342955
N      87.07275499      69.00987105      79.12686946
H      86.61733095      67.54344344      80.25881552
C      85.30397116      70.17394246      77.37509317
H      86.21103979      70.85991311      75.65733195
C      83.28385373      68.12925859      76.83085199
H      81.53585689      68.99097380      76.16377860
H      82.68858994      67.24108723      78.59207691
C      84.21170935      66.36425422      74.77294004
O      86.02206716      67.14282146      73.42934463
O      83.07976329      64.25342993      74.57451877
C      83.95092712      72.53987981      78.35397140
O      83.10432973      74.14992663      76.84974925
N      83.85266135      72.90081754      80.79927725
H      84.56886762      71.44572827      81.80650137
C      82.51284539      75.02486991      81.97657674
H      82.27851933      76.44972355      80.51014912
C      79.98061213      74.14236772      82.93088853
H      80.23761491      72.88192027      84.54093535
H      78.80520237      73.37513884      81.42099721
C      78.39702148      76.22673584      84.09684966
H      79.32298738      77.28120313      85.60674099
H      76.77941576      75.23651926      84.90565253
C      77.24995761      78.24874300      82.28460213
O      77.46916586      80.52208375      82.74947480
O      76.03108414      77.65914840      80.42133199
C      84.31564430      76.30421463      83.83984689
O      84.70870737      78.56243757      83.51670369
N      85.34176568      74.84723563      85.57461564
H      84.85988547      73.02553948      85.88831021
C      87.35243448      75.73540700      87.25080288
H      88.18391406      77.21317298      86.08484175
H      88.63177920      74.17260334      87.64575568
C      86.36599735      76.77475648      89.75091079
O      84.13045112      77.16781955      90.00035467
N      88.12155309      77.35301273      91.57071723
H      89.92813145      76.93160376      91.12852128
C      87.35999339      77.32466684      94.24845942
H      85.33609651      77.44371959      94.60750742
C      88.52028534      74.93605277      95.42386918
H      90.53284387      75.05321580      95.00057049
H      87.95336745      73.22018128      94.43743205
C      88.25005448      74.51464380      98.23011276
H      88.91712787      76.13224953      99.31670539
C      85.44570063      74.00441770      98.77057448
H      84.17013537      75.42549189      97.99200724
H      85.25861773      74.14803690     100.81525836
H      85.23216156      72.09012494      98.03925040
C      90.07553010      72.31500238      98.95765739
H      91.98037422      72.47373939      98.19420796
H      89.05318816      70.61802815      98.39451895
H      90.29095890      72.37547362     101.00423099
C      88.36910724      79.56777196      95.79992472
O      90.65945553      80.16303575      95.74323293
N      86.66457410      81.04364821      96.85817146
H      84.78240670      80.79798379      96.66541937
C      87.46014888      83.31698898      98.28869428
H      89.46892795      83.72705958      98.10917028
C      86.23749596      85.76418454      97.53280375
H      86.98582758      87.27785532      98.71199297
H      84.20604017      85.43348244      97.58949554
C      86.89323099      86.29519765      94.70766291
H      85.79530000      84.94971250      93.60028329
H      88.93602513      86.15157844      94.49412384
C      86.41324050      88.95404256      93.82327100
H      87.44881052      90.33165304      94.94954788
H      84.41957924      89.47182757      93.82138127
N      87.22204337      89.14679465      91.24190485
H      86.53607271      88.17925478      89.74713134
C      88.91145869      90.76817982      90.24601909
N      90.17379587      92.48783077      91.61229121
H      91.49282483      93.61977683      90.82238561
H      90.14733970      92.64656779      93.51524561
N      89.35743410      90.86266614      87.76858789
H      90.86732542      91.70548408      86.96167475
H      87.98549280      90.15590850      86.64609046
C      86.65323575      82.72550463     100.93431111
O      84.44414569      82.10567441     101.28202075
N      88.25950311      82.91825672     102.77868399
H      90.06986092      83.32832733     102.33459831
C      87.67179823      82.30031621     105.34871178
H      86.06175141      81.04364821     105.60760429
C      89.86388075      80.65058514     106.06491805
H      90.08875818      80.35011866     108.08881493
H      91.67234883      81.56332296     105.68886252
C      89.99238214      77.98229159     104.86116239
H      90.43268837      78.16937449     102.85805250
C      91.94446942      76.23240502     106.09137422
H      91.24905014      75.90548237     108.00188752
H      93.79073203      77.14136338     106.18963999
H      92.16934685      74.52220271     104.96320761
C      87.45636943      76.72184414     105.07092201
H      86.13545074      77.50608056     103.69898071
H      86.57764669      76.85034554     106.92852298
H      87.42046463      74.74519041     104.49077603
C      87.14645431      84.53019326     107.07403190
O      87.16535158      84.51318573     109.42674116
N      86.77795768      86.72794496     105.97988037
H      86.96315086      86.70904771     104.07881570
C      86.16757608      89.20348644     107.17607713
H      85.54963558      88.96349120     109.12816441
C      88.57697713      90.88156340     107.41985182
H      88.94169431      91.49950390     105.48855153
H      90.04907393      89.65891048     108.18708070
C      88.35776888      93.20592677     109.12438495
H      87.42046463      92.60121435     110.85537426
H      87.10677006      94.70825919     108.47431910
C      90.87299460      94.34543173     110.11271182
H      90.30418698      95.39800929     111.78889906
H      91.51172210      95.59643055     108.60471022
C      93.01594424      92.53696365     110.67018108
H      93.48081691      91.48816555     108.95997876
H      92.28650988      91.19147852     112.04968129
N      95.48392681      93.45348092     111.56780108
H      96.21525089      94.80652496     110.43774474
H      96.86342701      92.14201085     111.42985106
H      95.48770626      94.03929607     113.38571779
C      83.91502232      90.49227978     105.79846664
O      83.80163874      90.05197356     103.51567726
N      82.22938645      91.92469234     107.07781136
H      82.05553163      91.60721831     108.95241986
C      80.13367997      93.40434803     105.77012075
H      78.67670098      92.09098824     105.14273161
C      79.05842569      95.30352297     107.82236352
H      80.56642729      96.39389506     108.70486571
C      77.25373706      97.12899859     106.43719414
H      76.92303496      98.88644406     107.45953607
H      75.49440187      96.11799501     106.08570504
H      78.16836460      98.01150078     104.81580896
C      77.38790763      93.94669948     109.79901725
H      78.59922220      92.84876850     111.05379552
H      76.16903416      92.60121435     108.82580820
C      75.65880806      95.62099699     111.48843257
H      76.85878427      97.00994583     112.42762655
H      74.66481202      94.54952217     112.93974238
H      74.31143320      96.63389030     110.30546390
C      81.04452805      94.71014891     103.34182244
O      83.17991878      95.69469632     103.29646900
N      79.57810043      94.66101604     101.28957966
H      78.30631462      93.24183157     101.20076252
C      80.12423133      96.18413544      99.08048960
H      81.12389655      97.92835282      99.53402392
C      81.96482476      94.76306125      97.22855781
H      83.49550308      94.13189266      98.45310046
H      82.68103104      96.12177447      95.85661651
C      80.73650266      92.52373558      95.93787474
C      79.57432098      92.84687877      93.67209289
H      79.65935866      94.64400849      92.71022220
C      78.76173866      90.72660584      92.36440228
H      77.77152207      90.92880657      90.58805955
C      78.77118729      88.30397671      93.60406275
O      77.80175770      86.17803462      92.48723449
H      76.73595206      86.53897233      91.06427058
C      79.90313336      87.98461296      95.98700763
H      79.64046140      86.18748324      96.91486325
C      80.82909925      90.18803384      97.16997630
H      81.78908022      90.01984821      98.96521630
C      77.62790287      97.04018145      97.83893941
O      75.62668271      95.77028538      98.28680455
N      77.77152207      99.10376259      96.37440152
H      79.38912780     100.11287644      96.29503301
C      75.45849707     100.07697165      94.98356295
H      73.68971324      99.66312158      95.95677200
C      75.60778545     102.87187686      94.97033487
H      74.13568865     103.45391256      93.65319563
H      77.49751176     103.44824338      94.38829917
C      75.09566962     103.98114621      97.44209689
H      76.65280410     103.44635367      98.67797790
H      73.39869539     103.26871938      98.36995251
C      74.85756410     106.82140485      97.19832219
H      73.32877551     107.31462342      95.90952885
H      76.45060338     107.72847348      96.26101794
C      74.40780924     107.95713036      99.87228493
H      75.98006153     107.46958098     101.11194539
H      72.74107063     106.96502406     100.56203503
N      73.91270094     110.71991024      99.84582876
H      73.27019400     111.25281305     101.55981052
H      72.55965690     110.95234657      98.51924089
H      75.45471762     111.79516451      99.51323693
C      75.17692785      98.99037902      92.32282830
O      76.84555618      99.29840440      90.86962877
N      72.91681518      97.70914457      91.80882275
H      71.88880406      97.31608150      93.36595723
C      72.07210751      96.99293830      89.17832372
H      73.46861526      95.68335796      88.42432292
C      69.49641055      95.70792440      89.46556212
H      68.39470011      96.92679788      90.70900203
H      69.75908251      93.91079468      90.43688144
C      68.25297064      95.41879628      86.87096789
O      68.97673581      93.74449877      85.34973821
O      66.57678340      96.98159994      86.33428562
C      71.88880406      99.53273047      87.63630705
O      71.85856844     101.57741434      88.66053871
N      71.59022730      99.46470032      85.08517653
H      71.49196154      97.69591649      84.37652916
C      71.30298891     101.70591572      83.32206188
H      72.93949189     102.87376658      83.76425783
C      71.54676360     100.94057657      80.38731691
H      70.72095320      99.06785779      80.14732167
C      70.44316343     102.79061862      78.44089881
H      70.86079295     102.17078840      76.52282660
H      71.31432726     104.59152780      78.92655847
H      68.39847956     102.97581180      78.60908445
O      74.21316743     100.86120806      79.55205788
H      75.17503812      99.60831951      80.44400870
C      69.03909678     103.33297008      83.88142086
O      69.08067076     105.63654646      83.31639270
N      67.10212731     102.43157063      85.19667038
H      67.07000196     100.55318268      85.53115194
C      64.99319275     104.02083045      86.16043080
H      64.87225026     105.82929855      85.18155257
C      62.53465881     102.58274873      85.64831497
H      60.90571473     103.78650439      86.02437050
H      62.32300947     100.82152381      86.69711307
C      62.18316972     101.71158490      82.88364537
H      63.82912134     100.69302242      82.17688773
H      62.12080875     103.36509542      81.65532327
C      59.78510703     100.15256069      82.57939944
O      59.91171869      97.93969119      81.92366440
O      57.74420261     101.28828621      82.79104878
C      65.19350374     104.74459563      88.85329079
O      63.56266993     105.99937390      89.73957244
N      67.15692937     103.63532629      90.07027454
H      68.25108091     102.38432747      89.13486001
C      68.06399800     104.39499627      92.54014683
H      67.22495952     106.18267737      93.12974144
H      70.08411543     104.65388877      92.84817222
C      67.13047321     102.56574120      94.63774304
O      67.84101030     102.85486932      96.78447213
N      65.53365447     100.72892722      93.94799293
H      65.04610508     100.68546351      92.10173033
C      64.74941805      98.77306049      95.68276169
H      63.71762748      99.63477568      97.24367562
C      63.19417330      96.67924374      94.36373272
H      62.65182184      95.17880105      95.66386443
H      64.36769334      96.02917788      92.80092906
C      60.78099279      97.53717948      93.22989694
C      59.48842000      95.90445594      91.55559942
H      60.35202492      94.13378239      91.02836578
C      57.27932994      96.85498828      90.28948279
H      56.54989558      95.72493194      88.75502503
C      56.14738388      99.17746191      90.80348835
O      53.93451436      99.72548255      89.55248953
H      53.67373213     101.50560473      89.30682511
C      57.37192653     100.66656625      92.66675849
H      56.47430653     102.42401172      93.18454350
C      59.76998922      99.92201409      93.59650384
H      60.77910307     101.18813071      94.83805403
C      67.10212731      97.35954521      96.82982556
O      69.12413447      96.87766500      95.57693702
N      66.84323481      96.84931910      99.38095608
H      65.08956879      97.07986571     100.09338290
C      69.00319198      95.97626555     100.84738370
H      70.66615114      96.93246706     100.09716236
C      68.92382348      96.84176019     103.69520126
H      70.37324356      95.64178399     104.53612947
H      66.95850811      96.60743413     104.26022942
C      69.54365371      99.52895102     104.07125679
C      67.88258428     101.23348414     105.08415010
H      65.97207098     100.64011009     105.47721317
C      68.59501110     103.61831875     105.84759953
H      67.26653350     104.76538263     106.89261818
C      71.07622175     104.42523189     105.34115288
O      71.86423762     106.91967062     105.68319334
H      70.53009084     108.01760162     106.23499342
C      72.83366722     102.77550082     104.16763283
H      74.78575450     103.28194747     103.85771772
C      72.02675408     100.21870112     103.54780260
H      73.55176322      99.02061464     102.90718538
C      69.33956327      93.12088909     100.59227065
O      67.60290478      91.59776967     100.92675221
N      71.66203690      92.31397596     100.03291166
H      73.06799328      93.55741586      99.69654038
C      72.25919042      89.71560227      99.19009373
H      70.77953472      88.46082399      99.88173356
C      72.27052878      89.61922622      96.30637137
H      73.91837012      90.66046542      95.63929798
C      72.50485484      86.93392513      95.18954312
H      74.07521741      85.85300168      95.97566927
H      72.24974179      86.87534362      93.14674898
H      70.93449227      85.98906198      96.12684737
O      70.00285720      90.81920243      95.39930274
H      70.38080246      92.52184585      95.89819049
C      74.60434077      88.57042812     100.46754871
O      76.21060814      90.05953245     101.29713857
N      74.76307778      86.15724762     100.60360901
H      73.40625429      85.11411870      99.75890135
C      76.86445344      84.79286522     101.70909890
H      78.62567837      85.62245507     101.04013579
C      76.77374658      84.92136661     104.62494660
H      75.72872793      86.56164906     105.30713780
C      74.98984494      83.02975057     105.90429132
H      74.92370452      83.44926981     107.91873957
H      75.85911905      81.16837015     105.74744403
H      73.14358233      83.11100880     104.99533296
C      79.37589971      84.93459470     105.82492281
H      80.51162523      86.27252092     104.74966854
H      80.24139437      83.15636224     105.25044601
C      79.76896279      85.44104135     108.66707119
H      79.62156414      87.48005604     108.91084588
H      81.72482952      84.98939676     109.12627468
H      78.43859546      84.34311037     109.79145834
C      76.96838839      82.07732851     100.72833095
O      75.18448675      81.17025988      99.62662050
N      79.05842569      80.68648994     101.27446185
H      80.58343483      81.64458118     101.90940989
C      79.46282712      78.08811626     100.37873158
H      77.92647963      76.87491198     101.02123852
H      81.15413218      77.25663669     101.21021115
C      79.79919841      77.79898814      97.51012703
O      81.04263832      79.41470413      96.39140906
N      78.72205441      75.81477551      96.47077756
H      77.61278506      74.82455892      97.66697432
C      78.09466527      75.80910633      93.84405799
H      79.62534359      76.83522772      92.92754073
C      78.62000919      72.99719357      92.68565576
H      76.89657879      72.03343315      93.27336064
C      78.55764822      73.24663745      89.82649985
H      80.21493820      74.34078899      89.27658949
H      76.72461370      73.80410672      89.07627850
H      78.65780372      71.47407417      88.78337092
C      81.20893424      71.99941809      93.61162165
H      81.59065895      72.42082706      95.59205483
H      82.60922144      72.98018604      92.46455778
C      81.38845824      69.30655808      93.17698460
H      79.91069226      68.25964971      94.15586283
H      83.25172838      68.63948471      93.75146140
H      81.28263356      68.81900871      91.17954389
C      75.61723408      77.12435584      93.31115517
O      73.67081598      75.97540224      93.13163117
N      75.61345463      79.69249390      93.03147567
H      77.23295008      80.62790843      93.41131066
C      73.50640979      81.22317221      92.14897348
H      72.99807341      80.49751731      90.28948279
H      74.26985922      83.12990607      91.98267757
C      71.05354503      81.25907702      93.77035866
O      68.97295636      81.47450582      92.80092906
N      71.06866284      80.48806869      96.21188506
H      72.71083501      80.12713095      97.11517423
C      68.91059539      80.42192826      97.83138051
H      67.62936095      79.41659386      96.57093306
C      69.32066600      78.86479379     100.25400964
H      70.59056209      79.69060417     101.65051739
H      69.89136335      76.93727295      99.81181368
C      66.84701426      78.66637251     101.66374547
N      65.49963940      76.41381875     101.51445709
H      65.49208049      75.04187744     100.18408977
C      63.60046445      76.55176877     103.19442378
H      62.12836766      75.18738638     103.56481014
N      63.73274530      78.73818212     104.38873081
H      62.80866913      79.31643836     105.95531393
C      66.06277784      79.92681996     103.77079031
H      66.75063822      81.71261133     104.48321713
C      68.03565211      82.96927933      98.55514569
O      69.47562356      84.37334599      99.72866573
N      65.59223599      83.51918969      97.98444834
H      64.42627485      82.14724838      97.34761057
C      64.27698647      85.86811950      98.71010324
H      65.61302298      87.39123890      98.34727579
C      61.96585119      86.29519765      97.05659272
H      60.48430576      85.22750227      98.00901478
H      62.18883890      85.25962762      95.29158834
C      61.19484286      88.92569667      96.46888784
H      62.77465405      89.91213380      95.58827537
C      58.91583292      89.04096997      94.72089100
H      57.11870320      88.67058361      95.65819525
H      58.91394320      87.42714370      93.43965656
H      58.98764252      90.75495174      93.58138603
C      60.66760922      90.43558799      98.80269983
H      59.75109195      92.24405608      98.43987238
H      62.49875401      91.22360387      99.32426429
H      59.72652551      89.35088509     100.28046581
C      63.53999321      85.90969347     101.45776530
O      62.08868340      84.36578708     102.26278871
N      64.37903169      87.73327937     102.89206757
H      65.33712294      89.04852888     101.89429208
C      63.58345692      88.23216711     105.45831591
H      63.06189245      86.47850109     106.40317906
C      65.87002576      89.51907073     106.85482365
H      65.14437085      89.94992833     108.73510133
H      66.58056285      91.19525798     105.89106323
C      68.08289527      87.58210126     107.14017233
H      68.40225901      86.76007031     105.27879191
C      70.34300794      89.11655903     108.10204302
H      72.07210751      88.02051776     107.89039367
H      70.04632091      89.49072483     110.10515291
H      70.60379017      90.80975380     106.95686887
C      67.63880958      85.31442968     108.74832942
H      69.21484133      83.99162126     108.62738693
H      65.88703329      84.23917541     108.57069514
H      67.51786710      86.14401953     110.63049683
C      61.34980041      90.09354753     105.59059675
O      59.24464530      89.29041385     106.23121397
N      61.65971553      92.47271296     104.88005965
H      63.41716100      92.97160071     104.32825957
C      59.62070084      94.34354201     104.72699182
H      57.81790194      93.34765624     104.64951304
C      59.63392892      95.87799977     107.12505451