 %block lattice_cart
   139.898   0.000   0.000
   0.000 144.87   0.000
   0.000   0.000   168.12
 %endblock lattice_cart

 %block positions_abs
N      91.24338096      45.79741789      86.81711069
H      92.42445990      46.54008033      88.11913212
H      92.21092083      44.61255950      85.67760573
H      89.96214652      44.85066501      87.86779852
C      90.11521435      47.79296888      85.31477827
H      90.94858365      49.41813351      86.26531060
C      91.04118024      47.74005654      82.58223403
H      90.31741506      46.06386930      81.62603252
H      93.10098192      47.72493873      82.57089566
C      90.21536984      50.19859048      81.28588177
H      88.17068597      50.19292130      81.04777626
H      90.91834803      50.11355279      79.35269175
S      91.49471456      53.30719026      82.13436889
C      89.35176492      55.17612958      80.14826654
H      89.73726909      54.49393839      78.24342241
H      89.71837182      57.19813674      80.27676793
H      87.32219886      54.97392887      80.44495357
C      87.29763242      47.59265789      85.62847285
O      86.18647334      45.51395895      85.92138042
N      86.05797196      49.63734176      85.66626736
H      87.01606320      51.28329338      85.55288379
C      83.35755305      50.00772812      86.00641810
H      82.27285015      48.77373684      84.76486791
C      82.83598859      49.59765751      88.72006509
H      82.89268038      47.61533461      89.27753436
H      80.84799651      49.90190345      89.16793023
C      84.29107785      51.34754407      90.50774619
O      84.75972998      53.48671426      90.04665296
N      84.43658678      50.67102205      92.93037532
H      85.12633688      51.97682294      94.13791043
H      84.00572918      48.95893002      93.65225077
C      82.59221390      52.75161073      85.19572552
O      84.24005524      54.35220891      84.67794050
N      80.08076763      53.31663889      84.96706864
H      79.06976405      51.75005578      85.37335979
C      78.92425512      55.68446596      84.16582467
H      79.56298262      55.91312285      82.21940657
C      76.08588620      55.05707683      84.22062673
H      75.70416149      53.36010260      83.11513684
C      74.92181479      54.45236441      86.76986754
H      75.86667795      52.89900938      87.73929714
H      73.05665492      53.63222319      86.45806269
H      74.49662637      56.01705779      88.04165335
C      74.47961884      57.34175594      83.18883618
H      75.05598536      58.88566234      84.42093773
H      72.49162675      57.18301893      83.71040063
C      74.88590999      58.09953619      80.45062275
H      76.86445344      58.58897531      80.16527407
H      73.74451530      59.75115699      79.98952952
H      74.16025509      56.68602091      79.14293213
C      79.67447647      57.91434301      85.84768109
O      79.67825592      60.07241046      84.94439191
N      80.38123411      57.34175594      88.20794926
H      79.96927377      55.62399472      88.93171444
C      81.24861849      59.28817404      89.81421663
H      79.77085251      60.71680713      89.68004606
C      81.21082396      58.43401775      92.53731224
H      81.73238842      59.87209947      93.91492272
H      82.84165777      57.19435729      92.75841023
C      78.91669622      56.96003122      93.38201990
C      76.48461845      57.98048343      93.23084180
H      76.16714443      59.95335770      92.81699174
C      74.34922772      56.49326883      93.76374461
H      72.43493496      57.20191619      93.81287751
C      74.61756886      53.94969721      94.25507346
H      73.03397821      52.99160597      95.11300920
C      77.02508018      52.84420731      94.34200087
H      77.02885963      50.89212003      94.94104411
C      79.08299213      54.33520138      93.80531860
H      80.91035748      53.51128070      94.19082276
C      83.74494695      60.39366394      89.01486239
O      83.97549356      62.68968141      89.06399527
N      85.44570063      58.80818356      88.33645064
H      85.21893347      56.92412642      88.54432055
C      87.97415444      59.60375834      87.59000875
H      88.69225044      60.97003046      88.95439115
C      89.77884307      57.31341004      87.43694093
H      89.31963957      56.03406533      85.88925507
H      89.91490336      56.36854689      89.26241654
C      92.42445990      58.32441362      87.04009840
H      92.51705649      59.62643505      85.44516939
H      93.71514298      56.80129421      86.53176203
C      93.58853131      59.61509669      89.35879259
O      93.48837582      62.08307926      89.66492824
O      94.68268285      58.29039855      91.07844352
C      87.66612905      60.73003522      85.00675288
O      89.02673199      62.52338549      84.43038637
N      86.02962606      59.74926726      83.34190401
H      84.99405604      58.23370676      83.86535819
C      85.56286366      60.81129345      80.78321458
H      87.23905090      60.57507766      79.61347398
C      83.52951815      59.24093088      79.54355412
H      81.74750624      59.38077063      80.56589605
H      84.26651141      57.32096895      79.43394998
C      83.11377836      59.99304196      76.77888452
H      84.79185533      59.51872065      75.68284325
H      82.74717145      61.98670322      76.41983652
S      80.37367521      58.35086979      75.43150965
C      81.02374106      58.36598760      72.13582696
H      82.52607348      57.06018672      71.60481388
H      81.67380691      60.24248583      71.59347551
H      79.36645108      57.76694436      71.07002132
C      84.84287794      63.63832401      80.93817214
O      85.95781646      65.14443589      79.50198013
N      82.92291600      64.46602414      82.42349701
H      82.14056931      63.07140612      83.46851566
C      82.41646935      67.16833277      83.09057040
H      82.15946657      68.12831373      81.28777150
C      79.81242649      67.49903487      84.60046173
H      80.18848203      68.34752199      86.44105516
H      79.22283188      65.60552911      85.16171044
C      77.54853437      68.50058982      82.94884093
H      75.97628208      68.66121655      84.26975963
C      78.18159268      71.00258746      81.75642362
H      76.54319997      72.09484927      81.15360094
H      79.74628607      70.70967988      80.44684329
H      78.85433525      71.99847322      83.43072114
C      76.85689454      66.77715942      80.79266320
H      78.54819959      66.19134426      79.76843154
H      75.43959980      67.49147597      79.47930342
H      76.14824717      65.07829547      81.71673938
C      84.63878749      68.63665011      84.24519319
O      84.81453204      70.99691828      83.85024039
N      86.35654871      67.27415744      85.56044270
H      86.19592198      65.44301264      86.07066880
C      88.80374429      68.53460489      86.26909007
H      88.30674627      70.38464695      87.03253949
C      90.32686370      67.29116498      88.37424517
H      92.08619889      68.34185281      88.57266644
H      90.83142062      65.43545374      87.63914164
C      88.94169431      67.20423757      90.86868390
H      87.99116197      65.39765921      91.14269422
H      87.69069549      68.83507138      90.74963116
C      90.47426235      67.42344582      93.27997468
H      89.10987995      67.46501980      94.82388108
H      91.60998786      69.13364813      93.11367877
N      92.13911123      65.20490713      93.73350899
H      92.99137780      64.67578376      92.10834436
C      92.45658525      63.66478018      95.66102983
N      91.46069948      63.91233433      97.90791443
H      91.51928100      62.48181151      99.16836188
H      90.47993153      65.49403525      98.33121311
N      93.74537860      61.57474288      95.36812226
H      94.43890815      60.42389956      96.72305603
H      93.94002041      60.97758937      93.56343363
C      90.53095414      69.18278102      84.19228084
O      91.66101047      71.13108885      84.12425070
N      90.93157612      67.42911500      82.38570248
H      89.98671296      65.81339900      82.75608884
C      92.45658525      67.68044860      80.18228161
H      94.11387523      68.86719672      80.48274810
C      93.34664634      65.11420026      79.16749857
H      91.64400294      64.35453029      78.29444503
C      95.36865350      65.66033117      77.22674966
H      94.45402596      66.18378536      75.45796583
H      96.74626398      64.14666039      77.00376194
H      96.43256941      67.34785677      77.74642440
C      94.48237186      63.33029863      81.28966123
H      93.38633060      63.20557669      83.02820943
H      96.35320091      64.09185833      81.69028321
C      94.92078836      60.59019547      80.39204122
H      93.49782445      59.32974802      81.18194682
H      96.78594823      60.11776389      81.12336532
H      95.16078361      60.42578928      78.35113682
C      91.12432820      69.25459062      78.10547239
O      92.39611401      70.53582506      76.63337560
N      88.64689700      69.52671121      77.94295592
H      87.65668042      68.11319592      78.75742797
C      87.18802829      71.42210670      76.48408722
H      87.93258046      71.58273343      74.56790473
C      84.38367444      70.60385520      76.25354060
H      83.38967840      72.33106505      75.73197615
H      83.64101200      70.01615032      78.08279567
C      83.91691204      68.69145218      74.15027521
O      85.63845271      67.77871437      72.77266474
O      81.64735074      68.46279529      73.65705664
C      87.33353722      74.08851053      77.59902573
O      88.25950311      75.84784572      76.31968102
N      85.97860345      74.53448594      79.77410072
H      85.37011158      72.91688021      80.58290358
C      85.41168556      77.04971166      80.76431731
H      85.89356577      78.55582353      79.44150889
C      82.59788308      77.38419322      81.09690914
H      81.98183230      79.08116744      82.08712574
H      82.00450901      75.98768547      82.48963744
C      80.89146022      77.30104526      78.77065606
H      78.88079142      77.60151174      79.10135815
H      81.05397668      75.37541414      78.05822923
C      81.70026308      79.29092707      76.82612767
O      81.65113019      78.75802424      74.50554376
O      82.10466451      81.52269384      77.46863462
C      86.74772206      77.93599330      83.21340261
O      86.41135078      80.18287788      83.98252122
N      88.48249081      76.48090404      84.23574455
H      88.68280180      74.68944349      83.60457596
C      90.25883355      77.16498496      86.35601748
H      91.15078437      78.94321742      85.82122492
H      91.71203308      75.71745461      86.54876955
C      88.78484702      77.41631856      88.91281718
O      86.41324050      77.70544669      89.10934871
N      90.39300412      77.33883978      91.01797228
H      92.24493590      77.59584256      90.63813729
C      89.41223616      77.41631856      93.65036104
H      87.37322147      77.19144113      93.44816033
C      90.44402673      75.03526341      95.00340508
H      92.49815923      74.93510791      94.90891876
H      89.72593073      73.23813368      94.29664745
C      90.02072803      74.89920311      97.92870142
H      91.04306997      76.32783621      99.00584541
C      87.25794816      75.05605040      98.80742414
H      86.07686922      73.56694606      98.01184937
H      86.59654395      76.91743082      98.22160899
H      87.23338172      75.07683739     100.86722583
C      91.10165148      72.28004244      98.66569467
H      90.69725005      71.80194169     100.62534086
H      93.14444563      72.07973145      98.48050149
H      90.24749519      70.73424632      97.60555822
C      90.20403149      79.96366963      95.04308934
O      92.50382841      80.35106353      95.52307982
N      88.50705726      81.44332534      96.14857923
H      86.64567684      81.17309447      95.83110521
C      89.23649161      83.24045506      98.09310761
H      91.26983713      83.15919683      98.41058163
C      88.90956896      85.97488903      96.97249989
H      89.27428614      87.31848444      98.48806040
H      86.97448922      86.06937535      96.27330117
C      90.56496921      86.70810284      94.72183587
H      91.06952614      85.07537931      93.57288227
H      92.37910647      87.35249952      95.45315994
C      89.29507313      88.86428057      93.43871169
H      90.85787679      89.64284781      92.34833962
H      88.62044084      90.29291366      94.75963038
N      87.31652968      87.70965779      91.77008335
H      87.05196800      85.88229244      92.24629439
C      86.45292475      88.43153324      89.60823645
N      86.60410286      90.64629248      88.50841574
H      85.32097869      91.11305488      87.17426896
H      87.51873040      91.80847416      89.71406113
N      85.46081844      86.74967682      88.21739790
H      85.19247730      87.20699059      86.38247365
H      84.97137933      85.04136424      88.90903773
C      87.94958799      82.75101594     100.52707510
O      85.78396164      81.80804251     100.57431825
N      89.15334366      83.04203380     102.64545829
H      90.84275898      83.90752845     102.45837538
C      88.52784425      82.22189258     105.26839841
H      86.95937141      80.89341498     105.13989702
C      90.74638294      80.62129439     106.27373282
H      90.19458285      80.02225115     108.16534886
H      92.38477565      81.86473430     106.39089585
C      91.80651940      78.50669065     104.83187163
H      91.84242420      79.00557839     102.83443093
C      94.44268761      77.61662955     105.52162173
H      94.49937940      77.52592269     107.57953369
H      95.91856386      78.96967359     105.03785181
H      94.99259796      75.74769023     104.85076890
C      89.91301363      76.34673347     105.33075938
H      90.35520959      74.53070648     104.46715445
H      88.11399418      76.91743082     104.50305925
H      89.64845195      76.01225191     107.34520763
C      87.72282084      84.34783468     107.17135282
O      87.43747216      83.81493186     109.50516480
N      87.24472008      86.64385215     105.99594305
H      87.41479545      86.82526588     104.10243727
C      86.46615284      88.85672166     107.41134806
H      85.93136029      88.23311198     109.29918464
C      88.94547376      90.55558562     107.50016519
H      89.22893271      91.26612271     105.58587243
H      90.49693906      89.31781488     108.04629610
C      88.69980934      92.91018460     109.35587643
H      87.94013936      92.33759753     111.18135204
H      87.31463995      94.12527862     108.43368999
C      91.30007275      94.19141904     109.72059361
H      92.04651464      94.88683833     107.92913307
H      92.61721199      92.92530241     110.67490539
C      90.64622744      96.44586253     111.37788359
H      89.87521911      95.44808704     113.00682767
H      89.05507789      97.34348253     110.42735124
N      92.73059557      98.03890182     112.28495222
H      93.69057653      97.62505175     113.87988123
H      91.90289544      99.73965550     112.54384472
H      93.83230601      98.47731832     110.78828898
C      84.24572442      90.09071294     106.04696565
O      83.90746341      89.63717863     103.88133930
N      82.80575297      91.74422347     107.25072131
H      82.95693108      92.04468995     109.12721955
C      80.60044236      92.85538254     105.91468482
H      79.65935866      91.25478435     105.01895454
C      78.60489138      93.91740873     107.76850633
H      79.44581959      95.29312948     109.04974076
C      76.64335546      95.27423222     106.31152733
H      77.45215833      96.96364754     105.45359160
H      74.98417576      95.88461382     107.36599462
H      75.96494372      93.95709298     104.88100452
C      77.45971723      91.74044402     109.33697917
H      79.10377912      90.96376650     110.30073959
H      76.47139037      90.23055269     108.34109340
C      75.51329913      92.98199420     111.17757260
H      73.55743239      93.03490654     110.53695538
H      76.14068826      94.78857256     111.94291175
H      75.05787509      91.65162688     112.68179473
C      81.31097946      94.70353487     103.80952969
O      82.47883032      96.53278994     104.39723458
N      80.53241222      94.47109854     101.36989302
H      79.61211550      92.86105172     100.91068954
C      81.40924523      96.27767689      99.29875300
H      82.09899533      98.03890182     100.11889421
C      83.48416472      94.81880818      97.90791443
H      84.94681288      94.54668759      99.33087833
H      84.33265183      96.12271933      96.55487039
C      82.66024404      92.52657016      96.35266966
C      82.04986245      92.80435993      93.75996516
H      82.32009331      94.65818144      92.95116230
C      80.84610678      90.77101442      92.40125194
H      80.29430670      90.97510486      90.44727495
C      80.61556017      88.39184899      93.66925830
O      79.89935390      86.31881922      92.36723688
H      79.28519285      86.65330078      90.69293937
C      81.56042333      88.08571333      96.19582238
H      81.73049870      86.22811236      97.01974306
C      82.49205840      90.19653762      97.57532260
H      83.10432973      89.78835673      99.47827700
C      79.12456611      96.99199344      97.73783905
O      76.98728565      95.97721041      98.04775417
N      79.46660658      98.91573483      96.12401279
H      81.20137533      99.69619179      95.95393741
C      77.34444393     100.06090897      94.51018652
H      75.52652721      99.75666303      95.42481405
C      77.71672001     102.95030050      94.12279261
H      76.38635269     103.35470193      92.60156294
H      79.65746893     103.46430606      93.66736857
C      76.78697466     104.27121920      96.50762722
H      78.05309129     103.50021086      97.93437060
H      74.82543875     103.76099309      96.86856495
C      77.03641854     107.20218471      96.43770736
H      78.91858594     107.97130332      96.11645388
H      76.57910477     107.88248618      98.32743367
C      75.26007580     108.32279241      94.45160499
H      73.42704128     107.38359843      94.44404610
H      76.10100401     107.88437591      92.62423965
N      75.02008056     111.11013872      94.72561531
H      74.84433601     111.63170319      96.55298065
H      73.68593378     112.00019982      93.69004530
H      76.73028287     111.89626487      94.41758993
C      77.41814325      98.63038615      91.98362244
O      79.33054628      98.52834093      90.71183663
N      75.12212578      97.84992919      91.16348122
H      73.74640503      98.35070666      92.38802386
C      74.55520789      96.87105095      88.59723288
H      75.74951492      95.21754043      88.30432531
C      71.72817732      96.22854401      88.34778900
H      70.78520389      98.03512236      88.03220472
H      71.06488339      95.28557058      90.05421186
C      71.28409164      94.55046704      86.13302977
O      71.10645737      92.27145711      86.38814283
O      70.93071282      95.52934527      84.08267672
C      75.25629635      98.94408072      86.64325587
O      75.38101829     101.11159680      87.29332172
N      75.55676283      98.23543335      84.26031099
H      75.53408612      96.36460430      83.88047601
C      75.58132928     100.07980623      82.10035382
H      77.09688978     101.44040918      82.40082030
C      75.68526422      98.79290262      79.39615546
H      73.85411943      98.17496211      78.67994918
C      76.80398220     100.53523028      77.28722090
H      77.38223845      99.37871777      75.68473298
H      78.36867559     101.61426400      78.07901623
H      75.28653197     101.75788320      76.61636805
O      77.18759664      96.58948173      79.60213563
H      76.72272397      95.23832742      78.48530738
C      73.18137686     101.74276539      82.03043394
O      73.25885564     103.94429654      81.18194682
N      70.91748474     100.72042345      82.76553748
H      70.93449227      98.89494784      83.32300675
C      68.47028916     102.10937229      82.91104640
H      68.20950693     103.41706290      81.34068383
C      66.27631691     100.30846312      82.79577310
H      64.45840020     101.06246392      83.40615469
H      66.83945535      98.93274236      84.22251646
C      66.09868264      99.35415133      80.01220625
H      67.98085005      98.75699782      79.42639109
H      65.31066676     100.80168169      78.77821495
C      64.41115704      97.00900098      79.85157951
O      65.46184487      94.92463285      79.62670207
O      62.10947039      97.26789348      79.59457672
C      68.26808844     103.60414581      85.41682350
O      66.43505392     104.97041793      85.85901945
N      70.21072709     103.58713827      87.01931140
H      71.67526499     102.38716206      86.78309561
C      70.49229632     104.97230766      89.34556450
H      69.32444545     106.66928189      89.34745422
H      72.48595758     105.48064404      89.43627136
C      70.00852638     103.48320332      91.81354706
O      70.90425665     104.34491852      93.80153914
N      68.57989329     101.37048931      91.86267994
H      67.49896984     100.98687486      90.33389136
C      67.64258904     100.08169596      94.15680769
H      66.69583615     101.36670985      95.45882912
C      65.42594007      98.27322788      93.38390963
H      64.19005906      97.93118742      94.99773590
H      66.17049224      96.55924611      92.51841497
C      63.95573300      99.24454720      91.25796752
C      63.43605826      97.70442026      89.18115832
H      64.35824470      95.88839327      89.05832611
C      61.91671831      98.48676695      87.22907102
H      61.91671831      97.29057020      85.57745024
C      60.58257153     100.86026320      87.28009364
O      59.07645966     101.58402838      85.41493377
H      58.16750130     103.10714779      85.80043794
C      61.17216614     102.44007440      89.39847683
H      60.18383928     104.21641713      89.59500838
C      62.53843826     101.54812358      91.42804290
H      62.68772664     102.77455596      93.05320753
C      69.50019000      98.64361424      95.73850862
O      71.27653274      97.58914695      94.68971052
N      69.08633994      98.50944367      98.22916790
H      67.68227329      99.40895339      99.15702352
C      70.73796074      97.18285580      99.98094418
H      72.72028364      97.50410927      99.52363042
C      70.42804562      98.27322788     102.59632541
H      71.11212655      96.98632426     104.05141466
H      68.42304600      98.35070666     103.05930835
C      71.94927530     100.69018783     103.07820562
C      70.65670250     102.90305735     103.77929407
H      68.65548234     102.74243061     104.14023180
C      72.03431299     105.23497962     104.05708384
H      70.95338954     106.84313671     104.69770107
C      74.70827572     105.29545086     103.90968519
O      75.89691357     107.49698201     104.62211201
H      74.68181955     108.73853220     105.14556620
C      75.93470810     102.98620530     103.22371454
H      77.96049470     103.19785465     103.10844124
C      74.64969420     100.70719537     102.87033573
H      75.77786081      99.08203074     102.36955824
C      70.39214082      94.28968481      99.44237220
O      68.38147202      93.13884149      99.67102907
N      72.55209800      93.05380380      98.75640153
H      74.16970372      94.04402039      98.96427144
C      72.80910077      90.47810684      97.87200963
H      71.07811147      89.41986010      98.23483708
C      73.13602343      90.65385139      94.91458794
H      74.65914284      92.01445433      94.64435708
C      73.51018924      88.13862566      93.57855145
H      71.62046292      87.32037417      93.56532336
H      74.83299766      86.78936108      94.40436184
H      73.99962835      88.61672642      91.63591279
O      71.03086831      91.85004814      93.91114328
H      71.39369577      93.62450115      94.02641657
C      75.01441138      89.27246145      99.14757488
O      76.79642330      90.44409176     100.16613736
N      75.12779496      86.71566175      99.25906873
H      73.84467079      85.77835750      98.20271173
C      77.09311033      85.24356495     100.60266415
H      78.81465100      86.37362129     100.64990730
C      76.15202662      84.74089775     103.19914811
H      75.37534911      86.45865897     104.02873795
C      73.66703652      83.12707148     103.28796524
H      72.89413846      83.14974820     105.19847853
H      74.16403454      81.21655818     102.69648091
H      72.37635345      84.15130314     102.05586369
C      78.00017896      83.41619961     105.09076414
H      78.64835508      81.62851851     104.29518936
H      77.11200759      82.96644474     106.89545277
C      80.40958001      84.95443683     105.79185261
H      81.06909449      84.43287236     107.67213028
H      79.83321348      86.92920082     105.77673479
H      81.88545626      84.90341421     104.35566060
C      77.56743163      82.74723649      99.33087833
O      75.82510397      81.59828289      98.24617543
N      79.90313335      81.84961649      99.50662288
H      81.33554590      82.79070020     100.35133054
C      80.40391083      79.08683662      98.90568991
H      78.99039554      77.85095561      99.75417703
H      82.30875495      78.66542766      99.56898385
C      80.24706354      78.60684614      96.04275456
O      81.28641302      79.98445662      94.50262761
N      78.96393938      76.54326501      95.44938049
H      77.80364742      75.81572038      96.77785809
C      78.52363315      75.65320391      92.79998421
H      80.08454708      76.32783621      91.63969225
C      78.10978308      72.83751171      92.35967797
H      76.38257323      72.06083419      93.17037056
C      77.88490565      71.82650813      89.68571524
H      79.54408535      72.08729036      88.49329794
H      76.22950540      72.60696510      88.73896235
H      77.75640426      69.77237563      89.67248715
C      80.36044712      71.33895874      93.68059666
H      80.17714367      69.29994405      93.46516786
H      80.37556493      71.72068346      95.70449355
C      82.95882080      72.00792185      92.62046021
H      83.08732219      74.03937764      92.31054509
H      83.24605920      71.00069773      90.84789691
H      84.53863200      71.59785124      93.87523848
C      76.11990128      76.96656370      91.93826900
O      74.05632014      75.91587587      91.90236420
N      76.32588144      79.44210517      91.67559705
H      78.03986321      80.27169502      91.80787788
C      74.42859623      80.97845266      90.25263313
H      73.90514204      79.99012580      88.52353356
H      75.30731896      82.73967759      89.64036180
C      72.01163627      81.50379658      91.72095047
O      70.30521341      82.49590289      90.53042290
N      71.88691433      80.85939990      94.27397072
H      73.44215909      80.63641220      95.35867362
C      69.59656604      80.84617182      95.68370656
H      68.08856445      79.85595523      94.69160023
C      69.88191472      79.33439077      98.14790967
H      71.19149505      80.37374024      99.34977561
H      70.41859699      77.40309048      97.66791919
C      67.35724036      79.10573389      99.53685850
N      65.71128874      77.17632332      99.36867286
H      66.15726415      75.51336417      98.54853164
C      63.67227405      77.69032888     100.88234365
H      62.19450807      76.35429237     101.32642933
N      64.15982344      79.92587511     101.95948764
H      63.00898012      80.85751018     103.16513303
C      66.43883337      80.85939990     101.12044916
H      67.20417253      82.73022895     101.40012866
C      68.58556247      83.55603935      96.32621350
O      69.63625030      85.03758478      97.71705207
N      66.44450255      84.24767918      95.31709964
H      65.59223599      83.10061531      94.05476248
C      65.41271199      86.75912545      95.76874423
H      66.80733000      88.25767842      95.51741064
C      63.24519590      87.25234402      93.76941380
H      61.88081351      85.71032735      93.85067204
H      64.18250016      87.39596322      91.94015873
C      61.88459296      89.89796086      94.04153439
H      61.19484286      90.26834722      92.13480053
C      59.38448505      89.90551977      95.61000723
H      58.01254374      88.62806478      94.75585093
H      58.65127124      91.82926115      95.58166133
H      59.60936248      89.64095808      97.64146301
C      63.50975759      92.14673517      94.57821666
H      64.55288651      91.91618856      96.33944159
H      62.34001700      93.82859159      94.79553519
H      65.00075165      92.31303109      93.16848083
C      64.10313165      86.80069943      98.56175973
O      62.58946087      85.18876289      99.31198108
N      64.87225026      88.60538806     100.14157092
H      66.11002100      89.91118894      99.50473315
C      63.98974807      88.67908739     102.81364394
H      63.53243430      86.72322065     103.27473715
C      66.08923401      89.51812587     104.59187639
H      65.39759418      89.76001084     106.51561779
H      66.68449779      91.28690970     103.72260228
C      68.40981792      87.84193863     104.94714495
H      68.91248512      87.19943168     103.05363918
C      70.79087307      89.32159433     105.84854440
H      71.49007181      90.69542536     104.48227227
H      72.17982191      87.85516672     106.24538691
H      70.14458667      90.44787122     107.44914257
C      67.74652398      85.46088348     106.61766300
H      67.31755611      86.03725000     108.54896329
H      69.40003451      84.24012028     106.47026435
H      66.08356483      84.64641144     105.71815328
C      61.57467784      90.06803623     103.10844124
O      59.76998922      89.22521829     104.34054280
N      61.61058264      92.43397357     102.05019450
H      63.19039384      92.90640515     101.08832381
C      59.41850012      94.07047656     101.77051500
H      57.99742593      92.72310170     101.12800807
C      58.63237397      95.18919454     104.37266815