 %block lattice_cart
   139.898   0.000   0.000
   0.000 144.87   0.000
   0.000   0.000   168.12
 %endblock lattice_cart

 %block positions_abs
N      94.43323898      46.50039608      86.78687507
H      94.43512871      44.64846429      86.32200240
H      93.57908269      46.49661663      88.49518766
H      96.22658925      47.11266740      87.00230387
C      93.09531275      48.14634770      85.03131933
H      93.59231077      50.07008908      85.57556051
C      93.65467174      47.77974079      82.24397302
H      92.72492639      46.10166383      81.50131058
H      95.66345081      47.35644210      82.07200792
C      92.91389902      50.09087607      80.74919950
H      90.85409734      50.08142745      80.70006662
H      93.61120803      49.81497604      78.83112729
S      94.00616083      53.03506968      81.90760173
C      92.99515725      55.23282138      79.54544384
H      94.04584508      54.69991855      77.85791824
H      93.29562374      57.13955522      80.26353984
H      91.03362134      54.71881581      79.18261639
C      90.27206164      48.06508946      85.69461326
O      89.21192518      46.09221519      85.52831735
N      89.02862172      50.20425966      86.07066880
H      89.80529924      51.93713868      86.26531061
C      86.29229802      50.37433502      86.22184690
H      85.44570063      48.81342109      85.17682825
C      85.70081369      50.14378842      89.07533364
H      86.23371651      48.23138538      89.62524399
H      83.69581407      50.23827472      89.54020631
C      87.03496046      52.16390585      90.74963115
O      87.63589343      54.29362740      89.95216665
N      87.11432897      51.68580508      93.16092193
H      88.40123259      52.49460794      94.31365498
H      86.47938093      50.08331718      93.98106315
C      85.17546977      52.87255321      85.10501865
O      86.48882956      54.37299590      83.96362396
N      82.76984818      53.29018272      85.36013171
H      81.70215281      51.83320373      85.97807221
C      81.38656851      55.53706732      84.66093297
H      81.57176169      55.67879679      82.61435937
C      78.71638523      55.05896655      85.40170569
H      78.22316667      53.29585190      84.45684253
C      78.05687075      54.56952743      88.23062598
H      77.80931660      56.30429619      89.31532888
H      79.51384974      53.31663889      88.97139869
H      76.29753555      53.50561152      88.35345819
C      76.70382671      57.27939498      84.74597065
H      77.24239871      58.99526647      85.75130505
H      74.84622574      56.68224145      85.40170569
C      76.56020751      57.99749096      81.95106544
H      75.63046216      56.31941400      81.20840300
H      78.42914683      58.35086979      81.15738039
H      75.53219640      59.77950288      81.85657912
C      82.37678510      57.98804234      86.06688935
O      82.49394813      59.86454056      84.82911861
N      83.17991878      57.93701972      88.47629040
H      83.47282636      56.27972975      89.37391039
C      84.14556893      60.13288171      89.82744471
H      82.80575297      61.69568537      89.73484812
C      84.36099773      59.52438983      92.58455540
H      84.70870737      61.30073257      93.56910281
H      86.04285415      58.36787732      92.86423490
C      82.15190767      58.22047867      93.88090765
C      80.54186085      59.75871589      95.25662841
H      80.80642254      61.75804634      95.55898462
C      78.39135231      58.50771708      96.37912584
H      77.15358157      59.64155286      97.53941779
C      78.11545227      55.80729817      96.51329641
H      76.66036301      54.88889118      97.61311712
C      79.68392511      54.35409863      94.99017700
H      79.89746418      52.32453257      94.89758041
C      81.60388704      55.59375909      93.61445624
H      82.69803858      54.30874520      92.46928210
C      86.67780219      61.12498801      89.04320829
O      87.27684543      63.34541644      88.67660139
N      88.28406956      59.23337197      88.61990960
H      87.75683592      57.45513951      89.06966446
C      90.68213225      59.53005900      87.22529158
H      91.88399818      60.87932360      88.21739789
C      92.17123658      57.02050246      87.47095600
H      91.34920564      55.75249611      86.07444825
H      91.98793313      56.14177974      89.32666724
C      94.98881851      57.28884360      86.90970728
H      95.34975624      58.66456435      85.41871322
H      95.75793712      55.42935291      86.46751133
C      96.33997283      58.43590747      89.18682749
O      96.92956744      60.74893248      89.29643162
O      96.37587763      57.11876824      91.24284972
C      90.29095890      60.34075160      84.41148910
O      91.48337620      62.14544023      83.53654581
N      88.54485179      59.22959253      83.06600396
H      87.45825916      57.86898958      83.84457120
C      87.86077086      60.10075636      80.48085837
H      89.43113343      59.96469606      79.15427049
C      85.86333015      58.17323552      79.66071715
H      84.10021550      58.37165677      80.70573580
H      86.71370699      56.29862701      79.73441647
C      85.07720400      58.69291026      76.88281947
H      86.56630834      57.98993207      75.64315900
H      84.92413617      60.70357905      76.46707968
S      82.11978232      57.02428192      75.95685357
C      82.45426388      57.03751001      72.63282499
H      81.27696439      55.66178924      71.65205703
H      84.30808539      56.23626604      72.23787219
H      82.33521112      58.95747194      71.89961118
C      87.05952691      62.95991226      80.43739466
O      87.79652017      64.45468578      78.73475125
N      85.67813697      63.79328157      82.56144704
H      84.85421630      62.51771632      83.71795954
C      84.72004573      66.35952990      82.55955731
H      84.37800527      67.10597179      80.66983100
C      82.03852409      66.52015665      83.92582943
H      82.02340628      68.46657474      84.60046173
H      81.90435352      65.23136329      85.52642762
C      79.84077239      66.10252712      82.05689011
H      78.26852010      66.28394085      83.37780880
C      79.82187513      68.29460964      80.26731929
H      80.74595129      67.61619790      78.55522725
H      80.71760540      69.98780442      81.02509954
H      77.87167757      68.75381314      79.78921854
C      79.44770932      63.55328633      80.91738514
H      78.08710637      63.36053424      79.38481710
H      78.93937294      62.35331012      82.51231415
H      81.21271369      63.11675956      79.95362472
C      86.74205288      68.20012334      83.71229036
O      86.92346661      70.35819078      82.67672034
N      88.64689701      67.32140060      85.12958510
H      88.41257095      65.56017567      85.82878383
C      91.09598231      68.63853983      85.73996670
H      90.69913978      70.55094286      86.39192227
C      92.43201881      67.35919512      87.94338758
H      94.38977527      67.99414316      88.02842526
H      92.48682088      65.35608523      87.45772791
C      91.36810290      67.78627327      90.46617220
H      89.43680261      67.07006699      90.54932016
H      91.43613305      69.76670644      91.02742092
C      92.93846547      66.42378059      92.50329717
H      92.22414892      67.11542043      94.30609607
H      94.84141986      67.20423756      92.40503140
N      93.02728260      63.52305071      92.57888622
H      94.34442184      62.77093964      91.41859427
C      91.41156660      62.09063817      93.88657683
N      89.76183553      62.95991226      95.50985173
H      89.05507789      61.81095867      96.85911632
H      89.34420602      64.80806460      95.73472916
N      91.64022349      59.69257547      93.82610559
H      90.62355073      58.72314588      95.11678866
H      93.23515250      58.83841917      93.21950344
C      92.88366340      68.88987343      83.41560333
O      94.57685818      70.53204560      83.54032527
N      92.32997359      67.74847874      81.23296944
H      90.84842816      66.55039226      81.30288931
C      93.82663683      68.19067470      78.86325264
H      95.67856862      68.94656523      79.35836094
C      94.33686294      65.63765446      77.63870999
H      92.47359279      64.82318241      77.30233871
C      95.57274395      65.96646683      75.00443151
H      94.24048689      67.03605192      73.85736764
H      95.82785700      64.20713163      73.96319231
H      97.45869081      66.74692380      75.29166991
C      96.04706525      63.93501104      79.25253626
H      95.66911999      64.10319669      81.26887424
H      97.98970390      64.53027484      78.90671635
C      95.94313030      61.10042157      78.75364852
H      93.94946904      60.63365917      78.99931294
H      97.10531199      59.95335771      80.01031651
H      96.48737148      61.12498801      76.76754616
C      92.48871060      70.06339347      77.13604279
O      93.77561422      71.74902934      76.20251799
N      90.10198627      69.75158863      76.64282422
H      89.08720324      68.21902059      77.15494006
C      88.42201958      71.60918960      75.42017130
H      89.05885734      72.21012257      73.55690116
C      85.81986644      70.37330859      74.94962945
H      84.34021074      71.79816223      74.79467189
H      85.45892872      69.07695634      76.50865366
C      85.91624249      68.56484052      72.67250924
O      87.01228375      69.41710707      70.73931922
O      85.07720400      66.34252236      72.76699556
C      87.89100648      74.04315709      76.92061399
O      88.16501680      76.06516424      75.85669808
N      87.29574269      74.09040025      79.33757395
H      86.98960703      72.42744109      80.22385559
C      86.38489461      76.41098416      80.71896388
H      86.37733571      77.94733165      79.34702258
C      83.81297710      75.80816146      81.90193255
H      82.86055504      77.25569182      83.01687108
H      83.99628055      74.05071599      82.96017929
C      81.75317542      75.40187031      79.92905828
H      80.13934915      74.47779414      80.81156047
H      82.36355702      73.99780366      78.54955807
C      80.81398144      77.99835426      78.79522249
O      78.90913732      79.20022020      79.81756443
O      82.01773710      78.96778387      76.97541606
C      88.01761815      77.34261924      82.82978817
O      87.75872564      79.63107780      83.36836017
N      89.89222665      75.86296353      83.76898215
H      90.11332463      74.15276121      82.95451011
C      91.73093035      76.57728007      85.74563587
H      92.28273043      78.50858037      85.28643238
H      93.38255115      75.35651688      85.59634750
C      90.43646783      76.53192664      88.24196433
O      88.45981410      75.44344429      88.68227056
N      91.72526117      77.67143161      90.13547010
H      93.39199978      78.56149270      89.87846732
C      90.59520484      77.74513094      92.66014445
H      88.59965385      78.21567279      92.47873073
C      90.95614256      75.19966959      94.03775494
H      92.84208942      75.13730862      94.86734479
H      90.59898429      73.68977827      92.68282117
C      89.03996008      74.66676677      96.19582238
H      87.37700093      75.69477790      95.54764626
C      88.57508741      71.72635263      96.34511076
H      86.97637895      71.00447718      97.42414449
H      90.20025204      70.66432645      97.03486087
H      88.43335794      71.03660252      94.41003102
C      89.56530400      75.60218130      98.89246183
H      87.81352770      75.28659700      99.92803185
H      90.22859793      77.54859940      98.75451181
H      91.05440833      74.55338319      99.85433253
C      91.81218858      79.99390526      94.23995565
O      94.08174988      80.40208613      94.58766529
N      90.06986092      81.24868352      95.51174146
H      88.22737777      81.16553556      95.02041262
C      90.62166101      83.26691123      97.38446024
H      92.67390378      83.41053042      97.48650546
C      89.60120880      85.88229244      96.44526626
H      89.52373002      87.06904056      98.12901240
H      87.73793865      85.51001636      95.64969148
C      91.58920088      86.85739123      94.60656256
H      91.90100572      85.68765063      92.94171367
H      93.28995456      87.18431388      95.72150108
C      90.71236787      89.45198544      93.65603022
H      92.33186332      90.41574586      92.82455064
H      89.91490336      90.41952532      95.28875375
N      88.86610526      88.91908263      91.60378744
H      88.67146345      87.05959194      91.22017300
C      88.06108185      90.47621711      89.85012143
N      88.52973398      92.93475104      89.72728922
H      88.34265107      94.12527862      88.24574379
H      89.44625124      93.83048132      91.14080450
N      86.89512072      89.65229643      87.74685604
H      85.56097394      90.78991167      86.99663469
H      86.87055427      87.78146738      87.36324160
C      89.58231153      82.79070019     100.07920996
O      87.53384821      81.73623291     100.60455387
N      91.15645355      83.70910718     101.84043488
H      92.52461540      84.87128886     101.18847930
C      90.97503983      83.03069543     104.50494898
H      89.46892795      81.64552605     104.73927505
C      93.49971418      82.07827337     105.67657930
H      92.97625999      81.77024798     107.64378439
H      94.82441233      83.64107703     105.45926077
C      94.40867254      79.68776959     104.48983117
H      94.56551982      79.89374975     102.44703703
C      97.14499624      79.19833047     105.40634843
H      97.84986415      77.46356172     104.54463324
H      97.26026954      79.12841060     107.46237066
H      98.27316285      80.79892866     104.76951067
C      92.75894147      77.31805279     105.40445871
H      93.17657098      77.15931578     107.41512751
H      93.75860669      75.67588062     104.66557572
H      90.92968639      77.27458908     104.45959555
C      89.98104379      85.05837177     106.33420405
O      89.21570463      84.44610044     108.45825643
N      89.96592597      87.54336187     105.74271972
H      90.81819254      87.89674069     104.07031193
C      88.76594977      89.71654713     107.08442540
H      88.33131271      89.12884225     109.01005651
C      90.73693431      91.87272486     107.02584388
H      91.22259397      92.35838451     105.08509496
H      92.37721675      91.15651859     108.04629609
C      89.85632185      94.43141428     108.48849205
H      89.11176968      93.66796485     110.25160670
H      88.39178396      95.40840278     107.41890696
C      92.30729688      95.96965150     108.92879828
H      93.22381414      96.78412354     107.27528776
H      93.65278201      94.92841230     110.08909024
C      91.47014812      98.22787444     110.44813824
H      90.68024252      97.54001406     112.22448097
H      89.89411638      99.14061225     109.48626754
N      93.51861144     100.01555553     110.89411365
H      93.16712235     101.37048930     112.19424535
H      93.82096765     100.98120568     109.27461820
H      95.16456306      99.11604581     111.24371302
C      86.36032817      90.56881370     105.74271972
O      86.29229802      90.26267803     103.37111320
N      84.48571967      91.70453921     106.98615963
H      84.70492792      92.05035913     108.84942978
C      82.27851933      92.58326195     105.68413820
H      81.32042809      91.01289938     104.75250313
C      80.28296835      93.71142855     107.67590974
H      81.42436304      95.01344998     108.79273799
C      78.30820435      95.33281373     105.98271496
H      76.73028288      95.92996725     107.16568363
H      77.63357206      94.23299302     104.37833732
H      79.29842094      97.01278042     105.31942102
C      78.98472637      91.53257412     109.18202161
H      80.43414645      90.23244241     109.85287445
H      77.84522140      90.56692397     107.76283715
C      77.21594254      92.43964275     111.23804384
H      76.72272397      90.84849319     112.44935840
H      75.64369025      93.45820523     110.38199782
H      78.34221942      93.61127306     112.50416047
C      82.92102628      94.35582523     103.47126869
O      83.66368872      96.45342143     104.06086330
N      82.56575773      93.63961895     101.02974229
H      81.88734599      91.88595294     100.71415800
C      83.18369824      95.29690893      98.83199059
H      84.17391483      96.94852973      99.56331467
C      85.15279306      93.83426076      97.11800883
H      86.65890493      92.90829487      98.17247611
H      86.07686922      95.15140000      95.83299493
C      83.87155862      91.69320086      95.61567641
C      82.91157765      92.24878039      93.23651098
H      82.95882081      94.17063205      92.55243005
C      81.80041858      90.36661298      91.76063473
H      80.84988624      90.88250826      90.02964543
C      81.90246380      87.81926191      92.65825473
O      80.84799651      85.97677876      91.19371683
H      80.34721904      86.74967682      89.63091317
C      82.99850506      87.18242414      94.99584618
H      83.21015441      85.23222660      95.55709489
C      83.96604493      89.21954911      96.44526626
H      84.92224645      88.80191960      98.19704255
C      80.74406157      96.25311045      97.48650546
O      78.79197429      94.99266299      97.34288626
N      80.93681365      98.64361424      96.74006356
H      82.53930156      99.55635204      97.23328213
C      78.85055580      99.83792126      95.26796677
H      77.08366170      99.13683280      96.05976209
C      78.82598936     102.69707717      95.29064348
H      77.56932136     103.61170471      93.93948917
H      80.74217184     103.36981975      94.95427220
C      78.14001871     103.77611090      97.90224525
H      79.62912304     103.36981975      99.26662764
H      76.40336023     102.91250597      98.59199535
C      77.91136182     106.63148736      97.61122739
H      76.58099450     107.49131283      98.92836663
H      77.05153635     107.20785388      95.82921548
C      80.51918414     107.73697725      97.71138289
H      81.83443365     106.74865039      96.47550188
H      81.06531504     107.37226007      99.66347017
N      80.59855264     110.59046398      96.99517662
H      82.40135154     111.19517640      96.82321152
H      79.73116826     111.64493126      98.32743367
H      79.84455184     110.79833388      95.25473868
C      79.05275652      98.78723343      92.49762799
O      81.01051298      98.94786017      91.22962163
N      77.05342608      97.76489150      91.46394770
H      75.48306351      97.49088118      92.51463553
C      76.86823290      96.72743175      88.91848635
H      78.58032494      95.59737541      88.73707263
C      74.42292705      95.15517946      88.79754387
H      72.72595282      96.27578716      89.12257680
H      74.43426541      93.83992994      90.38113452
C      74.22450579      93.51300729      86.54876956
O      75.59266764      91.55336110      86.55821819
O      72.84311585      94.12716835      84.78565491
C      76.84555618      98.80991015      86.87758194
O      76.48839791     101.01333103      87.39725667
N      77.24239871      97.98409975      84.45495280
H      77.69782275      96.15673440      84.13747878
C      77.00240347      99.65461781      82.36491550
H      78.18348241     101.25710572      82.90159777
C      77.68648439      98.49054640      79.82701306
H      77.08933088      99.85303907      78.40026970
C      80.68170060      98.07858606      79.43772944
H      81.63034321      99.89461305      79.25442599
H      81.22594178      97.09970783      77.71051959
H      81.42247331      97.11104620      81.09879887
O      76.40336023      96.06602754      79.40749382
H      75.03897783      96.54034884      78.31145256
C      74.26796949     100.84892484      81.95106544
O      74.19804962     102.96919776      80.99486392
N      72.24407261      99.53745478      82.97151765
H      72.43304524      97.67418463      83.34568346
C      69.79309758     100.68640838      83.43450059
H      69.66648592     102.06779831      81.91138118
C      67.51030820      98.84770467      83.41749306
H      65.72451683      99.82280345      83.74441571
H      67.56322053      97.51355790      84.98596590
C      67.25330542      97.10726674      81.10257832
H      65.58089763      96.00177685      81.56934072
H      68.92193375      95.98665904      80.65093373
C      66.58623203      98.66818067      78.62892658
O      68.46461999      99.15384034      77.16060923
O      64.31100155      99.20108349      78.10358266
C      69.66648592     102.26999903      85.83823246
O      67.67471439     103.07124298      86.65837368
N      71.71494924     102.75754841      87.16293061
H      73.42515156     102.04512159      86.70561684
C      71.73384651     104.22019658      89.49674261
H      70.63402579     105.93228862      89.17926858
H      73.62735227     104.69262816      90.15247764
C      70.47528878     102.86904227      91.82866488
O      70.19749901     103.98398079      93.86578984
N      69.59467632     100.49743574      91.64914088
H      69.90837089      99.72642741      89.93137966
C      68.70083577      99.06502320      93.88279738
H      67.67093493     100.29523503      95.17537018
C      66.85835262      97.09970783      92.63935746
H      65.95506344      95.97721040      94.11334399
H      67.95250415      95.76934051      91.51308058
C      64.61335776      98.14283676      91.05954627
C      63.86880559      96.64239407      88.95817061
H      64.89870643      94.92085339      88.58022534
C      61.56900867      97.27923183      87.72795878
H      60.76776471      96.22665428      86.17082429
C      60.24997970      99.41462257      88.51975410
O      58.15427322     100.06468842      87.24796829
H      57.17917444     101.50843932      87.75819440
C      60.96807570     100.95474951      90.54365098
H      59.85691663     102.54778879      91.17104012
C      63.22629865     100.27633777      91.75307582
H      63.91793848     101.44040917      93.27997468
C      70.69260731      97.59670585      95.47394693
O      72.76941653      97.05057495      94.48373035
N      70.45450179      97.25088594      97.93626032
H      68.69894605      97.60237503      98.59955426
C      72.30832331      96.10760152      99.51418179
H      74.16403455      96.79546190      98.94348444
C      71.97573148      96.71798312     102.33365345
H      72.74296036      95.17596645     103.46559951
H      69.98773939      96.26066935     102.62656103
C      72.62390760      99.40328421     102.99127821
C      70.69827649     101.31568724     103.22560427
H      68.78965291     100.69396728     102.85332819
C      71.33889371     103.66461704     104.11377564
H      69.96695240     105.07246315     104.67313463
C      73.89758314     104.25421165     104.71470860
O      74.54009008     106.37826404     106.00728140
H      73.15492069     107.42706213     106.53073559
C      75.78919917     102.52700180     104.10999618
H      77.78097071     102.94274160     104.24983593
C      75.11834633     100.14972610     103.21993509
H      76.53942052      98.76077727     102.75128296
C      72.36690482      93.22954834      99.25528929
O      70.32411068      92.03335159      99.44993110
N      74.66481202      92.19397833      99.25717901
H      76.23328486      93.27868123      99.33654752
C      75.24495800      89.68631151      98.47105287
H      73.56310158      88.49767366      98.52018575
C      76.26729993      89.83182043      95.76307506
H      78.18915159      90.56692397      95.76685451
C      75.90636221      87.40919130      94.44215637
H      76.27296911      87.54525160      92.41825949
H      74.06954823      86.66085968      94.99584618
H      77.15358157      86.02780137      95.32087910
O      74.90669699      91.50044877      94.27397072
H      75.63046216      93.12750312      94.61223173
C      77.20082473      88.49956338     100.18314491
O      78.76929757      89.81859235     101.20737657
N      77.50696039      86.01079384      99.89590651
H      76.28241774      84.95065737      98.88301320
C      79.81809567      84.54814566     100.86155665
H      81.53585689      85.55348006     100.33432301
C      79.76518334      84.43476208     103.78118381
H      78.92047568      86.19031783     104.44447774
C      78.06065020      82.27102546     104.67124490
H      78.52363315      80.48712382     103.74905846
H      76.04809168      82.61684537     104.40290376
H      78.48394890      82.05937611     106.67624452
C      82.45804333      84.31192987     104.91124014
H      83.58243049      85.69709926     103.88133930
H      83.25361811      82.41275493     104.87722507
C      82.58654472      85.16230671     107.69669673
H      81.36767125      84.18531821     109.04029213
H      82.05364190      87.15218852     107.63622548
H      84.56130872      85.13585055     108.28440161
C      80.00517858      82.15575215      99.39323931
O      78.54819959      81.41497945      97.82665619
N      82.23127618      80.98034239      99.71071333
H      83.57109213      81.89685966     100.71415800
C      82.91724683      78.56716188      98.53719329
H      81.85333091      77.06293974      99.45560027
H      84.86555466      78.21189334      99.10411118
C      82.79063516      78.34606390      95.71016272
O      83.76573394      79.89563948      94.37979540
N      81.84766173      76.18988618      94.85033725
H      81.11066847      75.01069696      96.15802786
C      80.67603142      76.05004643      92.30298618
H      81.84010283      77.07616782      90.94805241
C      80.67225197      73.25703094      91.36757166
H      79.19448599      72.41610273      92.52786361
C      80.16391559      73.05105077      88.36668627
H      81.90246380      73.34017890      87.30088063
H      78.65213454      74.36630029      87.89614442
H      79.48550384      71.15376557      87.93960812
C      83.20637495      71.98335541      91.79653953
H      83.21393386      71.66777111      93.83366449
H      84.68792038      73.32128164      91.29954151
C      83.50684144      69.37742282      90.56632770
H      85.12822661      68.47224393      91.45449907
H      84.08131824      69.54560847      88.59345343
H      81.81364666      68.20201306      90.52853317
C      78.15324679      77.53348159      92.17259506
O      76.23895404      76.38074854      92.10645464
N      78.32521189      80.06193540      91.83433405
H      80.05998064      80.84428209      91.96472517
C      76.17092389      81.56048836      91.00852366
H      75.46038680      80.73089851      89.26241654
H      76.56398696      83.56170853      90.72884416
C      73.76341257      81.32238286      92.57321704
O      71.68471362      82.03103022      91.74362719
N      73.87868587      80.56649232      95.06576605
H      75.63613134      80.60239712      95.81031822
C      71.66581636      80.26413611      96.70604849
H      70.35623602      79.29092706      95.45127022
C      72.07021779      78.62574340      99.08899337
H      73.59144747      79.43832571     100.21527025
H      72.86579257      76.89286437      98.30286722
C      69.75719278      78.26669540     100.57998743
N      67.91659935      76.35807182     100.29652848
H      68.01297540      75.04660176      98.91135910
C      66.20450732      76.70956092     101.99539244
H      64.49430500      75.59273267     102.02751779
N      66.76386630      78.82605439     103.35032621
H      65.86057713      79.53281203     104.87344561
C      68.93516184      79.78036617     102.49428019
H      69.78364895      81.54159110     103.08387480
C      70.64536415      82.89463514      97.47894655
O      71.88124516      84.15130314      99.02285295
N      68.39658984      83.51824482      96.62667998
H      67.66337603      82.32393779      95.33221746
C      67.20795199      85.92953560      97.04808895
H      68.68760769      87.30147691      96.63801834
C      64.94594959      86.05425753      95.21127498
H      63.99541726      84.25334836      95.53252845
H      65.67538395      86.36606238      93.31021030
C      63.12803288      88.21799416      96.10511552
H      62.52143073      87.69265025      98.00429047
C      64.22218441      90.87872881      95.81031822
H      62.92583216      92.34137698      96.46227380
H      64.97240576      91.10360624      93.90547409
H      65.77742917      91.13006241      97.13879582
C      60.76398526      88.20665580      94.59144475
H      59.34102135      89.51812587      95.29631266
H      59.91549815      86.33960621      94.80876327
H      60.95862707      88.63940313      92.58833485
C      66.40481830      86.03347055      99.80708937
O      65.34657157      84.22122301     100.74250389
N      66.85457317      88.16130237     101.18281012
H      67.86557674      89.57292793     100.39290453
C      66.18183060      88.50334284     103.88889821
H      65.33523321      86.79503026     104.66557572
C      68.57044466      89.36316831     105.51406283
H      68.06966719      90.01701361     107.40189942
H      69.83089211      90.68975618     104.56919968
C      70.41481754      87.07470974     105.75972725
H      70.40914836      85.87662326     104.08354002
C      73.04153712      87.97988865     106.51561778
H      74.17915236      86.32637812     106.98993908
H      72.98106587      89.07215046     108.25794544
H      74.09600440      89.15907787     105.19469909
C      69.41515232      85.13018137     107.66835083
H      69.15625982      86.00323493     109.51650317
H      70.81166007      83.62406950     107.80252140
H      67.55377190      84.39696756     107.18458089
C      64.05021932      90.46487876     104.09487837
O      62.23230261      90.09827184     105.49138612
N      64.05777822      92.63995373     102.70403981
H      65.54310311      92.87994898     101.52863004
C      61.97907928      94.46542935     102.69837063
H      60.13281667      93.55458127     102.76640078
C      62.26253823      96.09626316     105.20036827