 %block lattice_cart
   139.898   0.000   0.000
   0.000 144.87   0.000
   0.000   0.000   168.12
 %endblock lattice_cart

 %block positions_abs
N      92.37438216      47.69659283      87.32261248
H      90.88716754      46.54952897      87.66276322
H      93.21531036      48.11611207      88.98368191
H      93.46286452      46.68180981      86.12641573
C      91.50510805      49.98694113      85.78248554
H      92.39894860      51.55919342      86.77081240
C      92.52367054      50.10977333      83.03482348
H      91.65250671      48.62066900      81.90665687
H      94.57402358      49.91891098      83.00836731
C      91.81313345      52.71948537      81.80461165
H      89.75522148      52.80830252      81.74225068
H      92.71453289      52.57775590      79.95645931
S      93.14539049      55.52005978      83.27103927
C      91.20086212      58.05985193      82.10885758
H      89.26389264      57.35498403      82.11830622
H      91.84336906      58.33764171      80.17188811
H      91.50888750      59.80217959      83.16521459
C      88.67618777      50.18536239      85.96011981
O      87.43085812      48.42224774      85.11163270
N      87.71620680      51.82942429      87.53804128
H      88.93885972      53.12766627      88.22023248
C      85.00255981      52.11666269      88.13897425
H      83.74211236      51.03573924      86.92010078
C      84.58304057      51.04518787      90.79403972
H      85.44664549      49.17624854      90.85451096
H      82.58559985      50.76172891      91.21166923
C      85.82270103      52.56452782      92.99557087
O      86.45953879      54.80574323      92.95021744
N      86.65984979      51.26817556      94.96088624
H      87.86171572      52.20925928      96.10983984
H      85.98899694      49.57687051      95.54103222
C      84.02179186      54.79629459      87.76291871
O      85.46932222      56.58586542      87.41331934
N      81.51223531      55.05518711      88.01047286
H      80.43131185      53.53584714      88.42621265
C      80.07037414      57.36065320      87.87252284
H      80.26501594      57.94835809      85.90720747
C      77.21121822      56.84286820      88.21645303
H      77.14507780      55.01550285      87.27347960
C      76.46855579      56.53295308      91.00757879
H      74.43521026      56.43090786      91.32127336
H      77.16964425      58.13922044      92.08850224
H      76.97500243      54.70558774      91.81260220
C      75.36306588      58.78550685      87.06371998
H      76.08116189      60.55240095      87.84039749
H      73.39019161      58.41512049      87.52859265
C      75.49345700      58.91211851      84.22346133
H      75.89407898      57.02428191      83.50536533
H      76.99767915      60.27461117      83.87386196
H      73.74357044      59.52061037      83.32206188
C      80.98689139      59.61509669      89.42587787
O      80.54847489      61.81473812      88.81171682
N      82.23222104      58.99337673      91.52158435
H      82.47221627      57.14900385      91.95055222
C      83.10527459      60.92467703      93.26580174
H      81.56514764      62.26827244      93.50957643
C      83.52857328      59.85320221      95.82638089
H      83.86116512      61.44246203      97.09627697
H      85.19153245      58.64755683      95.98133845
C      81.53680175      58.30362664      97.12462287
C      79.03480411      59.00093564      97.12651259
H      78.25245742      60.53728314      96.03425078
C      77.16208534      57.54395666      98.30948127
H      75.25913094      58.27528074      98.43798265
C      77.82726901      55.15534260      99.32048484
H      76.44398933      54.05930134     100.34849596
C      80.29147212      54.38433426      99.10883550
H      81.05492154      52.79318471     100.12928770
C      82.09616074      55.96414546      98.06948602
H      83.97643842      55.16857067      97.99767642
C      85.22365779      62.48181151      92.17542965
O      85.32381328      64.81562350      92.00346456
N      87.02645670      60.97947910      91.16442608
H      86.72976966      59.10109113      91.34017062
C      89.28278990      61.94134978      89.80193340
H      90.06891605      63.49470481      90.90553357
C      91.30290733      59.87209947      89.87752246
H      90.97787442      58.53417324      88.34684414
H      91.35204022      58.82897054      91.65197546
C      93.95986253      61.03239143      89.46556212
H      94.02411323      62.03394637      87.66843240
H      95.24865589      59.53005901      88.88919559
C      95.35259082      62.14544023      91.54237134
O      94.51355234      61.88654772      93.81571209
O      97.34058290      63.46824865      91.07938839
C      88.59492954      62.81251362      87.16387547
O      89.70608860      64.62287142      86.38152878
N      86.67307787      61.77505387      85.93555337
H      86.25166891      59.97414469      86.39664659
C      85.91907707      62.51582658      83.37497421
H      87.41951976      61.87142992      82.12208567
C      83.45298424      61.11742912      82.61719396
H      81.89207029      61.89032717      83.71890440
H      83.62305961      59.13132675      83.13686870
C      82.84827182      61.09286267      79.67111064
H      84.60193784      60.80373454      78.62798172
H      82.41741422      63.06195749      79.24025304
S      80.24422895      59.13132675      78.75270365
C      80.44076050      58.85353699      75.46835932
H      78.89307464      57.78017244      74.63687974
H      82.23411076      57.96914508      74.97136130
H      80.46532694      60.69979960      74.55184206
C      85.62050031      65.39199003      83.12742007
O      86.80913817      66.40866278      81.46068146
N      84.23155148      66.58818679      84.84707101
H      83.39062326      65.52238114      86.18877669
C      83.43597669      69.20545774      84.63542166
H      83.23377598      69.66088178      82.63609123
C      80.89618454      69.79694206      86.00358352
H      80.86972836      71.81705949      86.40798495
H      80.78658040      68.62153230      87.68921939
C      78.54536499      69.02782346      84.53526617
H      77.08460655      69.45868105      85.92232528
C      78.08427177      70.52259697      82.07295278
H      77.32082234      72.42177191      82.31294803
H      76.60839552      69.53993930      81.02226495
H      79.68864941      70.62464220      80.78604916
C      78.24867796      66.24992578      84.09307021
H      76.30414959      65.68867707      83.70945577
H      78.76079379      65.22569411      85.80516225
H      79.37306512      65.66033117      82.47357476
C      85.46176331      71.10463268      85.54626975
O      85.63750785      73.16821382      84.42188259
N      87.25889302      70.25992501      87.17143438
H      86.80346898      68.61397339      88.02748040
C      89.54735160      71.67910947      88.02181122
H      88.86705012      73.54993852      88.55471404
C      90.76244561      70.33362435      90.22145265
H      92.54823698      71.22935462      90.73167875
H      91.27267172      68.38342679      89.79815395
C      88.91051383      70.13898253      92.33416666
H      87.44975539      68.71790835      92.02992073
H      88.06391643      72.01359103      92.46455778
C      90.15584347      69.43978380      94.93631980
H      88.71776174      70.11441608      96.25156931
H      91.68652178      70.65676755      95.59016510
N      90.73221000      66.69401147      95.07804927
H      92.37438216      65.96646684      94.43743205
C      89.44908582      64.95735298      96.54069744
N      87.34393071      65.43167428      97.67075377
H      87.01133888      64.08996860      98.98600329
H      86.40095729      67.06061837      97.35894893
N      90.32591883      62.65944579      96.79203104
H      89.49443926      61.31774010      97.86161613
H      91.92651702      62.17189639      95.87551377
C      91.41629091      71.89642800      85.82216979
O      92.50099382      73.97323722      85.75602937
N      91.83203070      70.03504759      84.17621817
H      90.78512233      68.45712611      84.41810314
C      92.99610211      70.36385996      81.55705750
H      94.73276060      71.42210669      81.88020070
C      93.90128101      67.79950135      80.33062512
H      92.23265269      66.83196148      79.60497022
C      95.57179908      68.17177743      77.94956997
H      94.91606404      69.82528797      76.91211022
H      95.57746825      66.54661282      76.68345334
H      97.50876855      68.50436927      78.56751047
C      95.17306683      65.93434149      82.08807059
H      94.08647419      65.78505311      83.83228798
H      97.12326438      66.24992578      82.66821657
C      95.00488118      63.23770203      81.08273620
H      95.79100733      61.96780596      82.50003093
H      96.21997520      63.10353146      79.42544622
H      93.05657335      62.73125538      80.64620942
C      91.33881213      71.75280881      79.87709081
O      92.27233693      73.45923167      78.63365089
N      88.91618300      71.10274295      79.58607296
H      88.52500965      69.48513722      80.52526693
C      87.41951976      71.85863348      77.26359932
H      88.83114532      71.83973621      75.76315662
C      85.20665025      70.00670168      76.75904239
H      83.49077876      70.88353470      76.03338749
H      84.62083509      69.05050017      78.48625224
C      86.00222504      67.97524591      74.96380239
O      87.22865741      68.61775285      73.00982539
O      85.16129682      65.79450173      75.30962231
C      86.39528810      74.56472156      77.23525342
O      86.57481211      75.70989571      75.16222366
N      85.91529762      75.70233680      79.38765169
H      86.18741821      74.70834075      80.99580879
C      85.54491126      78.45377830      79.76370723
H      85.59971332      79.52714285      78.00437203
C      82.82181564      78.76747288      80.81250533
H      82.76701359      78.56905162      82.86285838
H      81.60105244      77.46923090      79.78071477
C      81.86372440      81.57938563      80.04527645
H      82.29458200      81.73245346      78.03649738
H      82.85583071      82.96077557      81.20745813
C      79.20865893      81.98189734      80.98636015
O      77.42664702      80.42287312      80.56873064
O      78.82693423      83.86595446      82.32239666
C      87.33259236      79.68021068      81.79705274
O      88.03179109      81.88930074      81.54004996
N      87.95620203      78.32527691      83.84929552
H      86.98866216      76.69255338      84.03448870
C      89.33192279      79.24179419      86.16232053
H      89.90073041      81.21277872      85.99602461
H      90.91173399      77.95300084      86.46656646
C      87.79935475      79.08872634      88.70022296
O      85.60538250      78.44999885      88.66242844
N      88.85949121      80.11295802      90.79403972
H      90.58103188      80.88207662      90.49357323
C      88.10549041      79.93154429      93.35461887
H      86.05891682      80.11106828      93.21855858
C      89.17507552      77.42387747      94.60183824
H      91.20842103      77.35017815      94.28436422
H      88.12249796      75.82516900      93.84216826
C      88.52123020      77.29348635      97.38540510
H      89.30357689      78.96967359      98.29625318
C      85.67341265      76.96089452      97.80114489
H      84.52823850      78.36307145      96.82226666
H      85.25011395      77.15742606      99.80803423
H      84.94964748      75.06927849      97.42319962
C      89.77033929      75.00880724      98.73844914
H      88.74799737      73.25703094      98.38318059
H      89.65695572      74.99368942     100.79636109
H      91.75455192      74.81983461      98.22066413
C      88.86893984      82.35039396      94.76246498
O      90.99677167      83.25746259      94.47333685
N      87.18519370      83.50879620      96.40274742
H      85.49577837      82.63574263      96.54258716
C      87.61227185      85.45143484      98.26979701
H      89.66640435      85.55914924      98.36617305
C      86.51623058      87.97610919      97.41942017
H      86.61449635      89.25734364      99.03135672
H      84.58304057      87.48289063      96.91108379
C      88.06013698      89.21576967      95.36339794
H      88.84248367      87.85894616      94.02547171
H      89.52845433      90.28913421      96.32904809
C      86.27056616      91.03935555      94.07460460
H      87.20031151      92.67774826      93.23745584
H      84.80035910      91.47210287      95.45032535
N      84.70209332      89.91307868      92.09606115
H      84.60193784      88.01390373      91.93732414
C      83.50211712      91.19242339      90.24790881
N      83.44353560      93.61883198      89.97767795
H      82.41930394      94.26133892      88.50180170
H      84.63784263      94.76400612      90.92632056
N      81.99411552      90.00945472      88.75880448
H      80.78469068      90.89951580      87.57961526
H      82.15096281      88.14429484      89.12730111
C      86.66362924      84.43287237     100.80014055
O      84.80602827      83.00234954     100.92297276
N      87.74644241      85.42686840     102.83348606
H      88.75555626      87.01423851     102.51034286
C      87.50833690      84.78247174     105.49422071
H      86.10993944      83.27824958     105.62650155
C      90.09348249      83.75068117     106.25955986
H      90.21820443      83.37840508     108.28156702
H      91.42196010      85.26246221     105.81925363
C      90.99677167      81.27324996     105.02367886
H      90.88338809      81.42820753     102.97332581
C      93.69719058      80.70444234     105.97610092
H      95.17117710      82.05181720     105.46965427
H      94.64205373      79.34194967     104.75344799
H      93.80112553      80.21500324     107.97165190
C      89.41507075      79.00179894     105.88917351
H      89.10137618      78.84495165     107.91873957
H      90.35804418      77.34261924     105.11249599
H      87.48754991      78.98290167     105.16351860
C      86.47465661      86.79125081     107.27623262
O      86.58426073      86.48889460     109.53823502
N      85.62239005      88.80380933     105.99499818
H      85.70931745      88.96632579     104.09582324
C      84.82870500      91.02801719     107.39150593
H      84.19564668      90.78046305     109.33603430
C      86.92819092      93.02167845     107.53512513
H      86.31969906      94.96053765     107.87716559
H      87.56691842      92.98766338     105.57736867
C      89.07114057      92.54168798     109.42107199
H      90.17663046      90.87116991     108.93352260
H      88.13383631      91.94453445     111.15395101
C      90.97976413      94.81313901     109.84248095
H      89.90262014      96.25877962     110.83647699
H      91.55235121      95.70697954     108.07747658
C      93.21908981      93.89284229     111.48465312
H      94.25277012      92.51145235     110.36026596
H      92.57658287      92.91585378     113.17973762
N      94.87071062      96.10571179     112.28400735
H      96.29367454      96.44586254     111.05568525
H      95.87793475      95.53312472     113.79956785
H      93.81813306      97.64205929     112.70919577
C      82.45898819      92.11649955     105.96476256
O      82.14151417      91.57036865     103.69898071
N      80.98122222      93.56591964     107.29135043
H      81.41207981      94.03079231     109.09036988
C      78.58126979      94.59959993     106.19908862
H      77.75167995      92.86294144     105.46020563
C      76.85217023      95.45375623     108.30613346
H      77.68364980      97.08459003     109.25288634
C      74.36718013      96.36082486     107.20820247
H      74.63552125      98.00866619     106.00633654
H      73.08972514      97.08459003     108.65384310
H      73.45255259      94.74321912     106.32192083
C      76.35895165      93.22198944     110.24688238
H      78.15608137      92.64751265     111.07269278
H      75.47267002      91.82548170     109.02045001
C      74.50701986      94.06291766     112.36526558
H      72.51713806      94.04024093     111.83236276
H      74.91520076      95.97721040     113.00210335
H      74.60339591      92.52279071     113.73153771
C      79.13495961      96.55168721     104.07692597
O      80.21210360      98.57936355     104.60982879
N      78.57749035      95.81280421     101.71854753
H      77.47389018      94.26511837     101.53902353
C      78.85528011      97.43796885      99.48678076
H      79.56392748      99.34848215      99.77968834
C      80.51257010      96.08492480      97.65563596
H      82.40607585      95.62761105      98.32270935
H      81.01334757      97.40206405      96.15519327
C      79.51290488      93.70764911      96.34227617
C      78.33371565      93.83615049      93.95366211
H      78.14474302      95.67107474      93.07682910
C      77.56837649      91.69887003      92.57416191
H      76.93531818      91.98610844      90.65419997
C      77.86695325      89.34994023      93.57193740
O      76.98256133      87.32604334      92.18298856
H      76.03958790      87.83815917      90.72034039
C      79.24078428      89.08537854      95.89252131
H      79.31259388      87.26368238      96.80903857
C      80.05525632      91.29635834      97.31548522
H      80.82626465      90.99211239      99.18064510
C      76.11706668      98.00677647      98.47010800
O      74.21600201      97.36237980      99.53780337
N      76.09061052      99.58280822      96.54825634
H      77.62695801     100.56168644      95.97755900
C      73.74734989     100.48231793      95.42575891
H      72.12218526      99.81524455      96.49912346
C      73.53003136     103.29989987      95.37284657
H      71.94833044     103.83091297      94.16909091
H      75.00401788     104.07846711      94.16153201
C      73.32027174     104.55278842      97.88240312
H      74.93409801     104.13704863      99.09371769
H      71.71211465     103.59091772      98.73844914
C      72.70800041     107.36659090      97.71043802
H      70.89008370     107.66327792      96.78636186
H      73.93632253     108.36625611      96.39518851
C      72.74201550     108.77254727     100.23322265
H      74.53725549     108.48719861     101.20076252
H      71.19999882     107.77099233     101.16107827
N      72.23178938     111.41816411     100.21054594
H      73.77758551     112.52743345     100.03858084
H      71.34172829     112.08523751     101.76201124
H      71.34739748     111.90193404      98.58916076
C      73.38830189      99.22942940      92.83116468
O      75.23456450      99.17840678      91.34017062
N      71.16031456      98.41306762      92.10928923
H      69.76002737      98.44708270      93.40564148
C      70.60284530      97.72520725      89.45611349
H      72.01069140      96.26066936      89.10462439
C      68.08006067      96.52712077      89.36918608
H      66.55127210      97.89339290      89.57894570
H      67.85896270      95.40462333      91.08127812
C      67.42810510      95.18352536      86.88986516
O      65.68766716      96.01878439      85.59351291
O      68.70178064      93.32970385      86.13586436
C      70.90898096      99.93429731      87.64008650
O      71.22078581     102.12260037      88.34495442
N      70.76914122      99.49210135      85.14375804
H      70.52914598      97.72520725      84.46723602
C      70.16442881     101.40261466      83.26725981
H      71.48534749     102.98242586      83.28615708
C      70.43088022     100.41806725      80.53471557
H      69.55782665     101.83914143      79.32529072
C      73.11807103      99.44674792      79.84307573
H      73.13885801      98.37905255      78.08185081
H      73.86073346      98.17496211      81.28304719
H      74.28592188     101.14183242      79.80717093
O      68.64508885      98.53212039      80.14165249
H      69.44255334      96.94664001      80.52904639
C      67.59062156     102.71408472      83.79260373
O      67.46589962     104.96663849      83.28993653
N      65.59696030     101.50088042      84.62408331
H      65.50058426      99.60359521      84.81683539
C      63.19889761     102.91061626      85.37619438
H      63.01748388     104.51121443      84.09307021
C      61.07484523     100.98687487      85.11541215
H      59.43834224     101.94685584      85.91854583
H      61.52082064      99.22564994      86.08673147
C      60.12053344     100.30468366      82.50192066
H      61.78727205      99.70375069      81.44934310
H      59.13031685     101.88449486      81.62697737
C      58.35552907      97.99732783      82.61341451
O      59.18889837      95.86760628      81.96712811
O      56.00659926      98.16740320      83.04616184
C      63.43322367     104.06523903      88.13897425
O      61.63987340     104.58491377      89.45800322
N      65.66688017     104.39216168      89.17643399
H      67.10685162     104.24098358      87.93488381
C      66.36607892     105.36915018      91.71244671
H      65.45712055     107.19084635      92.03370018
H      68.40131415     105.68851394      91.75968986
C      65.95222884     103.82146434      94.05759706
O      66.39253508     104.77388640      96.15330354
N      64.79382662     101.56702085      93.79114565
H      64.49902932     100.80546114      92.06393580
C      63.83762510     100.11949049      96.01724325
H      62.92677702     101.56324140      97.16997630
C      61.98002413      98.09559361      95.24056573
H      61.14287538      97.25466539      96.92431188
H      62.89843112      96.66696051      94.07460460
C      59.55172582      98.93652181      93.77224839
C      58.94512368      98.20708745      91.22300759
H      60.06762111      96.96742700      90.05515673
C      56.80028431      99.33147461      90.13641496
H      56.33730136      98.71164438      88.24668865
C      55.17889913     100.95097007      91.43843639
O      53.03217004     101.75032430      90.20444511
H      51.84920137     102.58180387      91.30048637
C      55.72880949     101.77111128      93.89886005
H      54.38143463     102.95596968      94.87206910
C      58.03427559     100.70341591      95.00057049
H      58.63142911     101.45552699      96.80147967
C      66.02214872      98.76833618      97.44020716
O      67.61896745      97.50221955      96.13818573
N      66.01458981      98.68707794     100.03102194
H      64.67855331      99.72453769     100.91541385
C      68.02903806      97.55324215     101.44264749
H      69.75435820      98.48487722     100.80958918
C      67.93077229      98.47164914     104.28290614
H      69.24035263      97.22442978     105.27312273
H      66.04860489      98.23732308     105.08226037
C      68.84351010     101.14372214     104.67974867
C      67.17866122     102.97486695     105.64350909
H      65.26058901     102.55345797     106.19530917
C      67.98935381     105.45418786     106.11027149
H      66.91409954     106.81668054     107.18363603
C      70.49324118     106.14582770     105.28824054
O      71.60062079     108.31145406     105.92507831
H      70.47056446     109.32812681     106.91340517
C      72.04659620     104.29767537     104.30558286
H      73.81915950     105.10458851     103.69898071
C      71.43243516     101.73898593     104.06558761
H      72.66642644     100.44641314     103.07915048
C      68.26714358      94.69030678     101.18564471
O      66.53804400      93.29568878     101.77145987
N      70.44032884      93.79079706     100.51290215
H      71.86518248      95.04746507     100.33715760
C      71.12818922      91.16407749      99.72299655
H      69.52192185      89.99433691     100.25967882
C      71.18299128      91.25667408      96.82037693
H      72.77225111      92.40751740      96.19109807
C      71.18866046      88.55814491      95.52213495
H      69.47845814      87.50934681      95.99078708
H      72.82894290      87.49989816      96.17786998
H      71.24157279      88.62806478      93.46422300
O      68.85484847      92.20909614      95.87740350
H      69.13263824      93.98732860      96.10795011
C      73.56593616      90.22488351     100.72455149
O      75.17409326      91.68564195     101.39351461
N      73.98734513      87.78524684     100.87572960
H      72.60973465      86.67597750     100.15196442
C      76.38540782      86.58905008     101.72799617
H      78.02946972      87.69831944     101.17430636
C      76.34572357      86.57204254     104.66463086
H      75.69376800      88.38051064     105.40162412
C      74.33505478      84.59349909     105.47910290
H      74.96244390      82.73211868     104.86116239
H      72.64186000      85.03002588     104.38684109
H      73.97978622      84.61806555     107.50677923
C      78.80614723      85.80670339     106.06302833
H      80.45965775      86.68353641     105.20320286
H      79.38062403      83.83760857     105.87594542
C      78.94787670      86.62306516     108.83336710
H      80.79980850      86.41519526     109.71397956
H      77.60428129      85.46466292     109.88027548
H      78.30348004      88.57704216     108.89194862
C      76.64052087      84.02280175     100.44676173
O      74.66386715      83.00612900      99.68520202
N      78.88740547      83.00990845     100.11416989
H      80.55792353      83.91130791     100.29369389
C      79.12551097      80.28303338      99.50378830
H      77.49089771      79.36273666     100.35605486
H      80.85083110      79.30982432     100.07070619
C      79.09716509      80.04492787      96.57660224
O      79.70754668      81.77591717      95.13285133
N      78.26190605      77.70922615      95.94543365
H      77.91041695      76.46767596      97.35327975
C      77.30948399      77.11018290      93.35839833
H      78.44709923      78.12685565      91.97322894
C      77.26602028      74.25669616      92.66675849
H      75.88085090      73.33828917      93.88374224
C      76.63107224      73.96756805      89.98523686
H      77.61939910      75.35462716      88.82683463
H      74.58449864      74.05260573      89.77358751
H      77.33216071      72.20823284      89.17265454
C      79.80014327      73.02648433      93.23934557
H      79.86817342      71.02148471      92.77447289
H      80.14596318      73.10585284      95.26702190
C      81.91663675      74.16220985      91.67087273
H      83.67597194      73.09640422      91.78803576
H      82.32481763      76.12374576      92.14141458
H      81.55569901      74.30771878      89.64697585
C      74.81693498      78.46322695      93.01257841
O      72.80437646      77.14986716      93.31682435
N      74.77914046      80.88207662      92.54581601
H      76.43265099      81.80237333      92.28503378
C      72.60406547      82.52613851      92.32849748
H      71.87841056      82.69810361      90.40853555
H      73.20688817      84.48389497      92.54014683
C      70.21923086      82.10850899      94.08216350
O      68.06305314      82.47133645      93.19210241
N      70.74268505      81.39986164      96.43487276
H      72.57005039      81.24679380      96.96210640
C      68.64697857      81.16742529      98.36995251
H      67.05771874      80.36429162      97.33438249
C      69.48412733      79.43643600     100.57715284
H      71.05826934      80.27169502     101.60894341
H      69.85262395      77.60907065      99.70409928
C      67.42054619      79.10951334     102.62561616
N      65.66499045      77.23301512     102.75789701
H      65.38720068      75.81949983     101.50689819
C      63.93589087      77.86796316     104.48888631
H      62.01592893      77.21222812     104.72699182
N      64.56139028      80.02225115     105.56036113
H      63.56928396      80.87262799     106.95119969
C      66.71189882      80.99357048     104.30369313
H      67.40731811      82.90030433     104.50589385
C      67.72857158      83.82060104      99.38662526
O      68.90965052      85.18120398     100.79258164
N      65.33050889      84.32326824      98.79136148
H      64.28171079      82.90408378      98.06381684
C      64.03226691      86.79880970      99.51323693
H      65.38153150      88.35216474      99.42253006
C      62.06695155      87.14840907      97.44965579
H      61.16555209      85.45332458      96.70321390
H      63.05149895      87.81926191      95.76968910
C      59.91833273      89.21576967      97.82571133
H      58.69379008      88.99278195      96.18353916
C      57.98325298      88.55058600      99.89496164
H      56.08218831      89.14207033      99.36961773
H      58.27994001      89.46899298     101.71476808
H      57.87175913      86.52101993     100.22188429
C      60.72335614      91.95587281      97.89563120
H      59.10386069      93.13695176      97.42319962
H      62.17277622      92.41318659      96.50479264
H      61.26003841      92.44153248      99.82315204
C      63.11574965      86.72511038     102.24389145
O      61.79672068      84.84672242     102.94497991
N      63.81683811      88.54113736     103.90307115
H      64.65587659      90.08126431     103.15284981
C      63.21779487      88.76412508     106.58081334
H      62.75481192      86.89707548     107.31780660
C      65.46467946      89.81481290     107.97921081
H      65.14153626      89.95843210     110.00877687
H      65.80671992      91.72532620     107.28757098
C      67.94022093      88.25767842     107.86015805
H      68.42210114      87.56792831     105.97988037
C      70.27970210      89.89607113     108.76155750
H      70.10206783      90.63495413     110.67585026
H      70.54993296      91.60627344     107.64661898
H      72.03714758      88.84349357     108.52723144
C      67.52259141      85.99756576     109.64783914
H      65.73491032      85.02246697     109.34737266
H      67.40164893      86.62306516     111.60748533
H      68.97579095      84.56326348     109.37760828
C      60.83107054      90.50267328     107.00600176
O      59.14354494      89.73922384     108.45542184
N      60.50414788      92.64373320     105.57736867
H      61.93845016      93.16340793     104.42841507
C      58.20435096      94.25189029     105.65484744
H      56.42800823      93.22576889     105.48099262
C      58.02104751      95.54635280     108.18708070