 %block lattice_cart
   139.898   0.000   0.000
   0.000 144.87   0.000
   0.000   0.000   168.12
 %endblock lattice_cart

 %block positions_abs
N      91.76778001      43.45982644      87.46434196
H      92.39705887      44.10800256      89.14619838
H      93.25877407      42.50173520      86.75191513
H      90.24844006      42.30709339      87.53048237
C      91.01755867      45.70104185      86.07161367
H      91.95108346      47.27896332      87.01269737
C      92.13060746      45.41380346      83.29749544
H      90.98543332      43.90769158      82.47924395
H      94.00143651      44.56531633      83.44489409
C      91.77344919      48.02351548      81.94823085
H      89.73632423      48.29374635      81.81406029
H      92.67295892      47.80430723      80.10952715
S      93.20397201      50.66913232      83.65465371
C      92.07202595      53.14467379      81.58351368
H      90.03112153      52.91979636      81.43422530
H      92.93374115      52.81208196      79.74103052
H      92.79768085      54.97014941      82.20523363
C      88.13761576      46.05820012      86.44388975
O      86.76945391      45.69726239      84.74313607
N      87.44030676      46.74606050      88.80226819
H      88.74988709      47.23927906      90.10051017
C      84.84571253      46.98416601      89.51658474
H      83.76667880      45.35333221      88.87029834
C      84.78902074      46.83487763      92.47211669
H      85.56947771      48.64523544      93.07493938
H      85.71120718      45.22294109      93.36784696
C      82.03757923      46.73283241      93.19588186
O      80.69398382      48.52051350      93.72122577
N      81.16641540      44.51429372      93.31493463
H      79.32960142      44.21760670      93.73634359
H      82.19253678      42.92125444      93.10139555
C      83.81770141      49.46537667      88.43377155
O      85.26334204      51.25494748      87.81394133
N      81.34027022      49.69025410      88.34684415
H      80.28013376      48.12934016      88.62463392
C      80.06848441      52.08264760      87.94811190
H      80.41808378      52.48893877      85.95823008
C      77.18665178      52.02973528      88.27314481
H      76.30037014      50.52740285      87.17710356
C      76.23611945      51.47793518      91.01324798
H      77.02602504      52.92168609      92.25101871
H      76.63107224      49.52206845      91.51402545
H      74.18954585      51.70848179      91.10584457
C      75.70510635      54.50905619      87.51725430
H      76.45343797      56.04729341      88.66242844
H      73.70766564      54.18969244      87.91031736
C      75.93943241      55.13266588      84.75825388
H      77.86884298      55.00038504      84.04771679
H      75.18732134      57.02806138      84.47668466
H      74.79992745      53.78718075      83.69244824
C      81.19098184      54.28039931      89.40887033
O      81.51979422      56.26083248      88.36007223
N      81.82970933      53.86276979      91.72756452
H      81.43097708      52.15445720      92.47400641
C      83.41518971      55.72603994      93.18643324
H      82.34560462      57.46647787      93.44721546
C      83.84226786      54.66968293      95.83771925
H      84.80791800      52.85743539      95.66197471
H      81.97332853      54.47882058      96.67864746
C      85.58837497      56.28917838      97.43453798
C      88.30391168      55.69769404      97.58571609
H      89.06358166      54.15378765      96.48967483
C      89.62483037      57.02428191      99.37150745
H      91.53345395      56.60287295      99.95543288
C      88.61571652      59.07463497     100.56959394
H      89.69286052      60.10453580     101.96421195
C      86.06269627      59.81918713     100.35227542
H      85.32192356      61.09097294     101.76390097
C      84.64162209      58.49259926      98.53813816
H      82.69520398      58.94613357      98.12239837
C      85.84915720      56.67846201      91.93165497
O      86.07592436      58.98770756      91.69543917
N      87.39495332      55.02873093      90.82616506
H      86.85827105      53.21837312      90.55026503
C      89.69663997      55.39722757      89.56193817
H      90.86827029      56.63688802      90.71467122
C      91.29156898      52.98971624      89.17643399
H      92.92429252      53.37333068      87.97834751
H      90.26733732      51.56108314      88.10495918
C      92.32524927      51.79351948      91.69543917
H      90.89472646      51.87288798      93.17698461
H      93.76711045      53.14845325      92.26991598
C      93.52711521      49.22349169      91.48001038
O      95.95541352      48.97404782      91.29103775
O      92.10604102      47.36589074      91.15497745
C      89.37349677      56.84664764      87.06560971
O      91.02889702      58.21669922      86.21145341
N      87.13039164      56.49326883      85.77303690
H      85.74333253      55.45958853      86.57806032
C      86.51434086      57.87465875      83.47323998
H      88.08092398      58.13166153      82.16176993
C      84.31469943      56.52728389      82.21279254
H      82.63095329      56.56507842      83.39954066
H      84.72288032      54.54118155      81.85185481
C      83.61928015      57.59875871      79.58418324
H      85.22932697      57.12254769      78.39176593
H      83.56258836      59.65667068      79.56717570
S      80.77146260      56.24571467      78.28783098
C      80.87728727      57.30018195      75.13387776
H      81.10783388      59.34675556      75.10553187
H      79.15574660      56.63499829      74.21925022
H      82.53079779      56.42145922      74.28161120
C      85.85671610      60.56562902      84.26503530
O      86.88661695      62.42511972      83.22001665
N      84.28824326      60.99459690      86.17743834
H      83.31692394      59.44502132      86.71790007
C      83.27534996      63.49659455      86.69711308
H      82.97299375      64.67011458      85.03037446
C      80.63351258      62.82763142      87.76102898
H      79.78313573      64.60586388      88.35818251
H      80.60516668      61.47836683      89.31627374
C      78.60205679      61.97725458      85.91854584
H      79.18409249      60.07618992      85.38375329
C      75.93943241      61.95646759      87.28481795
H      74.49379178      61.09853184      86.09429038
H      75.33660972      63.84808363      87.83094887
H      75.75234951      60.91333867      89.04982234
C      78.38473826      63.29817327      83.38631258
H      79.89462959      62.60653344      82.16554938
H      78.16553001      65.29183453      83.85307497
H      76.68209486      62.54795194      82.50003094
C      84.97043446      65.08207491      88.29960099
O      85.09137695      67.32140060      87.87441257
N      86.60693745      63.95579804      89.91342726
H      86.46142852      62.06418199      90.12885605
C      88.77823298      65.11986945      91.23623567
H      88.02612191      66.47669293      92.59116944
C      90.16529210      62.96558144      92.69132494
H      90.70197437      61.41411615      91.44599529
H      88.96720562      61.92812170      94.00279500
C      92.40839723      64.01626927      94.18420872
H      91.94541429      65.42411537      95.61473155
H      93.75577209      64.59263581      92.73856810
C      93.65750632      61.86576073      95.76968910
H      92.45375066      61.00971472      97.20399138
H      95.15227984      62.41756081      97.07737972
N      94.84425445      59.80595905      94.36184299
H      95.28267095      60.00815976      92.51558040
C      96.11604026      57.93324027      95.33505206
N      96.07257655      57.24915934      97.71799694
H      97.00232190      55.65045088      98.19042850
H      95.38471617      58.42078967      99.05970261
N      97.45207676      56.50649690      93.89130114
H      98.15316522      54.83219939      94.48278548
H      97.45396649      56.94680313      92.03370019
C      90.54134763      66.71857790      89.54871009
O      91.55613066      68.58184805      90.38018966
N      90.56969353      66.08174013      87.04860217
H      89.53223378      64.57184881      86.51758907
C      92.26666776      67.34029786      85.13619913
H      93.34192203      68.73680561      86.20389450
C      94.10348173      65.55072705      83.94000239
H      94.84047500      66.50125937      82.26759459
C      96.26721836      65.12175917      85.71634511
H      95.67195457      64.14477066      87.43032688
H      97.18751508      66.87731491      86.26625548
H      97.64482885      64.12398368      84.55605317
C      92.90917470      63.19612805      82.93277826
H      91.45786490      63.59297058      81.52682189
H      92.02289306      62.19646283      84.50125110
C      94.78567293      61.28372502      81.78382466
H      95.87604502      62.30795669      80.36841965
H      93.71041866      59.97414469      80.61408407
H      96.10092245      60.46358380      83.14064816
C      90.63016477      68.66688573      83.20678857
O      91.64872725      70.58684766      82.30538913
N      88.33036785      67.89020822      82.47735421
H      87.63116911      66.25370523      83.17277351
C      86.87716831      68.97680084      80.52337721
H      88.26611715      69.43600434      79.07395712
C      84.88539678      66.95668342      79.66922092
H      83.19031228      67.00203686      80.84085122
H      85.72821472      65.08207491      79.79016340
C      83.84226786      67.71824313      77.13320821
O      81.97710798      69.08073580      77.05006024
O      85.16507627      67.06628754      75.23214354
C      85.64884621      71.41076834      81.30572391
O      85.36727699      73.16254463      79.79016340
N      84.86083034      71.53926972      83.71701468
H      84.90240432      69.80072153      84.50692027
C      83.72510482      73.74458033      85.14564778
H      83.33582120      75.12785999      83.66788179
C      81.31759350      72.70334113      86.30971917
H      82.13206554      71.51281356      87.77992625
H      80.28580293      71.45423204      85.03793337
C      79.79258437      74.69889212      87.74780090
H      80.99822975      75.33761961      89.28981758
H      78.07293342      73.94678106      88.59628801
C      79.44865418      76.81916505      85.78437526
O      78.67008694      76.36563073      83.61307974
O      79.78502546      79.15864622      86.39853632
C      85.74144280      74.87652639      87.05427134
O      85.20665025      76.63964104      88.51691952
N      88.14517467      73.91843515      87.10718368
H      88.68752612      72.44444863      86.02437051
C      89.86860507      74.35685166      89.15753674
H      90.36938254      76.35429237      89.25391278
H      91.60337382      73.34584809      88.69644351
C      89.05413303      73.68599882      91.78803576
O      87.25889303      72.30082943      92.20377555
N      90.25032978      74.62519280      93.79681483
H      91.68463205      75.80249230      93.35461887
C      89.84403863      74.11874614      96.43676250
H      87.88061299      73.51970291      96.61439677
C      91.14228060      71.66399166      97.36272838
H      93.13405214      71.97012732      96.93942970
H      90.33536747      70.28827090      96.05881723
C      90.32024966      70.81172509     100.05936783
H      91.28589980      71.94934033     101.47855230
C      87.45731429      70.92510867     100.74344876
H      86.60315800      70.84007099      98.87072998
H      86.98488271      72.76192266     101.55225162
H      86.94141901      69.23947280     101.80547495
C      91.14417033      68.17177743     100.75289739
H      90.85882166      67.74091983     102.74844838
H      93.15483913      67.88453903     100.41274666
H      89.87994343      66.90377108      99.73433490
C      90.18607909      76.43366087      98.10161138
O      91.88683277      76.44688896      99.70031984
N      88.82169669      78.51991872      97.67264350
H      87.57258760      78.41409405      96.23456178
C      89.07492002      81.02002665      99.02757726
H      91.02889702      81.49812740      99.46977323
C      87.96754040      83.05337216      97.27769070
H      87.60660267      84.60672719      98.58160186
H      86.15529286      82.34661451      96.60116869
C      89.86104616      83.81682158      95.19143286
H      90.70197437      82.07260419      94.49034439
H      91.35015050      84.99034162      95.99645627
C      88.93885972      85.20388070      92.79525989
H      90.57536271      85.85394654      91.72756452
H      87.84470819      86.79880970      93.50390726
N      87.24755467      83.61651059      91.21355897
H      86.65040116      81.97055897      91.97511866
C      86.54268676      83.87729283      88.87029834
N      86.82614570      85.84449792      87.51347484
H      86.12316751      86.06370617      85.75413965
H      87.69164035      87.33738170      88.32794688
N      85.60160305      81.90630828      87.79504407
H      85.11405366      81.97811788      85.95067119
H      85.28223931      80.20933405      88.60762637
C      87.42140949      80.71200125     101.41052215
O      85.12539202      80.26224638     101.43697832
N      88.79335080      81.09750542     103.54969234
H      90.67551820      81.40175135     103.50622863
C      87.79746503      80.98979102     106.05357969
H      86.14206478      79.77091755     105.91185022
C      89.74388313      79.53848121     107.82992244
H      88.89728574      79.27391952     109.68941313
H      91.30479707      80.81971566     108.23432386
C      90.60937778      76.87963629     106.84915448
H      91.40306283      76.92498972     104.94808980
C      92.47453765      75.70044706     108.58203350
H      91.82258207      75.33195044     110.50010571
H      94.18473997      76.77381161     108.98832466
H      93.20208228      73.94489132     107.78267927
C      88.22265345      75.27336892     106.73955034
H      87.28156974      75.31872236     108.56880542
H      88.72532065      73.31372273     106.35404619
H      87.06425122      75.98768546     105.19375422
C      86.93386010      83.45210441     107.13450314
O      85.74711198      83.57115716     109.11115688
N      87.38550469      85.47411156     105.74933376
H      88.36060347      85.18498343     104.13550750
C      86.23655109      87.90807906     106.10271259
H      85.10649476      87.81926191     107.82425326
C      88.45131033      89.77890810     106.40317906
H      89.52656460      89.58993548     104.65518223
H      89.68341189      89.08915799     107.90173204
C      87.71431707      92.57192359     106.93419216
H      86.33103741      92.38484069     108.44975267
H      86.62583471      93.23710726     105.31847616
C      90.01789345      94.35771496     107.66740597
H      91.15550869      94.60904855     105.96854201
H      91.11960389      93.35993946     109.09603907
C      89.06736111      96.86349204     108.67651983
H      88.15462330      96.47798789     110.48120844
H      87.49132937      97.68552299     107.63528063
N      91.11582443      98.68329848     109.34170349
H      92.65406165      97.79512712     110.04090222
H      90.50544283      99.68674316     110.84781535
H      91.60337382      99.95130485     107.99999780
C      84.28635354      88.42586406     103.92385814
O      84.77957211      87.75690094     101.77334960
N      82.09427102      89.72032659     104.34337738
H      81.70687712      90.07181568     106.17830163
C      80.10816866      90.37039243     102.57459356
H      79.05181165      88.71121274     101.96421195
C      78.18631700      91.94831390     103.94653486
H      79.07448837      93.47899222     104.99911242
C      76.43265098      93.27490178     102.10027225
H      77.29436618      94.77534447     100.97966454
H      74.92842884      94.19141905     103.16607790
H      75.38952206      91.94264473     100.92864194
C      76.74067637      90.48377601     105.95909339
H      78.30914921      89.60694301     106.96631751
H      75.61439949      89.04947375     104.99911242
C      74.80748635      91.88595294     107.58425801
H      74.12529515      90.58960068     109.03556782
H      73.25413132      92.69097634     106.49766539
H      75.58416387      93.57725799     108.46676020
C      81.32326268      91.72910566     100.22188429
O      82.96732457      93.24466616     100.49967406
N      80.46532693      91.07903981      97.88051340
H      79.23700483      89.62017109      97.79169626
C      81.28546815      92.14862490      95.46355343
H      82.32859708      93.91740873      95.62795963
C      83.07125952      90.22677323      94.23334162
H      84.58115084      90.19086843      95.63362881
H      83.90273910      91.39084464      92.75179618
C      82.13962445      87.63595846      93.42831821
C      81.48388942      87.15218852      90.95844590
H      81.57648601      88.60349834      89.52792310
C      80.76957287      84.77113338      90.12129716
H      80.29714129      84.39507783      88.16920988
C      80.68831464      82.74534676      91.95811113
O      80.13651456      80.25090804      91.45544394
H      80.01935152      79.84083742      89.69232928
C      81.39885173      83.22911670      94.52246974
H      81.34971885      81.71166647      95.88685213
C      82.03946895      85.68576090      95.29347807
H      82.36261215      85.87095408      97.30036742
C      78.88551574      92.56625442      93.77602785
O      76.80114761      91.90862965      94.52624919
N      79.15385687      93.55647100      91.52158436
H      80.93964824      94.14795534      91.19277197
C      77.04492231      93.89662173      89.78870532
H      75.24401313      93.68497239      90.76380410
C      76.83894214      96.53845913      88.55471403
H      75.12685010      96.42129610      87.41520908
H      78.27324441      96.67640915      87.08261724
C      76.41753317      98.66629095      90.42743282
H      78.05403616      98.77211562      91.67465219
H      74.85472951      97.99543811      91.59150422
C      75.60306113     101.16450914      89.10273467
H      73.73979099     101.11348652      88.22401193
H      76.92209010     101.81079554      87.65709405
C      75.66164265     103.35848139      91.04537333
H      77.44932374     103.59658691      92.04125909
H      74.30859861     102.81612993      92.50235231
N      74.98890008     105.86992765      90.06460537
H      76.30792905     106.48219898      88.82872435
H      74.91520075     107.12281620      91.50457682
H      73.42987587     105.81134614      88.96100520
C      77.17531342      91.88217349      87.68543994
O      79.09716508      91.83115087      86.26058629
N      75.18543162      90.47432739      87.12230150
H      73.59428206      91.05636308      88.00102423
C      74.89441376      89.32726351      84.50692027
H      76.64052088      88.34649555      84.02692980
C      72.78925865      87.16541661      84.68077510
H      71.07905634      88.04791879      85.41776837
H      73.36184572      85.84260819      86.15287190
C      72.18076678      86.02591165      82.06917334
O      73.00657718      83.83760857      81.67988972
O      70.78047958      87.03691523      80.44022925
C      74.14608214      91.22076928      82.46790559
O      73.19554981      93.24655588      83.10663307
N      74.85095006      90.52723972      80.06795317
H      75.37818370      88.72822027      79.71646408
C      74.57505002      91.99555706      77.68500829
H      75.92809406      93.54702237      77.76815625
C      75.09094530      90.47054793      75.39088055
H      73.42987587      89.25356418      75.33229902
C      74.99267953      91.95587281      72.84730892
H      73.08405596      92.35649480      72.18590471
H      75.94321187      90.96565623      71.31096143
H      76.09061052      93.70009021      72.86998565
O      77.29247645      88.93986961      75.35875520
H      76.94287709      87.48855982      76.39054577
C      71.97478661      93.35993946      77.49225620
O      71.94455099      95.61060351      76.85352871
N      69.96411781      92.03146187      78.16121932
H      70.04537604      90.18897871      78.64687899
C      67.48668662      93.22009972      77.87776038
H      67.27125782      93.68686211      75.88220939
C      65.30972190      91.20565146      78.35586112
H      65.36452397      90.48188629      80.28527170
H      65.92010350      89.82426154      76.95557393
C      62.68300233      91.87083512      77.39399044
H      62.35041050      93.74355390      78.18200631
H      61.21468498      90.67463838      78.20657275
C      62.55639067      92.03524132      74.44223794
O      62.65087698      94.13472726      73.29895351
O      62.22190911      90.14362528      73.09486308
C      67.31850097      95.71264873      79.44812294
O      65.86530144      97.40584351      78.96435300
N      68.87941491      95.87516518      81.40398967
H      69.98112535      94.33881769      81.66288217
C      69.54270884      98.15039566      82.84207140
H      68.40698333      99.78500892      82.31483776
H      71.54203928      98.63227588      82.75703372
C      68.98712931      97.69308190      85.60863072
O      68.48824156      99.60359521      86.94466722
N      68.66587584      95.31013702      86.43633085
H      69.08539508      93.93063681      85.18722175
C      67.37708249      94.65251226      88.81171682
H      66.48324194      96.26822827      89.73012381
C      64.99602734      92.98766338      88.38274895
H      63.96234704      92.75144760      90.15153277
H      65.67443908      91.14895967      87.74780090
C      63.09496266      93.99299777      86.42121303
C      61.85341248      92.36027424      84.90565252
H      62.53182422      90.44031231      84.78282032
C      59.76904435      93.28435042      83.50725506
H      58.87331408      92.01067488      82.18822610
C      59.11519905      95.87894464      83.62063864
O      57.07996381      96.79924135      82.40743435
H      56.99303640      98.59448135      82.64742958
C      60.46068418      97.65528738      85.07950736
H      60.07895947      99.65650754      85.15509640
C      62.46946326      96.55357693      86.47790482
H      63.21023597      97.78567849      87.92732491
C      69.18177112      93.49411004      90.86018015
O      70.86740699      92.07114612      90.25168827
N      68.79059777      94.30858208      93.31493463
H      67.31094207      95.44430758      93.71555660
C      70.42143158      93.40151345      95.33316232
H      72.38107777      93.49788949      94.70577318
C      70.03781714      95.00211164      97.65374623
H      70.65575764      94.11771971      99.40741225
H      67.98746409      95.14006166      97.78791681
C      71.17543238      97.69875107      97.58004691
C      69.69955613      99.79634728      98.18475933
H      67.68321815      99.72264796      98.47955663
C      70.82583301     102.17362299      98.59482995
H      69.50680404     103.61170472      99.19387319
C      73.44688341     102.47219975      98.27546620
O      74.71488976     104.64916446      98.69498544
H      73.66420193     106.09480508      98.99923137
C      74.92275966     100.28956586      97.46099416
H      76.91264147     100.52200219      97.07737972
C      73.76813688      97.87638535      97.22477836
H      74.78291991      96.34759676      96.32904809
C      70.08883975      90.53668835      95.93031584
O      67.97990518      89.57292793      96.51046182
N      72.35840105      89.24789501      95.90763913
H      73.99490404      90.09260266      95.40308219
C      72.74768467      86.46432814      95.57882675
H      71.02992345      85.37395606      95.88874187
C      73.55270808      85.99945547      92.76313454
H      75.07393776      87.33360225      92.37007146
C      74.07238282      83.28202903      91.93165497
H      75.40463987      82.45432891      93.26769147
H      74.90008294      83.34439001      90.04759782
H      72.40186476      82.08205283      91.78614604
O      71.43810434      86.57960145      91.48001038
H      71.49290640      88.35027500      91.08883703
C      74.76780210      85.48544992      97.49500922
O      76.41186399      86.99534124      98.20554633
N      74.65252880      83.08927696      98.60238885
H      73.17854227      81.91575692      98.28680456
C      76.66697704      82.14630353     100.32015007
H      78.34316428      83.19510163      99.74567326
C      75.85061528      83.00045981     103.18875461
H      75.79770294      85.05837178     103.16985734
C      73.22011625      81.95544116     103.69520126
H      73.51680328      79.91831620     103.82559238
H      71.59684135      82.25968711     102.46687916
H      72.60595520      82.79447964     105.47343371
C      77.75923885      82.02347131     105.35060151
H      77.90285805      79.96933881     105.33926315
H      76.95610517      82.54125633     107.17418740
C      80.33115637      83.23856534     105.33548369
H      80.27824403      85.08482793     106.24822151
H      81.04547291      83.50123729     103.42119095
H      81.68420041      82.04236858     106.32570029
C      77.32271208      79.32305242      99.98188906
O      75.67487073      77.74135148      99.28835950
N      79.74723093      78.63519203     100.23700211
H      81.08137771      79.99390525     100.35038568
C      80.78658041      76.15398139     100.36928295
H      79.57148639      74.82172433     101.36327898
H      82.74433687      76.31082867     100.99667209
C      80.76012424      75.21667713      97.68398186
O      81.58404491      76.39208690      95.84905761
N      79.83982752      72.88853431      97.46477361
H      79.52424323      71.93044307      99.08615879
C      79.46944117      71.67344030      95.03836502
H      80.69209409      72.52570686      93.61729084
C      80.00423371      68.84640973      95.14041024
H      78.70788146      68.09996784      96.55581524
C      79.61872955      67.43478418      92.65730987
H      79.97588782      65.41466675      92.85951059
H      80.83949274      68.23035895      91.20222061
H      77.73656214      67.62375680      91.84661727
C      82.83126428      68.36830897      96.10795011
H      83.13173076      69.43033517      97.84649832
H      84.04257884      69.20356800      94.66608894
C      83.55125000      65.54883732      96.62006594
H      82.43064230      64.83452077      98.19231824
H      85.59026469      65.45624073      96.90163517
H      83.36605682      64.47736249      94.87017937
C      76.91075174      72.41232328      93.97066965
O      74.93031856      71.14431692      94.18042927
N      76.74067637      74.80282708      93.33005243
H      78.28647249      75.88375053      93.62296001
C      74.72622812      75.69666761      91.70299808
H      74.25379654      74.23212972      90.33105678
H      75.53881044      77.31805279      90.72223013
C      72.23367911      76.45066841      93.06549075
O      70.41954185      77.03648358      91.73323369
N      72.04470648      76.40909443      95.49378907
H      73.71144509      76.36752046      96.42164468
C      69.62018762      76.67932529      96.87895844
H      68.26525386      75.44344430      95.94165420
C      69.88663903      75.73068269      99.55481091
H      71.16031457      76.84751095     100.72644123
H      70.39119596      73.74458033      99.78157806
C      67.33361878      75.88375053     100.77368438
N      65.70467470      73.95622969     100.79258165
H      66.16765765      72.18555613     100.25400964
C      63.72802098      74.73290719     101.99066813
H      62.05750292      73.60474059     102.31381132
N      64.03982582      77.04782194     102.87128058
H      62.78504755      78.12307620     103.82937183
C      66.38875563      77.90197822     102.17775104
H      67.16354342      79.76713810     102.45176134
C      68.64508885      79.52147368      96.68809609
O      69.94522055      81.20521981      97.61784144
N      66.34718165      79.94288264      95.66197471
H      65.13775681      78.53503653      95.21410957
C      65.30783218      82.52046934      95.68276170
H      66.93866599      83.68643047      95.20466093
C      63.14787500      82.65841936      93.61351138
H      61.77971315      81.24679380      94.22767244
H      64.00959020      82.23701038      91.79181522
C      61.79861041      85.06971013      93.28469900
H      60.92555686      85.62906911      95.06671092
C      63.53715862      87.22210839      92.47022696
H      65.08295475      87.53769270      93.79681483
H      62.24080637      88.82081687      92.37574065
H      64.12864296      86.81770696      90.53892666
C      59.69345530      84.53491758      91.38930351
H      60.29060882      83.80737296      89.55626899
H      58.43111812      86.16197193      91.29859665
H      58.41600031      82.95321666      91.72378507
C      64.38375601      83.20077080      98.33026825
O      63.38220106      81.76268909      99.84015959
N      64.75981155      85.64229721      98.96143685
H      65.90120624      86.61550625      97.78413736
C      63.39164970      86.83849395     100.94187003
H      62.60741328      85.43064785     102.22499419
C      65.38720068      88.08382359     102.60293946
H      64.46879369      88.83593468     104.28479587
H      66.11285559      89.53513341     101.33115365
C      67.63597499      86.46999733     103.45331630
H      68.31627647      85.38907388     101.83571056
C      69.87908013      88.13295648     104.11472051
H      71.26047006      87.05203303     105.19375422
H      69.25924990      89.71465740     105.28068164
H      70.78425903      88.71688191     102.36105449
C      66.61552279      84.74278748     105.58681730
H      66.24702615      85.98433766     107.18741549
H      68.11785520      83.41242016     106.05357969
H      64.79193689      83.89241064     105.14651106
C      61.30728157      88.69042574     100.14818497
O      59.12464768      88.22933252     100.65085217
N      61.99892140      90.82014729      98.85939163
H      63.80738948      91.28313024      98.46443883
C      60.08273892      92.88372843      98.48333608
H      58.17033589      92.17508107      98.20743605
C      60.06573138      94.83959516     100.54313777