 %block lattice_cart
   139.898   0.000   0.000
   0.000 144.87   0.000
   0.000   0.000   168.12
 %endblock lattice_cart

 %block positions_abs
N      94.02694782      43.85099979      86.47884968
H      93.19546824      43.75651347      88.19283145
H      95.92045359      43.99272926      86.68294012
H      93.85687245      42.09544404      85.74752560
C      92.97437027      45.94292682      85.06911385
H      93.42790458      47.71737983      86.01208728
C      94.06096290      46.11867136      82.41782783
H      93.50727309      44.36878480      81.48619276
H      96.10375704      45.96371381      82.19672986
C      93.04617987      48.24272374      80.73597142
H      91.01094463      47.98194151      80.52999125
H      93.92112315      48.19548058      78.87081155
S      93.25027031      51.42124340      82.12680998
C      91.16590218      53.10121009      80.05000076
H      89.43302315      52.40957026      80.92116460
H      91.43802277      52.41334971      78.12625938
H      91.28495494      55.15534259      80.16905352
C      90.23048766      45.72938774      85.19572552
O      89.22704299      43.87178678      84.27920825
N      88.89634088      47.52840719      86.45050379
H      89.79774033      49.03451907      87.20639431
C      86.19403225      47.67391612      86.86813330
H      85.37767049      46.57787486      85.32611663
C      85.75750548      46.57031595      89.56855220
H      86.51150627      44.65413347      89.56099330
H      83.72415996      46.47016046      89.87846732
C      86.79307550      48.10477372      91.72661965
O      86.51906518      50.31197405      92.11212382
N      87.80029962      46.78763448      93.58988980
H      88.69036071      47.89312437      94.86356533
H      88.19336269      44.92058488      93.59177952
C      85.11121908      50.37244529      86.58278463
O      86.43969667      52.10532432      85.94783659
N      82.72827420      50.69747822      87.11946690
H      81.64735075      49.28774239      87.81488618
C      81.47727538      53.08420255      87.07600320
H      81.48672401      53.78907047      85.14281318
C      78.67292153      52.55885864      87.52386833
H      78.01340705      51.18124816      86.14247840
C      78.01718650      51.72737906      90.25830231
H      79.45715795      50.38000420      90.84978664
H      76.17281362      50.82408988      90.40570096
H      78.27985846      53.21837312      91.65481005
C      76.82476919      54.79818432      87.16293061
H      77.38790764      56.42145922      88.30054585
H      75.03897783      54.08197805      87.89992387
C      76.29186637      55.84320297      84.47573979
H      75.03141892      57.47214705      84.51920349
H      75.51329913      54.36921645      83.26631495
H      78.00773787      56.69546954      83.71418009
C      82.82276051      55.24604946      88.71061646
O      82.48260978      57.44947034      88.04165334
N      83.85644081      54.76227952      90.99340584
H      84.24761415      52.93302445      91.36757165
C      84.94681289      56.81263257      92.43337729
H      83.77140312      58.50204789      92.54676087
C      85.74805684      56.16067699      95.13757565
H      86.53418299      57.85765122      95.99929085
H      87.19180775      54.69613910      95.24529005
C      83.57865104      55.19313712      96.79486562
C      82.70559748      56.48193046      98.89813101
H      83.50873116      58.24693484      99.54252768
C      80.76673828      55.28384398     100.36455863
H      79.97305323      56.20225097     102.00484107
C      79.43826069      53.09932036      99.71827223
H      77.85655976      52.30941477     100.73683471
C      80.29430671      51.83509346      97.62823493
H      79.40613534      50.02095620      97.33532735
C      82.37489538      52.81775114      96.32432377
H      82.98338725      51.67446672      94.75018175
C      87.24472008      57.77261354      90.98962639
O      87.70392358      59.99682141      90.73640306
N      88.88500252      56.07374958      89.94838719
H      88.35398943      54.24449451      90.07310913
C      91.16023300      56.57641678      88.53487191
H      92.36398867      57.66111968      89.80476799
C      92.56807911      54.21047944      87.95472593
H      94.29339923      54.58275552      86.89647920
H      91.50983237      52.88389156      86.78876480
C      93.29184429      52.67980112      90.24129477
H      91.64967212      52.39256272      91.45260934
H      94.34253212      53.81363691      91.60000799
C      94.69024176      50.24394391      89.67248715
O      96.73303590      50.32331241      88.71061646
O      93.74348887      48.20681894      90.29420711
C      90.69725006      57.94457863      86.01775646
O      92.11643452      59.65856040      85.40170568
N      88.50705726      57.23026208      84.77809600
H      87.65290097      55.68257623      85.49997145
C      87.45070025      58.65511572      82.65782308
H      88.75083196      58.58519585      81.05911462
C      84.92791562      57.62710461      81.89248392
H      83.57298186      57.98048343      83.40048552
H      85.27184581      55.60320773      81.71484965
C      83.91313259      58.84219863      79.53221575
H      85.35121432      58.61732120      78.07712649
H      83.72982914      60.87743387      79.78921853
S      80.82343007      57.74804709      78.33979845
C      81.50373155      55.78273173      75.57512886
H      80.19793066      54.21803834      75.28789046
H      83.45392910      55.13455560      75.71307888
H      81.33365618      56.76916886      73.77610941
C      87.22771255      61.40466751      83.44394922
O      88.35209970      63.07140612      82.31011344
N      85.72915958      61.91111416      85.55666324
H      84.98271769      60.57318793      86.69616821
C      85.34554514      64.55862073      86.21428800
H      84.89201082      65.54883731      84.46629116
C      83.14779344      64.85719748      88.04921225
H      83.47282636      66.51637719      89.22651174
H      82.95315163      63.21502532      89.27564462
C      80.53430195      65.22947357      86.61679970
H      79.05653597      65.17089205      88.04921225
C      80.06753955      67.77493491      85.38847760
H      80.35288822      69.39254064      86.63191751
H      78.12301117      68.06973222      84.77053709
H      81.08988148      67.95445891      83.61024514
C      79.88423610      63.08085475      84.85368505
H      77.87923648      63.33974725      84.46062198
H      80.07509845      61.19301816      85.65870846
H      80.87823214      63.12053900      83.05088615
C      87.78896126      65.88331887      87.19127650
O      88.15367844      68.21713087      86.72262438
N      89.46892795      64.41689125      88.41392943
H      89.04562926      62.57251837      88.65959385
C      91.89155709      65.44301264      89.48918370
H      91.51172210      67.26848826      90.36412698
C      92.95358328      63.63265483      91.39591755
H      95.00204660      63.82162746      91.49607304
H      92.67579351      61.70891345      90.70994690
C      91.71014336      63.64588292      93.98106314
H      89.83364513      62.80117526      94.07743919
H      91.54951663      65.67355925      94.30042689
C      93.44113266      62.33630258      95.89535590
H      92.99137780      62.86920540      97.83232537
H      95.24393157      63.32651917      95.80842849
N      93.69435599      59.57919189      95.48150584
H      94.85275822      58.97070002      94.09255700
C      92.44902635      57.88221766      96.89313139
N      90.65189663      58.57763695      98.45782478
H      89.95647734      57.09798124      99.44237219
H      89.94135953      60.33886187      98.26318297
N      92.94413464      55.51250087      96.78352727
H      92.07675027      54.27095068      97.94570895
H      94.71102875      55.28195426      96.10133607
C      93.70380462      66.00993053      87.30843953
O      95.50849325      67.36864375      87.82811427
N      93.09531275      65.58285239      85.00864261
H      91.50794265      64.57373854      84.68738914
C      94.55607119      66.39921416      82.69561760
H      96.29650912      67.16833276      83.48174375
C      95.45180146      63.91611378      81.28777150
H      93.78128340      62.75393210      80.97218721
C      96.66878521      64.57751799      78.71018481
H      97.52672095      62.96936090      77.75209357
H      98.15222036      65.93056203      79.16560885
H      95.37810214      65.59419075      77.46863462
C      97.30940243      62.27961079      82.67294089
H      97.17334213      62.30606696      84.73085284
H      99.21046710      63.06195749      82.53688059
C      97.56451548      59.50927202      81.85657912
H      98.38087725      59.26549732      79.97819116
H      95.65589190      58.75905067      82.04555175
H      98.75126360      58.38866431      83.11324712
C      93.19546824      68.34185281      81.13092422
O      94.29528896      70.05583457      80.08968502
N      90.76150075      68.06406304      80.93250295
H      89.98482324      66.41433197      81.49375167
C      89.20625600      70.10307773      79.69095277
H      89.94891844      70.48480244      77.80689563
C      86.43402750      69.19033992      79.43394999
H      85.33042733      70.74936413      78.66294165
H      85.59687874      68.77271040      81.26887424
C      86.13167129      67.25148072      77.36469967
O      87.64723179      67.30439306      75.52410625
O      84.20037099      65.88520860      77.37792776
C      89.28562450      72.72412812      81.20084409
O      89.80151979      74.82550379      80.23141449
N      88.83397991      72.67688497      83.78787941
H      88.38233532      70.95345457      84.47007061
C      88.60154358      74.89920311      85.37524951
H      88.80185457      76.51302938      84.11291234
C      86.05230278      74.91243120      86.48451886
H      85.90490413      76.42421225      87.87535743
H      85.59120956      73.22301587      87.56355259
C      83.74872641      75.27336892      84.83289806
H      82.00639874      75.02203532      85.90626261
H      83.63345310      73.81261048      83.38536771
C      83.64857091      77.89252959      83.45528758
O      83.82053601      79.94099291      84.77431655
O      83.74116750      77.93599330      81.01565091
C      90.66323498      75.12974972      87.39536694
O      91.02228298      77.18199250      88.21739789
N      91.82352694      73.05483023      88.26086159
H      91.00527545      71.45990122      87.60512656
C      93.39388951      72.60507537      90.55498934
H      94.85086849      74.04882627      90.33956054
H      94.10820605      70.67755453      90.45672357
C      91.88966736      73.20033916      92.94171367
O      89.53884783      73.20033916      92.87179380
N      93.27672648      73.92221461      94.87679342
H      95.18157060      73.85796391      94.77852765
C      92.29784825      74.30582905      97.59044040
H      90.25316437      74.10362833      97.44682120
C      93.40522786      72.36508013      99.48961535
H      95.40455830      72.81672471      99.69370579
H      93.00649561      70.49236135      98.72994537
C      92.34509140      72.67688497     102.21649042
H      92.84397915      74.60818526     102.73238570
C      89.53695810      72.24224792     102.44892675
H      88.97570939      70.75314358     101.14123614
H      88.64311756      73.92410433     101.66658006
H      89.07208543      72.17610749     104.45581610
C      93.80207039      70.73424632     103.91535437
H      93.55262652      71.20478817     105.90523618
H      95.76738576      70.45645655     103.36922347
H      92.89122231      68.89554261     103.71882284
C      92.80051544      77.05727056      98.53152411
O      94.88677329      78.06071523      98.88868238
N      90.65945553      78.41787351      98.90002074
H      88.96437103      77.66009325      98.45971451
C      90.21725957      80.96522458     100.11889421
H      92.17690576      81.48300959     100.49683947
C      89.00783473      82.74723649      98.25184461
H      87.96470581      84.27791480      99.14757488
H      87.64723179      81.61340070      97.20115678
C      90.92779667      84.12106752      96.45282516
H      92.20147220      82.62818373      95.82732575
H      91.95958724      85.44009649      97.65091164
C      89.79963006      85.43820676      94.04342411
H      91.39455907      86.33015758      93.09289178
H      88.56374905      86.99723097      94.57443721
N      88.50138808      83.70532773      92.30109645
H      88.24438530      81.94410281      92.99273628
C      87.64156261      83.85461611      89.90303376
N      87.77195373      85.75568078      88.43282669
H      86.91779743      85.60828213      86.73207301
H      88.77161895      87.24289539      89.08856172
N      86.39245352      81.86662403      89.17170968
H      85.86144042      81.52269384      87.37080050
H      86.45103503      80.42665258      90.42270850
C      88.62422029      80.73845742     102.56608978
O      86.61733095      79.75391001     102.57931787
N      89.44814097      81.64930550     104.61266338
H      91.15078437      82.50346179     104.48038254
C      88.52028535      81.40553081     107.19402952
H      86.79307550      80.31326900     106.94080620
C      90.46481372      80.20177515     109.04596131
H      89.68435675      80.13185527     110.94891571
H      92.12966260      81.41119999     108.93257773
C      91.46636867      77.49379734     108.33164477
H      91.55329608      77.43143637     106.27562254
C      94.04206563      76.69822256     109.18391133
H      95.21180622      78.31015911     108.66045714
H      94.74882327      75.10896273     108.08220089
H      94.19324374      76.25413688     111.19080068
C      89.72782046      75.38108332     109.21981613
H      90.43835755      73.62552758     108.40534409
H      87.85321196      76.11807658     108.79084826
H      89.93758008      75.45289292     111.26638973
C      87.66801878      83.93209489     108.30140914
O      86.97448922      84.03225038     110.44435878
N      87.79085099      86.02591164     106.83120207
H      88.66390455      86.00890411     105.13233812
C      86.95748168      88.52601955     107.77228578
H      85.76506438      88.22744280     109.42390657
C      89.15712311      90.19653761     108.64344961
H      90.41568084      90.19086844     107.01072607
H      90.13978080      89.20065185     110.15712038
C      88.73004497      92.98577365     109.42201685
H      87.15212349      92.83270582     110.73726636
H      87.87399895      94.12716835     107.93858169
C      90.93724530      94.27456700     110.53884510
H      91.42479469      93.11238532     112.16778918
H      90.38922467      96.13405769     111.23804383
C      93.26349839      94.42385538     108.72848729
H      92.53595376      94.58826157     106.80852536
H      94.17623620      92.57948250     108.81352497
N      94.99637742      96.45531116     109.35776615
H      96.15666938      95.81847340     110.73348691
H      94.08930879      98.09937306     109.70169634
H      96.34942146      96.83514615     108.06708308
C      85.33420678      89.83937934     105.83909576
O      85.81419727      89.54080258     103.64134406
N      83.47849554      91.43052890     106.55530203
H      83.19692632      91.83682005     108.39778519
C      81.48861373      92.12216873     104.72037778
H      80.50973550      90.41763559     104.10432700
C      79.19259626      93.51867647     106.04885538
H      80.00328885      95.12116439     107.05985896
C      77.25562679      94.32558961     104.05897357
H      77.96616389      96.04335083     103.17080220
H      75.56621147      95.07203150     104.97171138
H      76.85689454      92.79680102     102.73616515
C      77.87734675      91.84059951     108.10676733
H      79.24739833      90.73133016     109.17257297
H      76.63957602      90.53101917     107.11088157
C      76.31643282      93.48466140     109.86988198
H      75.55865256      92.05602831     111.14544725
H      74.81599012      94.62794582     109.04596131
H      77.73750700      94.54479786     110.91679036
C      82.66402350      93.71331828     102.58687677
O      83.85833053      95.64461858     102.95348368
N      82.02529601      92.80813938     100.28519012
H      80.88768077      91.30013778     100.01117981
C      83.02496123      93.76623062      97.93626032
H      83.85644081      95.62761104      98.23105762
C      85.09988072      92.05035913      96.94982318
H      86.34332063      91.64973715      98.54286246
H      86.29229802      93.02167845      95.57977160
C      84.13989975      89.56725875      95.82354630
C      83.20826468      89.32537378      93.34233565
H      83.41613457      90.93353088      92.10456492
C      82.54308102      86.86683985      92.36345742
H      82.03285491      86.71188229      90.39436260
C      82.57709609      84.83160461      94.09633645
O      81.66813773      82.54881523      93.25162879
H      81.07098422      82.70755224      91.54898538
C      83.18558796      85.14907863      96.66636423
H      83.07976329      83.45966331      97.80775893
C      84.00950864      87.50367762      97.50162327
H      84.86744438      87.68698107      99.34410642
C      80.84988624      94.27834645      96.20716074
O      78.76362839      93.25222506      96.73250466
N      81.16547054      95.67863365      94.16814605
H      82.81709133      96.56491529      93.81854668
C      79.19826544      96.25122072      92.34267043
H      77.38034873      95.53690418      92.99840546
C      78.99795445      99.13872253      91.84756214
H      77.68837412      99.17273760      90.25830231
H      80.91035748      99.67918425      91.30332096
C      78.12301117     100.87160156      93.91870218
H      79.10377913     100.49932547      95.68937573
H      76.16525471     100.37460354      94.33255224
C      78.39702149     103.64194033      93.44627060
H      77.17814801     104.13326917      91.85890049
H      80.39257247     104.01421642      93.09100205
C      77.31798776     105.32757620      95.58922024
H      78.79764347     105.52032829      97.00840470
H      75.61345463     104.36192606      96.22416828
N      76.62445821     107.85791974      94.92781603
H      75.86478823     108.92750483      96.31487514
H      75.28275252     107.66327793      93.58422062
H      78.17403378     108.79333426      94.32499333
C      79.91447172      94.94541984      89.82177553
O      82.12167205      94.56558485      89.16226105
N      78.10033446      94.15173479      88.33078147
H      76.37501433      94.33125879      89.12635625
C      78.36111669      92.34515643      86.15759621
H      80.35099849      91.94831391      85.81366602
C      77.14980212      89.84315879      86.91537646
H      75.09566962      90.00756498      86.96261962
H      77.59955698      89.19498267      88.81644113
C      78.06065020      87.61706120      85.23540977
O      80.26407108      86.93864945      85.71162080
O      76.56020751      86.69109530      83.62725268
C      77.42570216      93.58103744      83.73685680
O      77.32554667      95.86193710      83.52142800
N      76.86634317      91.97854953      81.77721061
H      76.98728566      90.08315404      81.96996270
C      76.45438284      92.89884624      79.15804994
H      78.03608376      93.99488750      78.42672586
C      76.27485884      90.68786646      77.25320582
H      75.88935467      91.43430835      75.37103841
C      78.75417976      89.13829088      77.32312570
H      80.38879302      90.38551025      77.21352157
H      78.66536262      87.67564271      75.87559534
H      78.67481125      88.32381884      79.21285201
O      74.34544827      89.04191484      77.94673538
H      73.95616465      89.49733888      79.65693769
C      74.08844549      94.50700333      78.69128755
O      73.92592903      96.04524055      76.96029824
N      72.26485960      94.32369988      80.39393095
H      72.47839867      92.91963323      81.66760649
C      70.10868188      96.13405769      80.53566043
H      69.89514280      96.90317630      78.63648548
C      67.72006782      94.51078279      81.02132009
H      66.03821140      95.68808228      81.15927011
H      68.05643910      93.62639087      82.85057516
C      67.34779173      92.36027424      79.11269651
H      65.34657157      91.95587281      79.38481710
H      68.34367750      90.68786646      79.78543908
C      67.84856921      93.01411955      76.46896940
O      69.30554819      91.81981252      75.01010069
O      66.60134984      94.88494860      75.62237201
C      70.49418605      98.25811007      82.46129154
O      68.88980841     100.00421718      82.68238952
N      72.75240899      98.19763882      83.66126775
H      74.04876124      96.87483041      83.20773343
C      73.68404406     100.14027747      85.46973583
H      73.51774815     102.01110652      84.61935899
H      75.70227176     100.02122472      85.85524000
C      72.59367198      99.80012674      88.13991911
O      73.00374259     101.52355714      89.62335427
N      71.17637724      97.79890657      88.65581439
H      70.94961009      96.47987761      87.29710118
C      69.90837089      97.57024969      91.13324559
H      69.54176398      99.43163011      91.93448955
C      67.65203767      95.89973163      90.63813730
H      67.06433279      95.18919453      92.48062045
H      68.13202815      94.20842658      89.56477275
C      65.59790517      97.29812910      89.29265216
C      64.16927208      95.83170148      87.55032450
H      64.64170365      93.87016557      87.23474021
C      62.28899439      96.92585302      86.12547086
H      61.35546960      95.87516519      84.64392543
C      61.58412648      99.45997600      86.61113052
O      60.00431528     100.57302480      84.95006109
H      59.84179882     102.34180863      85.31288855
C      62.78410269     100.94719061      88.58022534
H      62.14726492     102.76510732      89.26052681
C      64.73052079      99.79067811      90.03909406
H      65.70939902     100.86971183      91.46583742
C      71.60156567      96.12838851      92.98706710
O      73.07366246      94.50322388      92.10267519
N      71.04220668      96.48743651      95.53630790
H      69.68349346      97.80268602      95.80086958
C      72.36123564      95.18919453      97.62445548
H      74.39836061      95.42918978      97.43737257
C      71.73006705      96.53278994     100.16424764
H      72.51808293      95.64839803     101.84988351
H      69.78364895      96.89750712     100.73305526
C      72.93004326      99.17462733     100.73872444
C      71.66392663     101.40828383     101.47004852
H      69.64380920     101.48198316     101.73461021
C      72.98295560     103.62304307     101.92547256
H      71.98706983     105.34080429     102.39790414
C      75.56621147     103.74209583     101.78941227
O      76.99673429     105.87748656     102.01239997
H      75.92148002     107.24186896     102.53585416
C      77.00807265     101.58591810     101.12800806
H      79.04141816     101.74087566     101.02218339
C      75.58510873      99.32958489     100.55542099
H      76.43359585      97.60804421      99.86000170
C      71.93226777      92.29035437      97.88145825
O      69.94805514      91.19431311      98.18192474
N      74.17915236      91.01667883      97.89468634
H      75.87612659      91.88028376      98.04775417
C      74.45883185      88.30114212      97.20493623
H      72.71461446      87.23344676      97.45815956
C      75.25251690      88.19720718      94.42136938
H      76.91358633      89.32348406      93.94893780
C      75.37345939      85.43631703      93.74484736
H      76.96271922      84.46877716      94.62734954
H      75.56810120      85.36261771      91.69449431
H      73.79742764      84.37240112      94.53475295
O      73.17759741      88.90774427      92.80943283
H      72.85823366      90.69164591      92.73573350
C      76.52808216      87.19943168      98.96616116
O      78.26285092      88.52035038      99.74283867
N      76.29375610      84.71822103      99.82598663
H      74.63079695      83.79225514      99.70882360
C      78.15891597      83.42753796     101.44359235
H      79.81998540      84.64452171     101.40579783
C      77.01185210      83.45777358     104.07409138
H      76.52052326      85.41930950     104.46904418
C      74.73662162      81.70599729     104.47471336
H      74.24529278      81.64741577     106.47593353
H      75.08811071      79.76146891     103.88511875
H      73.19460495      82.37496041     103.28796524
C      79.13212502      82.80959746     106.07720127
H      80.36989576      81.23167599     105.60665942
H      78.08899610      82.16331106     107.73071180
C      80.77996637      84.89207585     107.08820485
H      82.23127618      84.18153876     108.36377011
H      79.60833605      86.51346103     107.57197479
H      81.71160144      85.75190133     105.46304022
C      78.90913732      80.77058277     100.60266414
O      77.39924599      79.49501750      99.25528928
N      81.30531028      79.91453675     101.21493547
H      82.38434401      81.02758554     102.32609454
C      81.83632338      77.17821304     101.15068478
H      80.14690805      76.09728959     101.61177800
H      83.32353798      76.64153077     102.47160347
C      82.52040430      76.14264303      98.55042137
O      83.95470657      77.21033839      97.08399375
N      81.27885411      74.04126737      97.87389935
H      80.45304372      73.13419873      99.33654752
C      80.70059786      73.15876518      95.41914487
H      82.14434877      73.99213448      94.20594058
C      80.72705403      70.28260173      95.40213733
H      79.10944831      69.61363861      96.49061969
C      80.30375534      69.37364337      92.68093144
H      81.50751100      70.30527844      91.29198260
H      78.29497627      69.53615983      92.26519165
H      80.54564030      67.33273895      92.54298142
C      82.97960780      68.99380838      96.81754234
H      82.89268039      66.93967588      96.70415876
H      83.02874068      69.43978379      98.82821114
C      85.60065819      69.62308725      95.72528053
H      85.76317465      71.66021221      95.48339556
H      85.62900409      68.81239466      93.83366449
H      86.93669470      68.77648986      97.04430950
C      78.22694612      74.42299208      94.39869266
O      76.21249787      73.26647958      94.48184062
N      78.37245504      76.81160614      93.53697746
H      80.00706831      77.64875490      94.05476247
C      76.42414722      78.21189334      92.11401355
H      76.07076840      77.13285961      90.39625233
H      77.27452406      79.92965456      91.35812302
C      73.95049547      78.65597902      93.19304727
O      72.35934592      79.45911270      91.73795801
N      73.53475568      78.39897624      95.70449354
H      75.08811071      77.94733165      96.71549712
C      71.04031695      78.86951809      97.02541223
H      69.53609481      78.08150222      95.86134083
C      70.88913885      77.45789254      99.50284343
H      72.17982192      78.31960774     100.85966692
H      71.68282390      75.66265254      98.87356457
C      68.26997818      76.98168151     100.35322027
N      66.81299919      74.77448117      99.93748048
H      67.46684449      73.05483023      99.42914410
C      64.40359814      75.16376480     100.98060941
H      63.17905549      73.56505633     101.30753206
N      64.26186867      77.64119599     101.63067526
H      62.85969174      78.46889612     102.62845075
C      66.59946011      78.75802424     101.29052452
H      66.90370605      80.75735468     101.55886566
C      70.45828125      81.69465893      97.32776844
O      71.30865809      83.00423927      99.07576528
N      68.84256525      82.73778786      95.57977160
H      68.33233914      81.53781165      94.18704331
C      67.55188218      85.09049712      95.77441342
H      68.98996390      86.54936583      95.55898462
C      65.72073738      85.24167522      93.58233089
H      64.72296189      83.44832495      93.40091717
H      66.86969098      84.99412108      91.89102584
C      64.06722686      87.48855981      92.95872121
H      63.35480004      87.36005842      91.03120037
C      61.62570046      87.57170777      94.60656255
H      60.35769410      88.97766414      93.79586997
H      62.16616218      87.89485097      96.56809847
H      60.66571949      85.75001160      94.57254748
C      65.49019077      89.98299854      93.35745346
H      64.46973856      91.57603782      92.54487115
H      67.26464378      89.90174031      92.31432454
H      65.51097776      90.45165067      95.36434281
C      66.09490319      85.19065261      98.34066175
O      64.93272151      83.46344276      99.13812625
N      66.38214159      87.43753720      99.62945509
H      67.07945060      88.95687715      98.70726865
C      65.29554896      87.95532221     102.08043012
H      64.44328239      86.24511989     102.84954873
C      67.45172668      88.98711277     103.83598587
H      66.48985599      89.86016633     105.43658405
H      68.71784331      90.32881846     102.92135833
C      69.20728243      86.88006794     104.78084902
H      69.91970925      85.74434242     103.21615564
C      71.59589649      88.07248524     105.92035399
H      72.45950141      89.37450667     104.57864831
H      72.95083025      86.59471926     106.39467529
H      70.94961009      89.19120322     107.52473163
C      67.85801784      85.20577042     106.57608902
H      66.98685401      86.24700962     108.12566460
H      69.09389885      83.72989417     107.31119256
H      66.24797102      84.15886204     105.83153685
C      63.11669452      89.85638688     102.16924726
O      61.11169490      89.30080734     103.15001521
N      63.39070484      91.95587281     100.68203265
H      65.16893730      92.36405370     100.12267366
C      61.34602096      93.80402515     100.16613737
H      59.67928236      92.76278595      99.55008659
C      60.57123318      95.30635757     102.53774389