 %block lattice_cart
   139.898   0.000   0.000
   0.000 144.87   0.000
   0.000   0.000   168.12
 %endblock lattice_cart

 %block positions_abs
N      92.27328180      41.98395019      85.20989847
H      94.16867729      42.19370981      85.22690600
H      92.04273519      40.25863006      84.43133123
H      91.64022349      42.21638652      86.99757955
C      91.26038850      43.91902993      83.54693930
H      91.79518105      45.79741790      84.19889488
C      92.43579827      43.75084430      80.93911700
H      91.56841389      42.12001049      80.02637918
H      94.47292323      43.49195179      81.08462592
C      91.74793789      46.11111246      79.40276951
H      89.69569511      46.22071658      79.51426335
H      92.43390854      46.02040559      77.46391030
S      92.99515725      48.88145124      80.99202933
C      91.64400294      51.21337350      78.79616735
H      93.05373877      51.87855716      77.45068223
H      91.30385220      52.89711965      79.93567232
H      89.99994105      50.27417953      77.98547476
C      88.51839562      43.90580185      83.57717493
O      87.59242973      42.13512830      82.49625148
N      87.36566257      45.81442542      84.57495042
H      88.37288669      47.23927906      85.34973820
C      84.68036148      46.08087683      84.70156209
H      83.68825516      45.09821916      83.18789130
C      83.85644080      44.82609857      87.28103850
H      85.34365541      43.51840796      87.84228721
H      82.14245904      43.69415250      87.13175012
C      83.81297710      46.61566938      89.50902583
O      81.84388228      47.52084830      90.22901154
N      85.90868358      47.57187090      90.42743282
H      86.01450825      48.30130526      92.18865773
H      87.46770779      46.80464201      89.63374777
C      83.69959352      48.93058412      84.46723603
O      85.17546977      50.53874122      83.98913526
N      81.26940548      49.33876500      84.88108608
H      80.07320873      47.85910930      85.02092583
C      80.14501833      51.88422635      84.74124633
H      80.43603618      52.48893877      82.79293850
C      77.36901037      51.56486260      85.19289093
H      76.62256848      50.39701173      83.66788179
C      76.47705955      50.39890147      87.84984612
H      77.31042886      48.54507995      88.17109959
H      74.44371404      50.09087607      87.71000638
H      76.96082949      51.51950917      89.50902583
C      75.99139989      54.06119106      84.68455454
H      76.52430271      55.47659607      86.08484175
H      73.94860575      53.81174719      84.72045934
C      76.50729517      55.27061589      82.04460689
H      76.50918490      53.73048895      80.68022448
H      78.40647012      56.05674205      82.15043156
H      75.42070254      56.94113396      81.52304242
C      81.36011235      53.88922597      86.46089728
O      81.84955146      55.94713791      85.74847046
N      81.94403778      53.30530054      88.84762162
H      81.29019247      51.54974479      89.21611824
C      83.09299137      54.97014942      90.67498696
H      81.86844872      56.61043186      90.89986440
C      83.05708657      53.61521564      93.29036817
H      84.54808064      54.40134180      94.47333685
H      83.64479146      51.67824617      92.91053318
C      80.57965538      53.83064444      94.69254510
C      80.32832178      55.57108238      96.71455226
H      81.66246856      57.09798124      96.93942968
C      78.11167281      55.40478647      98.29814290
H      77.86411867      56.82586065      99.74378354
C      76.67359109      53.25049848      98.12617782
H      74.90291753      53.06341556      99.12584304
C      76.94760140      51.46659683      96.23834122
H      75.67959505      49.89812399      95.92086721
C      78.94315239      51.74249688      94.58105124
H      78.90346814      50.38000420      93.05982156
C      85.79907945      55.75249610      89.75846970
O      86.62488985      57.92568137      90.11751770
N      87.21826392      54.02150681      88.49613253
H      86.81386248      52.16201612      88.65297981
C      89.75616635      54.60732196      87.58150499
H      90.80874391      55.76194475      88.92321066
C      90.98637818      52.05430172      87.29048714
H      92.82130243      52.19036200      86.36452123
H      89.86199103      50.74850084      86.16232052
C      91.61943650      50.74661110      89.76035942
H      90.00938968      50.71637549      91.04726304
H      93.20491688      51.74249688      90.62018489
C      92.26761262      47.97060315      89.27658948
O      90.60843292      46.68747898      88.36196195
O      94.35576020      47.22605099      90.22523209
C      89.62388551      55.99816053      85.00013885
O      91.36999263      57.41356553      84.41810313
N      87.60565781      55.62777417      83.47323998
H      86.29985693      54.29362740      83.86252361
C      87.14078514      57.05262782      81.13942798
H      88.80752374      56.86365518      79.94134150
C      84.85988548      55.82619544      79.82606820
H      83.18369824      56.28350921      80.93155809
H      85.11688826      53.78340129      79.87142163
C      84.41013061      56.83152983      77.11620067
H      85.93136030      55.87721804      76.10897654
H      84.15690729      58.86676507      76.93100749
S      81.52640826      55.43502208      75.85386349
C      82.15757685      55.64667144      72.50904791
H      80.96138009      54.36354727      71.43001419
H      84.03029563      54.84164802      72.20480198
H      82.15568712      57.56096419      71.74748820
C      86.73638371      59.84753302      81.78193493
O      87.83998387      61.51616137      80.53282583
N      85.21515402      60.49003998      83.73591193
H      84.21926826      59.05573770      84.50125109
C      84.50461693      63.00715543      84.45778738
H      83.88289697      64.02949736      82.78160014
C      82.09143643      62.68023278      86.03948831
H      81.63790211      64.50759812      86.87663706
H      82.72638447      61.22136406      87.34906864
C      79.86911828      61.82607648      84.37841889
H      80.52863277      60.26516255      83.21245774
C      77.60144671      61.11553938      86.06783420
H      76.71138562      62.63865879      87.13175012
H      78.31198380      59.78895152      87.47379058
H      76.34099926      60.34264133      84.63164220
C      78.97338801      63.82729664      82.47924393
H      77.09500006      63.40588768      81.74791985
H      80.29430670      63.92745214      80.90321220
H      78.86945306      65.57340376      83.56583656
C      86.71370699      64.37531728      85.76925746
O      87.20503583      66.66755529      85.47257042
N      88.24060585      62.91644856      87.04860217
H      87.81541743      61.05695788      86.99568982
C      90.77472884      63.64399320      88.06905438
H      90.68591170      65.44679210      89.06116069
C      91.86888037      61.48781546      89.83783820
H      92.21659001      59.87587893      88.60384691
H      90.38166576      60.99270717      91.17387471
C      94.31607595      62.36464848      91.04726304
H      94.22536908      64.11831449      92.12251732
H      95.67667889      62.80873416      89.56571761
C      95.58408230      60.45980436      92.95021743
H      94.21214100      59.60375834      94.22389297
H      97.10531199      61.48214629      93.88941141
N      96.86342702      58.46236364      91.52347407
H      97.18845994      58.81952192      89.67721146
C      97.59286137      56.28539893      92.32282831
N      97.06940719      55.58997964      94.60561770
H      97.83663607      54.03095544      95.39741301
H      96.03950634      56.76727914      95.69787949
N      98.75315333      54.81330214      90.81104726
H      99.50526440      53.21459367      91.53670216
H      98.86653691      55.40856592      89.00257917
C      92.69469077      64.34508166      85.97145817
O      93.69813544      66.42189088      86.01303214
N      92.60776336      62.87865403      83.91354621
H      91.50227347      61.32907846      83.78126536
C      94.03639645      63.64966237      81.65343354
H      95.91100496      64.34319192      82.15043156
C      94.15355948      61.38010106      79.71646406
H      92.38477566      60.32563379      79.81095038
C      94.67323422      62.19457311      77.04250133
H      96.13777211      63.63832402      77.11053148
H      92.97059081      62.92400747      76.13921215
H      95.50660352      60.67712289      75.92567308
C      96.08297005      59.43368297      80.58384845
H      95.71069397      59.32218912      82.60774532
H      97.97647582      60.15933787      80.21913126
C      95.68045835      56.77483805      79.31773182
H      95.75226795      56.98081821      77.26926850
H      93.82474711      56.09642630      79.90354697
H      97.20168803      55.48793442      79.83740656
C      92.98003944      66.08551959      80.44778815
O      94.42568007      67.89209795      80.08118125
N      90.50449797      66.19512371      79.94323123
H      89.34987520      64.73058582      80.35330183
C      89.26105806      68.27949184      78.70735021
H      89.96403625      68.59129667      76.79683692
C      86.42835832      67.66155133      78.39365566
H      85.76884383      69.61174888      78.46735498
H      85.37389103      66.65243749      79.84685519
C      85.49861297      66.60519432      75.82173814
O      86.67024328      67.39887937      73.94901936
O      84.03218535      64.72113719      75.66300112
C      89.67868758      70.92888813      79.97346684
O      90.23237738      72.71845894      78.67333515
N      89.04562926      71.02526418      82.38664736
H      88.83586964      69.36797420      83.30883379
C      88.59209495      73.22301588      84.06850377
H      89.12877722      74.93699763      83.05938991
C      85.83120480      73.25892067      84.87541691
H      85.57042257      75.05227095      85.85429514
H      85.65168080      71.95500952      86.45900755
C      83.55219487      73.22112614      82.99891867
H      81.84955146      72.81105553      84.08362157
H      83.69959352      71.63753549      81.69122806
C      83.02118177      75.78737447      81.66855136
O      83.48605445      76.12563549      79.39710032
O      82.30875495      77.49379735      83.07261801
C      90.29284863      73.37797344      86.47790481
O      91.81785776      75.17510316      86.85773980
N      90.23426711      71.34084846      88.04259820
H      89.11365941      69.91032565      87.45111386
C      91.36054399      71.05361007      90.48601432
H      93.20869633      71.96256843      90.44633007
H      91.77439406      69.09396388      90.96411509
C      89.93191090      72.41988219      92.58550027
O      88.81697238      74.30015988      91.96944948
N      90.13033216      71.51281355      94.97789377
H      91.22259397      69.95945853      95.17064586
C      88.51083671      72.13642325      97.03580572
H      86.66079465      72.85262952      96.48211592
C      88.07997911      69.76103726      98.66286009
H      89.80340951      68.92388852      99.41308144
H      87.42046463      68.26248431      97.41375099
C      86.16568636      70.03504759     100.84927343
H      85.86333015      71.98713487     101.43319886
C      83.49550308      69.17144265      99.94598425
H      82.83031942      70.47724354      98.49845389
H      82.09143643      69.41521735     101.43508858
H      83.54463596      67.19856839      99.35638965
C      86.87055427      68.36263979     103.09804775
H      85.26239718      68.09807811     104.36038491
H      88.45603465      69.17522211     104.12794858
H      87.44503107      66.50692856     102.41774627
C      89.70325402      74.39653592      98.53246896
O      91.97470505      74.36630030      99.22032935
N      88.16690652      76.38452799      98.96143685
H      86.38300489      76.40342526      98.28869427
C      88.86799499      78.81849548     100.27101717
H      90.85220762      78.83739275     100.82281725
C      88.23493667      81.18443283      98.69687515
H      88.18769351      82.84928172      99.90818972
H      86.55496998      80.72144988      97.60083389
C      90.40623221      81.45277397      96.66919882
H      90.89756105      79.65753396      95.78858636
H      92.16556740      82.06882475      97.54603184
C      89.71459238      83.51446538      94.80214922
H      89.75427663      85.28324921      95.85283706
H      87.80407907      83.15919682      94.11617857
N      91.46636867      83.81871132      92.70077356
H      93.11798946      84.73900803      92.96533525
C      91.06763642      83.03258517      90.32349787
N      88.91523814      82.06504530      89.51469500
H      88.85287718      81.59261371      87.66654267
H      87.52250985      81.47167122      90.68065613
N      92.76461064      83.25179341      88.63786200
H      92.43579827      82.41842411      86.95222613
H      94.42756980      84.06626545      89.10273466
C      87.46581806      79.14163869     102.83159634
O      85.22271293      78.38385843     103.06025321
N      88.85287718      80.05248676     104.66463085
H      90.56307949      80.73278824     104.15062529
C      88.09320720      80.23201076     107.31780660
H      86.33576173      79.27958870     107.81480461
C      90.10198627      79.11140307     108.91840479
H      90.04151503      79.88997031     110.82513864
H      91.78573241      79.65375452     107.86015804
C      90.24182602      76.22201153     109.06391371
H      88.70925798      75.34706825     110.12216044
C      90.68591170      74.72345857     106.54868798
H      91.04306997      72.73168703     106.93041271
H      92.34887086      75.42832648     105.56036112
H      89.12121831      74.83306269     105.21265149
C      92.66067570      75.50391554     110.46609064
H      94.27639169      76.24468825     109.42296171
H      93.02917233      73.50647482     110.81569000
H      92.45847498      76.69444311     112.13282925
C      87.58865027      82.99857010     108.15684508
O      87.09354198      83.51446538     110.37349405
N      87.98171335      84.74467721     106.35782563
H      88.26139284      84.29870179     104.52290138
C      87.89478594      87.47155227     106.46176057
H      87.16913103      88.25767842     108.22298550
C      90.56496922      88.58271134     106.26144959
H      91.22259397      88.32192912     104.32825958
H      91.83297557      87.59060503     107.54646349
C      91.03362134      91.47966179     106.61860787
H      90.61599183      91.83115088     108.60659994
H      89.69002593      92.29791327     105.29390971
C      93.82663683      92.12594818     105.85893788
H      93.99482247      92.26011875     103.81047456
H      95.05873839      90.65196165     106.60537977
C      94.53339447      94.75266776     106.82269830
H      93.67923818      94.86983079     108.69163762
H      93.64900256      96.28712552     105.77012074
N      97.41522710      95.08714932     106.65073320
H      97.68545796      96.94475028     106.99655312
H      98.07285186      94.85849244     104.87250074
H      98.28450120      93.79646625     107.75244364
C      86.10710484      88.25578869     104.33203903
O      86.25450350      87.01612823     102.35160584
N      84.34210047      90.17197117     104.73833018
H      84.54241146      90.85983155     106.50711401
C      82.39757209      90.92219252     102.95253881
H      81.16169108      89.33482242     102.51034286
C      80.39824165      92.67018936     104.05424926
H      81.42814249      94.06291765     105.17296723
C      78.64079618      93.68875184     102.02090374
H      77.83766250      95.43863841     102.75411755
H      77.23106035      92.29413383     101.46343447
H      79.69715319      94.53345950     100.46565899
C      78.66158317      91.20376174     106.20286807
H      79.88234637      90.42708423     107.67118541
H      77.74506591      89.52568478     105.44508783
C      76.78697467      92.99900173     107.34804221
H      75.86856768      92.27334683     109.04312673
H      75.33944431      93.77945870     106.10460230
H      77.76774262      94.66951979     108.04724096
C      83.58243049      91.78768718     100.50345351
O      85.32475815      93.41663125     100.55069667
N      82.65079542      90.68975618      98.35672443
H      81.13145546      89.53702313      98.45687992
C      83.37645032      91.67619332      95.76590964
H      84.43091760      93.43363879      95.95677201
C      85.21137457      89.56536902      94.90419445
H      86.49449874      89.33482242      96.50101319
H      86.43213777      90.32881846      93.43020792
C      84.16068674      87.14462962      93.84216825
C      84.13801003      86.64007270      91.27214047
H      84.96382042      87.97232974      89.96633959
C      83.10999891      84.32326824      90.26869580
H      83.28952291      84.11350862      88.24668865
C      81.88923571      82.71133169      92.05259745
O      80.71949513      80.66097865      91.16820552
H      80.59099374      80.74412659      89.35973745
C      81.95348641      83.28769822      94.65664030
H      81.07854312      81.95166172      95.93031583
C      83.16480097      85.46088348      95.46355343
H      83.28196401      85.93898424      97.44587634
C      81.15413218      92.17319133      94.13507584
O      79.07732296      92.47554754      95.08749789
N      81.55664388      92.24122148      91.65008574
H      83.14023453      91.36060903      91.05104249
C      79.55920317      92.67396881      89.76413887
H      77.64113096      92.56058524      90.50680131
C      79.66502784      95.38572607      88.61896473
H      78.36111669      95.49910965      87.02781518
H      81.58687950      95.81280421      88.01614204
C      78.87323252      97.19230443      90.75246573
H      79.91825117      96.82758725      92.48912422
H      76.85311509      96.85593314      90.97545344
C      79.44392986      99.97776101      90.02870056
H      79.19070654     100.39539052      88.02559067
H      81.38656851     100.43696451      90.53892666
C      77.72238919     101.85425924      91.40253158
H      78.31765298     101.90717158      93.37162641
H      75.83833206     101.02277967      91.30993500
N      77.87923648     104.41105894      90.33294649
H      76.51296435     105.52977692      91.06238085
H      77.45404806     104.43562538      88.47156607
H      79.54219563     105.31623785      90.56916229
C      79.73872717      90.60849796      87.73079337
O      81.74183706      90.10394102      86.73301788
N      77.58065972      89.81481290      86.91254187
H      75.99517934      90.48377602      87.73835227
C      77.30098022      88.20854553      84.53715589
H      79.17558873      87.45832418      84.13275447
C      75.22795046      86.20732537      85.15698613
H      73.38168785      87.11628373      85.19478065
H      75.51140941      85.44387593      87.04860217
C      75.44337926      83.86406474      83.62630781
O      77.08177197      83.50312702      82.05027606
O      74.09600440      82.00079460      84.04015788
C      76.61878903      89.99244717      82.39231652
O      76.82476919      92.29791327      82.53026654
N      75.78919917      89.01923813      80.21724155
H      75.41503336      87.15029879      80.13031413
C      75.94226701      90.27023694      77.75114870
H      77.75073509      91.19998229      77.42233633
C      75.94604646      88.19909691      75.65733195
H      75.57566010      88.99845113      73.79595154
C      78.62189892      87.03880494      75.50237440
H      79.06976405      86.31126031      77.37698289
H      79.87100801      88.59404971      74.99025857
H      78.55386877      85.51757527      74.11531528
O      74.26041059      86.11850823      75.91622445
H      72.94705080      86.38306991      74.69168181
C      73.89191396      92.27901601      77.13320820
O      74.35489690      93.67552376      75.39654971
N      71.68093417      92.47365783      78.46735498
H      71.40503413      91.27746106      79.92811341
C      70.15970449      94.73377050      78.21602137
H      70.14269695      95.50855829      76.30739780
C      67.43093969      94.13850670      78.87742558
H      66.48418681      95.93563642      78.52593649
H      67.30621776      93.84370940      80.91077110
C      66.18938950      91.98988789      77.35619590
H      64.18438989      91.94453445      77.81350968
H      67.26086432      90.25511914      77.64910348
C      66.04954976      92.37917151      74.44979684
O      65.79632643      90.44220203      73.10431170
O      66.32167035      94.48432662      73.49926450
C      71.02897859      96.87105096      79.96023876
O      69.78742840      98.89116839      79.90354697
N      72.92248436      96.60082010      81.66666162
H      73.31554743      94.76022667      81.98035619
C      73.83144271      98.60770944      83.37308448
H      73.41003375     100.56546590      82.89309400
H      75.84589096      98.18630047      83.32962079
C      72.78264461      98.39606009      86.04893695
O      73.12468507     100.15728501      87.51536456
N      71.52597661      96.33058922      86.90120351
H      70.66804087      95.24966577      85.58406428
C      70.43371480      96.14161660      89.44666485
H      69.98018049      98.11638059      89.82272040
C      67.84101030      95.00400135      89.27092031
H      67.03220744      95.08148013      91.16253635
H      68.17927131      93.05758325      88.68699488
C      65.93616618      96.30035360      87.57205636
C      64.70595435      94.89439723      85.65020469
H      65.45806542      93.02734763      85.31761287
C      63.13559178      96.03768165      83.97968664
H      62.44017250      95.24021715      82.23546924
C      62.46095949      98.60581971      84.29527092
O      60.81311814      99.67729452      82.68144466
H      60.30478177     101.35726123      83.13875842
C      63.39259456     100.02311445      86.29271163
H      63.09779726     102.03567297      86.44955892
C      65.10090715      98.86471221      87.91598655
H      65.78309835     100.10437267      89.38619361
C      71.99651846      94.70731432      91.45733365
O      73.78230983      93.32214493      91.06238085
N      71.48251291      95.39517471      93.88563196
H      70.15781476      96.76522628      93.99145663
C      72.60690006      94.37472250      96.09283229
H      74.63079694      94.71487323      95.92842610
C      71.97195202      95.65595694      98.50601280
H      72.75051926      94.73377050     100.17653086
H      69.94238596      95.86193710      98.78380257
C      73.13413370      98.30724296      98.54002787
C      71.64880882     100.42562614      98.98978274
H      69.66081674     100.29334531      99.42441978
C      72.74296036     102.77644568      98.92742176
H      71.51274853     104.35625687      99.31292594
C      75.31109842     103.14494231      98.56648405
O      76.19171088     105.51654883      98.33593744
H      74.81599012     106.62770790      98.73844913
C      76.85122536     101.13994270      98.19420795
H      78.73150304     101.53111605      97.50634758
C      75.78919917      98.71164438      98.21310522
H      76.95516031      97.06002358      97.93531545
C      72.23273425      91.50044877      96.35928370
O      70.13135859      90.55180617      96.06070696
N      74.41347842      90.32881846      96.66541937
H      75.95549509      91.44753644      96.54258716
C      74.66481202      87.64729682      96.21566451
H      72.75429872      86.90463438      96.42164468
C      75.70983067      86.94998782      93.52847370
H      77.74317618      87.28446936      93.47367163
C      75.05976482      84.26846618      92.74990646
H      73.01697067      84.14185450      92.52124957
H      75.89313412      82.83416390      93.97066964
H      75.70416149      83.88674146      90.82994451
O      74.51930309      88.33704692      91.64252683
H      74.33033046      90.07370540      92.13385568
C      76.43548557      86.64196243      98.24901002
O      78.14568789      88.07059551      99.07482042
N      75.92525947      84.18342848      98.96143685
H      74.43615513      83.26124205      98.20365659
C      77.66380768      82.90030432     100.90407550
H      79.39479698      84.01146339     100.79447136
C      76.69059863      83.14974820     103.65551701
H      76.51485408      85.19254233     103.86905608
C      74.21694688      81.71733565     104.29235478
H      73.52341733      81.92520554     106.21987560
H      74.61945859      79.76335864     103.78212866
H      72.69760693      82.26157683     103.01112033
C      78.69937770      82.35984260     105.61516319
H      78.86189416      80.31137927     105.49422071
H      78.06820911      82.88896596     107.50299978
C      81.34877399      83.74690171     105.28824053
H      82.16513575      82.93620913     103.57803823
H      82.56008855      83.10250503     106.82458802
H      80.84043761      85.74056298     105.20509258
C      78.10411391      80.09595047     100.07259591
O      76.75484932      78.95455578      98.54758677
N      80.09210599      78.89030508     101.01556934
H      81.20893424      79.69343876     102.34026748
C      80.65146498      76.22579099     100.51668159
H      78.86378389      75.27525864     100.89840631
H      82.11222342      75.33006072     101.65807630
C      81.33932536      75.80438202      97.74823255
O      83.10999891      77.02325548      96.89974543
N      79.84077239      74.16409957      96.45754948
H      78.34788860      73.35718644      97.33060303
C      79.61211551      74.20000438      93.67776208
H      80.90090885      75.49446690      92.72534000
C      80.00139913      71.68855810      92.47211669
H      79.00551336      70.23913803      93.54170178
C      79.23417024      71.58651289      89.70177791
H      80.06564982      69.94434073      88.77392228
H      79.95982515      73.26647958      88.75502503
H      77.17814801      71.62808687      89.58839432
C      82.83409887      70.99124910      92.57794136
H      83.40668594      71.46557040      94.49979301
H      83.98305247      72.17043831      91.34017062
C      83.46715718      68.16610825      92.14519404
H      82.14056931      66.95479370      93.15241815
H      85.35499377      67.67666915      92.80659825
H      83.51817979      67.58596228      90.17043004
C      76.97594730      75.12785999      93.05793184
O      75.10889770      73.87497145      93.59272438
N      76.57910477      77.33506033      91.84472754
H      77.99828923      78.56338243      91.49701791
C      74.30765375      77.93410357      90.53892666
H      73.78797901      76.28248278      89.42587786
H      74.50796473      79.45533325      89.16131619
C      71.93793695      78.58983860      92.09984059
O      69.88191472      78.91676125      91.15308771
N      72.20627809      78.28559266      94.56026425
H      73.83522217      77.85095562      95.45032535
C      70.05387981      78.65030984      96.24023095
H      68.40792820      77.69788779      95.44276644
C      70.36568466      77.23679456      98.89718615
H      71.58077868      78.21945224     100.24078155
H      71.18582588      75.36029634      98.67608817
C      67.90904045      76.83050341     100.38251102
N      66.38592104      74.74613528     100.40140830
H      66.94150058      73.15687546      99.50189857
C      64.39225978      75.16565452     102.03035238
H      62.81055886      73.88630980     102.17775102
N      64.63225502      77.55993777     102.80136071
H      63.36613839      78.31015910     104.01645472
C      66.87913961      78.68999410     101.77712905
H      67.40259380      80.65719918     101.92074824
C      69.32255573      81.52458357      96.33093781
O      70.23718327      83.05715161      97.81059351
N      67.31755611      82.40141657      94.98545268
H      66.50308407      81.07860815      93.87618334
C      66.30844226      84.99601080      95.14796914
H      67.72384727      86.30937060      94.43365259
C      63.99919671      85.12262247      93.31871408
H      62.54032799      83.73556335      93.75524085
H      64.62280639      84.68231624      91.40442132
C      62.65371157      87.70020915      93.28658873
H      62.25875877      88.27846541      95.22355820
C      64.26942757      89.86016634      92.26613651
H      65.28610033      89.27246145      90.57483146
H      65.79632643      90.09638213      93.62862918
H      63.39637401      91.72154676      92.12062758
C      60.11580913      87.76257012      91.91086796
H      59.55078097      89.71654713      91.58205559
H      58.55111575      86.97644397      92.99368115
H      60.18383928      86.72133093      90.13263550
C      65.35413047      85.78024722      97.69343048
O      64.12580837      84.31381961      99.01056973
N      66.16104361      87.95154276      98.58538130
H      67.33456365      88.94742853      97.45532497
C      65.49019077      89.01356895     101.08548921
H      64.67004955      87.56981805     102.29869351
C      67.87691510      89.81859235     102.41396682
H      67.45550613      91.06959117     103.99566773
H      68.87658032      90.90707471     100.97966454
C      69.29987902      87.63595847     103.53268479
H      69.72506744      86.53235829     101.84704892
C      71.88124516      88.48066612     104.48321713
H      73.00941177      86.91786246     105.21076175
H      71.57510950      89.79969510     106.03468244
H      73.11901589      89.34427104     103.08104020
C      67.90715072      85.89174107     105.35249124
H      66.38403131      84.92798065     104.35471573
H      66.91504441      87.03502549     106.75088870
H      69.14303173      84.50657168     106.24255232
C      63.41338155      91.06581173     100.73777957
O      61.44806619      90.97321514     102.00200648
N      63.93305629      92.98577366      99.23355743
H      65.36546883      92.84404419      97.98066889
C      62.20017726      95.16273836      98.95954711
H      60.26131806      94.49566497      99.17308618
C      62.59701978      97.05813385     101.23288787