 %block lattice_cart
   139.898   0.000   0.000
   0.000 144.87   0.000
   0.000   0.000   168.12
 %endblock lattice_cart

 %block positions_abs
N      93.21720010      41.17987165      83.74536058
H      92.21942460      39.63407553      83.23891392
H      93.40617273      41.12129013      85.64264579
H      94.94629967      40.85483872      83.00647758
C      92.13438692      43.56848571      82.94789607
H      92.75799660      45.08026675      84.19889488
C      93.08491925      44.20154403      80.28905115
H      92.17407117      43.13195892      78.78293927
H      95.09180860      43.74989944      80.40999364
C      92.73343016      46.92086018      79.60685994
H      90.72087164      47.29313627      79.38009278
H      93.83325087      47.04747185      77.86831173
S      94.38127151      48.98255160      81.50981434
C      93.39294464      51.99666507      80.05850453
H      93.66506523      53.48954885      81.45123283
H      91.43518818      51.62816843      79.53882981
H      94.59859003      52.43886102      78.44845771
C      89.26767210      43.42864597      83.00458785
O      88.10738015      41.60694980      82.17499800
N      88.12060823      45.33726954      84.28015311
H      89.13350153      46.66007796      85.21367792
C      85.37294617      45.26357022      84.99069022
H      84.43564192      44.51334886      83.31828243
C      84.78335156      43.43242541      87.16576520
H      86.03812983      41.79970187      87.16576520
H      82.77835194      42.98645000      87.01836654
C      85.18964272      44.82704343      89.67343202
O      83.39440272      45.56970587      90.77514246
N      87.48943964      45.12562019      90.55593420
H      87.72565543      46.38417791      91.96944948
H      89.00688987      44.26957416      89.77169778
C      84.44698028      48.04146789      85.24958272
O      86.05891682      49.70631678      85.19478065
N      81.96765936      48.65562895      85.19667039
H      80.75067561      47.19109104      85.07572789
C      80.86027974      51.14439850      85.37052521
H      81.40074146      52.11760754      83.63953589
C      78.04080808      50.89873407      85.72957321
H      77.43987511      49.69686814      84.17054899
C      77.19610042      49.60238182      88.19188658
H      77.40586004      50.90629298      89.77169778
H      78.29781086      47.90729733      88.59250857
H      75.20054943      49.22065711      87.85362557
C      76.57438046      53.37049609      85.34973822
H      77.42286757      54.96920456      86.33239589
H      74.66575688      53.21175908      86.10940819
C      76.32304686      54.25110856      82.47546449
H      74.92653911      55.75533071      82.30538913
H      75.90730707      52.61460557      81.29816500
H      78.11828686      54.97676345      81.76681712
C      81.96010045      52.89995425      87.38308373
O      82.24733885      55.16195663      86.90498296
N      83.01645746      51.84548695      89.35784772
H      83.10338487      49.94442229      89.51091555
C      84.36383232      53.41962897      91.29670691
H      83.15251775      55.02778607      91.73323369
C      84.47343645      52.00800342      93.84405799
H      85.93419489      53.00388919      94.90041500
H      85.09137695      50.06347505      93.56626822
C      82.01112306      52.10626919      95.40119247
C      81.51601477      54.10937909      97.14729958
H      83.02401636      55.14683883      98.05247848
C      78.97811233      54.36260241      98.01657368
H      78.54914446      55.81013277      99.38851500
C      77.07704766      52.64673091      97.16997631
H      75.09850421      52.87538779      97.61028254
C      77.57404568      50.76645324      95.48245070
H      76.06415435      49.75544965      94.55270536
C      79.99856454      50.56236279      94.46010877
H      80.35572281      49.34537905      92.86140030
C      86.89795531      54.41362501      90.60506709
O      87.53101362      56.41295546      91.50079736
N      88.12060823      53.23443579      88.76069420
H      87.14739918      51.78501572      87.99157560
C      90.63772368      53.90339891      87.71567555
H      91.64305808      55.03723471      89.11029357
C      92.39516915      51.60549171      87.20733917
H      94.26788793      52.29524183      86.69711308
H      91.53534368      50.43386141      85.75036019
C      92.69185618      49.76678802      89.38997306
H      90.89850591      49.04491257      90.10051017
H      93.50443850      50.78157104      90.98679180
C      94.30379273      47.45754245      88.56605239
O      93.18318502      45.46955037      87.94244271
O      96.58091293      47.81092128      88.43755100
C      90.29568322      55.38305462      85.25903134
O      91.71108823      57.15939735      84.80927648
N      88.49099459      54.72920932      83.69811741
H      87.47432183      53.13805976      83.97590718
C      87.64439720      56.25232872      81.50225543
H      88.95019808      56.34492531      79.91110588
C      85.41074070      54.88605659      80.27015388
H      83.70998702      54.98810181      81.42666639
H      86.02301202      52.92074123      80.16432921
C      84.37517068      55.76666905      77.67933910
H      85.82270103      55.33203201      76.28094164
H      84.17485969      57.81513238      77.58863224
S      81.13806950      54.61960518      76.95746365
C      81.51412504      53.58781461      73.69390631
H      83.05425199      52.23099113      73.52950012
H      81.86183468      55.33392174      72.66022602
H      79.76234875      52.79223984      72.95313359
C      86.86205051      58.92062227      82.30916858
O      87.86171573      60.78767188      81.36808487
N      85.24066533      59.41195111      84.29149147
H      84.58682003      57.99654610      85.39320191
C      84.40540630      61.88938232      85.19667039
H      84.18430832      63.01376946      83.48646806
C      81.94309291      61.43584800      86.60829594
H      81.66719287      63.34636129      87.32261249
H      82.09427102      59.89383132      87.96511942
C      79.37495485      61.27333153      85.07950734
H      79.29747608      59.51021689      84.01748116
C      77.02413532      61.48876033      86.81238637
H      75.36117617      62.07457550      85.75036019
H      77.25846138      62.66605983      88.48668389
H      76.27958315      59.70296896      87.51914401
C      79.07637810      63.33313322      83.04427211
H      79.21432812      65.16049856      83.97968664
H      77.42097785      63.12904278      81.83673699
H      80.58248997      63.13471196      81.65343354
C      86.37639084      63.40872226      86.70656170
O      86.51434086      65.69151165      86.45522811
N      88.22265345      62.21252551      87.87441257
H      87.78423695      60.36437317      88.06338519
C      90.54134764      63.40683255      88.98179218
H      90.07647496      64.91483413      90.30649034
C      91.90573004      61.42639936      90.58616982
H      92.59925959      59.92028749      89.36351690
H      90.57914216      60.33980673      91.72567480
C      94.30946191      62.12748783      92.05637689
H      93.94096527      63.90383056      93.03147567
H      95.97997997      62.37126253      90.87718767
C      95.03889626      59.91272858      93.84216826
H      93.54979193      59.24376548      95.09883626
H      96.50154443      60.68562665      95.06671091
N      95.95730325      57.69796935      92.34739475
H      96.10848136      57.79812485      90.44633007
C      96.77933420      55.44730531      93.30737572
N      96.41083757      55.02211689      95.65252607
H      97.37081853      53.48576940      96.24778986
H      96.08580464      56.46964725      96.85628174
N      97.52577609      53.64072696      91.88252207
H      98.13426796      51.99288562      92.63274343
H      97.79789668      53.83725850      90.00602384
C      92.34225681      64.58980121      87.12041177
O      93.72364675      66.32079051      88.01236259
N      92.30068283      63.88493329      84.75447442
H      91.14417033      62.39582896      84.45589767
C      93.51955631      65.14160130      82.56050217
H      95.16739765      66.18473022      83.21812693
C      94.52300098      63.22352908      80.75959299
H      92.95074869      62.10859057      80.03582782
C      95.93840599      64.27988609      78.44467826
H      94.87637980      65.82757195      77.59241170
H      96.24832110      62.69440572      77.16722327
H      97.88860354      64.85247318      78.76971119
C      96.48075744      61.45096580      82.18444664
H      95.49054085      60.69696500      83.82850853
H      98.11537070      62.48086664      82.90065291
C      97.33302401      59.11337436      80.88053548
H      97.93395697      59.32502370      78.92088929
H      95.90061146      57.63371865      80.92210947
H      99.00354207      58.46141878      81.89909797
C      91.70919850      67.01054063      81.37564377
O      92.52178081      69.02498888      80.49881077
N      89.24310566      66.35291586      81.35674651
H      88.71776175      64.53499915      81.60241093
C      87.51400608      68.12169970      80.09440933
H      88.41540554      68.69428677      78.33318442
C      85.06114133      66.69684605      79.24592222
H      83.76289935      68.18784012      78.67144543
H      84.02746104      65.95796307      80.86919712
C      85.56947771      64.97719510      76.97069174
O      87.22109851      65.69529110      75.38899081
O      83.99722542      63.30100787      76.42456083
C      87.02456697      70.65582267      81.34351842
O      86.50111278      72.52665173      80.06417372
N      87.30802592      70.77487543      83.84551606
H      87.53857253      69.07601149      84.68644427
C      87.19653206      73.13514360      85.33462041
H      87.89573080      74.64125548      84.11385720
C      84.56225358      73.87969577      86.38530823
H      84.47910563      75.87146730      86.89742406
H      84.11438845      72.66460174      87.98779615
C      82.45520874      73.68316424      84.45211821
H      80.69209409      74.13291910      85.41587863
H      82.38150942      71.74619476      83.75669894
C      82.53079780      75.46139670      82.17310828
O      83.52857329      77.60623605      82.27893295
O      81.18720239      75.05510553      80.24180799
C      89.15428852      73.04443674      87.50213648
O      90.57725244      74.87180208      87.83283858
N      89.65506600      70.93172272      88.83817298
H      88.59870899      69.39537523      88.42810238
C      91.19519294      70.87125148      91.23812541
H      93.06035281      71.72162832      91.03025550
H      91.55424094      68.97963544      91.96755977
C      89.82703109      72.21106744      93.58894494
O      87.81258284      73.39403610      93.49445862
N      90.90417509      71.79343791      95.78480691
H      92.26099858      70.45362196      95.87551378
C      89.96498111      73.11624633      98.04114014
H      87.94297396      73.48852242      97.91830792
C      90.32024966      71.26431455     100.23700210
H      90.29190376      72.24886197     102.04547018
H      92.20052734      70.43850416     100.07070619
C      88.48532541      68.91349502     100.28046581
H      88.47587678      67.97052159      98.44932102
C      89.29223854      66.98030499     102.11350033
H      91.23487719      66.36803367     101.80925439
H      88.34926511      65.17939583     101.79035713
H      88.92374191      67.54911261     104.05802872
C      85.75467089      69.43505948     100.95320838
H      84.79280019      67.61525305     100.86817070
H      84.72854950      70.59913089      99.60016433
H      85.76034007      70.21173699     102.86183195
C      91.11771416      75.60879535      98.37184224
O      93.20019256      75.83367277      99.38284581
N      89.66451463      77.51174975      97.87295449
H      87.99777602      77.35868192      96.95076804
C      90.02734208      80.05343163      99.12584304
H      91.98698827      80.11012342      99.76646025
C      89.44152692      82.12268194      97.16241740
H      89.52845433      84.03319525      97.92397709
H      87.45353484      81.82788464      96.71266253
C      91.26133336      81.98662166      94.86073074
H      91.18385458      80.15547686      93.92153676
H      93.17751584      82.42503815      95.48056098
C      90.15773320      84.10689457      93.09761610
H      90.63205450      85.92481129      93.93665458
H      88.09793151      84.04264387      93.06360102
N      91.10070663      84.21082953      90.60128764
H      92.19485816      85.70371331      90.13830469
C      90.17663046      82.94849235      88.69833324
N      88.31525004      81.26663593      88.73423804
H      87.82581093      80.63357762      87.00324873
H      87.67652255      80.56176801      90.38963828
N      91.16495732      83.48706435      86.48357401
H      90.52056065      82.60078271      84.92077033
H      92.39327942      84.94215361      86.35507261
C      88.35115484      80.18382275     101.41808105
O      86.27056617      79.28620274     101.44075777
N      89.42640911      81.14380372     103.47410328
H      91.17251623      81.80142848     103.06214295
C      88.48343568      81.13246536     106.07247696
H      86.67118815      80.18760221     106.32759001
C      90.46197913      79.56777197     107.50111005
H      89.64939682      79.44493976     109.39272610
H      92.24966022      80.55420910     107.23654837
C      90.87582919      76.89947842     106.69797637
H      91.15928814      76.67082154     104.67030003
C      93.04145555      75.49919121     107.97165190
H      94.76299622      76.62924756     107.94897518
H      93.32869395      73.74930466     106.92285380
H      92.61059795      75.02486991     109.93129809
C      88.45131034      75.34990284     107.19875384
H      86.80724844      75.79965771     106.04224135
H      87.83903901      75.63714124     109.14328221
H      88.90484465      73.39970528     106.71120446
C      88.18296920      83.67036780     107.44252854
O      86.81480735      83.85745071     109.35493156
N      89.26200292      85.77363319     106.45042222
H      90.45064077      85.35789340     105.01423023
C      87.94486368      88.39657331     106.45231194
H      86.94141901      88.71593705     108.22487523
C      90.01222427      90.53574350     106.19341944
H      90.67740793      90.71904695     104.25078079
H      91.60904300      89.90646462     107.33292442
C      88.90484465      93.08309456     107.12883396
H      88.04123973      92.99049797     108.99777330
H      87.31936427      93.41757612     105.85704817
C      91.04590456      95.02762293     106.86427228
H      92.00966498      94.86888593     105.05202475
H      92.38761025      94.58164753     108.36093553
C      90.43363324      97.80741035     107.40662373
H      89.58892558      97.82819733     109.28501170
H      88.93130082      98.32519536     106.09515368
N      92.61248768      99.46659005     107.15340041
H      92.21942460     101.31285266     107.42930046
H      93.52900494      99.38911126     105.48288235
H      93.86726595      99.16234411     108.55935679
C      85.80569350      88.46460346     104.45676097
O      86.24599973      87.38556972     102.42152573
N      83.62116988      89.67213856     104.99344324
H      83.44164588      90.19370303     106.82080859
C      81.64829561      90.51117704     103.13584227
H      80.42186323      89.00695491     102.44420245
C      79.93431384      92.61444244     104.23188354
H      81.08893662      94.06953170     105.12383435
C      78.31292867      94.02417827     102.25522980
H      77.03736340      95.45092164     103.01678951
H      77.29058673      92.77128972     100.97966454
H      79.55069940      95.14478596     101.04958443
C      78.21088345      91.46737857     106.28601603
H      79.34093978      90.50172842     107.71464912
H      76.95043599      90.15023933     105.32792480
C      76.59516745      93.44970147     107.65228816
H      77.87451216      94.63833931     108.74643969
H      75.51046454      92.59743490     109.18296648
H      75.55203852      94.88589347     106.60915923
C      83.10527460      91.64879228     100.91919330
O      84.80413855      93.22860349     101.25745431
N      82.43064230      91.01762371      98.57971212
H      81.20420992      89.57009335      98.36995250
C      83.19409173      92.11177523      96.13818574
H      84.35627341      93.76150630      96.55959470
C      84.96854474      90.04252493      95.02891639
H      86.33292714      89.47938649      96.46510839
H      86.05324764      90.90424013      93.50390726
C      83.90273910      87.50462248      94.04058953
C      83.56825754      87.26084780      91.42142885
H      83.91596718      88.82176173      90.15531222
C      82.40418613      85.02341184      90.38207938
H      81.94498264      84.96105087      88.39408730
C      82.00545388      82.93337453      92.15275293
O      81.25334281      80.59767281      91.25135349
H      80.96043523      80.72995366      89.46367240
C      82.53268752      83.18659786      94.75490608
H      82.34938407      81.57277158      95.99078708
C      83.39440272      85.47694616      95.72055621
H      83.90462883      85.60733726      97.69343048
C      80.99445030      92.71270820      94.44499096
O      78.78724997      91.99272248      94.84561293
N      81.71065658      93.65190218      92.23212144
H      83.52479384      94.20748172      92.03370018
C      80.07982277      94.41346189      90.11751770
H      78.17497865      94.58731671      90.88474658
C      80.65807902      97.12899859      89.14241892
H      79.59227338      97.22726436      87.38119399
H      82.61961493      97.41623700      88.58683938
C      79.58849393      99.32864002      90.76758355
H      80.24422896      99.23982289      92.71778111
H      77.55892787      99.40422908      91.11529319
C      80.25745704     101.90055754      89.78492586
H      79.97588782     101.93646234      87.74591118
H      82.19253679     102.15567058      90.44633007
C      78.67008694     103.96602840      91.27214047
H      79.41463911     105.87087252      91.03214524
H      78.47544513     103.45391256      93.26013255
N      76.10005915     104.20791336      90.25357800
H      75.33472000     102.47881378      89.98712658
H      76.21533246     104.89766347      88.47534554
H      74.98134118     105.31529298      91.33072200
C      79.98722618      92.44247735      87.87630229
O      81.84860660      91.65068202      86.84262200
N      77.73278269      92.00595057      86.96167475
H      76.31548795      92.82987123      87.93677353
C      77.08082711      90.38834483      84.75447442
H      78.00112382      88.56097949      84.99635939
C      74.11395680      89.76473515      84.87541691
H      73.22956488      91.44470184      84.07795240
H      73.34294846      89.41324606      86.75380487
C      73.54703890      87.51218139      83.19922966
O      74.02702939      85.49206396      84.19133598
O      72.49257162      87.68603622      81.02415468
C      77.95577039      91.56186487      82.13720348
O      78.58882871      93.87300015      81.92744386
N      77.85561490      90.15779823      80.13598332
H      77.65530391      88.27563083      80.37030938
C      78.12206631      91.20470660      77.48091784
H      79.89462959      92.24972526      77.57162471
C      78.62851296      89.03341108      75.51749220
H      79.41652883      89.98961259      73.87343032
C      80.68264546      87.06242653      76.02204914
H      80.24422896      85.74906675      77.54516853
H      82.47410601      87.89012666      76.61542320
H      80.97933249      86.00040034      74.28539065
O      76.58571882      87.86556022      74.64821810
H      75.60495086      89.00128573      73.62776590
C      76.11139751      92.99238770      76.81573418
O      76.88051612      94.84054004      75.79906142
N      73.73979099      92.74672328      77.82295830
H      73.46578067      91.28407512      79.01915507
C      71.71778383      94.74038454      77.79839186
H      71.84061604      95.52273124      75.89732720
C      69.00791630      93.63867409      78.12342480
H      67.71345378      95.19958804      77.77193569
H      68.62997104      92.99616716      80.04338673
C      68.55816144      91.61099777      75.98614434
H      69.41987664      89.79875023      76.44345809
H      69.50680405      92.47460269      74.37231807
C      65.69900553      91.43525322      75.61008879
O      64.50658822      93.28151582      74.70302016
O      64.50847795      89.37923099      76.17889641
C      72.34328324      96.95703350      79.63898529
O      71.25291116      98.91290024      79.41221813
N      74.04403692      96.58286770      81.57595477
H      75.15897545      95.04274075      81.73469177
C      74.66008770      98.40834331      83.54504958
H      74.35773149     100.26783400      82.71168027
H      76.64619006      98.05874395      83.97023800
C      73.22011625      98.13244327      86.12074655
O      73.68498893      99.74249009      87.74591118
N      71.58172354      96.34854162      86.45144866
H      71.17921183      95.36777368      84.86596828
C      70.27970211      95.94225048      88.93265930
H      69.59562118      97.68079868      89.80004367
C      68.03848670      94.13945157      88.31093935
H      66.78559816      93.83331591      89.91531699
H      68.87374573      92.34799102      87.73268309
C      66.45867550      95.01061540      86.18877670
C      65.75758704      93.27017747      84.37463944
H      66.57772826      91.40690733      84.24802777
C      64.06250254      93.90701524      82.43578024
H      63.41054696      92.58987599      81.01848551
C      63.14787500      96.29940875      82.43766996
O      61.41310625      96.75483279      80.58762791
H      60.96335139      98.48204263      80.91455056
C      63.72046208      98.19480424      84.26692503
H      62.78504755     100.00516205      84.15354146
C      65.54404797      97.61843771      86.09995955
H      66.26781315      99.11132149      87.29237686
C      71.87085166      94.80463524      91.14174937
O      73.86073347      93.73505014      90.68254587
N      70.99779811      95.05785855      93.49445862
H      69.15153550      95.49060589      93.70421824
C      72.30359899      94.01850909      95.65441580
H      74.30859861      93.94669948      95.18954313
C      72.18265651      95.72493195      97.96555108
H      72.75524358      94.67235439      99.64173831
H      70.20600278      96.29940875      98.01846341
C      73.70955537      98.23448850      97.84838805
C      72.40186476     100.57396967      97.84838805
H      70.35907061     100.59475665      97.88429285
C      73.81538004     102.65644807      97.97688944
H      72.90264223     104.46680588      98.19609768
C      76.39296673     102.68857340      97.69720994
O      77.77435667     104.90333265      97.58382636
H      76.74634555     106.39432670      97.67831268
C      77.73845187     100.41145321      97.30225714
H      79.77179738     100.36609978      97.14729958
C      76.35328248      98.11165628      97.53469347
H      77.22066686      96.32586491      97.05659273
C      71.89163865      91.22927304      96.09283231
O      69.80160135      90.25039482      95.97755900
N      74.05915474      89.92158244      96.29503302
H      75.62951730      91.00817507      96.28747412
C      74.49757124      87.16069230      95.94732337
H      72.61918328      86.33866135      96.13251655
C      75.49534673      86.75440114      93.17131542
H      77.41908812      87.45926906      92.95966608
C      75.48589810      84.06343087      92.00346457
H      73.63585604      83.15825197      91.95622141
H      76.80303734      82.67448203      92.76502426
H      76.32304686      84.04453360      90.12129716
O      73.75679853      88.03185613      91.45544392
H      74.22545065      89.77040434      91.23056650
C      76.41753317      86.09488665      97.82571133
O      77.94632176      87.54997592      98.77246421
N      76.29659069      83.59099930      98.32270936
H      75.20243915      82.57054709      97.13596122
C      78.14474302      82.33244156     100.02346303
H      79.94943165      83.19982595      99.54347254
C      77.23200521      82.46850187     102.80136071
H      76.65563869      84.37334599     103.33804298
C      74.87740623      80.76774818     103.45331630
H      75.33472000      78.76085884     103.31725599
H      73.46578067      81.30632017     102.05491882
H      74.18576640      81.10600919     105.36382959
C      79.26157128      81.83166410     104.80825006
H      79.85494534      79.86067954     104.84226513
H      78.65685885      82.13968949     106.75466816
C      81.71254630      83.41903420     104.59093154
H      82.99378074      83.14880333     102.99978197
H      82.70654234      83.27919445     106.38995098
H      81.11728251      85.38623929     104.66841031
C      78.70788147      79.61123568      99.11450468
O      77.29625591      78.51897387      97.54603184
N      80.59571805      78.23740464     100.20676649
H      81.85238605      79.11234793     101.34627145
C      80.84138247      75.48029396     100.11039045
H      78.95732534      74.79810276     100.58471174
H      82.15096281      74.87747126     101.58248725
C      81.63695725      74.73196234      97.41753044
O      82.88795607      76.27397901      96.20999534
N      80.79224959      72.57578462      96.56904334
H      79.63384736      71.57422967      97.70854829
C      80.63729203      72.09390441      93.90263950
H      82.17552925      73.12947442      93.00501951
C      81.26468117      69.29710945      93.23745584
H      80.16863991      68.18217094      94.58294097
C      80.72043999      68.64893334      90.47278625
H      79.22566648      67.23352833      90.46144788
H      82.32292790      67.65682702      89.63752722
H      80.19509607      70.27409796      89.32005319
C      84.01423295      68.70184568      93.79681483
H      84.72665977      69.97930066      95.24245547
H      85.06303106      69.45584647      92.19054747
C      84.52067960      65.94662471      94.36940190
H      83.67408222      64.67483889      92.98801196
H      83.76478908      65.58001780      96.24967958
H      86.56536347      65.79355687      94.55081563
C      78.14474302      73.33545460      93.03336540
O      76.11139751      72.14114756      93.24879420
N      78.23733961      75.68816385      92.11495841
H      79.85683506      76.69349825      92.21511391
C      76.32493658      76.78042566      90.52380885
H      75.75045979      75.36502066      89.14241892
H      77.07326820      78.41503891      89.51847445
C      73.75868825      77.50230112      91.56504806
O      72.15997979      78.50007661      90.38396911
N      73.48467794      77.03364898      94.03681008
H      75.05881996      76.74830032      95.07615954
C      71.16598375      77.37946890      95.46544316
H      69.66554106      76.38547286      94.46577794
C      71.56471600      76.10390364      98.12050863
H      72.91020114      77.31143875      99.10883549
H      72.47178463      74.26142049      97.95799217
C      69.25547045      75.89414402      99.68142257
N      67.58306266      73.95339510      99.61717187
H      67.96289765      72.23374415      98.88206834
C      65.42121576      74.56566641     100.87195014
H      63.79794086      73.35624157     101.14218102
N      65.68577744      76.98073665     101.61650231
H      64.44422725      77.82544431     102.79569154
C      67.98179491      77.79520869     100.99667209
H      68.61107378      79.71139118     101.31981529
C      70.42710076      80.22728645      95.59394456
O      71.57038518      81.65780928      96.99234202
N      68.39753470      81.02097151      94.17476009
H      67.60384965      79.63769185      93.12974145
C      67.46589963      83.64958080      94.12184776
H      69.13641769      84.84010839      93.92342650
C      65.63475483      83.69115479      91.93165497
H      64.07762035      82.43637652      92.42676325
H      66.51725702      83.00140468      90.20633484
C      64.58973618      86.35188944      91.51024599
H      64.13053269      87.35155466      93.25068393
C      66.60796388      87.89768556      90.10617934
H      68.43343950      87.68603622      91.03970415
H      65.97490557      89.83654476      90.39530747
H      66.84606940      87.62178551      88.07850300
C      62.16899677      86.16669626      89.81138204
H      60.77815821      85.06120637      90.85262123
H      62.45623517      85.19915639      88.01425231
H      61.57940216      88.10555546      89.44666485
C      66.29993849      84.27319049      96.76935432
O      64.91476911      82.72550464      97.82382161
N      66.77803925      86.49928809      97.70854829
H      68.02903807      87.51596085      96.68809609
C      65.78026376      87.70304375      99.94787399
H      64.77681909      86.29708738     101.07037141
C      67.88541887      88.86522543     101.54280299
H      66.99535778      89.77985297     103.16040871
H      68.60540460      90.48661060     100.49400489
C      70.04537605      87.09644160     102.38184147
H      70.67465491      86.06087159     100.71888232
C      72.41698257      88.06587119     103.59126631
H      73.53570055      86.47850109     104.27723696
H      71.86140303      89.43214332     105.03123776
H      73.48845739      89.12600767     102.18908938
C      68.77736969      85.11222898     104.19597873
H      70.20789251      83.75729521     104.79124253
H      67.23913247      84.12390212     103.24733613
H      67.92321340      86.13268118     105.77012075
C      63.66377029      89.65891049      99.52646501
O      61.61341724      89.44726114     100.56770421
N      64.25336490      91.50706281      97.95799217
H      65.99380283      91.60721831      97.17942493
C      62.33718242      93.54229806      97.40052291
H      60.56083968      92.51050749      97.25123454
C      62.02159812      95.34698669      99.61528215