 %block lattice_cart
   139.898   0.000   0.000
   0.000 144.87   0.000
   0.000   0.000   168.12
 %endblock lattice_cart

 %block positions_abs
N      92.63799898      41.51151861      83.91165649
H      91.88966736      40.97294661      85.58406427
H      94.51260748      41.15625007      83.91732567
H      91.96147696      40.70649520      82.31861720
C      92.28839961      44.33476973      83.75858865
H      93.39766896      45.17002875      85.27981834
C      93.43357376      45.03963764      81.18667114
H      92.92145793      43.59399701      79.81095039
H      95.43668365      45.47805415      81.36808487
C      92.29028934      47.36589074      80.10007851
H      90.25127465      47.13534412      79.92622369
H      92.91200930      47.18447700      78.14610151
S      93.07074631      50.46882135      81.28493691
C      91.59675978      52.53051274      78.99836807
H      91.57786252      51.64990029      77.13509793
H      92.36209894      54.43157741      79.19867906
H      89.57475263      52.76861827      79.31584209
C      89.42735397      44.87523145      83.83795716
O      87.86832977      43.36345041      82.99135977
N      88.83397991      47.14290303      84.96801350
H      90.25883355      48.29752580      85.50091632
C      86.18647335      47.66824694      85.74469101
H      84.91657727      46.57220569      84.54849425
C      85.73860821      46.67992008      88.50369143
H      86.06364114      44.64846429      88.60573665
H      83.70148325      46.93881259      88.64731063
C      86.68158164      48.27106963      90.58239037
O      87.85699141      50.31197406      90.32538759
N      86.43969667      47.25817634      92.88785647
H      87.46203861      48.30130526      94.11617858
H      85.68947533      45.55175347      93.30170654
C      85.36633213      50.46504188      85.45367316
O      86.87622345      52.06375034      84.72045935
N      82.91346737      51.07920294      85.84295678
H      81.86466927      49.61844450      86.48546372
C      81.83632337      53.70403278      85.69366840
H      82.17269466      54.26528150      83.74158112
C      78.99984418      53.58120057      86.20011505
H      78.46505163      51.80485785      85.30249505
C      78.24773311      53.31663889      88.98179218
H      76.19738006      53.27128546      88.79092983
H      78.72394414      54.99660558      90.07783345
H      78.87134279      51.56108315      89.85862519
C      77.64302069      55.72792967      84.82250457
H      78.00584814      55.45391935      82.81561522
H      78.44048519      57.49671350      85.51603413
C      74.70449627      55.89044613      85.21556764
H      74.34355854      56.29295783      87.20355972
H      73.75774339      54.13111093      84.71290044
H      73.93915711      57.46080869      84.12330583
C      83.11566809      55.63911253      87.53237210
O      83.15535234      57.92379165      86.99568983
N      84.39123335      54.76605897      89.52603336
H      84.63689777      52.88011211      89.69043955
C      85.54018695      56.49893800      91.50646654
H      84.40257171      58.21480949      91.59339395
C      85.61955545      55.18935767      94.17098064
H      86.70425836      56.49515855      95.33883150
H      86.94803305      53.62655401      93.97822856
C      83.28574346      54.51661510      95.52780413
C      82.63567761      56.05296259      97.68776131
H      83.57109213      57.85198204      97.92586682
C      80.49839715      55.41801455      99.18253482
H      79.94659706      56.66334420     100.70187478
C      79.02630035      53.25238820      98.53246897
H      77.28208296      52.78940525      99.48300131
C      79.80675731      51.74060715      96.48589537
H      78.80520237      50.05497127      95.91519803
C      81.96860422      52.23004626      94.97411432
H      82.44859470      50.80519262      93.59461411
C      88.11399419      57.48726487      90.86773904
O      88.99649637      59.58675081      91.50457681
N      89.44625124      56.06808040      89.27092031
H      88.54107233      54.47504112      88.73612776
C      91.72148172      56.66523392      87.75724953
H      92.58886610      58.30740608      88.64731063
C      93.53183953      54.35787809      87.44166524
H      95.16645279      54.89833981      86.31160890
H      92.34509140      52.88011211      86.63664183
C      94.78472807      53.52450879      90.07405399
H      95.89966660      51.82186538      89.76035942
H      93.26916757      52.96326008      91.35339871
C      96.35320091      55.62588444      91.37040624
O      97.00326676      55.16290151      93.68910043
O      97.20735720      57.57986145      90.26113690
C      90.97315010      57.93701973      85.11352242
O      92.35454003      59.63399396      84.22346133
N      88.81697238      57.29829223      83.96078937
H      87.85888113      55.74115775      84.51258945
C      87.85132223      58.57385749      81.72335342
H      89.33853684      58.65322601      80.30227923
C      85.58931983      57.05073808      80.67077586
H      83.91124287      57.64978134      81.70634588
H      85.85199179      55.01172339      80.78037999
C      84.93547453      57.53261829      77.97980559
H      86.41513023      56.50271745      76.98391982
H      85.11688825      59.54328709      77.57918361
S      81.70782199      56.58586542      77.05572942
C      81.76640350      56.76916886      73.65611179
H      80.63067799      55.25171863      72.85297810
H      83.69581407      56.67846201      72.93801579
H      80.62500881      58.38299514      73.07785553
C      87.41101600      61.33663737      82.24491788
O      88.60532303      62.95235337      81.17155333
N      85.93891920      61.82229702      84.26314558
H      85.07531428      60.34075161      85.09840461
C      85.48160543      64.28461042      85.20044983
H      85.14712388      65.66411063      83.70945577
C      83.18180851      64.36964810      86.94655694
H      83.38589895      66.07607096      88.08228246
H      83.10432973      62.65944578      88.09173109
C      80.61933963      64.54728238      85.55949783
H      79.06787433      64.16366794      86.85962953
C      80.04486283      67.24770127      84.74691552
H      80.34154986      68.57806860      86.29271164
H      78.06820911      67.37053348      84.18188735
H      81.35255344      67.76548628      83.24458310
C      80.24139437      62.84085951      83.28237762
H      78.26852010      62.86920540      82.69278301
H      80.62311908      60.91522839      83.90787703
H      81.75128569      63.20368696      81.93122331
C      87.73226947      65.63765445      86.30405000
O      87.69258522      67.96390754      86.32483699
N      89.74482799      64.26949260      86.97301311
H      89.69947456      62.36464848      86.83317337
C      91.91801325      65.73780995      87.93866326
H      91.16401246      67.02471356      89.35973745
C      93.95513822      64.05406380      89.09328604
H      94.65433696      62.67456360      87.73457282
H      93.04240041      63.16400271      90.71089176
C      96.01682963      65.76426611      90.24979854
H      94.97559043      67.03605192      91.49134873
H      97.03539211      66.83952039      88.81927572
C      97.98970390      64.11642477      91.71055698
H      99.19156983      65.45435101      92.71778110
H      99.04417118      63.21124587      90.18932730
N      97.11665034      61.88465799      93.31871407
H      97.18279076      60.21225021      92.40030708
C      96.53839409      61.67678810      95.63173908
N      96.34186255      63.65344183      97.08493861
H      95.91289468      63.61375758      98.94442931
H      96.09430841      65.41655647      96.39329878
N      96.12454403      59.45824941      96.53502826
H      95.60864874      59.12187813      98.34160661
H      96.26816323      57.97103481      95.34828013
C      93.06885658      67.41588692      85.92232528
O      93.45814020      69.60418999      86.49302263
N      93.18601961      66.54472309      83.49591670
H      92.77594900      64.72680637      83.07828718
C      94.18946428      68.01304043      81.42288693
H      95.27794664      69.57206464      82.22224116
C      95.97903510      66.59385597      79.68622845
H      96.67445438      68.01870961      78.37097894
C      98.20324297      65.45246127      81.29438554
H      99.49581577      64.40555289      80.07740180
H      97.36987367      64.24870562      82.74380562
H      99.06684790      66.93967588      82.42633160
C      94.74882327      64.40177345      78.19334466
H      92.92334765      64.96302216      77.42044660
H      94.39733418      62.79739581      79.43489485
C      96.36642900      63.70635417      75.81606896
H      95.38755077      62.44779644      74.51026808
H      98.27694230      63.01093488      76.15244025
H      96.52705573      65.53938869      74.89010307
C      92.14289069      69.44545297      80.04338672
O      92.76839010      71.34651764      78.92655847
N      89.69002593      68.87475563      80.25692580
H      89.17224092      67.16455332      80.93533754
C      87.57542219      70.28827091      79.21001742
H      87.90423457      71.02148472      77.31273220
C      85.40790611      68.37019870      78.61853308
H      83.76384421      69.41332762      77.95145969
H      84.96759988      67.37809239      80.36841965
C      86.11655347      66.63542994      76.37542795
O      85.09988072      64.53972347      76.19779368
O      87.60754753      67.40832801      74.69924071
C      86.74016316      72.45011781      80.97502180
O      85.31341979      73.93922215      80.04338672
N      87.17480021      72.52948631      83.45812217
H      88.41635040      71.28226695      84.19322571
C      85.96348564      74.38708728      85.27225943
H      85.80852808      76.27870332      84.47857438
C      83.37834005      73.56883579      86.12641573
H      83.59943802      72.07028282      87.52103374
H      82.39568236      72.69767196      84.54093535
C      81.70971171      75.65698337      87.19411109
H      82.64701596      76.97034315      88.47345581
H      80.13745942      74.88030586      88.27314482
C      80.38690329      77.21222812      85.02659501
O      78.48394890      76.32405676      83.79827291
O      81.47538565      79.20966884      84.27259421
C      87.85888113      74.83684215      87.43977551
O      88.35776888      77.05916029      88.07661328
N      89.33664711      73.03971243      88.33172633
H      89.21381490      71.26147996      87.65520431
C      91.07519532      73.44789330      90.56727256
H      92.42634963      74.91054148      90.04003892
H      92.15233932      71.70934510      90.80159862
C      89.78073279      74.12819479      93.03903458
O      87.51306122      74.00725230      93.30359626
N      91.30385220      74.88597504      94.91742253
H      93.14633536      75.15998534      94.50924165
C      90.47804180      75.16376479      97.55737019
H      88.44658602      74.85762913      97.43831743
C      91.62132622      73.20033917      99.45465541
H      93.66223064      73.14175764      99.18442455
H      90.78039801      71.36163545      99.06726152
C      90.95425284      73.48190838     102.39317983
H      92.03517629      75.00691751     103.25867448
C      88.19903187      74.12819479     102.73899974
H      87.50361259      73.62930703     104.61360825
H      87.06330636      73.02459461     101.42375023
H      87.74549756      76.11240740     102.41774627
C      91.87077010      71.14053748     103.83504100
H      91.61943650      71.37864299     105.86649679
H      93.79262176      70.49047162     103.48355191
H      90.73315486      69.45868106     103.49866972
C      91.33597755      77.82449945      98.41908539
O      93.67356900      78.14575292      98.67986762
N      89.53128892      79.38541338      99.12962248
H      87.70203385      78.98479140      98.75734640
C      89.96025679      81.80237333     100.45810008
H      91.90667490      82.25590766     100.95698783
C      89.18168955      83.80926268      98.53435870
H      88.93035595      85.55536980      99.59638488
H      87.33542695      83.35761809      97.74256337
C      91.07141587      84.25334836      96.33282754
H      91.58542142      82.45999810      95.45599453
H      92.79295654      85.20199098      96.94887832
C      89.77128416      85.96166095      94.30326148
H      91.08653368      86.88006794      93.01446814
H      88.56941823      87.39218377      95.17064586
N      88.15745789      84.54436621      92.57416190
H      87.25038926      83.00612899      93.24879420
C      87.37700092      85.39663278      90.34995403
N      87.70959276      87.69642970      89.60729159
H      86.75150151      88.32570856      88.08417219
H      88.85098745      88.86994974      90.59183900
N      86.10899457      83.84705720      89.11596275
H      85.36633213      84.15886204      87.38686318
H      86.24883432      82.03858913      89.70744709
C      88.44280657      81.60017262     102.82403743
O      86.27151103      81.42064862     102.93364155
N      89.74482799      82.06693502     104.96509734
H      91.52872963      82.71322143     104.77045553
C      88.65634564      81.52836303     107.48032306
H      87.17291048      80.12618609     107.21009220
C      90.78795692      80.60428685     109.23776853
H      90.07175065      80.76113413     111.16150992
H      92.32997359      81.96488980     109.14895140
C      91.95202833      77.90575768     108.89761780
H      90.35520959      76.61507461     108.71620407
C      93.83797519      77.66387271     106.54868799
H      95.68612752      78.40842487     107.06458327
H      92.90445039      78.50291119     104.91596446
H      94.34631157      75.67021146     106.44097359
C      93.33908744      77.14230824     111.38827708
H      95.10598154      78.20244471     111.35993118
H      93.72837106      75.14864698     111.72653809
H      92.12021397      77.90764740     112.86226360
C      87.37511120      83.82815994     108.57825405
O      86.18836307      83.60328252     110.60404066
N      87.36755229      85.87473354     107.28001207
H      88.53351343      85.72922461     105.77767965
C      86.13356101      88.32948803     107.86582723
H      85.19058758      88.30870103     109.69886175
C      88.31430518      90.29102393     107.99810807
H      89.24782997      90.39684861     106.16507355
H      89.75616635      89.50300807     109.24154799
C      87.33353722      92.85160308     108.96564794
H      86.34521036      92.69286607     110.76466739
H      85.76128493      93.45631550     107.78078955
C      89.31774985      94.83581571     109.36626992
H      90.59709456      94.96431710     107.75622310
H      90.30796644      94.08559437     111.00844209
C      87.91368320      97.31702637     109.74043573
H      86.56063916      97.14884072     111.28245240
H      86.89890017      97.59103668     107.96976218
N      89.54073755      99.51288834     110.49821598
H      90.78984665      98.80424097     111.75866343
H      88.46926273     100.86782211     111.31268802
H      90.50260825     100.44641314     109.14328222
C      84.16257647      88.91341345     105.73988513
O      84.45170459      87.99311674     103.72165743
N      82.12545150      90.43653287     106.32759001
H      82.07631862      91.00156103     108.15117590
C      80.24706355      91.37383712     104.48132740
H      79.21716271      89.72788549     103.79724648
C      78.40835984      93.18041546     105.63972963
H      79.35322300      94.92463285     106.19152972
C      76.50351572      94.07047656     103.61394303
H      77.72616864      94.79991091     102.12861814
H      75.18826621      95.46887403     104.36038492
H      75.34700322      92.44153248     103.10938610
C      77.13846376      91.95020363     108.01133616
H      78.70126742      91.23021791     109.13950276
H      76.11612183      90.27401640     107.38583675
C      75.45282789      93.67930322     109.43430007
H      74.97283741      92.82136746     111.24465788
H      73.71616941      93.87772447     108.34392799
H      76.57154587      95.40840280     109.47587405
C      81.71538089      92.53223934     102.20987637
O      83.67313735      93.64150869     102.79191208
N      80.69303896      92.35271534      99.88551301
H      79.24172915      91.18108503      99.48300131
C      81.65301992      93.69064158      97.59894417
H      82.59410363      95.36304936      98.34727579
C      83.78463120      91.99744680      96.43109331
H      85.02618139      91.31336588      97.92208737
H      84.89201082      92.97065584      94.99112186
C      82.80386325      89.61261219      95.35205959
C      82.54308102      89.16474705      92.72534001
H      82.78307626      90.72188153      91.42520831
C      81.70404253      86.88762684      91.80693302
H      81.58687950      86.76290490      89.77358751
C      81.63601239      84.74089775      93.40753121
O      81.08421230      82.33905561      92.60061807
H      80.65713416      82.46566728      90.84317260
C      82.16324603      85.06593068      95.99645626
H      81.98372203      83.48234002      97.27202152
C      82.63000843      87.46777282      96.93187078
H      82.97582834      87.60383312      98.93876013
C      79.65368948      94.28590537      95.62795963
O      77.70349193      92.92152296      95.42197946
N      80.04297310      96.37405293      94.27491559
H      81.49617264      97.48710173      94.82104649
C      78.29686599      97.55702161      92.40975572
H      76.36556570      96.99766263      92.85951058
C      78.26663037     100.39350081      92.78392153
H      79.96360460     101.20230367      91.93921386
H      78.01907622     100.72798237      94.80214923
C      75.94793618     101.52166741      91.53481243
H      74.29253593     100.47097958      92.17165020
H      76.03864305     101.24765709      89.49579774
C      75.68715395     104.45830211      92.00157483
H      77.58065972     105.22175153      91.72756452
H      74.85378465     104.61514938      93.87807306
C      74.14324755     105.50710021      89.79059505
H      72.29887467     104.62648775      90.03814919
H      75.01630111     104.97041794      88.00480368
N      74.10923248     108.30011570      89.79626422
H      73.25885564     108.99931444      91.35528843
H      73.23239947     108.88215141      88.20322494
H      75.89880330     108.94451238      89.63563749
C      79.17936818      96.66696051      89.74713134
O      81.31097946      97.10726675      88.91376204
N      77.63357205      95.08903904      88.52636814
H      76.09911429      94.47676771      89.48067993
C      78.21182831      93.83615049      86.15287189
H      80.08832654      93.02167845      86.38530823
C      76.53942052      91.51178713      85.83917733
H      74.59867160      92.20342697      85.91287665
H      77.00807265      90.22488352      87.37552482
C      77.15358157      90.15307391      83.40898929
O      75.33188541      89.93575538      81.94067194
O      79.38912780      89.58993548      82.89876318
C      78.29686599      95.75422271      83.84173661
O      77.25562679      97.80646549      84.07228322
N      79.05086679      95.08148013      81.55327805
H      79.44959904      93.22198945      81.39832049
C      78.75417976      96.81813863      79.36875443
H      79.45337849      98.65495259      79.98291548
C      79.91258199      95.63894941      76.94423557
H      79.62156414      97.00144207      75.42489561
C      82.69047967      95.10037741      77.23336370
H      83.09488110      93.29001960      78.13287342
H      83.61266611      96.57625366      78.33507414
H      83.66179899      95.09470823      75.41544698
O      78.63890645      93.49222031      76.11464572
H      79.40046616      92.97443529      74.55184206
C      75.93092865      97.26600375      78.67900433
O      75.54164503      99.21998077      77.66989047
N      74.03931261      95.62005213      79.21568660
H      74.49095720      93.85504776      79.78449422
C      71.34456289      96.33058924      78.92466875
H      71.28787110      97.31324691      77.11431094
C      69.57766878      93.95898270      78.94545574
H      68.59123165      93.72276691      80.73691628
H      70.75496828      92.28279546      78.73191666
C      67.62747123      94.05535876      76.90077186
H      66.79788138      95.94130562      76.94990475
H      66.17616142      92.70798389      77.46957949
C      68.46084053      93.63961896      74.17578652
O      69.07500158      95.58036789      73.01549457
O      68.47028916      91.36249876      73.15344459
C      70.38836137      98.25999979      80.95423481
O      68.29643434      99.14061225      81.00714714
N      72.11935067      99.02155950      82.68522411
H      73.91081122      98.36960392      82.59640697
C      71.67337526     101.02466940      84.44077985
H      70.47150933     102.50054565      83.64898453
H      73.52152760     101.84859006      84.83951211
C      70.59434154      99.94563566      86.84829118
O      69.74963388     101.65772770      88.31660852
N      70.55276756      97.47198393      87.30749467
H      71.70361088      96.27578716      86.36452124
C      69.05799405      96.32303033      89.32950183
H      67.55944108      97.60048532      89.93421425
C      67.63691986      93.96276217      88.23724002
H      66.38214159      93.27679151      89.72067517
H      68.98807417      92.48499618      87.75535981
C      65.91537919      94.62416638      85.91476638
C      64.98941329      92.62105648      84.46156684
H      65.50908803      90.74455826      85.07572789
C      63.20740138      92.93097160      82.58317889
H      62.50631292      91.40596247      81.42288693
C      62.32300947      95.37438771      82.07106306
O      60.39359890      95.92807752      80.41944226
H      59.70951798      97.55513188      80.83707177
C      63.06000273      97.43796885      83.48079889
H      62.01498408      99.18029651      83.28237762
C      64.82122765      97.03734687      85.47634987
H      65.22373936      98.71164438      86.56861168
C      70.84945459      95.49533021      91.46489256
O      72.87524120      94.51078279      90.99057125
N      70.00663666      95.63139050      93.88185251
H      68.25297064      96.34570704      94.10861967
C      71.32566562      94.27834646      95.87362405
H      73.32121661      94.77345474      95.74701238
C      70.56788537      95.13628221      98.50223335
H      71.38235741      93.96843134      99.99133768
H      68.53265013      94.82825682      98.58727103
C      71.29543000      97.85370864      99.09182796
C      69.51341809      99.64327945      99.39985335
H      67.56133081      99.07825130      99.60205406
C      70.28064697     102.18496135      99.64362804
H      68.87469059     103.52855675     100.26912745
C      72.84689530     102.98998475      99.44709651
O      73.51207897     105.55812282      99.36205882
H      72.06832806     106.62203874      99.63606914
C      74.60812023     101.03222829      98.99356219
H      76.48272873     101.61426400      98.43987238
C      73.85789888      98.49810532      98.83860463
H      75.34889294      97.14506128      98.50412308
C      71.16125943      91.40029329      95.69976923
O      69.37357834      90.25322940      94.99679104
N      73.25885564      90.28535476      96.51613099
H      74.71016545      91.47588233      96.86006118
C      73.99773863      87.62273038      96.27424603
H      72.34800756      86.40007746      96.44621112
C      75.20527374      87.04447412      93.65319563
H      77.21783227      87.04447412      94.07838405
C      74.51363391      84.38373948      92.73478864
H      72.48217813      84.42720318      92.40408654
H      75.12023606      83.06093107      94.19365736
H      75.73061766      83.99445586      91.11907264
O      74.56654625      88.81136824      91.82583029
H      74.81221067      90.50078355      92.44188106
C      75.83077315      86.85928096      98.43420320
O      76.94571168      88.58271134      99.69087120
N      76.04053277      84.33838604      99.06159234
H      74.97850658      83.14029956      98.02413259
C      78.04742212      83.35572837     100.83037617
H      79.73494771      84.53869703     100.81147890
C      76.95893976      83.45210441     103.56669987
H      75.98006153      85.24167522     103.84826909
C      74.96338877      81.39419245     103.95598349
H      73.22106111      82.08583228     103.10371692
H      74.65347366      81.40742053     105.98932900
H      75.42448199      79.44210517     103.47977246
C      79.29275176      83.12707149     105.41296248
H      80.93681365      84.22311274     104.82714732
H      79.90313336      81.16931503     105.61705292
C      78.58410439      84.17964903     108.02078479
H      80.17336422      84.32326824     109.32469594
H      77.25940624      82.80770773     108.79557258
H      77.73183782      86.05047808     107.87527586
C      78.93370376      80.66097865      99.95543288
O      77.69971248      79.18132295      98.57593268
N      81.05208695      80.00902306     101.03635633
H      82.08387752      81.28080888     102.01712429
C      82.18214329      77.45789254     100.82281726
H      80.89334994      76.16720947     101.77901878
H      84.01895727      77.37096513     101.75445233
C      82.57520636      76.53003693      98.21499495
O      83.97360383      77.58261448      96.72589061
N      81.04452805      74.61952362      97.58760581
H      80.01084776      73.64064539      98.86128135
C      81.04263832      73.42332686      95.08371845
H      82.75284064      74.27937289      94.31837929
C      81.61522540      70.64920863      95.32182396
H      79.79730868      69.80261124      95.79236582
C      82.62433925      69.46812970      92.81037769
H      84.42524842      70.38464695      92.40408654
H      81.34688426      69.94056127      91.26647130
H      82.82087078      67.41777665      92.73667837
C      83.57298186      70.22213050      97.42319962
H      82.78118653      70.88164498      99.20521154
H      85.24916910      71.37675327      97.10950506
C      84.40824089      67.47446844      97.63673870
H      82.73961255      66.27260250      97.72933529
H      85.54207667      67.11164099      99.31859512
H      85.70459314      66.78282860      96.19109807
C      78.57654548      74.01670092      93.66453399
O      77.11200759      72.39342602      93.10328527
N      78.19482077      76.54137529      93.16375651
H      79.55164426      77.78103574      93.67965180
C      76.17659307      77.40498021      91.30048637
H      76.30131500      76.16531975      89.65831420
H      76.61500957      79.36462640      90.84695205
C      73.47617417      77.51836379      92.37007146
O      71.66770608      77.97378783      91.01135824
N      73.21539193      77.45978227      94.91364308
H      74.84622574      77.22356648      95.87929323
C      70.78898335      77.76780765      96.34983508
H      69.54743316      76.63019241      95.16497668
C      70.90803611      76.55838282      99.08993823
H      72.29131577      77.58261448     100.21810484
H      71.81888419      74.71212021      99.09749714
C      68.42304601      76.55649309     100.27101718
N      67.14181156      74.40976400     100.48266652
H      67.83156167      72.71845896      99.92897672
C      65.04421536      74.78392981     101.93208661
H      63.73652475      73.51592345     102.84671414
N      64.90815506      77.38230350     102.32137023
H      63.48708088      78.27047486     103.23788749
C      67.06811224      78.54448518     101.27446185
H      67.55944108      80.51169026     101.49744955
C      69.88191472      80.53058753      96.40085769
O      71.03842722      82.18976724      97.71421748
N      67.88258428      81.16553556      94.90797390
H      67.09078895      79.80115317      93.83082990
C      66.47473818      83.66753320      94.59994851
H      67.82967194      85.10561494      94.01980253
C      64.44139266      83.53336264      92.46077833
H      62.81055886      82.59983784      93.30359626
H      64.76453586      82.22189257      90.90742330
C      63.73463502      86.10150069      91.40442132
H      63.69117132      87.45832420      92.95399689
C      65.60168462      87.01234879      89.47312103
H      65.34279211      85.95788149      87.72512419
H      67.57455889      86.69109531      89.97200877
H      65.24452635      88.95687716      88.89108532
C      61.07956955      86.09205207      90.37263075
H      61.11358463      85.16041700      88.53581677
H      60.45784960      88.02524209      90.02303138
H      59.70384880      85.08671766      91.53103298
C      65.41082226      84.54625594      97.15674821
O      64.41304677      82.93053994      98.45687992
N      65.65270723      86.93864946      97.87106476
H      66.63347519      87.97232974      96.59927895
C      64.51698172      88.06492633     100.19164867
H      63.88392340      86.59093981     101.48422147
C      66.54276832      89.48411079     101.70531945
H      65.55066201      90.78802196     102.95442854
H      67.58967670      90.69353564     100.40518775
C      68.52509123      87.75690094     103.16229844
H      68.81799880      86.33393704     101.70342972
C      70.75496828      89.39718339     104.18464037
H      70.15214558      90.46298902     105.84193035
H      71.26897383      90.66518974     102.64451343
H      72.42926579      88.23500171     104.49455549
C      67.50652874      86.20165619     105.38839603
H      66.01553468      84.92798065     104.75911717
H      66.82244782      87.50178789     106.83025721
H      69.00886116      84.97522381     106.08570504
C      62.30222248      89.83182045      99.47544240
O      60.04588926      89.49355943     100.04802947
N      62.88047873      91.96532145      98.15263398
H      64.64548311      92.12594818      97.44398661
C      61.07201065      93.81158405      97.09438725
H      59.32968299      92.84404419      96.57660224
C      60.36903246      95.82225286      99.11450467