 %block lattice_cart
   139.898   0.000   0.000
   0.000 144.87   0.000
   0.000   0.000   168.12
 %endblock lattice_cart

 %block positions_abs
N      93.42223540      46.91424614      83.01781594
H      93.19924769      45.64623978      81.60619038
H      92.64555788      45.95804462      84.47479493
H      95.26282883      47.33376538      83.29749543
C      91.62321595      48.94948138      82.54727409
H      92.26761262      50.43858572      83.81717017
C      91.67423856      49.83765274      79.64087502
H      90.97692955      48.39012239      78.35208167
H      93.61309776      50.35354803      79.17222289
C      90.05474311      52.26973051      79.65977228
H      88.11021473      51.67068727      79.99236411
H      90.25694382      53.14845324      77.80784049
S      90.81252336      54.78306652      81.85752398
C      94.34253211      55.12510698      81.66855135
H      95.05684866      56.74649214      82.72112891
H      94.72992601      55.28573370      79.65221338
H      95.37621241      53.44703001      82.26948432
C      88.95303267      48.22193676      83.47701943
O      88.06864075      46.17536315      82.74002617
N      87.61321671      49.71482054      85.17588339
H      88.40690176      51.33431598      85.80327253
C      84.93169507      49.48238420      85.90909720
H      84.26462169      47.83265314      84.86974773
C      84.85232657      48.59988201      88.63786199
H      85.98049318      46.88212079      88.78715037
H      82.91346737      48.10477373      89.13108056
C      85.78963082      50.60299190      90.41609446
O      84.60477242      52.58531480      90.79970890
N      88.06864075      50.25339253      91.49890763
H      88.65823536      51.72359960      92.56093382
H      89.16468202      48.73027313      91.14930826
C      83.32920716      52.03918391      85.63319716
O      84.47627103      53.95914584      85.17966284
N      80.81965062      52.16390585      86.02437050
H      79.93903816      50.49338778      86.28893219
C      79.26062641      54.36165754      85.52548276
H      79.37589971      54.95881105      83.55827767
C      76.53564107      53.63411291      85.50280604
H      76.33533008      52.05997089      84.18944625
C      75.61912380      52.67224221      88.09173109
H      73.56310158      52.56263809      88.15976124
H      76.17848279      54.00071981      89.56193816
H      76.47139037      50.85999468      88.57172157
C      74.72150381      55.70147350      84.71479017
H      75.10700797      57.48348541      85.67099168
H      72.83744667      55.08731245      85.28170806
C      74.78386477      56.12666191      81.90854659
H      76.27863829      57.50238267      81.56461641
H      72.95460970      56.77483804      81.21690676
H      75.19015593      54.33331165      80.97691152
C      79.88990527      56.54807089      87.16387547
O      79.93903816      58.81007329      86.36452124
N      80.62878826      56.13611056      89.48823884
H      80.70437731      54.35598837      90.17420949
C      81.23728013      58.12599236      91.34583980
H      79.73683744      59.49415421      91.00568906
C      81.19381643      57.10742988      94.15775255
H      81.05397668      58.74582258      95.39930274
H      82.97204889      56.18902288      94.64530194
C      79.26818531      54.93235488      94.60372796
C      76.76429795      55.69580431      95.28780889
H      76.42792667      57.59875871      95.93787474
C      74.72528326      53.95347665      95.62418017
H      72.90925627      54.57330689      96.31770973
C      75.15425113      51.37400024      95.48623015
H      73.55554267      50.11355279      95.64118771
C      77.59766725      50.60110219      95.00434994
H      77.84333167      48.58098475      94.86451020
C      79.64991003      52.26973051      94.75301634
H      81.38656851      51.31163927      94.28058477
C      83.84132299      59.43368296      90.94899728
O      84.37044636      61.45002094      92.02803100
N      85.43247255      58.16189715      89.45233404
H      84.88445192      56.43846677      88.84573189
C      87.75683591      59.07463497      88.36196195
H      88.46737301      60.61098245      89.53548199
C      89.79774033      57.08097370      88.26369618
H      89.46136905      55.66178925      86.81049665
H      89.84498349      56.16634618      90.10806907
C      92.47548252      58.19024305      87.92354545
H      92.76650037      59.49793366      86.35507261
H      93.94002041      56.76160996      87.68355021
C      92.95925245      59.75493644      90.25357799
O      93.07452576      62.09252788      90.26680608
O      93.34664635      58.54740132      92.24534953
C      87.50928177      60.32941323      85.60674099
O      88.37288669      62.34008204      85.04549227
N      85.96537537      59.09731169      83.98535581
H      85.36822185      57.40789635      84.64109084
C      85.18302867      59.81540768      81.47768899
H      86.73071452      59.89855564      80.11897578
C      82.89268038      58.27906018      80.51392857
H      81.34499453      58.91022878      81.71957396
H      83.18747769      56.29484756      80.97691152
C      81.87600763      58.43590748      77.73981035
H      83.41046539      58.33575198      76.36975877
H      80.93681365      60.26327282      77.62453704
S      79.57243125      56.00193998      77.20123835
C      80.35855740      55.55029539      73.81862825
H      78.86378388      54.30307602      73.14399595
H      82.20859946      54.83219939      73.26493844
H      80.03352447      57.28695388      72.76038151
C      84.24572442      62.62921016      81.55894723
O      84.87122383      64.20524191      80.00559220
N      82.67347213      63.21124587      83.36174613
H      82.15946657      61.80339977      84.54282507
C      81.61333567      65.84930379      83.70189687
H      81.48483428      66.58818679      81.78571438
C      79.04708734      65.87764970      85.03037446
H      78.82409963      67.76170683      85.83350815
H      78.99984418      64.59263581      86.63853156
C      76.67737054      65.47135854      83.40709956
H      74.96338877      65.12553862      84.49180246
C      76.16714443      67.97146645      81.95956920
H      77.83766250      68.35886035      80.82006424
H      75.80809644      69.53427010      83.25214200
H      74.79520313      67.93745137      80.42133199
C      77.05720553      63.40588767      81.41343830
H      77.31798776      61.66356002      82.48113367
H      78.71071605      63.53627880      80.19267510
H      75.39235665      63.22636368      80.21346209
C      83.56920240      67.52549103      85.12864023
O      83.47093663      69.80261125      84.93021897
N      85.52884859      66.52960527      86.49491236
H      85.66301916      64.62665087      86.58183977
C      87.56975301      68.04327604      87.49079812
H      86.93480497      69.75725782      88.43566128
C      89.12877722      66.63731967      89.47690048
H      91.06574669      67.34029786      89.45611349
H      89.26672724      64.58507690      89.40320115
C      87.75116673      67.06628754      92.03558991
H      86.07686922      65.91544423      92.37196119
H      86.98960703      68.95223441      92.36251256
C      89.64089305      66.66566557      94.11995803
H      88.87744362      67.28927526      95.92842611
H      91.36054399      67.71635339      93.69099016
N      90.22103902      63.81973773      94.69443483
H      91.39644879      62.98069925      93.44532573
C      89.08909296      62.32496423      96.29503301
N      87.36755229      62.84274923      97.95610244
H      86.75906042      61.42734422      99.08237933
H      86.48505010      64.52271592      98.16397234
N      89.84498349      59.97414469      96.44621112
H      88.87177444      58.74204313      97.53091402
H      91.23015288      59.48281585      95.22922737
C      89.09098269      68.89554262      85.08517653
O      90.19647258      70.89676278      85.10218406
N      89.13066694      67.43100473      82.95545497
H      88.45036547      65.68489761      83.32395160
C      90.61410210      68.04327604      80.51014912
H      92.23359755      69.19600909      81.03549304
C      91.58920087      65.54505786      79.13253864
H      89.99994105      64.24870562      78.96246327
C      92.52272567      66.01937917      76.46991427
H      91.01850353      66.62598131      75.20379764
H      93.33152854      64.37153782      75.53638947
H      93.75293750      67.66722051      76.59085675
C      93.45247102      64.24681588      80.73880601
H      92.71547776      64.46035495      82.65120903
H      95.18912950      65.34663661      80.63865051
C      93.75293750      61.46513875      80.06228399
H      92.31485578      60.48815024      81.16588415
H      95.60297956      60.87365441      80.74825464
H      93.58664159      60.99648662      78.06106382
C      88.99271692      69.71946328      78.79994681
O      89.87710884      71.73958071      78.23680837
N      86.64189739      69.01081593      78.20279329
H      86.43213777      67.20234784      78.77915982
C      85.14523415      70.29771955      76.21858067
H      86.27906994      70.34307298      74.49892972
C      82.92858518      68.69145217      75.26237915
H      81.87600763      69.86308249      73.93579128
H      81.68325554      68.33618362      76.86297734
C      83.71282160      66.31984565      73.82807688
O      85.54774585      66.49747992      72.37109789
O      82.48827895      64.39988372      74.13610227
C      84.14367920      72.96979254      76.94612530
O      84.37800526      74.85007022      75.39654972
N      82.75095091      73.08128640      79.04561123
H      82.58843445      71.40887861      79.95079013
C      81.79096994      75.20911822      80.49692104
H      81.10310956      76.48657321      79.03427287
C      79.47416548      74.28693179      82.14476238
H      80.30564506      73.10207339      83.60930028
H      78.07198856      73.18144190      81.11675127
C      77.96427416      76.55271364      83.16521459
H      79.16802982      77.68654943      84.39353670
H      76.52052326      75.53604089      84.22913051
C      76.66414245      78.16087072      81.16588415
O      76.52052326      80.51357999      81.50036571
O      75.56810119      77.20844866      79.23836331
C      83.71093188      76.72656846      82.01815072
O      84.12100249      79.02636538      81.71768424
N      85.10366017      75.39053196      83.66977152
H      84.69358956      73.59340223      84.16487981
C      86.87055427      76.53192664      85.52359303
H      87.73604892      78.27425430      84.84707101
H      88.34265107      75.16943398      85.99224516
C      85.46837735      77.11963153      88.00480368
O      83.19692632      76.82483422      88.39786675
N      86.99338648      77.89063986      89.82649985
H      88.74705250      78.38763789      89.26714086
C      86.50205764      77.80371246      92.54959546
H      84.49327857      77.62796790      92.97667361
C      87.79274071      75.33572989      93.59650384
H      89.68435675      75.26958946      92.78392153
H      86.81575221      73.67655018      92.86706948
C      88.09698665      75.35273742      96.45377003
H      88.93224568      77.12908017      97.07926943
C      85.44381091      74.71400994      97.65185651
H      84.73138409      72.99246927      96.77313377
H      84.05675179      76.10673822      97.03958518
H      85.48916434      74.49291196      99.69843010
C      89.82986568      73.19466998      97.22666809
H      91.63455431      73.53860016      96.29314329
H      89.02862172      71.36541490      96.72022144
H      90.22670820      73.37041453      99.24111634
C      87.51684067      80.19799570      93.78925592
O      89.76750471      80.77436221      93.52091479
N      85.80663836      81.50757602      95.09694653
H      84.00006000      80.89719443      95.13474106
C      86.31119528      83.76768870      96.72400089
H      88.32375381      84.20610521      96.78636186
C      84.70870737      85.99189656      95.77535828
H      84.65201558      87.49611871      97.18131466
H      82.69614885      85.67253282      95.47300207
C      85.90301440      86.84983231      93.14296952
H      86.16001718      85.22466768      91.90519879
H      87.72660029      87.62839955      93.70043879
C      84.15123811      88.75845589      91.95622140
H      83.80352847      90.34582600      93.22233803
H      82.40135154      87.77579821      91.49323845
N      85.02996084      89.71843685      89.61485050
H      84.70870737      88.60727779      88.09740027
C      86.59654396      91.63083989      89.37107580
N      87.38644955      92.91018461      91.27969938
H      88.87555389      94.07425602      91.01702742
H      86.69292000      92.69097634      93.04281403
N      87.35243448      92.04657968      87.09206587
H      89.04184980      92.93475105      87.13741930
H      86.63622821      91.11872406      85.58406427
C      85.58176093      83.06660024      99.42441979
O      83.36133251      82.66597825     100.07259591
N      87.27684543      83.28202903     101.18564471
H      89.00972446      83.88107228     100.65652135
C      86.94425360      82.65275017     103.77268004
H      85.34932459      81.36206710     103.94653486
C      89.40656698      81.26569106     104.69675620
H      89.53695810      81.12774104     106.74710925
H      91.01472408      82.52235906     104.40951780
C      89.81663759      78.72778862     103.36260943
H      89.90545473      78.96967359     101.31981528
C      92.26383317      77.49568706     104.28479587
H      92.51327704      77.55615830     106.32759001
H      93.76616559      78.51802900     103.31347654
H      92.46414416      75.54548951     103.65362728
C      87.66801878      76.90231300     104.05802871
H      85.87655823      77.46167199     103.21143132
H      87.41290572      76.80026778     106.09893313
H      88.06675103      75.02770451     103.29835873
C      86.36410762      85.06404095     105.35627069
O      85.48916434      84.85995051     107.49922032
N      86.55119052      87.27691046     104.18275065
H      87.41668518      87.25612348     102.48199696
C      85.61955545      89.82993071     104.98777405
H      84.58776489      89.50678751     106.73955035
C      87.63211398      91.79335635     105.44697755
H      88.67146345      92.23177286     103.72354715
H      89.08153406      90.84849320     106.56758525
C      86.55119052      94.16685259     106.86616201
H      85.43814173      93.67741348     108.52912117
H      85.22838211      95.18541508     105.66051662
C      88.59398467      95.94130560     107.93385738
H      87.79463044      97.59292640     108.86549245
H      89.74482799      96.77845436     106.44286332
C      90.64244799      94.80746982     109.85003986
H      91.73470980      93.37316755     108.85415409
H      89.58987044      93.90040118     111.37126954
N      92.31296605      96.68774751     110.95364002
H      93.49026555      97.16395854     109.52878638
H      93.57152378      95.94508507     112.18385185
H      91.50983237      98.14283676     111.89283400
C      83.53707706      90.94297951     103.32292517
O      83.74116750      90.90140554     101.01556934
N      81.67002746      92.12027900     104.41896643
H      81.71538089      92.17886051     106.32381056
C      79.44581959      92.94230995     103.02245869
H      78.34788860      91.33226314     102.36105448
C      77.64680014      94.37850195     104.95186925
H      78.83921744      95.78445833     105.86649679
C      75.32999568      95.79957613     104.03157254
H      73.85222970      94.51078279     103.39473477
H      75.96494372      97.20364278     102.66341069
H      74.36245581      96.90884549     105.47343372
C      76.57532532      92.66452018     107.07214218
H      77.93214881      91.17352612     107.49544087
H      74.94071206      91.65351660     106.32570028
C      75.68148477      93.96276216     109.48532268
H      76.95893976      95.50666856     109.95964398
H      75.59266764      92.63050510     111.05379552
H      73.70861050      94.52401087     109.31335759
C      80.29808615      94.66007117     100.81336863
O      82.18403302      96.07169673     100.95320838
N      78.75229003      94.70353488      98.83293545
H      77.10444869      93.73977446      98.80647928
C      79.10944830      96.33436868      96.48778510
H      80.39446220      97.90095179      96.86950981
C      80.23383546      94.59582048      94.47522658
H      82.05742135      93.83992994      95.06293146
H      80.53619167      95.68808229      92.75368590
C      78.71071605      92.34893589      93.72689496
C      77.69782275      92.27901601      91.45733365
H      77.64113096      93.83237105      90.13830469
C      76.67548081      90.00378553      90.51247050
H      75.92148001      89.84693824      88.62463391
C      76.54697942      87.87217426      92.06960498
O      75.55109366      85.64040747      91.15308772
H      74.60623050      86.10716988      89.67532174
C      77.83010359      87.72855505      94.46955740
H      77.92836936      85.99567602      95.54481167
C      78.79764346      90.07559513      95.22355820
H      79.82754430      90.02646225      96.98289339
C      76.34855816      97.33214417      96.02480215
O      74.41347842      96.55546666      97.04336463
N      76.16903416      99.15573007      94.37318135
H      77.65624877      99.64516918      93.28280927
C      73.72939749     100.54467891      93.53414287
H      72.09667396     100.05523980      94.69065538
C      73.94860574     103.48698278      93.77224839
H      74.95394014     104.32224181      92.17920911
H      75.15803058     103.91784037      95.38229521
C      71.44471838     104.95152067      94.13318611
H      70.65670251     104.06901848      95.81882198
H      70.04443118     104.55656787      92.67431740
C      71.69983143     107.82390466      94.56215399
H      71.97006229     108.92183565      92.83872359
H      73.23239947     108.24909308      95.86984459
C      69.21484133     108.70451712      95.98133845
H      68.72918167     107.51965872      97.59516472
H      67.56133081     108.65538424      94.75679580
N      69.30932764     111.43139220      96.78069268
H      67.93549662     111.84713199      98.03736068
H      68.78398373     112.41971906      95.23489655
H      70.97417653     112.27987931      97.16808657
C      72.97539669      99.80957538      90.78837054
O      74.73284216      99.37682804      89.32005319
N      70.48473741      99.73020686      90.28003416
H      69.36035026      99.65461781      91.82016111
C      69.34901190      98.72109302      88.01614204
H      70.52820112      97.38505652      86.98246174
C      66.79032247      97.41907159      88.76825311
H      65.42027089      98.87038140      89.27847921
H      67.26653350      96.26633853      90.40664582
C      65.59034626      96.09815289      86.57428086
O      66.21017649      93.81536350      86.25680684
O      64.12013919      97.39261541      85.22879573
C      69.05232487     100.91317553      86.09051092
O      69.43404958     103.12415533      86.59884730
N      68.45706108     100.29334531      83.73402221
H      68.29832407      98.49432585      83.11986116
C      68.05265965     102.23787369      81.79894247
H      69.58522769     103.61359444      81.83295754
C      67.93738634     101.19474475      79.06450849
H      66.45773064      99.76044248      79.06639822
C      67.61802259     103.30178960      77.04628079
H      68.30399325     102.67251074      75.20757709
H      68.49107615     105.13482412      77.39021098
H      65.58656681     103.53233621      76.80061637
O      70.24096272     100.10437268      78.52782622
H      70.77953472      99.30690817      80.06417371
C      65.52609557     103.65516841      82.19956445
O      65.54877228     105.91339136      81.63642600
N      63.77809873     102.69896690      83.76803729
H      63.99163780     100.90372690      84.37841889
C      61.43294837     104.04823150      84.70723126
H      61.22507848     105.74142627      83.55449821
C      59.11236446     102.31535246      84.30660929
H      57.39271351     103.33202521      84.81305594
H      59.25787339     100.61270906      85.45745261
C      59.05000349     101.41584274      81.52304243
H      60.38981945      99.87571579      81.25470129
H      59.17283570     103.03722791      80.26070525
C      56.49509352     100.09681377      81.08273620
O      56.43651200      97.73087642      81.06194921
O      54.79056038     101.43662972      80.21346209
C      61.85813679     105.11214741      87.42276798
O      60.15360366     106.21385785      88.49235307
N      64.19761797     105.03844807      88.39030785
H      65.69239148     104.41483840      87.38119400
C      64.73052079     106.13637906      90.90742330
H      63.86124668     107.96374442      91.28725829
H      66.75819712     106.46708118      91.05104250
C      64.18061043     104.39027196      93.15808734
O      64.67382900     105.21041317      95.29347807
N      63.41338155     101.99787844      92.76124481
H      62.58946088     101.74276539      91.06049113
C      63.20929111     100.16484392      94.72278072
H      62.21151561     100.77711525      96.41786523
C      61.65215662      97.93307714      93.53981205
H      60.80933869      96.85971259      95.08182872
H      62.84079448      96.64050435      92.46266805
C      59.42227958      98.44330325      91.95433167
C      58.79111099      96.68774751      90.08350262
H      59.78699675      94.94919929      89.69043955
C      56.60469764      97.01467016      88.63975172
H      55.83179958      95.62950076      87.35662755
C      55.27622004      99.33903352      88.79092983
O      53.46208278      99.87949524      87.12230149
H      52.82335529     101.55379275      87.41142962
C      55.82424068     101.04356666      90.78837054
H      54.57513158     102.64416485      90.99813016
C      57.85758619     100.55979672      92.39085845
H      58.24686981     101.96008392      93.82138127
C      65.71506820      99.29934926      95.75457129
O      67.65770685      99.79067811      94.67175811
N      65.62625106      97.86504700      97.82760105
H      64.01998369      97.35671061      98.72522105
C      67.88636373      96.73499065      98.98222383
H      69.56444070      97.43607912      98.01279423
C      68.15281514      97.49277091     101.80736467
H      69.83656129      96.45720089     102.38373120
H      66.40481830      96.70475504     102.56136547
C      68.56099602     100.32736038     102.18719966
C      66.48607653     102.02433461     102.74655865
H      64.59823995     101.24954683     102.69175658
C      66.89614714     104.64160556     103.02245869
H      65.38814555     106.01354685     103.13017309
C      69.31877628     105.52788720     103.21143132
O      69.87813526     108.12437114     103.13017309
H      68.33800832     109.07679321     103.25300530
C      71.27653274     103.88949449     102.53679903
H      73.01319122     104.94207203     102.34782640
C      71.11779573     101.29301052     101.98688867
H      72.86957202     100.32736038     101.57870779
C      67.88258428      93.83615049      98.81214846
O      65.97018125      92.46609892      98.70065461
N      70.07844625      92.75144760      98.72333133
H      71.69794170      93.74355390      98.89529642
C      70.56788537      90.13039720      97.82004215
H      69.00319198      88.81703741      98.06381684
C      71.15181080      90.21921434      94.91931226
H      73.13413370      90.60660823      94.52813891
C      70.29387505      87.73800368      93.73445386
H      71.55999168      86.30937059      94.50357247
H      70.61512853      87.92508659      91.70677753
H      68.28320626      87.47911117      94.10295049
O      69.67026537      92.10516119      93.73634359
H      67.97896032      91.52879466      93.42075929
C      73.02830903      89.11372443      99.13529166
O      74.70260654      90.49322464      99.86661575
N      73.19082549      86.56448364      99.50945747
H      71.53731497      85.61773075      99.36583827
C      75.47928406      85.17742452     100.37306240
H      77.04586717      86.43031307      99.90441027
C      75.57754982      85.11128411     103.23410804
H      74.95016069      86.94431864     103.93330677
C      73.90703176      82.91353241     104.25267052
H      73.52530705      82.83794335     106.27656740
H      74.68748873      81.05215198     103.84448964
H      72.20060890      82.92298103     103.09993747
C      78.27796873      84.65208061     104.27156778
H      79.54786481      85.94654313     103.29646900
H      78.82220990      82.76424403     103.65551700
C      78.60300165      85.04514368     107.22898946
H      77.92270018      86.90841384     107.78267927
H      80.53430194      84.75412583     107.88661422
H      77.36523092      83.50501675     107.80913544
C      75.91392111      82.74534676      99.10127659
O      74.01285644      81.62851851      98.34727579
N      78.18537214      81.66631304      99.07104097
H      79.59510797      82.35606315     100.15763360
C      78.75984894      79.12274142      98.22822303
H      77.28208296      77.81694053      98.81781764
H      80.41146973      78.30448993      99.14663002
C      79.09999967      78.83172357      95.42197946
O      80.43414645      80.37940943      94.21255462
N      77.90947210      76.81538560      94.52435946
H      77.14980212      75.56060733      95.74323293
C      77.34822338      76.19744508      91.96000085
H      78.68992906      77.23679456      90.79214999
C      77.93781799      73.34395836      91.51591517
H      76.73406233      72.24791709      92.77825235
C      77.47861450      72.61074454      88.84006271
H      78.69181879      73.82394884      87.69866802
H      75.61723408      72.98680008      88.04070848
H      78.30631462      70.76448193      88.45833799
C      80.81398144      72.69956168      92.22645226
H      81.82498502      73.85796391      93.59461411
H      82.03663436      72.98302064      90.59183900
C      81.23350068      69.95378935      92.95588662
H      80.18092312      69.48513722      94.66419921
H      83.25550783      69.62119752      93.15619761
H      80.61744990      68.74058505      91.40820077
C      74.63268667      77.01002740      91.29859664
O      72.93949189      75.53793060      90.75813492
N      74.20560852      79.44777434      91.34772953
H      75.76274300      80.52491835      91.59717340
C      71.76597185      80.58538959      90.46900679
H      71.04031695      79.44588462      88.91376204
H      71.84345063      82.56582277      89.90586835
C      69.68916263      80.35106353      92.35495365
O      67.54432327      79.96933881      91.49323845
N      69.95372432      80.56460259      94.92687116
H      71.70172116      80.83861291      95.64118771
C      67.72762672      80.38129914      96.67864746
H      66.25741965      79.50635586      95.52969386
C      68.12068979      78.71267081      99.06726152
H      69.36979889      79.88241139     100.21054594
H      69.26775367      77.06293974      98.61372720
C      65.76420108      78.03236933     100.40707747
N      64.01242479      76.20311427      99.96677124
H      64.50753308      74.77448118      98.80081011
C      61.88081351      76.50547048     101.46343448
H      60.29533313      75.22990522     101.63728930
N      62.39103961      78.55582352     102.92797237
H      61.11358463      79.27769897     104.14873557
C      64.82122765      79.45155381     102.29491406
H      65.67160449      81.11829241     103.11127583
C      66.76953548      83.08171805      97.34194139
O      67.87691510      84.34783468      98.92553204
N      64.62469611      83.75257089      96.09850148
H      63.77431927      82.28614328      95.21977874
C      63.10913561      86.12228769      96.72967007
H      64.32045018      87.74745232      96.35928371
C      60.72430100      86.23945072      95.05726228
H      59.35991861      84.73333884      95.39363356
H      61.29499835      86.14118494      93.08060856
C      59.31834463      88.76601479      95.63173908
H      58.59268972      88.89451618      97.55359074
C      60.82067705      91.24533572      94.89663554
H      61.46318399      91.14518022      92.94265854
H      62.49875401      91.53446385      96.05503777
H      59.30133709      92.61160785      95.14985887
C      56.80122918      88.79247097      94.12562721
H      55.44440569      90.04724924      95.03647529
H      55.91116809      86.93487000      94.09350186
H      56.87303878      89.04947375      92.08283306
C      62.46851839      86.13362604      99.60772324
O      61.31200589      84.45176962     100.56581448
N      62.96362669      88.30114213     100.81147890
H      63.85746723      89.63717862      99.78346779
C      62.49497456      88.97766415     103.54402315
H      62.04521970      87.29013854     104.63439523
C      64.74374887      90.31936982     104.98966378
H      63.99541725      90.70109454     106.87183119
H      64.95728795      92.02201324     103.85015881
C      67.08323005      88.65641067     104.85549321
H      67.30621775      87.82115164     102.98844362
C      69.32066600      90.45543012     105.38272685
H      71.08756011      89.39529365     105.38650631
H      69.13169337      91.26801244     107.26678399
H      69.33578381      91.67241387     103.72165742
C      66.83756563      86.58338091     106.87939009
H      68.13580760      85.08104848     106.33325919
H      65.04610508      85.56859787     106.83592639
H      67.30054857      87.40163240     108.71242462
C      59.87959334      90.22677323     103.81047456
O      58.03522046      88.90774427     104.18464037
N      59.80778374      92.74766813     103.56481014
H      61.50097852      93.53757373     103.17930597
C      57.74042316      94.62227664     103.81992319
H      56.05667701      93.52812510     103.36260943
C      57.75365124      95.69564118     106.42207633