 %block lattice_cart
   139.898   0.000   0.000
   0.000 144.87   0.000
   0.000   0.000   168.12
 %endblock lattice_cart

 %block positions_abs
N      92.14761501      43.10739249      84.86502341
H      91.00999977      41.67497994      84.31889251
H      92.21564516      42.86739725      86.75852918
H      93.87104540      42.68409379      84.15637605
C      91.35204022      45.57537505      84.05811028
H      92.68618700      46.86416840      84.95384055
C      91.76966974      46.12150596      81.28966123
H      90.98543333      44.72310849      79.99330898
H      93.75577209      45.80214221      80.85124473
C      91.13850116      48.79735842      80.43550494
H      89.10137618      49.10349408      80.43361521
H      91.85848688      48.71043101      78.50798410
S      92.53878836      51.30502523      82.15704561
C      92.36304380      54.05835647      80.06133913
H      92.78823223      55.83469921      81.01565091
H      90.49410448      54.03001058      79.19395475
H      93.43829808      53.56135845      78.37570326
C      88.73665901      45.99678402      84.94439192
O      87.16629645      44.23744882      84.69116859
N      88.19241783      48.12839530      86.01586674
H      89.45286529      49.55891812      86.13114004
C      85.57703661      48.54602482      86.92482510
H      84.35060423      47.48966781      85.65303929
C      85.08570778      47.40463012      89.59689810
H      86.31969906      45.77001686      89.82744471
H      83.16385611      46.79613825      90.02397625
C      86.01545311      49.26601054      91.71906075
O      84.56981248      50.76267378      92.64124719
N      88.38139047      49.11294271      92.57321704
H      89.22042895      50.23921959      93.86201039
H      89.33948170      47.71643497      91.69260458
C      84.86083035      51.37494511      86.98151688
O      86.64851143      52.98499193      86.82089015
N      82.45142929      52.17429934      87.26875528
H      81.25901199      50.69653336      87.46150737
C      81.56703738      54.75755521      86.69805794
H      82.15663198      55.08069841      84.75163984
C      78.77591162      54.99755045      86.83600796
H      78.14474302      53.35348856      85.77020232
C      77.61372994      55.10715458      89.55154467
H      78.20521426      56.88160758      90.41514960
H      78.03513889      53.36293719      90.56254825
H      75.57660497      55.39250325      89.45138918
C      77.97088820      57.37293642      85.24674813
H      79.02157604      57.57891659      83.48741293
H      78.67386640      59.04723394      86.22184691
C      75.16464462      57.57135769      84.44739390
H      74.78103018      56.12193761      83.03387862
H      74.92842884      59.31746480      83.37780881
H      73.93065334      57.92473651      86.05555099
C      82.94464785      56.85893087      88.27219996
O      83.13928967      59.00754969      87.27631419
N      84.08415282      56.28067462      90.39247288
H      83.80258360      54.50055243      91.01986202
C      85.44664550      58.03812009      92.02519641
H      84.29580218      59.71430733      92.35022934
C      85.79624487      56.83625415      94.61223174
H      87.11905329      58.00410501      95.67614765
H      86.59370936      54.94652784      94.41570020
C      83.45865341      56.85893087      96.43014845
C      83.70620756      58.23843108      98.73939400
H      85.48066058      59.00943941      99.39134958
C      81.75223056      58.38016055     100.43069905
H      81.82404016      59.54801141     102.10499657
C      79.44676445      57.26144257      99.73527977
H      77.81971010      57.57891659     100.92202790
C      79.22944592      55.68541083      97.56776369
H      77.48144909      54.89550523      96.87612386
C      81.17964348      55.64194712      95.92937098
H      80.77524206      54.71031205      94.15680770
C      87.94486369      58.86393049      90.77419759
O      88.60437816      61.01632876      90.93293461
N      89.20909059      57.23120695      89.36257204
H      88.61949598      55.41895942      89.30399052
C      91.59392519      57.65450565      88.05299170
H      92.34225682      59.39116413      88.86746375
C      93.31168641      55.29801693      88.32889175
H      94.81968800      55.36604708      86.92671482
H      92.42918423      53.59537353      87.57867040
C      94.33402835      54.97487373      90.99151612
H      95.54345319      53.31191458      91.09734079
H      92.81090893      54.57236203      92.31621427
C      95.45463606      57.34648026      92.19149233
O      96.95129930      58.59558935      90.74963115
O      94.87449008      58.21575436      94.35333923
C      91.13283197      58.26677697      85.29966047
O      92.96586650      58.87148939      84.00141849
N      88.74421792      58.35559411      84.39448156
H      87.47432184      57.31435491      85.36769061
C      87.77478831      59.68218198      82.10035382
H      88.85004259      59.44596619      80.35991588
C      85.10838448      58.66172977      81.46729550
H      83.82715004      58.93196063      83.05844506
H      85.15562765      56.60381782      81.56745100
C      84.09927064      59.44218674      78.81411976
H      85.44475578      58.94329899      77.33635378
H      83.95187198      61.49442951      78.88781909
S      81.03980373      58.34236602      77.78988810
C      81.13806951      58.74487773      74.51310267
H      79.88140151      57.42962821      73.54556280
H      82.98811156      58.20252628      73.78744777
H      80.75067560      60.69318556      73.97453067
C      87.74077324      62.47708720      82.41404839
O      88.37950073      64.02666277      80.77565567
N      86.78646145      63.28400033      84.66282270
H      85.93986406      61.99142753      85.78343040
C      86.34804494      65.96174252      85.21273306
H      85.69986883      66.94062075      83.51953828
C      84.25611793      66.21496584      87.17426897
H      84.59437894      67.94595515      88.24007461
H      84.47154671      64.70318479      88.55565890
C      81.57648600      66.60424946      85.79665849
H      80.13840429      66.39071039      87.25552720
C      81.14184896      69.15537999      84.57967474
H      82.23977995      69.15915944      82.83545735
H      81.81648126      70.69928638      85.76264341
H      79.13495961      69.49553072      84.25086236
C      81.01523729      64.72019233      83.76898215
H      79.18409249      65.14538075      82.92238476
H      80.76768315      62.90794480      84.71384531
H      82.51001081      64.68617726      82.35168742
C      88.84815287      67.42250096      85.98374139
O      88.78390217      69.64481910      85.80988657
N      90.75299699      66.13559734      86.84545659
H      90.39772844      64.31390117      87.28576282
C      93.11326514      67.15982900      87.86212935
H      92.80523977      68.21240656      89.60445701
C      95.07102160      65.23041843      88.51975410
H      95.61526278      64.14193608      86.85868467
H      94.31324136      63.93784564      89.93326939
C      97.31979592      66.68361797      89.77264265
H      96.50154442      67.48675165      91.48473469
H      98.19095975      68.29555451      88.83155895
C      99.47030446      64.93751086      90.72317498
H     100.79122316      66.36047477      91.41859427
H     100.35658610      63.99453743      89.11879734
N      98.79000300      63.24242635      92.73195406
H      97.87537546      61.68340214      92.11401355
C      99.42306131      63.31990513      95.14324483
N     100.90271702      65.07168142      96.09944634
H     101.41861230      65.09435814      97.93626032
H     101.29011091      66.62314673      95.05442769
N      98.73331121      61.50387814      96.67770260
H      99.47975310      61.19585276      98.40869190
H      97.63349049      60.07902450      96.04653401
C      94.20741668      68.96451763      85.83256329
O      95.50943811      70.74463982      86.55443874
N      93.91639883      68.48452715      83.31544784
H      93.08680899      66.82912689      82.84868544
C      94.65906127      70.27220824      81.26698451
H      96.04234093      71.59690638      82.03043394
C      95.92328818      68.79444226      79.03332801
H      96.39005058      70.31378222      77.72563740
C      98.43284472      67.63226058      80.12558982
H      98.21363647      65.66316576      80.69250771
H      99.08857976      68.64704361      81.79421816
H      99.95029494      67.66438593      78.73286153
C      94.32646944      66.76676593      77.66138671
H      92.52933971      67.73997498      77.41194284
H      94.10159201      65.17372664      78.95018005
C      95.66061622      66.04866993      75.21797059
H      94.69307635      64.59169094      74.13137796
H      97.31979592      64.94129031      75.73008642
H      96.11604027      67.65115784      74.00665602
C      92.48965546      71.88603451      80.25409121
O      93.08113980      73.97040263      79.44150890
N      90.12938730      70.96384807      80.21062751
H      89.85537698      69.42183140      81.30288931
C      87.93541505      72.33200992      79.20718283
H      88.33792676      73.29010116      77.42895037
C      85.55624962      70.65204323      79.19962393
H      83.86116513      71.77076120      79.54166439
H      85.74522225      68.97585599      80.38259260
C      85.18775300      69.54655333      76.55022764
O      83.83281923      67.53399481      76.38393172
O      86.39717784      70.47440895      74.65861160
C      87.21164988      74.67527055      80.80022211
O      86.37072166      76.69727770      79.99897816
N      87.69164036      74.60535067      83.31733756
H      88.06013698      72.88003055      84.04299247
C      86.72787994      76.37791395      85.10123920
H      86.41040592      78.23929437      84.27920826
C      84.33170698      75.25352680      86.34845857
H      84.91185296      73.89103413      87.77898139
H      83.32070340      74.26142048      84.85179533
C      82.69142454      77.24907778      87.61835465
H      83.71376646      77.98985050      89.24540901
H      81.09271607      76.21539749      88.40259107
C      81.58593465      79.04053833      85.58689887
O      82.89551497      80.92837492      84.86313369
O      79.42219801      78.59267319      84.79699327
C      88.69130558      77.05443597      87.23474021
O      89.06358166      79.27486439      87.76008413
N      90.29190377      75.25919598      87.91882114
H      89.94419412      73.43749981      87.46339709
C      92.34792599      75.59745699      89.84823170
H      93.61782207      77.09223050      89.21895284
H      93.49498987      73.88914440      89.96350501
C      91.31046624      76.07555774      92.58266568
O      89.12594262      75.34990284      93.22706235
N      92.60303905      77.66670730      94.08877755
H      94.39260986      78.08622654      93.57099254
C      91.69974987      78.05032174      96.76274028
H      89.68341190      77.67615593      96.95549236
C      93.20964119      76.37224478      98.64679741
H      95.13716203      77.08467160      98.77340908
H      92.99232266      74.42204722      98.02129801
C      92.56713425      76.36468587     101.47193825
H      92.72020208      78.26764027     102.24294659
C      89.94608385      75.44816861     101.92169312
H      89.53412352      75.20817337     103.92480301
H      89.38294540      73.65481834     101.07320600
H      88.63272406      76.86168389     101.19981766
C      94.41150712      74.81511029     102.90057135
H      96.21997520      75.79209880     103.04985972
H      94.69118663      73.14648196     101.72705130
H      93.75010292      74.23307459     104.76195176
C      92.23454241      80.79042490      97.59233013
O      94.22631394      81.82221546      97.00840470
N      90.46764831      81.91103260      99.06064748
H      88.77634327      81.04364822      99.22505367
C      90.79457096      84.33555146     100.45148604
H      92.62949521      84.68137137     101.32642933
C      90.16151264      86.67125318      98.80175497
H      89.32247416      88.12445272      99.99417228
H      88.73287956      86.02874624      97.46571847
C      92.46508902      87.67658758      97.54886643
H      93.29089942      86.26118257      96.30353679
H      93.78222826      88.20760067      99.03986049
C      92.05690814      90.21449002      96.11834361
H      93.79356663      90.68881132      95.12056811
H      91.38038613      91.63367448      97.44871093
N      90.28056541      89.91591326      94.03775494
H      89.46042418      88.25106438      93.59933843
C      89.47176254      91.88878753      92.69604926
N      90.14261538      94.26228378      93.08911233
H      89.45664473      95.70792441      92.04598340
H      91.25566419      94.74605372      94.56309885
N      87.93352533      91.50895254      90.76474896
H      87.53857253      93.02262332      89.67437688
H      87.37983551      89.80063996      90.11846256
C      88.89350630      84.38468434     102.59821514
O      86.74677721      83.44738009     102.54152335
N      89.70608860      85.45993861     104.67880381
H      91.54101285      85.98717226     104.69203189
C      88.32658839      84.94782278     107.14489664
H      86.70709294      83.69682396     106.89356304
C      90.13127703      83.76485411     109.02895378
H      89.08247893      83.72328013     110.79962733
H      91.79990537      84.94404333     109.29540519
C      91.28778954      81.02664068     108.44313862
H      92.58225205      81.18537769     106.85009934
C      92.71831234      80.21027892     110.73537664
H      91.43140873      79.70383227     112.26416523
H      93.98253926      81.62757365     111.53473087
H      93.94096527      78.67582115     110.11554641
C      89.26011320      79.05376641     107.85543374
H      87.91462806      78.84211707     109.40122986
H      90.45630995      77.39836616     107.59276178
H      88.38894937      79.76052405     106.12822389
C      87.05480259      87.20793545     108.28818106
O      85.67341265      87.10211078     110.12688477
N      87.58014650      89.44726114     107.25072132
H      89.03712549      89.43025360     106.01673004
C      86.18930793      91.83587519     107.63433576
H      85.02145708      91.69036627     109.32564081
C      88.04690891      94.09031869     108.03873719
H      89.11271454      94.46259477     106.31719652
H      89.09003782      93.66701999     109.76594704
C      86.46898744      96.40712315     108.64722906
H      85.06114132      95.92335321     110.07019298
H      85.78490651      97.23293354     106.89167332
C      88.05068836      98.67857417     109.79429294
H      89.27712074      99.54217910     108.38266738
H      89.32814335      97.87733022     111.19835959
C      86.18552848     100.73648613     110.67490540
H      84.61516592      99.90122710     111.71425487
H      85.33326192     101.66434175     109.04785104
N      87.19086289     102.67156587     112.36998990
H      88.91240355     103.21013787     111.74449049
H      87.44975539     102.24259800     114.21247305
H      86.09104218     104.23247981     112.36998990
C      84.22210284      92.06075263     105.53107037
O      84.72665978      91.31053128     103.46182006
N      81.92986483      93.12277881     106.13389307
H      81.51790450      93.20025759     107.99716321
C      79.99100563      94.05630361     104.33298389
H      79.18220276      92.32531431     103.56575501
C      77.84238681      95.63800454     105.59721079
H      79.01590685      96.90034171     106.72537740
C      76.07549271      96.57341906     103.51095294
H      74.32938559      97.42946508     104.18936469
H      75.53503098      95.18635995     102.08798903
H      77.02602505      97.96047818     102.32231509
C      76.30603933      93.91268441     107.45481176
H      77.45688265      92.79207671     108.74549483
H      75.37818370      92.63144997     106.13389307
C      74.37473902      95.57375384     108.84942978
H      72.99334910      96.37121835     107.54551862
H      75.15708573      97.24805136     109.75838814
H      73.33349983      94.38889544     110.17601765
C      81.24578390      95.63989426     102.19570343
O      82.81803619      97.25183081     102.72860625
N      80.45587830      95.19013940      99.84488390
H      79.27479935      93.72560151      99.51796125
C      81.41207981      96.51294782      97.46193902
H      81.89962920      98.45936592      97.92114251
C      83.70620756      94.92179826      96.46794298
H      85.05547215      94.67424412      98.00429047
H      84.76445430      96.03862651      95.09411195
C      83.28857805      92.26484307      95.36812226
C      82.60638685      92.09476770      92.84344791
H      82.34371490      93.67457890      91.57733128
C      82.16041143      89.57954198      91.90425393
H      81.62939834      89.31875975      89.95027692
C      82.55914369      87.42336425      93.35556374
O      82.75756495      85.06687554      92.31810399
H      82.03379978      85.13490569      90.65514484
C      83.43408698      87.62367524      95.84622302
H      84.17296996      85.95126746      96.75329165
C      83.55691918      90.08787836      96.88557249
H      84.22966175      90.30708661      98.79986525
C      79.21432812      96.20492243      95.62701477
O      77.03736341      95.76650593      96.31865460
N      79.48266925      97.15734449      93.43115279
H      81.11539279      98.02283914      92.95494176
C      77.57404568      97.21025683      91.37891001
H      75.84116664      96.50349919      92.24251494
C      77.28680728      99.90689628      90.62301949
H      76.54603457      99.98248533      88.70116783
H      79.24645347     100.53617514      90.54176126
C      75.59928168     101.48292802      92.29731700
H      76.49312223     101.45458213      94.15302824
H      73.78136496     100.51349842      92.33511153
C      75.31393300     104.25137707      91.55465456
H      74.62040346     104.27594351      89.61579536
H      77.12996000     105.21891694      91.64158197
C      73.27869777     105.44001492      93.18359864
H      73.60562043     104.94679635      95.15647291
H      71.43432488     104.61609425      92.78675612
N      73.22956489     108.18578725      93.01730273
H      73.97789650     108.76593323      91.36001275
H      74.19899448     108.83963256      94.52530433
H      71.48345778     108.93033942      93.19115755
C      78.33182593      95.54729767      89.02431103
O      80.53524680      95.75327784      88.15881638
N      76.44020989      94.36432900      87.98307183
H      74.90197267      94.28118104      89.11312817
C      76.15486122      93.20781650      85.44894884
H      77.69309843      91.87366972      85.13336455
C      73.64152523      91.79997039      85.42060295
H      71.90675647      92.89412193      85.61713449
H      73.89096910      90.38834484      86.90025865
C      73.17854228      90.32031469      83.10568822
O      72.56060177      91.42391486      81.06667352
O      73.28814640      87.94114926      83.36458072
C      76.17753794      95.15423460      83.18883617
O      75.46322138      97.32553013      83.51953828
N      77.07893738      94.50794820      80.93250296
H      77.85372517      92.76939999      80.80967075
C      77.21877714      96.19547380      78.68939782
H      78.27135469      97.82630761      79.37725820
C      79.00267877      95.20903666      76.61825778
H      79.05559110      96.54696289      75.05356440
C      81.74467165      94.70070029      77.56501067
H      83.03535472      93.82386728      76.21952553
H      81.79947372      93.53284942      79.25820544
H      82.75756495      96.40334369      78.12814911
O      78.11639712      92.72404656      75.77921930
H      79.08015754      92.16279785      74.35058621
C      74.76213293      97.27639725      77.68028397
O      74.71866922      99.05462971      76.23653307
N      72.60217575      96.05374433      78.30389366
H      72.74012576      94.52117629      79.43583972
C      70.08128085      97.54851784      77.95996347
H      70.07183222      98.50282963      76.13448785
C      68.05360451      95.52462096      77.68595315
H      67.16165369      94.90479073      79.43583972
H      68.86240738      93.83331591      76.83368658
C      65.98624392      96.28618066      75.83780082
H      65.37208287      98.20236314      76.27054814
H      64.30438750      95.14667570      76.18362073
C      66.96134270      95.80807990      73.08824903
O      68.16320863      97.42001645      71.98464886
O      66.44922687      93.84276454      72.06212764
C      69.55971639      99.61209897      79.92338911
O      67.93266202     101.19568962      79.43583972
N      70.76725150      99.60454007      82.16460451
H      72.14675170      98.28740083      82.22507575
C      70.85417890     101.76638697      84.03732329
H      70.08128085     103.50682490      83.25119714
H      72.84028126     102.17078840      84.40015074
C      69.82805752     101.03695261      86.56199764
O      69.67309997     102.57707956      88.27031023
N      69.00224712      98.67101527      86.92860455
H      69.37074376      97.42757536      85.52831735
C      67.86274216      97.50127468      89.10178981
H      66.61174333      98.90534133      89.94460774
C      66.28671041      95.11077090      88.29109722
H      65.01870406      94.44180778      89.76886320
H      67.61518800      93.63678437      87.73362796
C      64.58028755      95.70603468      86.15003731
C      64.42910944      94.16023856      84.05811028
H      65.41932603      92.37633692      84.04299247
C      62.72835576      94.89723182      82.03232367
H      62.55639067      93.51962134      80.53755016
C      61.21846444      96.97593077      82.26853946
O      59.84274369      97.70914458      80.32590081
H      58.48780991      98.84864954      80.72274334
C      61.37342200      98.46125565      84.42282746
H      60.26415265     100.17334769      84.47573979
C      63.02693252      97.88866858      86.40137091
H      62.99102773      99.11132150      88.03409444
C      69.68632805      96.68680264      91.04253873
O      71.75557836      95.64367372      90.48506947
N      69.00980602      96.98726912      93.47083704
H      67.37897222      97.92457338      93.78453161
C      70.59906585      96.18035599      95.55520517
H      72.51335861      96.72648689      95.03364070
C      69.69955613      97.37088357      97.94570895
H      70.38552678      96.20114298      99.49528453
H      67.64353390      97.28584588      98.06476171
C      70.55749188      99.98248533      98.38034600
C      68.66587584     101.94024179      98.16113775
H      66.72323719     101.41678760      97.82476647
C      69.32916977     104.44412916      98.90946937
H      67.75880720     105.70457661      99.24017148
C      71.86518248     105.09608473      99.55386605
O      72.48123326     107.39399193     100.26251341
H      71.17165292     108.65065993     100.26629287
C      73.69443756     103.06462895      99.62378592
H      75.60495085     103.47658928     100.21338053
C      73.01413608     100.61176419      98.88868238
H      74.33883422      99.06407834      98.75073236
C      70.65008847      93.28907473      95.94637851
O      68.65831693      92.05319372      96.09188744
N      72.94421622      92.29318896      96.13157169
H      74.33883422      93.59521039      96.22038883
C      73.94199170      89.57387280      96.00873948
H      72.36029078      88.37767604      96.57187792
C      74.62229318      89.02396244      93.23462125
H      76.04336736      90.47149280      92.88313216
C      75.71455499      86.37078670      92.54865060
H      74.33694450      85.01207348      93.25351852
H      77.48522855      85.88323731      93.47839595
H      76.07171325      86.14968872      90.53042290
O      72.42454148      89.53796800      91.73228884
H      72.21856131      91.33887717      91.65292033
C      76.25312698      89.16191246      97.77185413
O      77.34538879      90.94959355      98.64490769
N      76.75957364      86.78652649      98.42380971
H      75.69565772      85.43159272      97.60744794
C      78.65496913      85.93614965     100.34944082
H      80.40863515      87.01329364     100.24361615
C      77.71388543      86.11189419     103.11222069
H      76.62351334      87.85233213     103.25583989
C      75.81660020      83.92548085     103.64134406
H      74.42198218      83.79697946     102.13145274
H      74.67898497      84.63034876     105.20603745
H      76.62918253      82.05087235     103.91346465
C      79.78502546      86.35566889     105.10399223
H      81.27412979      87.69170539     104.62211202
H      80.49367284      84.42814805     105.27217787
C      78.90630272      86.87723335     107.76850633
H      77.78002585      88.60255347     107.78551386
H      80.59571805      87.29675259     108.87210649
H      77.60995048      85.39757765     108.37699820
C      79.46755144      83.29431226      99.74850786
O      78.32426703      81.91670178      98.17436584
N      81.48010996      82.27574978     100.98060941
H      82.59315876      83.41903420     102.02940752
C      81.91474701      79.56588224     101.21493547
H      80.21588306      78.67393142     101.96326709
H      83.42841780      79.66414801     102.60955349
C      83.06559035      78.25630191      98.95671253
O      84.70965223      79.34100481      97.72272125
N      82.11694773      76.00563787      98.23861653
H      80.66185848      75.14770212      99.12489817
C      82.34938407      75.19116583      95.60811750
H      83.87817265      76.15681598      94.61979064
C      82.85772045      72.36413527      95.42670378
H      81.08893661      71.33045497      95.64591203
C      83.60983153      71.69517215      92.67337254
H      83.64951577      69.68828281      92.21605877
H      85.41263043      72.59846133      92.25385330
H      82.33237654      72.53421063      91.29009288
C      84.99122145      71.43438992      97.02352251
H      84.63217345      71.98619000      98.97560979
H      86.74866693      72.41515788      96.57565738
C      85.63372840      68.49208605      96.86667523
H      83.95565143      67.43761877      97.42792394
H      87.11716355      68.17839148      98.26318297
H      86.27434562      67.94028597      94.98828727
C      79.91541657      76.01508650      94.15680770
O      78.05970533      74.59590204      93.93381999
N      79.96454947      78.48684852      93.54642610
H      81.53113257      79.55832334      93.75618572
C      77.95388066      79.72272953      92.07054985
H      78.00490328      79.00085408      90.14113928
H      78.51512938      81.70127298      91.97417380
C      75.12496038      79.66792747      93.00218492
O      73.36751491      79.80776721      91.48473469
N      74.77725073      79.32777673      95.51930037
H      76.28525233      79.15392191      96.67581287
C      72.24312775      78.96872873      96.61345190
H      71.02425428      77.61001551      95.65914011
C      72.37162914      78.36212658      99.41402630
H      73.10673267      79.98351176     100.44581686
H      73.67176084      76.78042566      99.64268318
C      69.84695479      77.69883265     100.68014293
N      68.56572034      75.33289530     100.77840870
H      69.22712455      73.69828204     100.04897434
C      66.12986312      75.76564263     101.45682044
H      64.63131015      74.37858352     101.44170263
N      65.82750692      78.29220671     101.88578832
H      64.38942520      79.11234793     102.83632065
C      68.04982506      79.48462401     101.29430398
H      68.18588536      81.51419007     101.10911080
C      70.99779810      81.57466132      96.30542651
O      71.74046054      83.37934994      97.56965342
N      68.99468821      81.74851614      94.77852765
H      68.85106902      80.33689058      93.49918294
C      67.46778936      84.15224801      94.56687831
H      68.77736970      85.65647015      94.04909330
C      65.68010827      83.95760620      92.30298618
H      64.62564098      82.19260182      92.39369305
H      66.92165845      83.83099453      90.66459347
C      63.75069769      86.03630514      92.00251970
H      62.56394958      86.36511752      93.65603022
C      65.15854380      88.63278909      91.38079974
H      66.40387345      89.40757688      92.82644037
H      64.03604637      90.26740236      90.82144075
H      66.44544742      88.16791642      89.84067280
C      61.75325699      85.62245508      89.88980568
H      60.92366714      83.73839794      89.95594610
H      62.59607492      86.15346817      88.08511705
H      60.14132044      86.89613061      90.02775570
C      66.02214872      84.98372758      96.95927182
O      64.72012729      83.39257803      97.92681169
N      66.32261521      87.26273752      97.76618495
H      67.54526814      88.54208223      97.04997868
C      65.19255888      87.98272324     100.20204217
H      64.64075879      86.32921272     101.29997316
C      67.27881672      89.42080497     101.72705130
H      66.34529192      90.70770859     103.03474191
H      68.29359976      90.63400926     100.40613261
C      69.31405197      87.83532459     103.05174945
H      70.34584254      86.60322303     101.76484583
C      71.39275090      89.68347692     104.04574549
H      70.48568227      91.02896206     105.31375185
H      72.41131340      90.56219966     102.48672128
H      72.75335386      88.63845827     105.18525046
C      68.04226615      85.95693664     104.96226275
H      67.56416540      84.18815281     104.02495850
H      66.31883576      86.77707785     105.74271972
H      69.25169099      85.45237971     106.55152258
C      62.90787976      89.66646939      99.79197156
O      60.83862945      88.97482956     100.64234840
N      63.11574966      91.50139364      98.31798504
H      64.79004717      91.70359435      97.42225476
C      60.90476987      92.98671852      97.55831506
H      59.35897375      91.65824092      97.26918693
C      59.84841287      94.76495098      99.71260306