 %block lattice_cart
   139.898   0.000   0.000
   0.000 144.87   0.000
   0.000   0.000   168.12
 %endblock lattice_cart

 %block positions_abs
N      90.22670820      40.26429925      86.50814044
H      90.38355549      38.59000174      85.60296153
H      89.30452175      40.06965744      88.16732014
H      92.10698587      40.54964792      86.66309800
C      89.26861695      42.49417630      85.19100120
H      90.21536984      44.08721558      86.08862120
C      89.89411637      42.45449205      82.40554461
H      88.74705250      43.84533061      81.40965884
H      89.46325876      40.59311163      81.63453627
C      92.70035995      43.10833735      81.93878222
H      92.68713186      43.35211205      79.89220862
H      93.81718819      41.57387959      82.74002617
S      93.83986490      46.19237069      82.90443236
C      92.26005371      48.53563132      81.04683139
H      90.23048764      48.53374160      81.38698214
H      92.45280580      48.28051827      79.01159616
H      92.83642024      50.38756311      81.74036095
C      86.49449872      42.83999622      85.78815471
O      84.91468753      41.21861104      85.13997858
N      85.74049793      44.96215887      86.92576995
H      87.05196799      46.32276181      87.19033164
C      83.28007428      45.75017474      87.72890363
H      81.91947133      44.68058964      86.61018566
C      82.81898105      45.14735204      90.58805954
H      83.16291123      43.13668325      90.87151850
H      80.82909924      45.51773840      90.97356372
C      84.49705801      46.42858648      92.50802149
O      85.23594101      48.59610257      92.20566528
N      84.57642653      45.19648493      94.60939715
H      84.87500327      46.30764400      96.13440628
H      83.50873115      43.62045318      94.74167798
C      82.97582834      48.60744092      87.21300835
O      84.82398066      50.05308155      86.91443159
N      80.65713415      49.73749726      87.20167000
H      79.25495722      48.45626282      87.01458709
C      80.04297309      52.46248260      86.86340899
H      80.35666767      53.02184159      84.90565252
C      77.17814800      52.71948538      87.27347959
H      76.38257323      51.60265713      85.73713211
C      76.19171087      51.59131877      89.80571285
H      76.47328009      49.55608353      89.65642447
H      74.15836536      51.82564483      90.03625947
H      77.24617815      52.27917915      91.43654667
C      76.10856291      55.38399948      86.88230624
H      76.92870414      56.51594554      88.39597703
H      74.09222494      55.11187889      87.21300835
C      76.81343082      56.41767977      84.23479969
H      75.74006628      55.34620496      82.84396112
H      78.80331263      56.36287771      83.70378659
H      76.18982114      58.35842870      83.94000238
C      81.33176644      54.27284041      88.59439829
O      81.59065895      56.49515855      88.03503929
N      82.35032892      53.40545603      90.74679656
H      82.50339675      51.51572972      90.96789453
C      83.86022024      54.83219940      92.54581601
H      82.95126190      56.68224146      92.55148518
C      83.74305721      53.68702525      95.24056573
H      84.49138883      51.77273250      95.08371844
H      81.76073431      53.64734100      95.79614527
C      85.36066295      54.99282613      97.14352013
C      86.62866929      53.59253894      98.92931150
H      86.33198226      51.57431123      98.99923137
C      87.76250509      54.69802883     101.08170976
H      88.68280180      53.56797249     102.51034286
C      87.84754277      57.31529977     101.25367486
H      89.01917309      58.11276428     102.72388194
C      86.68158164      58.70613834      99.43386842
H      86.84976728      60.73003522      99.63795887
C      85.37578075      57.64978133      97.31359550
H      84.60288268      58.72692533      95.76213019
C      86.57953641      55.36699194      91.54237134
O      87.28629405      57.49860323      91.31371445
N      87.95147771      53.43002247      90.84317261
H      87.14645431      51.70092290      90.93387946
C      90.35143014      53.53962660      89.50713609
H      91.71959198      54.51472538      90.69766368
C      91.03740079      50.69558850      89.02147644
H      92.34320166      50.44425490      87.44733442
H      89.42357451      49.58064997      88.39219758
C      92.17879548      49.55797326      91.43654667
H      90.91078912      49.64301094      93.05604211
H      93.74348887      50.68047069      92.16409129
C      93.11043055      46.80653175      91.15119799
O      91.81407830      45.28530206      90.04192865
O      95.22881374      46.14512754      92.18298856
C      90.06230200      54.89078091      86.82750419
O      91.98793312      55.87154887      85.91098693
N      87.75494618      55.07786382      85.74847046
H      86.33765145      54.10276504      86.57428086
C      87.04818853      56.89389081      83.73402222
H      88.48438053      56.62743940      82.28271241
C      84.60855186      56.05296260      82.58695833
H      82.94181326      56.23059687      83.78504482
H      84.69736900      54.02717599      82.21846171
C      83.96226547      57.50805186      80.14354221
H      85.60065819      57.47025733      78.89632285
H      83.46715717      59.45258023      80.61786352
S      81.47538565      56.00005026      78.21602137
C      83.37078114      53.56986222      76.89699241
H      84.93547453      54.41456988      75.85575321
H      82.24072480      52.33776066      75.69134702
H      84.19281207      52.37744492      78.36153031
C      86.89134126      59.68312684      84.57495042
O      88.38800450      61.39710861      83.81717016
N      85.28696362      60.25382419      86.47790481
H      84.16446618      58.81385274      87.03726381
C      84.51784500      62.88243349      87.10529396
H      84.34399018      63.74981787      85.24769299
C      81.91569187      62.85597732      88.37330031
H      81.75317540      64.48870086      89.61862995
H      81.75884459      61.17790036      89.55815871
C      79.60455660      62.78794718      86.59695758
H      79.80486758      61.25537914      85.23446491
C      77.21405280      62.42134027      88.10117973
H      76.73784177      64.15988848      89.09895521
H      77.42759188      60.83963935      89.40131142
H      75.69093340      62.36464848      86.71412061
C      79.41369423      65.48836608      85.43477590
H      81.05208694      65.82473736      84.23479969
H      79.59888741      66.97936014      86.84451172
H      77.60711588      65.73969968      84.47479492
C      86.69669944      64.19201383      88.77203256
O      86.79496522      66.59763542      88.68699488
N      88.23493666      62.77471909      90.05893618
H      87.87399894      60.90200032      89.99846494
C      90.54607194      63.75359732      91.47812064
H      89.81852731      65.11042081      92.84628249
C      92.03706600      61.65033194      92.99557087
H      93.26727784      60.66200507      91.66898299
H      90.53284385      60.36909750      93.57949630
C      93.39388949      62.61220263      95.50512742
H      92.05029409      63.24148149      96.93565023
H      94.55040200      64.28461042      95.17631503
C      95.14944524      60.72625577      96.75045705
H      93.99860191      59.14455484      97.39107427
H      96.04517551      61.56907370      98.40585731
N      97.19979829      59.88532756      95.01001913
H      98.65110811      61.00215581      94.46766766
C      97.23570310      57.69135531      93.80248400
N      95.57085421      55.91312285      94.09350185
H      95.96391728      54.20292054      93.33761133
H      94.57307871      55.92068175      95.72244595
N      98.96291294      57.20191619      92.11873787
H      98.92133897      55.36132277      91.61418094
H     100.50870907      58.27528074      91.80882275
C      92.56429965      65.02538313      89.71500600
O      94.18190537      66.42944978      90.82616506
N      92.39800374      64.82507214      87.20733918
H      90.80874391      64.08996861      86.44955892
C      93.99860191      66.27638195      85.50280603
H      95.32330006      67.64076435      86.29271163
C      95.73526039      64.36397892      84.10818803
H      96.85775782      65.45624073      82.76837206
C      97.51538258      63.45124111      86.26058629
H      98.58307795      64.87609475      87.29804603
H      98.83063210      62.04717446      85.52170330
H      96.48359201      62.40622246      87.70433719
C      94.55040200      62.17756558      82.62853232
H      93.39577922      63.00526570      81.13753826
H      93.44302238      60.89444141      83.80016263
C      96.32863446      60.43901737      81.11108208
H      97.60419973      59.29762268      82.25625623
H      97.52861067      61.74103880      80.05661481
H      95.03606167      59.28817404      79.99425383
C      92.22414892      67.55761639      83.59418246
O      92.78539763      69.67977904      82.85718920
N      90.07930955      66.49747993      82.72112891
H      89.85821157      64.67389404      83.23702420
C      88.36721750      67.84674452      80.94289645
H      89.50672248      68.50058982      79.35552635
C      86.50016790      66.02882780      79.96590794
H      84.71815600      66.45401622      80.90321220
H      87.21259473      64.15232957      80.43078062
C      86.15245826      66.10441685      77.14643628
O      83.95470656      65.95134902      76.17511695
O      88.02328732      66.11764494      75.72536210
C      87.37889064      70.39976476      81.89720823
O      87.13700567      72.17232805      80.46668542
N      86.99716593      70.58306822      84.42188258
H      86.92724605      68.96357277      85.42532726
C      86.17135552      72.93010830      85.60296153
H      85.96159590      74.44377907      84.22346132
C      83.52951814      72.37074931      86.76136376
H      83.66557844      70.86463744      88.15787151
H      82.29174740      71.79060333      85.22123681
C      82.16702548      74.67621541      87.96511943
H      83.68825515      75.61351966      88.99502026
H      80.44359508      74.33417495      89.04037369
C      81.24861848      76.46200678      85.85051569
O      82.49772757      78.46322694      85.65587387
O      79.41180450      75.81005120      84.60329631
C      88.16879624      73.80127213      87.63063787
O      88.67902234      76.03492863      88.24668865
N      89.50861219      71.99469377      88.88541614
H      88.85665662      70.20134350      88.87596751
C      90.79740555      72.28193217      91.23623567
H      92.15233931      73.82016939      91.04348358
H      91.81596803      70.49425108      91.32316309
C      89.50294301      73.14364737      93.66453398
O      87.31841941      73.93922215      93.59461412
N      90.91834803      72.72034868      95.65441580
H      92.60398389      71.82839786      95.75457128
C      90.03395611      73.42521659      98.19231823
H      87.97982362      73.44600358      98.30570181
C      90.86732541      71.27281832     100.03102194
H      92.92334764      71.16321419     100.06881646
H      90.17946503      69.44734270      99.36961773
C      90.05663282      71.60352043     102.87883949
H      90.43835755      73.49135701     103.60638411
C      87.23716117      71.32762038     103.19442378
H      86.76283987      71.99091432     105.08603983
H      86.62866929      69.38687146     102.87128058
H      86.13923019      72.41610274     101.83004139
C      91.62699539      69.76103727     104.49455549
H      90.74449320      67.97146645     103.98243966
H      91.58353168      70.15410034     106.51656264
H      93.62443611      69.86686194     104.00511638
C      90.84086924      76.15209166      99.09938687
O      93.14822507      76.67176640      99.17497592
N      89.15901283      77.88119124      99.77212943
H      87.30141187      77.65631381      99.39418417
C      89.64467249      80.17342926     101.34816118
H      91.68746663      80.27358475     101.59193587
C      89.13633612      82.45243919      99.66063558
H      88.77539839      84.03980929     100.92108303
H      87.38078036      82.10850900      98.64018337
C      91.44369194      83.02313654      97.79736543
H      92.15233931      81.19577119      97.16430712
H      92.75327228      84.13996479      98.92553205
C      90.88055350      84.71444159      95.56370893
H      92.73248528      85.22466769      94.81915677
H      89.97537460      86.44921034      96.20999532
N      89.25160942      83.56548799      93.70232852
H      88.29351818      82.03480967      94.31648957
C      89.11554913      84.09461135      91.35906789
N      90.36843767      85.72355544      90.05893618
H      90.09631708      85.91063834      88.17865850
H      91.67990774      86.65330078      91.08505756
N      87.59809889      82.74534677      90.08161290
H      87.24283035      83.03825435      88.22968110
H      86.64756657      81.38474382      91.02269660
C      88.38989422      80.26035667     103.92952732
O      86.06364113      80.32649709     103.94653486
N      89.80151978      80.56460260     105.99310845
H      91.69880500      80.36051216     105.95909338
C      88.75083195      80.63452248     108.63872530
H      87.02362209      79.52525313     108.80691093
C      90.74827265      79.51769422     110.56246667
H      90.06419173      79.68587987     112.49754642
H      92.37910646      80.74223688     110.28089746
C      91.28306520      76.69066366     109.99365905
H      91.71392280      76.28626223     108.01889506
C      93.60175940      76.01414164     111.69063328
H      94.17812591      74.07339272     111.30512911
H      93.33908743      76.02736972     113.73342743
H      95.15133497      77.29915553     111.25221679
C      89.30263204      74.75747364     110.79112356
H      87.55841464      75.13730863     109.76500218
H      88.88311278      74.72912775     112.80935127
H      89.99238213      72.94711583     110.09381455
C      88.12722227      83.42375851     109.42107198
O      86.92535632      83.53525237     111.38827707
N      88.92468677      85.34749990     108.07747657
H      90.18702394      84.98467245     106.69230719
C      88.11399418      87.94209413     108.36849442
H      87.11054950      88.13106676     110.15806524
C      90.42890891      89.62584027     108.48376774
H      91.46636865      89.51812587     106.70931473
H      91.70447418      88.78869152     109.86893711
C      89.89411637      92.46609892     109.19052537
H      88.38800450      92.69664553     110.57569477
H      89.42168478      93.53379429     107.49166142
C      92.10131669      93.82481214     110.26955910
H      92.14289068      92.94230995     112.12904980
H      91.55707553      95.77500970     110.64183518
C      94.68457256      93.46387441     108.66707118
H      95.16267333      91.46643370     108.50077527
H      96.22092007      94.26133892     109.78389943
N      94.72047736      94.68841707     106.18208108
H      93.74537860      93.68308267     104.88572884
H      96.46280504      94.87361024     105.42997002
H      93.63577446      96.25311045     106.31436193
C      86.28095966      88.73577918     106.26711876
O      86.50961653      87.80792356     104.10338214
N      84.43469704      90.35905408     106.80002158
H      84.03785453      90.88817745     108.59148214
C      82.71315637      91.46832343     104.94431034
H      81.66813772      89.88284305     104.15251503
C      80.90846774      93.35049084     106.23688315
H      81.87411789      94.69408624     107.46520524
C      79.42503260      95.07392123     104.33959792
H      78.05309128      96.26822826     105.30335834
H      78.33843996      93.97221079     102.97899499
H      80.77051773      96.50066460     103.70842934
C      78.99417499      91.77067964     107.81480462
H      80.09399570      91.01856857     109.38705691
H      78.21560775      90.21165543     106.71687363
C      76.67926026      93.24088671     108.85604381
H      75.36590048      91.89918103     109.70264120
H      75.53786557      93.92307791     107.28379152
H      77.34255420      94.55235677     110.29979471
C      84.00572917      92.74955787     102.71254358
O      85.83876369      94.22354439     103.12261419
N      83.15724207      92.22232423     100.45810009
H      81.57176168      91.21887955     100.10661099
C      84.28918812      93.43363879      98.20932576
H      85.43247254      95.09848768      98.61750665
C      86.19970143      91.42674945      96.95454750
H      87.74738727      90.96565623      98.23389221
H      87.11054950      92.28468520      95.31993424
C      84.93547453      88.95498743      96.03425079
C      84.20792989      88.67719766      93.45666410
H      84.77295806      90.08693349      92.09606114
C      83.04385849      86.45487952      92.51747012
H      82.55063992      86.44543089      90.53514721
C      82.68103102      84.30626070      94.11428885
O      81.47538565      82.06126584      93.40753120
H      81.22405204      82.03669940      91.61040149
C      83.40101676      84.60672719      96.64652211
H      82.85110640      83.06660024      97.86917504
C      84.70114845      86.80825834      97.58949553
H      85.17546977      86.92542137      99.57181844
C      82.23127616      94.37850195      96.34416590
O      80.04675255      93.64528814      96.78258240
N      82.96826943      95.82036313      94.52058000
H      84.79374504      96.36271458      94.40530671
C      81.27507465      96.42696527      92.34361530
H      79.30975928      96.18508031      92.91620237
C      81.49239318      99.04990540      91.26080211
H      80.14501832      99.17273761      89.70933682
H      83.39723731      99.25399584      90.50302186
C      80.94815200     101.20797285      93.16942570
H      82.59977279     101.70497087      94.29570258
H      79.49117302     100.69774674      94.53569781
C      80.26785053     103.70997048      91.91086796
H      78.96771883     103.51910813      90.32538759
H      81.93458913     104.49798636      90.98868153
C      79.32487710     105.44851869      93.93665458
H      80.64201633     105.67339612      95.50323768
H      77.52963710     104.77388640      94.68498619
N      78.66536261     107.85791974      92.71778111
H      77.32365694     107.56123271      91.39308296
H      80.13556968     108.91805620      92.11684813
H      77.77908097     108.97852744      93.98200801
C      81.63412265      94.50322389      90.09484098
O      83.81108737      93.97787997      89.46934158
N      79.64235111      93.49977921      89.17832372
H      77.93214880      93.92874709      89.90775808
C      79.70471208      91.51745631      87.20544944
H      81.36200206      90.39873833      87.69488857
C      77.38790762      89.70520878      87.46434196
H      75.61156490      90.74077880      87.35473783
H      77.42381242      88.97388469      89.38808334
C      77.40491517      87.55470023      85.48768822
O      76.14446772      87.90429960      83.45056326
O      79.02819007      85.87851299      85.56138756
C      80.11856214      92.67018936      84.65998810
O      80.14312859      94.97754519      84.45967712
N      80.31887314      91.17730558      82.69278302
H      80.20359984      89.29891762      83.00458786
C      80.30942450      91.89729130      80.00370247
H      81.81175692      93.25411479      79.62575721
C      80.73083347      89.46143408      78.35964058
H      79.35133326      87.99311674      78.78293927
C      81.17869862      89.69009097      75.47780794
H      79.43070178      90.54424726      74.80317565
H      81.51506989      87.75312150      74.85986744
H      82.80953241      90.90518499      75.14521612
O      83.14401397      88.61105724      79.26292975
H      83.01551258      86.98400289      80.05661481
C      77.82821386      93.18986410      79.25726058
O      77.66947685      94.70353488      77.41477743
N      75.71361011      92.60782839      80.49125186
H      75.79486834      91.13762132      81.70634588
C      73.48562279      94.15173479      80.28527168
H      73.18515630      94.65818144      78.31050770
C      71.31999643      92.44531193      81.26603965
H      71.34267315      92.74199896      83.30505433
H      71.72628760      90.44976095      80.94478617
C      68.91248511      92.91207433      79.84685519
H      68.37013366      94.89817669      79.84307574
H      67.45550612      92.13917627      81.08462593
C      68.73674057      91.53068440      77.42800551
O      69.81010511      92.31492082      75.55906619
O      67.27976158      89.73922385      77.26548905
C      73.51396868      96.76522628      81.64398490
O      71.66014718      98.26755870      81.42666639
N      75.56054228      97.40395378      83.00080841
H      76.91547605      96.06791727      83.13686870
C      76.03864303      99.72642742      84.38597778
H      75.24306827     101.37615849      83.44489409
H      78.04931183     100.09681377      84.62786275
C      74.86701272      99.69430207      87.03348436
O      75.02386001     101.59536674      88.47345581
N      73.58766802      97.56080106      87.64386595
H      73.39113647      96.19641866      86.32105753
C      72.03998216      97.21498115      89.89264027
H      71.61857319      99.10659719      90.58994928
C      69.47562355      96.10004262      89.01202781
H      68.40981792      95.69942064      90.72789930
H      70.01797500      94.34070742      88.08606191
C      67.74274453      97.59481613      87.14308848
C      66.09112373      96.25877963      85.59918208
H      66.24986073      94.22732385      85.52170330
C      64.61902693      97.50599900      83.77370647
H      63.31511578      96.31736115      82.74947481
C      64.66249063     100.15917474      83.67544069
O      63.04866437     101.53111604      82.12019593
H      62.90315544     103.16761903      82.88931454
C      66.40103885     101.44607836      85.19289093
H      66.40859775     103.45296771      84.81305593
C      67.90337127     100.25555078      87.02214599
H      69.12980364     101.24765710      88.32038797
C      73.37412894      95.71831791      92.02614128
O      74.71016545      93.88339366      91.59339395
N      72.49729593      96.42318582      94.31082038
H      71.46550536      98.01244565      94.53002864
C      73.76908174      95.35926991      96.63329402
H      75.75707381      95.56525007      96.13440628
C      73.14547205      96.96364755      98.91986286
H      73.72750776      95.93185698     100.60549873
H      71.13291354      97.38694624      99.01434918
C      74.61378939      99.36171024      99.16741701
C      73.43460017     101.69930169      99.64740750
H      71.41637248     101.99220927      99.70598900
C      74.71205516     103.99720888      99.74378354
H      73.68971323     105.76032353      99.86283629
C      77.37845900     103.99531916      99.84015958
O      78.96771883     105.95685507     100.37873157
H      78.14190842     107.52343818     100.77557411
C      78.65780370     101.61048455      99.41119170
H      80.69681841     101.56324139      99.49811912
C      77.35389256      99.32580544      98.93120122
H      78.48583862      97.64583875      98.69876489
C      73.19460494      92.53790852      97.10950505
O      71.08944983      91.54391248      97.24934480
N      75.32432649      91.03368638      97.44020715
H      76.97972674      91.98232899      97.37028728
C      75.43959979      88.25389897      97.36083866
H      73.68026461      87.56225914      98.18097987
C      76.09911428      87.53202352      94.52435945
H      77.78097069      88.48066613      93.81382236
C      76.48272873      84.72766967      94.02169226
H      77.53152683      84.72955940      92.25101871
H      74.67237092      83.76012980      93.85350662
H      77.71294056      83.61273114      95.24245545
O      74.00340780      88.41452571      93.06738047
H      74.12624001      90.21543488      92.89352565
C      77.52963710      87.30714609      99.12584304
O      79.17936817      88.66207985     100.03291167
N      77.35200282      84.94687792      99.84204930
H      75.78919916      83.98122778      99.32804375
C      79.20960379      83.76579898     101.57303860
H      81.12578627      84.50090251     101.38784542
C      78.45749272      84.24201001     104.30936231
H      77.78097069      86.17520003     104.52479110
C      76.21816703      82.44299056     105.01045077
H      75.59644708      83.10250504     106.86049282
H      76.66036299      80.43232176     105.09737817
H      74.59111268      82.93053995     103.84448964
C      80.60044235      84.00579422     106.36349480
H      82.40513098      84.88829641     105.90996050
H      80.93681365      81.98945624     106.61293868
C      79.97305323      84.85239161     109.16406921
H      81.56420277      85.08671767     110.45286255
H      78.63134754      83.59572361     110.09003509
H      79.19259625      86.75345628     109.06013426
C      79.39668669      80.91231224     100.86628097
O      78.10978307      79.91831620      99.22977797
N      81.30531027      79.64619561     102.07381607
H      82.34843919      80.57783069     103.37016833
C      81.54341578      76.88152602     102.07759554
H      79.63101276      76.35618210     102.63695452
H      82.89079066      76.10484850     103.42686012
C      82.37678510      75.85729436      99.48678076
O      84.00006000      76.95711507      98.19042850
N      81.23539039      73.73891116      98.78002312
H      80.16391558      72.89042404     100.11228017
C      81.08610203      72.70523087      96.08905284
H      82.61489060      73.49324674      94.95332734
C      81.17302944      69.78182426      96.04558915
H      79.67069702      69.05616936      97.25312425
C      80.91980610      68.87664536      93.23556612
H      79.35889217      69.64387424      92.13196594
H      80.52107385      66.86219711      93.38674421
H      82.63378787      69.19600910      92.13763513
C      83.62967364      68.88420426      97.39863318
H      83.91691203      69.58907218      99.31103620
H      85.23972045      69.55505710      96.30637137
C      83.85077161      66.07229151      97.61028253
H      83.34999414      65.35230578      99.47544240
H      85.75939519      65.36553387      97.29469823
H      82.50906593      65.30317290      96.24967958
C      78.62378863      73.76158788      94.76057525
O      76.69248835      72.52570687      94.64719167
N      78.61056055      76.28248278      94.26924640
H      80.27540944      77.10262400      94.71711154
C      76.99673427      77.62985764      92.43243243
H      76.73217259      76.32783621      90.85829041
H      78.06065019      79.32872159      91.96567003
C      74.43615512      78.27425431      93.36595722
O      72.66359184      78.27425431      91.90708851
N      74.09789412      78.72778863      95.87362405
H      75.74573546      79.01124757      96.79203104
C      71.67148552      79.07360854      96.99234202
H      70.15592503      78.28370294      95.84338843
C      71.77164102      77.67899052      99.58693626
H      73.29098099      78.63708176     100.59605010
H      72.22706507      75.70233680      99.23733688
C      69.31688655      77.68276997     100.97210563
N      67.72951645      75.57572514     101.28013103
H      68.05454936      73.91276598     100.40140830
C      65.72829628      76.26169579     102.61238808
H      64.14470563      74.99746888     102.86183196
N      66.04199085      78.66164820     103.40607313
H      64.51131253      79.49501751     104.18653009
C      68.19438912      79.67454151     102.27223735
H      68.86146251      81.60017262     102.35916475
C      71.06299365      81.94599254      97.17753520
O      72.11746093      83.30848521      98.80458956
N      68.98240499      82.80959746      95.83771924
H      68.17927131      81.37907464      94.86451020
C      67.97140141      85.39852251      95.63173908
H      69.60223522      86.64196242      95.44654590
C      66.38781076      85.54781089      93.14107979
H      64.74563860      84.30437098      93.19588186
H      67.49330065      84.70121350      91.62362957
C      65.70184011      88.30114213      92.42865298
H      64.88358862      89.36505804      93.99334637
C      67.87502536      89.70898823      91.47056173
H      69.26208449      89.78835674      92.99179141
H      66.96795674      91.50422823      91.02269660
H      68.55154739      89.07970937      89.62996831
C      63.51353703      88.20854554      90.55971365
H      64.04455014      87.43375775      88.72667913
H      63.01653902      90.15496364      90.10806906
H      61.79766555      87.32037417      91.27214048
C      66.43316420      86.28669388      97.90507984
O      64.47918719      85.06971013      98.47199772
N      67.19094444      88.22933253      99.16552728
H      68.61579809      89.25167446      98.41341622
C      66.19505867      89.10616554     101.71854753
H      65.36168937      87.54714133     102.77679427
C      68.42304599      90.17764036     103.36638888
H      67.69739110      90.94108979     105.13517271
H      69.29043037      91.70831867     102.29302434
C      70.63780524      88.26334760     103.74433414
H      71.13669298      87.64729682     101.84515920
C      72.78264461      89.79402591     104.96320762
H      74.12435029      88.61672642     105.98743928
H      71.92470886      90.84093429     106.51467292
H      73.68026461      91.15462886     103.70276017
C      69.84034073      86.37551101     105.72854677
H      68.09234389      85.42308895     105.19942341
H      69.49263110      87.57170777     107.37071894
H      71.18771560      85.01679780     106.49199620
C      64.31478100      91.22265901     101.21399060
O      62.14726492      91.03368638     101.98877839
N      64.93272149      93.12561340      99.70976846
H      66.67693888      93.06703189      98.93498067
C      63.25275481      95.19297399      99.08237933
H      61.30066753      94.55991568      98.91419369
C      62.96929585      96.99388317     101.31414610