 %block lattice_cart
   139.898   0.000   0.000
   0.000 144.87   0.000
   0.000   0.000   168.12
 %endblock lattice_cart

 %block positions_abs
N      94.44930164      46.61661426      87.49457758
H      93.76522073      44.93286810      86.90687270
H      94.61181812      46.59204780      89.39753198
H      96.23887246      46.79235879      86.85207063
C      92.91295415      48.84271184      86.51758907
H      93.95041391      50.49433265      87.17710356
C      92.97720485      48.87483719      83.60741055
H      91.85092797      47.28557736      82.94222689
H      94.93118186      48.87483719      82.96112415
C      91.81502316      51.17274439      82.46601586
H      89.81947218      51.04802245      82.95167552
H      91.92651703      51.10282451      80.41188336
S      92.75988632      54.40606612      83.46190163
C      90.32402910      56.12004787      81.73091232
H      90.64906203      58.11181941      82.14854184
H      88.51556103      55.30935530      82.28838159
H      90.35426473      55.43218751      79.79016340
C      90.12182839      48.78602005      87.22623644
O      89.05224330      46.80180744      87.03915354
N      88.87271929      50.94597724      87.77047762
H      89.82892082      52.59570831      87.76480844
C      86.29513260      51.20675947      88.78904010
H      85.26712149      49.54002085      88.15220234
C      86.17419012      51.06880944      91.69732890
H      86.81858679      49.19798040      92.27180570
H      84.25800764      51.42407800      92.36629201
C      87.88061298      53.06813988      92.94454827
O      86.84504297      55.26589159      93.43965656
N      90.26166814      52.74688642      93.34139079
H      91.28401007      53.96387015      94.39585807
H      91.00244086      51.00455876      93.10895445
C      85.01011872      53.70308793      87.79882352
O      86.31214015      55.41140051      86.96356448
N      82.51190052      53.86560438      88.23157084
H      81.63317779      52.48421446      89.21044907
C      81.03980373      56.09737116      87.59095362
H      81.33838048      56.37705066      85.57272592
C      78.14663275      55.65139575      87.89897901
H      77.85939434      53.85237630      86.93710832
C      77.71577515      55.16195663      90.70333286
H      77.03547367      53.22687690      90.90364385
H      76.39296673      56.42618355      91.64441656
H      79.35605759      55.23943542      91.94488305
C      76.45910714      57.73765361      86.92765968
H      76.91642092      59.29100863      88.20133522
H      74.46733561      57.35781861      87.29048714
C      76.60083662      58.62015580      84.22535106
H      75.11740147      60.00343546      83.85874415
H      76.57815991      57.11404393      82.81939468
H      78.41308416      59.49887852      83.79071401
C      81.81081206      58.51055166      88.83061408
O      81.44609489      60.59680952      87.83472832
N      82.85394099      58.45197015      91.12852128
H      83.30747530      56.77767264      91.92031660
C      83.58904452      60.78389243      92.58738999
H      82.09049157      62.17095154      92.31526940
C      83.58526507      60.10737040      95.48056098
H      83.36227737      61.83080080      96.58983032
H      85.45609412      59.51399634      96.10983984
C      81.55569901      58.27622560      96.17598026
C      78.99134040      59.12282299      96.05125832
H      78.32993619      61.01443903      95.67709251
C      77.03925312      57.34836999      96.72967007
H      75.18543161      58.20630572      96.73911870
C      77.77435666      54.93707921      97.43453799
H      76.19265573      53.75977971      97.95421272
C      80.18942689      54.07536400      97.38540510
H      80.49745228      52.15918152      98.01846342
C      82.16419089      55.75722042      96.90163516
H      84.18430832      55.46620257      96.90541462
C      86.21387437      61.85536724      91.97322894
O      86.64473197      64.11170046      91.90330907
N      87.79557530      60.22642316      90.76569383
H      87.31747455      58.38582972      90.92821029
C      90.06513660      60.89916573      89.42020869
H      90.91362371      62.46007966      90.46333762
C      91.82825125      58.61259689      89.47690048
H      90.97787442      57.08191858      88.39030785
H      91.74132385      57.74332279      91.34017063
C      94.56268522      59.17951478      88.56416267
H      94.45119138      60.17918001      86.76514322
H      95.52455592      57.40128232      88.17298933
C      96.02911284      60.68562665      90.54459585
O      97.96608231      59.62171073      91.38741378
O      95.13149284      62.88148863      91.04159387
C      89.26578237      61.83835971      86.85396036
O      90.58859079      63.52210584      85.93177392
N      87.08125875      61.19963221      85.68988895
H      85.79435513      60.13193684      86.61585484
C      86.38017029      62.08591384      83.24080365
H      87.75400132      61.66639460      81.76681712
C      83.97832815      60.60814788      82.48680285
H      82.36072243      61.59647474      83.29560571
H      84.00289459      58.67873730      83.20489885
C      83.71376646      60.27366631      79.65221338
H      85.37105644      59.18329424      79.09285439
H      83.47188149      62.07835495      78.69034269
S      80.86594891      58.39905782      78.89821258
C      81.53680175      57.90017006      75.54394838
H      83.25834242      56.83625416      75.15844421
H      81.44609489      59.68785116      74.52727562
H      80.06092551      56.70397331      74.74648387
C      85.86616473      65.06601224      83.52237287
O      87.02267724      66.55511658      82.17121856
N      84.37706040      65.87670483      85.43288617
H      83.82337060      64.46318955      86.58939867
C      83.96132062      68.50720386      85.98846571
H      83.81203224      69.51631771      84.20078462
C      81.39507227      68.85302377      87.40009126
H      81.58971408      70.81266996      88.00102423
H      81.55002984      67.79666676      89.16131619
C      78.89685410      68.46374015      86.03192941
H      77.44932374      68.67727922      87.48323922
C      78.48867320      70.17772193      83.71512495
H      76.47800441      70.29866440      83.27292900
H      79.73589258      69.53899442      82.20523363
H      79.15007741      72.05610987      84.23857914
C      78.71921982      65.66316577      85.17966285
H      76.71988938      65.57245889      84.69022373
H      78.94598698      64.51610188      86.87663707
H      80.03257960      65.06034306      83.71134550
C      86.27245590      69.84701981      87.25836179
O      86.33670659      72.12602975      87.03726381
N      88.34926511      68.56767510      87.95567080
H      88.12060822      66.67605907      88.05204684
C      90.81913740      69.75253351      88.62652364
H      90.19174827      71.55911185      89.39186280
C      92.04368006      68.31634150      90.88285686
H      93.84269950      69.26876357      91.18899252
H      92.21753487      66.40582821      90.13074579
C      90.60559832      68.56956483      93.33194216
H      88.71209257      67.81745376      93.04092431
H      90.58481133      70.56700555      93.83460936
C      91.59959437      67.29399956      95.75457129
H      90.20119690      67.50942836      97.25123453
H      93.13972132      68.42594563      96.51991045
N      92.31580064      64.74475877      95.18198422
H      93.44396725      64.46507927      93.66831344
C      91.74132385      62.69629545      96.40085769
N      90.55646544      62.63960366      98.47766691
H      90.27300650      61.08435891      99.54914173
H      89.91395850      64.30634226      99.14851975
N      92.54823698      60.53255882      95.71677677
H      92.14950472      58.84692295      96.52180018
H      93.65750632      60.59303006      94.16531146
C      92.60114931      70.12480958      86.33617535
O      94.31513108      71.64414954      86.44766920
N      92.25154994      68.77176554      84.16487982
H      91.10070662      67.25620505      84.33117573
C      93.46286452      69.30844781      81.72146369
H      95.31668602      70.16638356      81.98224592
C      94.03356185      66.80645017      80.31550732
H      92.27989584      65.75198289      80.08874016
C      94.87826953      67.40738314      77.72469254
H      95.42817987      65.58946644      76.93289722
H      96.37493277      68.82278815      77.73981035
H      93.31924531      68.05744900      76.54550332
C      95.71730801      65.15860883      81.99925346
H      94.95574830      65.01876909      83.90976676
H      97.54656307      66.06189801      82.26570487
C      95.76455117      62.37126253      80.96557317
H      96.73020131      61.28655962      82.42633161
H      96.79256227      62.26354812      79.18356125
H      93.86915568      61.60214391      80.71801902
C      91.86226633      71.31722688      80.25314635
O      92.77878358      72.97640660      78.83585161
N      89.38672486      71.09423918      80.48936214
H      88.63839323      69.49931017      81.22257595
C      87.71053761      72.55121818      78.80750572
H      88.74610763      72.68727846      77.03305271
C      85.05925160      71.31344744      78.19334467
H      83.89706992      72.79121342      77.35241646
H      84.12383708      70.88636929      79.97724631
C      85.26523177      69.27254301      76.21102176
O      86.38206002      69.48419236      74.13610227
O      84.30714052      67.10880638      76.78927802
C      87.23999577      75.32911585      79.49347637
O      86.89795531      76.88247088      77.83240694
N      87.15495809      75.94327690      81.85941371
H      87.64061774      74.44283421      82.93466799
C      86.92819092      78.46039235      83.01970567
H      87.22109850      79.98918093      81.66855136
C      84.33926587      78.72495403      84.25369695
H      84.51878988      80.49562760      85.29304642
H      83.86872403      77.31710793      85.68044032
C      82.25678748      78.70605677      82.27704323
H      81.75034082      76.84278663      81.56839586
H      82.93141977      79.86823845      80.71423957
C      79.97210836      79.91926107      83.38253312
O      78.86661847      81.53875652      81.99358428
O      79.23889456      79.46761647      85.57461564
C      89.02767686      78.65314444      85.09840461
O      90.08970304      80.67137213      85.60674099
N      89.69852969      76.67460098      86.36641097
H      88.34737538      75.33478503      86.53837606
C      91.30290733      76.98829555      88.57928048
H      92.44241231      78.70227732      88.55849349
H      92.58414178      75.37635900      88.56605240
C      89.91962767      77.24151888      91.12474183
O      87.74455269      77.95772515      91.33639117
N      91.35392995      77.28309285      93.22233803
H      93.17184667      76.71995441      93.09194692
C      90.57536271      77.50041138      95.86795487
H      88.58926035      76.97695719      96.04180969
C      92.16462254      75.48785286      97.46099415
H      94.14883517      75.96217416      97.17186603
H      91.89250194      73.62269299      96.62573512
C      91.24999500      75.41982271     100.23700211
H      91.62227108      77.24907778     101.11383512
C      88.51367129      74.47495955     100.51857133
H      87.19275261      75.77509127      99.62284106
H      88.07903425      74.04977114     102.48766615
H      88.04879862      72.67782983      99.62851023
C      92.96964594      73.41293337     101.65240712
H      92.64272329      71.56289130     100.80580973
H      92.35737461      73.35246213     103.61772248
H      94.96897638      73.88914440     101.53713381
C      90.92118263      80.30854469      96.80903858
O      92.75610688      81.48017500      96.36873234
N      89.10704537      81.22884140      98.44554156
H      87.42896839      80.33122140      98.32270935
C      89.16373716      83.86689933      99.58882598
H      91.08180935      84.57743643      99.82882122
C      87.57825677      85.80953798      98.15830316
H      87.37227660      87.62367525      99.10694577
H      85.72632498      85.00640430      97.74445310
C      88.96153643      86.21960859      95.68465142
H      88.75555626      84.47350148      94.60750742
H      90.97787442      86.47850109      96.01724325
C      87.84092874      88.34744043      94.01035391
H      89.38294540      89.10900012      92.87462839
H      87.29290811      89.96126669      95.16686641
N      85.83592911      87.41958480      92.28125433
H      85.49199892      85.54308657      92.24912898
C      84.69264469      88.69515006      90.46333762
N      85.35971808      91.03463123      89.84917656
H      84.14273434      91.88122862      88.64731063
H      86.72032103      91.93225123      90.84128288
N      82.93708894      87.58966017      88.99879972
H      82.35127379      88.56475894      87.46812141
H      82.41741422      85.81898662      89.49201829
C      88.42296444      83.56076367     102.37050311
O      86.22143328      83.11667798     102.95820800
N      90.07836468      84.09555622     104.10149242
H      91.70730876      84.86089537     103.45709574
C      89.58703585      83.89335551     106.88883873
H      87.86171573      82.78786560     107.08537027
C      91.84903825      82.33055185     107.88850395
H      91.49754914      82.08677714     109.90484192
H      93.48932068      83.57777120     107.86204778
C      92.58414178      79.87201790     106.76411679
H      92.88838771      80.00051929     104.73077128
C      94.88393870      78.79865336     108.06991767
H      95.53211483      76.95994966     107.40662374
H      94.64205373      78.91959584     110.11082209
H      96.42028619      80.15925630     107.89984231
C      90.36749281      78.11457243     106.98899422
H      88.70264393      78.63235744     105.89484269
H      89.63616873      77.92182035     108.90517671
H      91.06291210      76.25697148     106.43152496
C      89.24499539      86.33299218     108.27211839
O      88.94641863      86.35566889     110.57380504
N      88.80846861      88.43814728     106.92663326
H      89.26389264      88.38334522     105.07281174
C      87.91084860      90.75684148     107.98865944
H      87.00944915      90.21637974     109.75933300
C      89.93663521      92.74861300     108.22865469
H      89.11649399      94.57975780     108.69352736
H      90.91929289      93.19647815     106.47498867
C      92.06635676      91.99272247     110.18074197
H      93.09814733      90.29952771     109.62138298
H      91.20275184      91.74894778     112.03645321
C      93.93340636      94.16401801     110.49821599
H      92.88271854      95.91579430     110.76088794
H      94.77433458      94.24149679     108.61793831
C      95.82124296      93.65001245     112.60337110
H      96.78878282      91.86611081     112.24810255
H      94.74787840      93.31175144     114.33058095
N      97.57301925      95.84209497     112.76399784
H      98.38371183      96.31263683     111.10103868
H      98.98842425      95.59265111     114.02066583
H      96.68862732      97.46725960     113.23264996
C      85.72065581      91.86989026     106.42774551
O      85.66018457      91.37478197     104.13739722
N      83.84604730      93.15490416     107.62205254
H      83.99722542      93.57820286     109.47776378
C      81.54814010      94.11677486     106.33514892
H      80.45398858      92.41980062     105.92129886
C      79.86061452      95.85154361     108.05479986
H      80.67130711      97.66568087     108.59904104
C      77.55514841      96.68302318     106.52601128
H      76.11139750      97.55607674     107.70897995
H      76.63863115      95.07108664     105.62083237
H      78.19387590      97.92079392     105.00667132
C      79.02535549      94.36999819     110.35459679
H      80.69209409      93.37978159     111.05379552
H      78.05403616      92.60310407     109.92751864
C      77.58916349      95.61532782     112.52022314
H      78.63796158      97.24049245     113.22887051
H      77.12995998      94.24905569     113.99231994
H      75.82793856      96.42602041     111.82291413
C      82.42497312      95.39989902     104.01456501
O      84.27690491      96.73404580     104.14117667
N      80.91697153      95.16935241     101.98310922
H      79.42975691      93.98638373     102.17397158
C      81.18153320      96.45247657      99.58126708
H      82.34749433      98.10409737      99.97810960
C      82.64418137      94.74605372      97.71988666
H      84.49044398      94.21882007      98.46632855
H      83.19787118      95.77973402      96.02858161
C      81.37617502      92.22704855      96.78258241
C      80.18942689      92.11744441      94.38640944
H      79.93620356      93.75961658      93.19966132
C      79.36550622      89.78363241      93.56815795
H      78.62095405      89.59277006      91.67843164
C      79.69431859      87.56131428      95.02324721
O      79.12551097      85.25584817      94.07082515
H      78.63229240      85.29175297      92.32471803
C      80.88106673      87.72761019      97.36839756
H      81.22877636      85.97394417      98.34916552
C      81.73333328      90.03874547      98.23578194
H      82.78969029      90.12945233      99.97999933
C      78.56048280      97.21592601      98.39829840
O      76.54225511      96.72459716      99.45465541
N      78.47544512      98.39133578      96.08527340
H      80.15163237      98.88833379      95.31993424
C      76.10194888      99.23226399      94.87395883
H      74.51835822      98.67290499      96.06637613
C      76.06604408     102.17834731      94.78136224
H      74.96622336     102.67156587      93.10895445
H      78.00301354     102.88132549      94.76813416
C      75.06070967     103.42556667      97.14729959
H      76.44020989     103.40288995      98.67797790
H      73.50735464     102.33330487      97.94665382
C      74.19332529     106.16566982      96.92431188
H      72.51335861     106.36409108      95.75079184
H      75.80148239     107.27115972      96.26479740
C      73.34861764     107.12187135      99.54536228
H      74.76213291     107.05006174     101.04202552
H      71.78959342     105.88032115     100.06125756
N      72.78547919     109.94323273      99.45654514
H      72.06738319     110.60841638     101.09493785
H      71.58550299     110.32117798      98.02224287
H      74.38418766     110.83518354      98.91797314
C      75.75801868      98.05685422      92.13007622
O      77.48900799      97.32364040      90.79781917
N      73.32405120      97.91890419      91.55370970
H      72.05793457      98.46125564      92.87651812
C      72.15053116      96.83231156      89.20666962
H      73.65097385      95.93847102      88.11440781
C      70.00191234      94.88778319      89.81894094
H      68.63375049      95.68902714      91.13796991
H      70.99968784      93.34576651      90.75246574
C      68.80571559      93.79363165      87.40953989
O      66.45300632      94.18291527      87.20167000
O      70.06049386      92.76940000      85.71634512
C      71.21889609      98.90912078      87.47757004
O      70.34584252     100.86309780      88.35062360
N      71.14330703      98.43290975      85.02092584
H      71.26613925      96.60365468      84.49558192
C      70.20222333     100.11854562      83.02537485
H      71.48345776     101.72481299      82.88742483
C      70.07939111      98.82975227      80.36464020
H      68.26147441      97.92646310      80.00937165
C      70.51591790     100.76483202      78.33885359
H      72.52847642     101.12954920      78.10641726
H      69.94522054     102.65266861      78.93978656
H      69.63152597     100.07508192      76.61164374
O      72.04848594      97.00994584      80.14921140
H      73.54325944      97.95102954      80.56117174
C      67.55849621     101.25427113      83.34473860
O      66.95756324     103.43312557      82.40365489
N      65.90498569     100.05240520      84.86974773
H      66.42088097      98.48393237      85.82405952
C      63.32172982     101.18435126      85.38564301
H      62.48080161     102.22181102      83.81717017
C      61.51515146      98.79384747      86.08295202
H      62.48269133      97.45025207      87.31127413
H      61.38665007      97.88677884      84.24046887
C      58.82229146      99.44580305      86.86718844
H      58.97535930     100.73270668      88.46589690
H      58.00403997      97.67512951      87.53048238
C      57.29728233     100.33397442      84.63353194
O      56.91177817      98.84675981      82.82317413
O      56.19368216     102.35598158      84.84329156
C      63.54471752     103.12698991      87.61363034
O      61.79105150     104.51404902      88.24101947
N      65.62908565     103.14777691      88.96478465
H      67.02559339     101.92890343      88.51314006
C      66.21112135     104.93734772      91.07749867
H      64.63131015     106.23936915      91.31371446
H      67.94589010     105.93701294      90.59939791
C      66.70056046     103.46714065      93.51335589
O      67.43755373     104.67656549      95.40875138
N      66.19600354     100.90656149      93.82705045
H      65.50247398      99.84831476      92.40030709
C      65.88608842      99.83886613      96.40652687
H      65.32294999     101.25805060      97.78980653
C      63.79416139      97.81496925      96.37818098
H      63.11008047      97.52017195      98.29814291
H      64.65776632      96.00272171      95.91708776
C      61.29216376      98.27228301      95.05537256
C      60.10352590      96.28618066      93.70988742
H      60.77437876      94.37188790      93.48689972
C      57.72247075      96.63011085      92.59116944
H      56.91744734      94.90668046      91.85417618
C      56.54895071      99.08108587      92.74234755
O      54.17734419      99.47225923      91.99401593
H      53.52349888     101.15033619      92.21133446
C      57.89254612     101.07285742      94.10106077
H      57.00437476     102.90778167      94.02736144
C      60.26604237     100.62877172      95.24056574
H      61.10886031     102.16700894      96.28369466
C      68.10651684      98.82030364      97.61406198
O      70.03592742      98.23070903      96.44054194
N      67.94211065      98.10409737     100.03291167
H      66.36418919      98.62566184     100.97210564
C      70.01136096      96.97593077     101.54091326
H      71.91998455      97.52584112     100.99856181
C      69.93010273      97.72615211     104.31692122
H      71.20944746      96.35232108     105.16918778
H      68.10084767      97.29529451     105.15595970
C      70.81449466     100.28862100     105.05580421
C      69.14019713     101.85331438     106.25200096
H      67.40542838     101.05396015     106.97198669
C      69.99057397     104.18901610     107.18552576
H      68.73201625     105.33041079     108.31558210
C      72.29981954     105.17545323     106.24633178
O      73.10106350     107.44879400     106.90962572
H      71.87652084     108.29161192     107.95086492
C      73.89852799     103.60131122     104.77423498
H      75.66731182     104.42145244     104.17141229
C      73.18988063     101.11065193     104.24889107
H      74.42009246      99.93524217     103.12450391
C      70.15875962      93.97882483     101.35194063
O      68.46556484      92.66924450     102.31003187
N      72.25257637      93.18891924     100.24456101
H      73.55837726      94.35488037      99.48300131
C      72.87618606      90.61700172      99.56803899
H      71.37196392      89.36411317     100.20487676
C      73.04437171      90.35055031      96.64463239
H      74.80748636      91.20659634      96.00968435
C      73.14830664      87.60477798      95.87929323
H      71.21511663      86.91691760      96.05314805
H      74.45410753      86.34999971      96.86006119
H      73.76435742      87.48194577      93.91775732
O      70.91653987      91.54107790      95.49189934
H      70.83150219      93.34954597      95.57882675
C      75.37818369      89.85166256     100.97966455
O      76.81626543      91.55997515     101.63539958
N      75.65786320      87.49328413     101.70154000
H      74.33505478      86.32543327     100.97399537
C      78.15608137      86.43692711     102.77490455
H      79.75856930      87.58777044     102.18719966
C      78.05214643      86.51629562     105.70587006
H      77.47011072      88.44570619     106.13483793
C      75.87896118      84.89302072     106.77734488
H      75.53314126      85.58088109     108.68596845
H      76.49123249      82.93526427     106.96820723
H      74.20277394      85.22939200     105.62461183
C      80.77335232      86.02496678     106.74710926
H      82.12450663      87.20604572     105.73610568
H      81.31759350      84.04453360     106.57892361
C      81.03035510      86.79408539     109.50421995
H      79.51101514      86.12512227     110.72498314
H      81.08326744      88.85577679     109.51744803
H      82.82370538      86.02685650     110.15995498
C      78.47166567      83.60611710     101.78468796
O      76.66508731      82.57054709     100.79636110
N      80.83949275      82.62912859     101.99444758
H      82.23033130      83.61745546     102.85238332
C      81.47066133      79.96083504     101.40674270
H      80.04958715      78.81755062     102.35916476
H      83.36038765      79.66603773     102.17019213
C      81.73144357      79.34289454      98.61750666
O      83.48510959      80.28964742      97.25312426
N      79.73211312      78.02008612      97.81059352
H      78.35639237      77.69127374      99.09371769
C      79.16897468      77.00152363      95.33127260
H      80.55792353      77.65158949      93.95555184
C      79.04803219      74.03276360      95.47111235
H      77.67042172      73.44127926      96.88462763
C      78.32048757      72.79877231      92.87084894
H      78.20899371      70.75030899      93.07304965
H      79.84738642      73.07845181      91.51780490
H      76.50257085      73.59434709      92.31526940
C      81.53869148      72.69672709      96.41408578
H      81.24200444      70.67283021      96.19676725
H      81.72199493      73.05199564      98.43420320
C      84.11438845      73.22585046      95.14041024
H      84.56414330      75.10423842      94.42798342
H      84.27690491      72.00886671      93.48689972
H      85.75845033      72.76853669      96.29314329
C      76.50446059      78.13913888      94.65664031
O      74.57316029      76.91459622      95.08371845
N      76.24745781      80.59011390      94.07649433
H      77.87640189      81.46505718      93.60406275
C      73.93065334      81.59355858      92.90486401
H      73.46389095      80.35956729      91.32505282
H      74.37851847      83.44171092      92.11495841
C      71.55715710      81.88079697      94.55270536
O      69.61451844      82.40425116      93.48123054
N      71.79148316      81.49907226      97.02446738
H      73.54514918      81.17025988      97.70098940
C      69.67498968      81.21372359      98.77246421
H      68.17076753      80.22728645      97.76901954
C      70.55560214      79.56021306     101.02312825
H      71.85195440      80.63357761     102.20798665
H      71.57416463      77.87646693     100.41274665
C      68.36351962      78.82888898     102.63506480
N      66.85929748      76.56877631     102.71065385
H      67.10496190      75.08534115     101.53524408
C      64.95823280      76.78609484     104.37928219
H      63.56172506      75.37446928     104.85549322
N      65.28515545      79.04053833     105.57547894
H      64.10407652      79.59233842     106.96820723
C      67.30527288      80.33878031     104.41518699
H      67.82872707      82.27574977     104.77990416
C      68.56005117      83.68926507      99.76268080
O      69.96222808      85.31820914     100.61116792
N      66.13364257      84.14279937      99.38095609
H      65.11696982      82.72172518      98.61372720
C      64.85051841      86.58810522     100.10850072
H      66.40387343      87.85044240      99.62284106
C      62.54694204      87.10966969      98.45310047
H      61.29216376      85.49017423      98.65908064
H      63.09685238      87.02841145      96.47077757
C      60.85752670      89.50773237      98.72900051
H      59.59141007      89.48505566      97.10572561
C      59.36464292      89.60977759     101.15351937
H      58.17978452      87.92792119     101.22343924
H      58.13821054      91.26706757     101.14218101
H      60.63642872      89.84599338     102.75600728
C      62.52615504      91.85666218      98.81970737
H      63.58818124      91.87744917      97.05659272
H      63.85841209      92.12878277     100.36550350
H      61.44145213      93.60654875      98.88584779
C      64.45934507      86.82432101     102.87694977
O      63.27826612      85.13679541     104.11094105
N      65.36830341      88.79908502     104.11472050
H      66.33773301      90.12567289     103.14718063
C      65.06783694      89.16947136     106.77734488
H      64.55761082      87.37045191     107.63906008
C      67.23913246      90.62645036     108.13416837
H      66.87819475      91.10266138     110.10515291
H      67.59062156      92.36310883     107.08537027
C      69.69955613      89.08443368     108.25700058
H      70.55938159      89.03341107     106.38617153
C      71.81038041      90.56975857     109.73476656
H      72.06171402      92.51995612     109.12438496
H      73.56782588      89.53796800     109.42107199
H      71.34550774      90.70014968     111.73787645
C      69.43121500      86.31031545     108.99777329
H      71.26802896      85.41647491     109.26611443
H      68.51280800      85.41836463     107.38205730
H      68.30115865      86.33488189     110.71931397
C      62.73591466      90.84943807     107.30079907
O      60.92366712      90.12000371     108.63116639
N      62.62064135      93.21726513     106.20475780
H      64.14754021      93.88433851     105.27123301
C      60.51926569      94.97471060     106.52601128
H      58.81662229      93.81819809     106.40884825
C      60.68178216      95.99327308     109.23398908