 %block lattice_cart
   139.898   0.000   0.000
   0.000 144.87   0.000
   0.000   0.000   168.12
 %endblock lattice_cart

 %block positions_abs
N      89.41507075      43.35022231      87.61268547
H      88.53823775      41.86867688      86.78876480
H      88.51556103      43.54297440      89.28509326
H      91.29534843      43.11022707      87.83000400
C      88.75744600      45.63679115      85.96484413
H      89.38861458      47.45281814      86.70372711
C      89.89128178      45.28908152      83.26253550
H      89.27145155      43.65635798      82.17027369
H      91.92273757      44.94704105      83.29277112
C      89.50010843      47.55297364      81.62414278
H      87.52345471      47.53974555      81.04588653
H      90.58103188      47.32242702      79.88748430
S      90.29757294      50.69558849      82.79955255
C      89.73443450      52.52295383      79.87047677
H      87.96565068      51.84265237      79.05978418
H      91.25944363      52.10532432      78.54955807
H      89.44341664      54.54118154      80.15015626
C      85.90395926      45.70293157      85.80043794
O      84.76823376      44.15713544      84.44172472
N      84.52823850      47.32998593      87.11379772
H      85.59026470      48.28051826      88.38558353
C      81.84482715      47.50195102      87.18938678
H      81.00767838      46.54763924      85.56611187
C      80.86594891      46.50606525      89.58933919
H      81.70309768      44.74106088      90.23562559
H      78.90630272      45.91647065      89.34745423
C      80.91697153      48.42224773      91.63402306
O      79.04425274      49.74505616      91.88157721
N      82.79724920      48.71893477      93.16281165
H      82.84638209      50.14567813      94.42892828
H      84.40918576      47.85344011      92.62423965
C      81.03413456      50.24961309      86.69616821
O      82.62528411      51.83509346      86.14247840
N      78.58315952      51.00739334      86.82089014
H      77.46633127      49.65056985      87.56733204
C      77.60995048      53.52261906      86.43916543
H      78.19765537      53.97237392      84.51731377
C      74.65819798      53.39222795      87.00419360
H      73.99301432      51.88044690      85.77398177
C      74.00057322      52.56452782      89.79531936
H      71.95022016      52.63066824      89.99185090
H      74.90008295      53.80985745      91.16915039
H      74.64119043      50.62566861      90.06177077
C      73.29570530      55.82808515      86.18972156
H      73.93632253      57.43435252      87.30466008
H      71.28503650      55.68446596      86.60924080
C      73.67365057      56.49704827      83.39859579
H      75.64841456      57.05451754      83.21907179
H      72.44154901      58.06363138      82.88081078
H      73.02925390      54.94180352      82.20995794
C      79.04992193      55.52950841      88.04921225
O      79.45054390      57.66867858      87.17615869
N      79.87762205      55.00227476      90.40192151
H      79.54125077      53.22971148      91.02742092
C      81.20420992      56.80696339      91.92315119
H      80.15163237      58.56251914      91.70016349
C      81.11350307      55.84887215      94.85789615
H      82.03946895      54.00827872      94.86545506
H      79.24456373      55.58431047      95.68370655
C      82.52890806      57.44947034      96.67392314
C      84.52067960      56.50838663      98.21593981
H      85.27090094      54.61488087      98.31042613
C      85.50711674      57.89733548     100.22849834
H      87.08692794      57.05829698     101.20926629
C      84.55658440      60.24437556     100.71226827
H      85.50333728      61.42356478     102.08043012
C      82.68197591      61.32151955      99.17970023
H      81.97143880      63.20935614      99.48394617
C      81.67853123      59.90233509      97.15013417
H      80.35383308      60.75460166      95.85378192
C      83.93297473      57.29829222      90.93293460
O      84.87783788      59.43935215      90.92348597
N      85.15373791      55.15534259      90.09578585
H      84.35816314      53.43002247      90.27153039
C      87.78612667      55.30841043      88.93171444
H      88.95019809      56.56129897      90.07877831
C      89.01066933      52.62877851      88.96006033
H      90.94952853      52.65523468      88.25897187
H      87.89951025      51.43258176      87.70339233
C      89.15428852      51.37588996      91.62646416
H      87.34393071      51.68202562      92.55809923
H      90.54512708      52.20736955      92.89824997
C      89.53412352      48.45059364      91.26363671
O      91.65250671      47.47360513      90.53609208
O      87.47810129      47.24872769      91.29198260
C      87.66707392      56.61232157      86.28609760
O      89.25633375      58.28094991      85.67004682
N      85.77923732      56.14933864      84.73085284
H      84.60004810      54.67913157      85.03131933
C      85.18208381      57.98426289      82.77120666
H      86.67496761      58.15811770      81.36336055
C      82.79724920      57.01672301      81.24619752
H      81.25334280      56.80885312      82.59168266
H      83.56636782      55.25738782      80.50731453
C      81.87695250      58.73448423      79.11836569
H      82.98055265      58.42456911      77.40438393
H      81.86372440      60.72625577      79.63615070
S      78.69087393      57.94835808      78.19995870
C      79.48455897      57.70647311      74.77577463
H      79.72077476      59.55084600      73.89138271
H      77.75923886      56.80507366      74.10681151
H      81.02468592      56.35909826      74.54144856
C      84.66807826      60.75460166      83.59512733
O      86.13261614      62.37031765      82.93561285
N      82.94086841      61.37821134      85.36391116
H      81.59538327      60.08374882      85.76642286
C      82.11505801      64.05595353      85.77398177
H      82.06214568      65.15199478      84.02976438
C      79.54125077      64.11831450      87.07222374
H      79.52424324      65.66789008      88.42715751
H      79.56392748      62.34953067      88.12858075
C      77.25279220      64.32429466      85.27320429
H      75.62951731      64.07107133      86.51286476
C      76.90886202      66.91510944      84.16393495
H      78.09372042      67.28360607      82.51798333
H      77.22255659      68.45145693      85.49997145
H      74.95110555      67.27415744      83.64048076
C      77.22822576      62.47047314      83.08679095
H      77.60428129      60.55618039      83.74630543
H      78.52835746      63.08085474      81.61280443
H      75.32527136      62.47425261      82.29877508
C      83.90651855      65.62442637      87.27820391
O      84.16541105      67.88264931      86.75097027
N      85.41640987      64.60208443      89.07344391
H      85.19909136      62.73503483      89.40792547
C      87.41951976      65.85875243      90.39625233
H      86.51623059      67.60296981      91.01230311
C      88.28123497      63.99548228      92.56943759
H      89.10137618      62.32685394      91.68504567
H      86.67874706      63.45313083      93.74673708
C      90.28434486      64.96302216      94.37034677
H      89.67018380      66.84707929      94.93915439
H      92.10037184      64.80050569      93.40847607
C      90.59425997      63.24715067      96.62290053
H      88.70075421      62.69346085      97.21438487
H      91.82825125      64.22035972      97.95515758
N      92.03612115      60.91522839      95.85189219
H      93.21908982      60.97569963      94.35522895
C      92.09470266      58.82141164      97.13123691
N      91.30668679      58.66267462      99.44993109
H      91.43896764      56.95058259     100.27952095
H      91.11015525      60.32185433     100.37400726
N      93.20586173      56.91467778      96.04275455
H      93.58380701      55.40100702      97.14257527
H      93.88238376      57.03750999      94.26263237
C      89.67396325      66.71668818      88.65392467
O      91.29156898      68.10563701      89.59689810
N      89.75144203      65.86253188      86.28609760
H      88.53067884      64.46791386      85.83067356
C      91.36904777      67.09274371      84.28487743
H      92.50477327      68.52893571      85.22785086
C      93.26822270      65.30317290      83.18883617
H      94.10159201      66.28772030      81.58445853
C      95.35826001      64.55484128      85.21462278
H      97.26121441      64.37342754      84.44739390
H      94.92173324      62.92967665      86.40137090
H      95.73620528      66.02504835      86.60546135
C      92.16651226      62.78038826      82.36491550
H      90.52434010      63.04494994      81.15171121
H      91.77533891      61.53883808      83.96173423
C      94.01088515      61.26860722      80.70195634
H      94.50977289      62.04528473      78.86136291
H      93.51766657      59.26927677      80.61691866
H      95.67951349      61.23837160      81.90760173
C      89.84592835      68.32106581      82.29121617
O      90.48465584      70.37519832      81.37469891
N      87.61794104      67.34596704      81.61658388
H      86.99811081      65.70379487      82.37058468
C      86.21765383      68.33807336      79.39615546
H      87.63494857      68.42122131      77.90516140
C      84.21454395      66.28016140      78.50798409
H      82.66307864      66.25748468      79.86291786
H      85.16129682      64.45090633      78.51176355
C      83.23377598      66.81495394      75.86047753
O      80.87728727      66.75826215      75.47875281
O      84.71154197      66.88298409      74.00476629
C      84.90051460      70.90810114      79.98386034
O      85.25389341      72.58239864      78.50609437
N      83.68164112      71.26147995      82.17027369
H      83.38306436      69.69678657      83.22096152
C      83.11850268      73.80505158      83.29088139
H      82.88417662      75.08439629      81.69217293
C      80.57115161      73.80127212      84.75163983
H      80.91508179      72.42555137      86.24452362
H      78.98756095      73.02081516      83.68961364
C      79.54880968      76.30893894      85.80988657
H      81.08704689      77.03081440      86.97584770
H      77.85939436      75.86674299      86.90025865
C      78.88551573      77.90386795      83.56489171
O      76.78791953      77.55993776      82.55199840
O      80.35572280      79.77091755      83.09246013
C      85.32003384      74.61763389      84.89525903
O      86.10427025      76.82861367      84.86313368
N      86.49922305      72.86396788      86.28609760
H      85.65640511      71.15943474      86.12925031
C      88.12627740      73.29293575      88.54054109
H      89.23365702      74.98424080      88.14369856
H      89.35270979      71.67344030      88.88636100
C      86.72221075      73.82205912      91.06710517
O      84.55469468      74.35496194      91.07844353
N      87.99021712      73.56883579      93.19115755
H      89.87616397      73.45356247      92.91903696
C      86.99622107      74.16032012      95.77252369
H      84.93452966      74.17543794      95.76874424
C      87.59715404      71.63753550      97.32020954
H      89.62483037      71.27659777      97.28052529
H      86.53512785      70.10874691      96.43959708
C      87.00189026      71.53360054     100.10377640
H      88.62138570      72.38775684     101.04863956
C      84.49989261      72.63720072     101.02785257
H      84.27879463      72.45011781     103.06686726
H      82.82370538      71.60541015     100.42502987
H      84.48288507      74.58739827     100.36266890
C      86.88661694      68.82184328     100.92391762
H      88.66673914      67.91855410     100.41369151
H      85.44475578      67.68611777      99.98661337
H      86.48599497      68.65743710     102.93836587
C      87.92785614      76.71334037      96.88935194
O      90.24466061      77.04971166      97.15202390
N      86.13828532      78.27236457      97.61500684
H      84.33548642      77.92087549      97.09722183
C      86.83559433      80.58161014      99.00206596
H      88.84626313      80.44177038      99.42536465
C      86.78457173      83.03447489      97.42225476
H      86.48977443      84.53869703      98.79797552
H      85.22932697      82.90786322      96.07299017
C      89.01066933      83.61084142      95.65158121
H      89.12027345      82.09906036      94.25696319
H      90.66040040      83.52391401      96.88179304
C      88.73098982      86.23000209      94.43081801
H      90.44875104      87.33738170      94.68782079
H      87.34393071      87.39974267      95.40402706
N      88.16407194      86.05803699      91.67937650
H      86.96787517      84.70121350      91.06899490
C      88.95397754      87.74178314      89.89169540
N      90.39394899      89.61072246      90.49073864
H      91.09881689      90.86361101      89.23785010
H      90.56969353      90.06992595      92.33700125
N      88.51745075      87.63784819      87.57867040
H      89.38672486      88.75089698      86.29743596
H      87.22676768      86.39440828      86.92482509
C      85.31058520      80.96711431     101.31887042
O      83.19976091      80.24901831     101.47760743
N      86.67118815      81.88363157     103.29552414
H      88.50233295      82.16709051     102.84198983
C      86.08537300      81.63418769     105.92224372
H      84.29202272      80.63263275     106.07720127
C      88.12060822      80.07516349     107.22993433
H      87.86360545      79.99390525     109.27272847
H      89.81569273      81.20333009     106.91812948
C      88.34359593      77.28970690     106.17168759
H      88.65162133      77.36151650     104.13645235
C      90.66229012      76.15587111     107.44914258
H      90.43741268      75.99335465     109.49004700
H      92.26099859      77.40120074     107.08442540
H      91.08747855      74.35118248     106.55341231
C      86.09293189      75.69855734     106.95214456
H      84.34304533      76.47145541     106.18680540
H      86.00411475      75.32250181     108.97415171
H      86.49733332      73.95622968     105.92791290
C      85.65829485      84.17586958     107.41512750
O      84.68508579      84.22689220     109.48626754
N      86.36505249      86.21677399     106.09420881
H      87.16062726      85.97110957     104.37644759
C      85.10082558      88.66774903     106.69325205
H      83.98210761      88.33893665     108.39211601
C      87.09259711      90.78424250     107.31497201
H      87.90517944      91.29635832     105.49138612
H      88.63083434      89.81292318     108.28251188
C      85.87561338      93.00089147     108.60376535
H      85.13862011      92.43586330     110.44057933
H      84.51501042      93.79835596     107.27528776
C      88.12249796      94.71487323     109.33697916
H      89.16751661      95.42541033     107.70992481
H      89.39428377      93.64906758     110.55774236
C      87.12283274      96.96742700     110.92812872
H      85.74711199      96.38917075     112.35109263
H      85.94175380      98.13905731     109.71303470
N      89.23365702      98.60015053     111.92401449
H      88.71398229     100.14216719     112.92178998
H      90.62638533      98.86471221     110.64844923
H      90.39772844      97.59481613     113.05407082
C      83.13362048      89.21954910     104.72037778
O      83.59282398      88.67341821     102.56986924
N      81.02846537      90.43464313     105.45170186
H      80.85272083      90.84093429     107.30930283
C      79.06692946      91.12061378     103.57898309
H      78.25434714      89.28379981     103.12544877
C      77.01846614      93.01411954     104.65234763
H      78.09183068      94.60904856     105.39501008
C      75.02291515      93.73410528     102.71537816
H      74.19143557      92.00878515     101.95570819
H      75.80715158      94.92652258     101.23383273
H      73.31271284      94.60148965     103.46937896
C      75.81848994      91.93697555     106.96348292
H      77.01657642      91.70075976     108.62266262
H      74.90953157      90.13795610     106.53451504
C      73.70766564      93.59426552     107.88944881
H      74.35962122      95.54824253     107.98582485
H      73.18232173      93.29190931     109.85665390
H      71.89730783      93.31836549     106.94647538
C      80.22344197      92.35649479     101.24706082
O      81.78624562      94.03268202     101.45493071
N      79.26535072      91.85760705      99.03986048
H      77.77435666      90.67652810      98.89246183
C      80.34627417      92.89506678      96.76274028
H      81.39129282      94.63739444      97.10478074
C      82.35127379      91.12628296      95.55898462
H      83.64006714      90.38551025      96.98572798
H      83.51723494      92.25067012      94.28530908
C      81.32326269      88.67530794      94.37034677
C      81.28546815      88.29547295      91.70205321
H      81.81648125      89.82993071      90.46428248
C      80.39918651      86.00701437      90.50963591
H      80.04769742      85.90874860      88.50085684
C      79.68109051      83.94154352      92.06866012
O      78.86094930      81.80615279      91.03875928
H      78.35450264      82.11417818      89.32477751
C      79.92486522      84.13240588      94.69348996
H      79.35038841      82.43354192      95.66858874
C      80.62406394      86.55314528      95.92559152
H      80.98689139      86.54369664      97.93248087
C      78.18631701      93.51867648      94.90891876
O      76.01124201      93.45442578      95.61189695
N      78.69654310      94.12338890      92.46172319
H      80.55225434      94.00622586      92.03842450
C      76.72744829      94.32369989      90.54932016
H      74.93031856      93.82670187      91.41859426
C      76.70477157      96.98443452      89.33989532
H      75.87707144      96.81246943      87.46339709
H      78.60772597      97.72709698      89.07533364
C      75.18165217      98.85337386      91.09734079
H      76.22289137      98.81179988      92.87557325
H      73.31082312      98.13527785      91.56977237
C      75.21566723     101.50277014      89.94649747
H      73.97411705     101.43096055      88.30432530
H      77.07137847     102.03378324      89.22651174
C      74.21600201     103.48887250      91.89291557
H      75.88463035     103.89705339      93.02864108
H      72.62485247     102.74054088      92.96628011
N      73.43554506     105.90772218      90.65325511
H      74.78858909     106.43873527      89.41926383
H      73.18799090     107.40060596      91.81921624
H      71.75557836     106.07968727      89.76130429
C      76.88051612      92.36594342      88.39881162
O      79.00456850      91.88406321      87.52197861
N      74.76591237      91.28690970      87.53709642
H      73.06137925      91.79902553      88.22495680
C      74.63363154      89.47466216      85.35257280
H      76.00746256      87.95721194      85.60201667
C      71.88407975      88.33137774      85.32233718
H      70.72000833      89.98866772      84.94250219
H      71.45322214      87.72666532      87.24229911
C      71.05826934      86.32259868      83.40048552
O      69.04382111      86.84794258      82.35168741
O      72.17887705      84.26468672      83.29844030
C      75.09850421      90.55558561      82.75041967
O      75.15708573      92.87805926      82.66160253
N      75.19299052      89.25734363      80.54510906
H      75.30259464      87.36572760      80.77754540
C      75.28936656      90.40440751      78.04689087
H      77.04114286      91.48722068      78.10925184
C      75.47078029      88.36539282      75.95496385
H      75.44432413      89.35749913      74.15027522
C      78.03513889      86.96888508      76.15149538
H      78.61906433      86.40385690      74.25798962
H      78.07104369      85.44576567      77.53855450
H      79.52802268      88.32381883      76.56912490
O      73.54136973      86.47188705      75.79622683
H      72.30548871      86.96132617      74.56223555
C      73.06326896      92.02201324      77.25509555
O      73.29759504      93.66796485      75.51843707
N      70.78803848      91.81603306      78.36814435
H      70.53481516      90.16630199      79.29599997
C      68.75280324      93.55080181      78.35869572
H      68.62430185      94.38228140      76.47841803
C      66.30749739      92.36783315      78.81034030
H      65.88986789      92.03902077      80.80211184
H      66.37174809      90.62739522      77.70862986
C      63.98124430      93.75300254      78.05444978
H      64.32328477      95.75422270      78.40404915
H      62.35607967      93.02545791      79.09379925
C      63.68833672      93.60560389      75.19718359
O      62.86252633      91.58548646      74.11626014
O      64.07006144      95.52745555      73.88760326
C      69.20255811      95.82414258      79.99141925
O      68.20478261      97.82914220      79.31300750
N      70.88252481      95.72587680      81.82067432
H      71.90297702      94.11771972      81.91138118
C      71.31149268      97.58347778      83.76709242
H      71.38141254      99.44107874      82.87892106
H      73.13696830      97.13372290      84.60613091
C      69.33483896      97.50977845      85.88358589
O      68.99468821      99.23887803      87.19694568
N      68.17832645      95.24399659      86.39381200
H      68.49013129      93.66418540      85.36958034
C      66.41143235      94.95297875      88.64069658
H      65.81427883      96.87105096      89.09423090
C      64.12864296      93.28057096      88.03409444
H      63.35574490      92.70420444      89.85579060
H      64.97524035      91.53068439      87.35568269
C      62.09151799      94.38417113      86.25397225
C      60.61942120      92.66074073      84.81589053
H      61.27704595      90.72755070      84.85557478
C      58.80906338      93.48466140      83.09434986
H      58.30639618      92.26956738      81.53343592
C      58.41222086      96.04335083      82.88081078
O      56.56217880      96.66129133      81.14037285
H      56.46202330      98.46220050      80.95895912
C      59.81250806      97.88961344      84.11291234
H      59.48936486      99.87571578      83.77276160
C      61.73246999      97.02789824      85.82878383
H      62.93244620      98.27700732      86.90592783
C      68.07628123      94.09126355      90.83655856
O      69.95655891      92.86861062      90.47940029
N      67.48101743      94.76400612      93.20627536
H      65.76892539      95.47454321      93.66736858
C      69.17610194      94.18008069      95.31520992
H      71.00913647      94.60904856      94.48184062
C      68.73012654      95.86760627      97.58477122
H      69.37263347      94.84337462      99.25150983
H      66.68922212      96.09248371      97.74917741
C      69.93199247      98.41873681      97.50351299
C      68.43154978     100.65428302      97.55831506
H      66.44922687     100.33491928      97.18414925
C      69.64475407     103.06557380      97.43548284
H      68.59973541     104.79278366      97.13879581
C      72.26580447     103.22998000      97.63390411
O      73.50168547     105.44662896      97.21816432
H      72.69477234     107.05289633      96.96305127
C      73.81160059     101.03600775      98.02885691
H      75.84116664     101.22120093      97.90980415
C      72.59272712      98.65873205      97.77374386
H      73.76624716      96.99955234      97.59610958
C      69.10807180      91.28690970      95.87645864
O      67.08417492      90.03024170      96.34889022
N      71.31905159      90.06992595      95.86323055
H      72.85917853      91.09415762      95.39457843
C      71.72156329      87.37328651      96.26763198
H      70.01891987      86.33960621      96.79486562
C      72.71555932      86.18842810      93.79586997
H      73.52058274      84.33649632      94.19838167
C      70.57827886      85.68576091      91.81732652
H      69.39153075      87.36761732      91.72850938
H      69.47845815      84.16453123      92.66581363
H      71.23212417      84.96766491      90.00129953
O      74.39930548      87.76634958      92.45038483
H      75.94699132      86.88762684      92.10078546
C      73.54514918      86.55881446      98.39546381
O      75.34605835      87.87973316      99.25150983
N      73.36373546      84.13429561      99.20615640
H      72.11840581      82.91353240      98.43136861
C      75.04181242      83.08927695     101.19414848
H      76.88240584      84.00579422     101.08832381
C      73.79837251      83.60139279     103.85299340
H      73.37129436      85.61395131     103.80575025
C      71.44944269      82.05937610     104.19125441
H      71.84250576      80.06760458     104.54085378
H      70.27403293      82.39007822     102.53018498
H      70.35529117      82.53936660     105.87122111
C      75.64463511      82.97211392     106.06019374
H      76.28336261      81.01246774     106.11688553
H      74.68465414      83.25368314     107.85921319
C      77.89529916      84.77491283     106.54396367
H      78.87984656      84.09650108     108.22015091
H      77.17720316      86.70621311     106.53262532
H      79.16141579      84.60672718     104.92635795
C      75.61250976      80.33405599     100.60266415
O      74.15931022      79.00368866      99.30442217
N      77.89718888      79.36840584     101.19603821
H      79.29936581      80.48334437     101.85744242
C      78.64929994      76.77192188     100.53652372
H      77.20365932      75.47745937     101.23194301
H      80.33871527      76.28248278     101.60799854
C      78.97055342      76.15209166      97.66413973
O      80.14029401      77.58450420      96.17503539
N      77.71010598      74.21701192      96.80620398
H      76.74823527      73.16632408      98.07610007
C      77.50223607      73.61418922      94.01696794
H      79.01212741      74.56094210      92.98517738
C      77.86506353      70.66243671      93.58422062
H      76.66886677      69.40954817      94.69915914
C      77.52491280      69.91788455      90.82333048
H      79.07637809      70.46779491      89.58555974
H      75.76557759      70.61330384      90.01263789
H      77.17153397      67.89965684      91.03686955
C      80.58248997      69.98591470      94.43081801
H      80.80547767      70.22402022      96.46605325
H      82.11505801      71.03093335      93.53697746
C      81.43664627      67.18345057      94.11145426
H      83.38684381      66.91510944      94.71238723
H      81.13051060      66.36897853      92.24251494
H      80.17052964      65.86820106      95.06387632
C      74.86228841      74.83495242      93.17603974
O      72.75713330      73.86552282      93.71083228
N      74.89252404      77.20277949      92.19338205
H      76.64052087      77.93599330      91.96283544
C      72.84972989      78.57850025      90.94427296
H      72.35651132      77.53348159      89.23785010
H      73.51113410      80.49090327      90.56821742
C      70.48379256      78.85440028      92.46928209
O      68.59973541      79.66320314      91.25796753
N      70.42332131      78.42921186      94.93915439
H      72.01447086      78.10795839      95.94448878
C      68.03659698      78.31393856      96.33188268
H      66.70433992      77.19711031      95.22450306
C      68.28226140      76.90420273      98.79986524
H      69.50680404      77.93788303     100.09243804
H      69.17232248      75.05416066      98.61845152
C      65.77648430      76.63019242     100.08298941
N      64.44044780      74.35496194     100.04330516
H      65.26814792      72.71278977      99.52552015
C      62.16899677      74.66676677     101.35666494
H      60.74225340      73.20600834     101.27540671
N      62.10285636      77.14608770     102.14657054
H      60.67989243      77.88119124     103.18592002
C      64.32706423      78.30637966     101.37556221
H      64.74658347      80.25846694     101.79697118
C      67.11630027      81.04459308      96.80431426
O      68.21801071      82.42031384      98.25373434
N      64.92043828      81.58316508      95.54386681
H      64.08706899      80.12051692      94.64435708
C      63.86030183      84.04358874      95.54008735
H      65.21712532      85.49867800      95.00907426
C      61.95356797      84.05870655      93.45571923
H      60.85374725      82.37496041      93.90358437
H      62.89654141      83.55792908      91.69449431
C      60.08462865      86.33960621      93.07399451
H      59.85975121      87.38084541      94.83710916
C      61.21657472      88.32381883      91.32032850
H      63.13275719      88.61861615      92.01385805
H      60.26037319      90.11905884      91.63780252
H      61.75136725      87.81926191      89.39658711
C      57.59396936      85.60261295      91.90614365
H      56.41289043      87.28446937      91.74929637
H      56.85697611      84.15697232      93.17603974
H      57.97947353      84.82026626      90.04098378
C      63.00047635      84.66719843      98.18381446
O      61.78349260      83.19888108      99.39512903
N      63.68833672      87.01234878      99.02474267
H      64.77303964      88.02713181      97.82476647
C      62.59418520      88.01012427     101.28107589
H      61.76270561      86.43031308     102.30530755
C      64.75792182      89.12506280     102.96671176
H      64.00581074      89.99811636     104.67502435
H      65.77837403      90.44787122     101.76295610
C      66.53237483      87.00667960     104.07787084
H      67.15409478      85.78591640     102.53774389
C      68.80382585      88.32948802     105.25139088
H      69.94333083      87.09171729     106.44002873
H      68.01580999      89.89796086     106.32853487
H      70.05860413      88.81703741     103.69425639
C      65.29838355      85.34938963     106.07720127
H      63.56172506      84.61617582     105.24761142
H      64.93177664      86.38495964     107.81763921
H      66.62875088      83.84138803     106.52128696
C      60.61375201      90.08126431     100.80108541
O      58.61442157      89.91496840     102.01428970
N      61.04271989      91.81225362      99.13812625
H      62.67166398      91.50989741      98.18948364
C      59.26448743      93.73221555      98.38412545
H      57.39743783      92.86294145      98.34444120
C      59.15299357      95.90540080     100.21149080