 %block lattice_cart
   139.898   0.000   0.000
   0.000 144.87   0.000
   0.000   0.000   168.12
 %endblock lattice_cart

 %block positions_abs
N      92.51233218      43.29919971      86.38247365
H      94.35103588      43.01007158      85.95350576
H      91.50510805      41.77608030      85.82689411
H      91.94541428      43.35967095      88.20416980
C      91.50888750      45.38734728      84.99919399
H      92.58981096      46.95582012      85.78720986
C      92.05690814      45.05475545      82.21562712
H      90.84937303      43.52218741      81.55800236
H      94.06001803      44.70515608      81.90949145
C      91.44841626      47.43770033      81.09690915
H      89.40562213      47.70226202      81.17438792
H      92.10982047      47.00306328      79.19584448
S      93.05279390      50.32331241      82.15515587
C      91.76589028      52.48515931      80.03677269
H      89.75900094      52.84798677      80.32212136
H      91.95864237      51.71793043      78.13570802
H      92.69374590      54.32386302      80.11992065
C      88.74232818      45.44214935      85.61713449
O      87.38172524      43.70360114      84.94250220
N      87.73699378      47.48116404      86.76986754
H      88.95775699      48.70381696      87.58244985
C      84.98744200      47.98572096      87.32166761
H      83.85171648      46.99928383      85.91571125
C      84.05580693      47.00117355      89.95972556
H      84.81736663      45.11144724      90.25830231
H      82.00356415      47.12778522      89.84823170
C      84.72099059      48.73216286      92.07243956
O      85.60727223      50.79574399      91.87401830
N      83.80636305      48.17658332      94.33255225
H      84.27312545      49.24427869      95.84622301
H      82.40607585      46.88023107      94.37601595
C      84.12761653      50.77684673      86.81144152
O      85.81514212      52.25650243      86.08956607
N      81.72766411      51.37022079      87.07789293
H      80.48989338      49.92458016      87.20828404
C      80.67697628      53.81930609      86.58845381
H      81.14751813      54.11788285      84.60613091
C      77.74412104      53.81741637      86.79065453
H      76.99578942      52.55507919      85.34501389
C      76.79925789      52.77995662      89.36446177
H      77.68931898      50.94692210      89.66870769
H      74.80937608      52.27350997      89.19627612
H      77.28113809      53.97993283      90.96694967
C      76.57815991      56.39311333      86.09901469
H      76.98256134      57.72159093      87.62024437
H      74.52591713      56.27028112      86.19917019
C      77.14885725      57.61198680      83.46473622
H      76.76146336      56.18146398      82.03421339
H      79.17275413      57.98237316      83.35513209
H      75.98100640      59.30707130      83.37780881
C      82.08671211      55.95469683      88.16259583
O      82.24922857      58.07874920      87.21773268
N      83.26779106      55.37455085      90.42270849
H      83.18086364      53.56986222      91.03875927
C      84.81169746      57.07719426      91.97606353
H      83.84793704      58.89700069      92.07621903
C      85.20287081      56.24949413      94.78608655
H      85.97954831      57.91434301      95.72150108
H      86.49544360      54.66023430      94.97505918
C      82.74055741      55.85265160      96.20149156
C      82.24355940      57.45136007      98.23861652
H      83.46999177      59.01038427      98.71104811
C      80.04958715      56.92034697      99.65780100
H      80.03635906      57.85954095     101.47004853
C      78.29025196      55.05896655      99.06253721
H      76.44398935      54.91534735      99.92236268
C      78.75890408      53.52261906      96.87801358
H      77.47011073      52.08642706      96.20905046
C      80.95287633      53.94969721      95.40780652
H      81.42908736      52.50216685      94.05098302
C      87.36849716      57.56285392      90.66270375
O      88.10360069      59.73603918      90.55120988
N      88.71776174      55.55029539      89.89169541
H      87.73510407      53.91379241      89.91059266
C      91.09503745      55.76572419      88.48195957
H      92.50288355      56.75405106      89.61579536
C      92.28934448      53.23349093      87.93960813
H      93.88805293      53.64545127      86.70939630
H      90.79457096      52.30752504      86.86624357
C      92.99988157      51.75761468      90.24318450
H      91.25755391      51.82375511      91.34111548
H      94.44174274      52.77617717      91.30332097
C      93.80490497      49.09876976      89.69894333
O      95.94785461      48.75294985      88.82211032
O      92.34036708      47.38478800      90.08444748
C      90.74732780      57.11120933      86.04610236
O      92.07958486      58.91400823      85.49619201
N      88.66295969      56.60098322      84.64770488
H      87.54046225      55.14022478      85.15037209
C      87.89195134      57.92757110      82.37814359
H      89.38483514      57.70836284      80.97596666
C      85.38428452      56.84475792      81.27454342
H      83.82148086      57.79151080      82.22507576
H      85.26334205      54.85109666      81.77154143
C      84.90051460      57.16979084      78.42294642
H      86.40851620      56.14744891      77.46296545
H      84.99122145      59.20313636      78.09791348
S      81.76356892      56.00382971      77.26265445
C      82.34182516      56.19091261      73.91783889
H      80.78280095      55.16668095      73.04856478
H      84.20887476      55.49738306      73.39249496
H      82.22277241      58.14866907      73.28289083
C      87.55558006      60.76782974      82.90726696
O      88.43619252      62.40811218      81.55800236
N      86.16285178      61.55017644      84.86502341
H      85.18208381      60.24248583      85.85146055
C      85.74900170      64.18445492      85.49430227
H      85.59215442      65.16333315      83.68961365
C      83.30180613      64.32807412      86.92671481
H      83.45298424      65.27104755      88.75030072
H      82.84449237      62.43078890      87.58622930
C      81.09271607      65.30506262      85.32422690
H      79.47133089      65.31640098      86.59412299
C      81.31003459      68.01304043      84.05055137
H      82.40796558      69.24514198      85.28265293
H      79.44865419      68.76137205      83.58378898
H      82.50434162      67.95256919      82.37436414
C      80.53902626      63.55139660      83.16993891
H      82.17363952      62.87298486      82.11358190
H      79.35227814      64.31484603      81.67138594
H      79.56959667      61.86765046      83.85401984
C      87.83903900      65.68489761      86.77553672
O      88.38894937      67.90154658      85.99885919
N      89.33192279      64.39421454      88.40448080
H      88.87838848      62.62921016      88.96572951
C      91.76966974      65.34285715      89.43627137
H      91.34637104      67.28171635      89.98807145
C      92.96397677      63.77438431      91.44694017
H      94.83102636      64.63609951      91.55843401
H      92.93752061      61.76371551      91.00096476
C      91.69597042      64.20713163      94.02830631
H      89.71553723      63.64966237      94.11145426
H      91.69974987      66.20457235      94.53286322
C      93.31357614      62.85219787      95.95204770
H      92.25154996      63.14132599      97.69059590
H      95.16550792      63.74036923      95.79331068
N      93.63860906      60.16500705      95.41914488
H      94.98409419      59.56785354      94.20216113
C      92.35737463      58.21480950      96.29219843
N      90.60559833      58.49259926      98.08554869
H      89.76089067      57.02806137      98.96994062
H      90.19741744      60.31618516      98.47294260
N      92.79201167      55.88666668      95.54575654
H      91.92840675      54.55629935      96.60400326
H      94.04678995      55.49738306      94.16058714
C      93.65561661      65.86820106      87.21773268
O      95.13527231      67.64265407      87.56922177
N      93.58569672      64.49625976      85.16737962
H      92.41973559      62.99014789      85.27887348
C      95.20708190      64.94223517      82.94317176
H      97.05334451      65.70190515      83.44772868
C      95.80234569      62.58007728      81.51075920
H      94.03734131      61.52749972      81.40115508
C      96.92862257      62.93534583      78.98797458
H      98.76732627      63.84997336      79.15238077
H      95.68329293      64.19579328      77.93539703
H      97.17050754      61.10231130      78.08279567
C      97.65616721      61.01349417      83.21529234
H      96.81523899      60.76027084      85.07856248
H      99.57234969      61.76371551      83.10946767
C      97.85458847      58.18268415      82.45373263
H      95.97242106      57.37010183      82.26098056
H      98.75031874      57.12254769      83.97874178
H      98.81456943      58.04095467      80.63770565
C      94.08458447      67.10030262      81.32556603
O      95.45463606      68.61397340      80.41660767
N      91.58825601      67.23447319      80.91171597
H      90.51489147      66.00048191      81.89626337
C      90.42796405      69.27348788      79.47363424
H      91.52967449      69.50403449      77.74831411
C      87.67085336      68.24358704      78.92372389
H      86.31214015      69.17522211      80.15960490
H      87.50833690      66.20268262      79.15238077
C      86.83748406      68.82751247      76.28944541
O      86.32158878      71.10085322      75.75276314
O      86.85827105      67.20990675      74.57546364
C      90.43930241      71.88131019      80.85502418
O      91.44085736      73.77670568      80.01976515
N      89.43207829      72.07028282      83.03954780
H      88.38894937      70.62653192      83.72551845
C      89.33759198      74.44377907      84.50030624
H      89.32247416      76.10673823      83.28710194
C      86.82614570      74.35874139      85.78532012
H      86.79024090      75.74769023      87.30654981
H      86.51623059      72.60507537      86.81711069
C      84.55280495      74.66676678      83.88425546
H      82.79535949      74.42110236      84.92738439
H      84.63595290      73.21923642      82.42160728
C      84.55658440      77.25191237      82.55388813
O      84.08037337      79.20588938      83.83512258
O      84.87972760      77.53159187      80.28621656
C      91.32936351      74.82739351      86.56955655
O      91.94919375      76.87774656      87.21206349
N      92.38572052      72.76381238      87.66181836
H      92.00399580      71.02904362      86.96261961
C      93.80868444      72.85640897      90.08633722
H      95.00299147      74.52692703      89.94838720
H      94.96141748      71.18967036      90.45483384
C      92.04745951      73.27025903      92.31621427
O      89.77978794      72.91499048      91.94204845
N      93.05657336      73.78048514      94.59333448
H      94.96519693      73.72757280      94.51774542
C      91.39550393      74.43244071      96.88368277
H      89.38861458      74.41354345      96.42636899
C      91.68274234      72.30271916      98.95671253
H      93.70285975      72.09295954      99.29686327
H      91.30857653      70.45834628      98.11956377
C      90.19741744      72.23090956     101.40768755
H      90.05001879      74.11118724     102.23349795
C      87.41007113      71.62052796     100.89557172
H      86.55591484      71.01959499     102.67002473
H      87.41763004      69.97835579      99.64835236
H      86.52945868      73.14742682      99.83165582
C      91.36715803      70.49992026     103.41457690
H      91.38416557      68.61775285     102.58120759
H      90.11237976      70.39976476     105.04541070
H      93.25877407      71.08006623     103.98716398
C      91.95864237      77.08372673      97.91925278
O      94.14694545      77.95678029      98.19137338
N      89.96309138      78.42165296      98.58632618
H      88.26422744      77.60718092      98.29152887
C      89.99332700      81.09561569      99.37812150
H      91.96998074      81.47923014      99.80330991
C      88.93319055      82.66597826      97.14635473
H      88.23777126      84.46688744      97.86067127
H      87.54991089      81.44710479      96.22983745
C      90.90606482      83.08738723      95.04686879
H      91.83769989      81.32238285      94.53853241
H      92.33847736      84.35917304      95.80275932
C      89.71553723      84.23067165      92.76407940
H      91.24243609      85.18309371      91.76252446
H      88.35682402      85.70087872      93.24218015
N      88.54579666      82.32393780      91.14080449
H      88.43808225      80.50791081      91.71528130
C      87.46109374      82.64897072      88.88447128
N      87.75211160      84.58027101      87.36702106
H      87.04913342      84.55948403      85.59256805
H      89.18452414      85.79914449      87.70150261
N      86.07403464      80.81593620      88.18338282
H      85.12161258      80.93120950      86.53365175
H      85.76222979      79.32494214      89.33422615
C      88.65729050      81.21088900     101.94814928
O      86.40662646      81.35639792     101.96704655
N      90.09537223      80.88963553     104.05897358
H      91.99454718      80.84428209     103.86811121
C      88.90484466      80.99168075     106.60065547
H      87.19842178      79.84461687     106.47782326
C      90.80590932      79.78036618     108.42613109
H      89.91206877      80.00524361     110.26672451
H      92.54445752      80.87451771     108.28062216
C      91.30290734      76.90987191     107.81763921
H      91.79612590      76.59239789     105.84287521
C      93.34948094      75.77981558     109.51650316
H      92.50288355      75.30738400     111.33441988
H      94.90094625      77.09884454     109.83208745
H      94.09781255      74.09417970     108.59620646
C      88.83870422      75.33006071     108.15590022
H      89.41129130      73.36474535     107.92724334
H      87.46676292      75.61351966     106.64411917
H      88.03746028      75.44722374     110.04940598
C      87.78612667      83.53147291     107.50205492
O      86.78079227      83.57871607     109.54484906
N      88.13383631      85.56103897     106.14334170
H      88.61004734      85.29269783     104.31408663
C      86.98110327      88.13484621     106.77073083
H      85.59404414      87.91185850     108.27873243
C      89.03523576      90.11905884     107.31875146
H      90.00844481      90.43842258     105.53296009
H      90.24655033      89.27057172     108.75305374
C      88.15273357      92.72499142     108.24093791
H      86.84882243      92.24689067     109.76216759
H      87.01511833      93.78323816     106.88600414
C      89.83647973      94.72432186     109.72059361
H      90.80401959      95.79579668     108.25038653
H      91.22353883      93.63583951     110.78828898
C      88.38894937      96.50822350     111.33064043
H      87.41763004      95.34982127     112.72903790
H      86.88094777      97.27734211     110.15523065
N      89.73443450      98.71920329     112.30573921
H      89.32814335      99.15950952     114.11798674
H      89.37727623     100.21775625     111.17946233
H      91.60904300      98.36960392     112.30951866
C      85.32003384      88.70176410     104.43502911
O      85.86805447      87.71721669     102.38278633
N      83.66463358      90.59526987     104.75628259
H      83.47755068      91.18864393     106.55908149
C      81.83915796      91.43052890     102.85521791
H      80.83382356      89.82048208     102.05586368
C      79.92108576      93.43363879     103.94559000
H      80.88106672      95.01344999     104.85076890
C      78.08994096      94.43330401     101.91602393
H      76.96177435      92.88561816     101.16013341
H      79.16330550      95.37627744     100.43069905
H      76.81815515      95.73910489     102.87600491
C      78.43009169      91.98232898     106.09609854
H      79.58471447      91.24533572     107.63244604
H      77.63073746      90.37228216     105.09454360
C      76.08683106      93.33159357     107.30363365
H      76.70666130      95.07770068     108.20314337
H      75.37629397      92.00689542     108.71147975
H      74.62796235      93.72654637     105.90523619
C      83.20920954      92.53412907     100.54975180
O      84.91563240      94.04213066     100.73494498
N      82.37017105      91.80847416      98.29719805
H      80.79602904      90.72944044      98.26696243
C      83.19598146      92.75522704      95.80653876
H      84.18430832      94.53534923      96.12968197
C      85.11216394      90.98266376      94.51963514
H      86.40662646      90.50834246      96.04842374
H      86.06647573      91.85949677      92.91903695
C      83.90840827      88.49200448      93.79020078
C      83.05236225      88.19153800      91.31087987
H      83.18653283      89.82804099      90.09578584
C      82.06592513      85.73111434      90.60601196
H      81.39885173      85.15285809      88.76541853
C      81.76356892      83.83382912      92.51274581
O      81.05303181      81.51513493      91.80976761
H      81.14373868      80.91231224      90.10145503
C      82.57615122      84.20421548      95.00340508
H      82.36072243      82.73211868      96.39991283
C      83.68353085      86.55881446      95.62890450
H      84.34871451      86.72888983      97.54886642
C      80.96232495      93.42230043      94.12090290
O      78.83449312      92.46609892      94.41192075
N      81.42152845      94.99077327      92.15180807
H      83.14117939      95.80902477      92.03842450
C      79.58093503      95.98476931      90.30365575
H      77.72522378      95.31958565      90.89136063
C      79.60739119      98.89872729      90.24129478
H      78.14663275      99.64705891      88.99596514
H      81.52357367      99.42029175      89.69894333
C      78.98189178     100.17618228      92.73951296
H      80.36895089      99.68296371      94.18137413
H      77.00334833      99.75477331      93.12123768
C      79.42219801     103.11092724      92.44849511
H      78.29214167     103.58146909      90.79309485
H      81.38562365     103.35470193      91.87779775
C      78.81748559     104.68695898      94.71616668
H      80.05903577     104.20696850      96.29030871
H      76.96555380     104.20129932      95.47583665
N      79.19921031     107.45540803      94.20027140
H      77.80837174     108.04500264      93.03242053
H      80.88106672     107.76154370      93.35178429
H      79.18220276     108.57790546      95.74606753
C      80.31036937      94.94164039      87.73740740
O      82.50812108      95.17974590      86.84356687
N      78.38284853      93.79835597      86.50908531
H      76.60461607      94.09693273      87.13836417
C      78.70977120      92.46042974      84.07700754
H      80.45020912      93.07837024      83.16615946
C      79.20487948      89.65796562      84.62880763
H      77.47011073      88.75845589      85.27887348
H      80.34438445      89.27246145      86.30121540
C      80.35194336      88.15374347      82.40459975
O      81.73522302      89.30080734      80.82478855
O      79.84549670      85.85583628      82.52554223
C      76.44587906      92.93286132      82.27798809
O      74.46922534      93.60749361      83.23229987
N      76.79547844      92.31492081      79.77599045
H      78.45276842      91.43052890      79.43772945
C      74.93787747      92.58704140      77.63870999
H      76.01502146      92.28846465      75.90772069
C      72.95366484      90.44031231      77.78799836
H      71.53637011      90.70865345      76.31779130
C      74.38040821      87.87217425      77.34391268
H      75.84116664      87.49611872      78.74797933
H      75.25346176      87.60383312      75.49576036
H      73.06893815      86.31503977      77.65949699
O      71.68754821      90.33637736      80.13692818
H      72.02958867      91.83682006      81.09690915
C      73.86829237      95.33470346      77.20974212
O      74.45788698      96.66507079      75.36347951
N      72.22800993      96.13216797      78.93128279
H      71.94077153      95.21754043      80.58101386
C      70.92220905      98.53967929      78.66105193
H      71.89352838      99.87949524      77.43272982
C      68.42777032      98.00866619      77.58201820
H      67.43188455      99.74343495      77.09257909
H      67.32039070      96.92396329      78.94073142
C      68.45233676      96.73121121      75.01954933
H      69.52570131      94.97754519      74.87215066
H      69.30838278      98.21653609      73.88193409
C      65.73868977      96.52712077      73.88760326
O      64.40076354      98.43196489      73.56446006
O      65.09240338      94.33125879      73.22052988
C      70.89008370      99.97587129      81.27832287
O      68.90020190     100.85081457      82.16082506
N      72.90642168      99.85114935      82.85435462
H      74.52969658      99.13683280      82.14759697
C      73.10484295     101.01900021      85.38847760
H      71.85384412     102.64983402      85.51697900
H      74.99645899     101.82402362      85.51697900
C      72.57382985      99.27478282      87.66181836
O      72.89697305     100.07413705      89.84256253
N      71.85951331      96.85593314      87.16293061
H      72.04659621      96.19074948      85.38280843
C      70.52914598      95.29501921      88.92604525
H      69.36318485      96.69530641      89.88791596
C      68.97957041      93.20309218      87.60134712
H      68.07250177      92.22799340      89.17170968
H      70.30048909      91.96154199      86.62435860
C      67.03693175      93.82670186      85.58878859
C      66.52859537      91.98610844      83.75008489
H      67.44889209      90.16441227      83.81055613
C      64.88264376      92.37539206      81.67138594
H      64.54060329      90.96754595      80.23519394
C      63.40865723      94.52401087      81.70918047
O      61.54727681      94.62605609      79.86102813
H      60.47202254      96.07736590      79.71173975
C      63.85274291      96.46287007      83.53087663
H      62.65465643      98.11260114      83.62914241
C      65.81049937      96.23232346      85.22596114
H      66.19978299      97.73087643      86.55632847
C      72.05982429      94.12905807      90.92915515
O      73.96277869      92.92908187      90.44916467
N      71.38141254      94.67140953      93.33099730
H      69.62018762      95.33281374      93.65225076
C      72.66642644      93.66796485      95.61945586
H      74.69410278      94.01756422      95.54008735
C      71.54014957      95.02856780      97.89846579
H      72.34517296      93.95898271      99.46504891
H      69.48979651      94.86794106      98.00806991
C      72.35462161      97.83481137      98.05531308
C      70.44788775      99.66973562      98.11767405
H      68.44477785      99.28990064      98.21405008
C      71.17165292     102.26999903      98.45026588
H      69.70522532     103.58146909      98.99450706
C      73.75679852     103.04856627      98.48995013
O      74.34072395     105.60725570      98.91513854
H      72.98012102     106.80345246      99.00395568
C      75.51235428     101.07758173      98.58065699
H      77.39830113     101.61237427      99.14757489
C      74.87362677      98.48676695      98.29908778
H      76.40619481      97.19041470      97.93059114
C      72.33194488      90.85416237      95.69693463
O      70.29859938      89.72599576      95.78764151
N      74.47867397      89.69387042      95.91992235
H      75.96399885      90.87494936      95.71583191
C      75.06637886      87.00290015      95.79897985
H      73.29570530      86.06748562      96.29219843
C      75.85250500      86.27724524      93.00029518
H      77.88585051      86.59093981      92.89258079
C      75.41408850      83.49556811      92.66581364
H      75.53692072      83.14407902      90.64002702
H      73.41853751      83.02313653      92.84344791
H      76.43832016      82.19354668      93.89224601
O      74.46922534      87.51312625      90.95939078
H      74.52780687      89.27246145      91.40347646
C      76.97311271      86.16197194      97.87200963
O      78.41686361      87.80792356      98.80175497
N      76.99200998      83.73367363      98.58632618
H      75.58416388      82.63385291      97.91736306
C      78.50757047      82.71889060     100.67447375
H      80.31225910      83.69965855     100.51006756
C      77.22822576      83.16297628     103.16513302
H      76.95799489      85.20577042     103.20481728
C      74.71111031      81.68143085     103.41835636
H      75.19299052      79.68965932     103.18592001
H      73.17854227      82.49212344     102.30908701
H      74.07994172      81.78158635     105.37611281
C      78.70599173      82.43543165     105.64634367
H      78.94787670      80.40964504     105.92980263
H      77.46633127      82.90030432     107.22615487
C      81.15507704      83.95288188     105.99027387
H      82.71788070      83.13085093     104.93013741
H      81.64073670      83.96799969     107.99149404
H      80.73177835      85.80859312     105.19847853
C      79.21999729      79.85595523     100.17369627
O      77.89907860      78.37629953      98.90568992
N      81.47066133      79.20777911     101.04674984
H      82.63284301      80.66853755     101.45304099
C      82.37017105      76.63397187     100.90879981
H      81.16641540      75.33572989     101.96137737
H      84.18808777      76.98357124     101.81397871
C      82.93708896      75.93099368      98.07610006
O      84.58493029      77.05160138      96.96494100
N      81.46121271      74.18866602      97.02919169
H      80.68642492      72.89798295      98.20082200
C      81.37806474      73.78993377      94.27586046
H      82.65363000      75.03715313      93.25162879
C      82.17174979      70.94022649      93.57855145
H      80.60138724      69.71946329      94.11334399
C      82.75756495      70.74369495      90.75530033
H      84.79091046      70.57550931      90.47184139
H      82.08104293      72.36508013      89.67815634
H      81.69175931      69.12797895      90.05988104
C      84.36383233      70.10307773      95.32087910
H      83.84982676      70.34307297      97.30131228
H      86.07214490      71.20478817      94.99962562
C      84.97988309      67.29116498      95.06954551
H      86.20820520      66.77904915      96.63990807
H      86.02868120      66.93589643      93.33477674
H      83.24511434      66.18567508      94.96750028
C      78.61717461      74.22646055      93.14580412
O      76.88807503      72.59373701      93.23084180
N      78.14096358      76.48279376      92.17826425
H      79.51857405      77.79804328      92.32377317
C      75.93943241      76.97601233      90.42081878
H      75.90352762      75.54926896      88.93549390
H      76.11328724      78.76936260      89.42682274
C      73.39397107      77.26325073      91.88157721
O      71.54959819      77.27647881      90.57010716
N      73.51869300      77.58261448      94.37790567
H      75.17787272      77.79048437      95.29820238
C      71.08472552      77.77914601      95.88401755
H      69.43688417      77.13663907      94.82388109
C      71.34928720      76.40342526      98.50128849
H      72.53225588      77.45789254      99.81653801
H      71.95399962      74.45511743      98.22727818
C      68.72256762      76.32027730      99.70315443
N      66.88575366      74.53826539      99.19670777
H      66.98023996      73.15498573      97.88523771
C      64.97524035      74.83684214     100.69148129
H      63.07039622      74.10362834     100.62156140
N      65.49491509      76.87396711     102.14468082
H      64.18155529      77.68088025     103.27095771
C      67.76825583      77.87174260     101.54185813
H      68.48068265      79.64430589     102.26562330
C      70.43088022      80.54003616      96.58321628
O      72.01258114      81.91953637      97.74917741
N      68.11029630      81.38096437      95.94637851
H      66.97268106      80.07705321      95.14135511
C      67.24291192      84.07571409      96.02574702
H      68.73390598      85.37584579      95.45315995
C      64.94122527      84.23445110      94.24184537
H      63.77904359      85.83504929      94.82199135
H      63.92266279      82.45999809      94.46861254
C      65.42310548      84.87317859      91.42615317
H      63.68833672      84.34405523      90.45294412
C      65.91443433      87.72099615      91.05387709
H      66.18088574      88.21043526      89.06966446
H      67.62652636      88.39940789      91.97606353
H      64.14376078      88.53357846      91.72284021
C      67.61140855      83.35572836      90.24507422
H      67.34495714      83.73367363      88.23629515
H      67.41109757      81.40364108      90.86112500
H      69.44255336      84.01335312      90.92537570
C      66.33584329      84.81081762      98.71482757
O      65.54782742      83.20832971     100.17747572
N      65.95222885      87.36761733      99.07387556
H      66.47946249      88.36917227      97.53752807
C      65.12830818      88.54113737     101.44926154
H      64.34974093      87.11817345     102.71915762
C      67.39031058      89.83371016     102.83632065
H      66.71945773      90.99022267     104.40290376
H      68.35785044      91.13573159     101.56642457
C      69.47089924      88.02524208     103.62811598
H      69.83372669      87.03691522     101.85744242
C      71.68187904      89.65229644     104.55597160
H      72.08061129      91.16974667     103.22182481
H      73.41475807      88.53735791     104.57297913
H      71.14708648      90.50267328     106.35499104
C      68.49769019      86.37740074     105.87500056
H      67.68510788      87.67375299     107.25450076
H      69.89608766      84.96199573     106.40601366
H      67.11252081      85.06215122     105.10399223
C      62.91921812      90.50078355     100.82565185
O      60.86130616      90.29669311     101.85555270
N      63.50881272      92.24122149      99.04552967
H      65.33617807      92.45854001      98.54286247
C      61.62853504      93.83237104      97.71705206
H      60.08462865      92.63995374      97.05942731
C      60.57406776      95.72776654      99.79575102