 %block lattice_cart
   139.898   0.000   0.000
   0.000 144.87   0.000
   0.000   0.000   168.12
 %endblock lattice_cart

 %block positions_abs
N      93.19452338      45.47144010      86.42593734
H      92.76177605      43.64596449      86.08011742
H      92.76555550      45.86639290      88.24385406
H      95.06913188      45.64718465      86.11602222
C      91.78289782      47.22888557      85.02942960
H      92.25532940      49.16207559      85.56422215
C      92.59736986      46.87550675      82.26098056
H      91.51266696      45.29758528      81.49942085
H      94.62693592      46.76023344      81.93027844
C      91.69974986      49.08837627      80.75108923
H      89.67396326      49.39073248      80.98541529
H      91.91517866      48.86349884      78.71396427
S      93.17373639      52.19886578      81.47863385
C      90.57914216      54.21709348      81.11580641
H      90.40150789      54.21898321      79.06356363
H      91.04590456      56.05201773      81.93216818
H      88.84626313      53.50655639      81.97374215
C      88.90106519      46.63362179      85.39414677
O      88.16596166      44.61917354      84.50786514
N      87.51967526      48.54980426      86.35601748
H      88.36060347      50.08048258      87.12513609
C      84.82870499      48.67452620      86.61302025
H      83.95565143      47.41785821      85.23352005
C      83.94620280      47.38951231      89.07533363
H      84.75311594      45.49600655      89.18115830
H      81.89018057      47.33848971      89.20572476
C      84.82492554      48.71421045      91.42804290
O      86.28946343      50.50756072      91.32410795
N      84.27879463      47.92808431      93.71839119
H      85.44853522      48.27768367      95.18481880
H      83.19031228      46.36528065      93.86956929
C      83.91029800      51.39006292      86.21050855
O      85.37672562      53.13050086      85.67571599
N      81.29680651      51.69619857      86.39570173
H      80.31414883      50.06347504      86.45617297
C      79.96832891      54.13394553      86.41648872
H      80.32548719      54.87471824      84.52676240
C      77.08082711      53.66907286      86.79632370
H      76.61973389      52.08926166      85.55666325
C      76.60650580      52.87916725      89.45705836
H      77.20554904      54.26622637      90.85545583
H      77.39452167      51.03668409      89.92193102
H      74.58638837      52.59192885      89.74807620
C      75.35550698      55.88005263      86.15381676
H      75.81660020      57.40695150      87.45583819
H      73.34105873      55.47187176      86.29365651
C      75.79581321      56.87593840      83.50442047
H      74.30670888      58.24598999      83.12080603
H      75.78447486      55.27722995      82.20428877
H      77.52869224      57.93040568      83.14537247
C      81.20232020      56.16351159      88.13236020
O      81.34404967      58.41606534      87.54276559
N      82.20954432      55.27534021      90.35656808
H      82.43064230      53.37805499      90.41325987
C      83.61739042      56.88538704      92.13857999
H      82.47032655      58.55779483      92.50707662
C      84.16352133      55.51911492      94.70104886
H      85.39562288      56.75688564      95.79520041
H      85.00255981      53.64072695      94.56687831
C      82.02813059      55.12794157      96.52652449
C      81.79380453      56.77389318      98.50128849
H      82.88228689      58.49732358      98.42380970
C      80.16297072      56.30713078     100.47416276
H      80.29903102      57.61482139     102.03507670
C      78.71355064      54.06213592     100.41936069
H      77.64774500      53.55379954     102.08231985
C      78.67386639      52.47287609      98.30475695
H      77.78947447      50.63417240      98.38790490
C      80.50123173      52.93585905      96.35833884
H      80.81303658      51.65840405      94.79931464
C      86.10993943      57.92473650      90.99151611
O      86.28757370      60.23776152      90.96317022
N      87.80502393      56.34681503      89.97106390
H      87.61983075      54.45519899      90.14680846
C      90.06513660      57.18018433      88.41014997
H      91.23865664      58.40472699      89.57800084
C      91.84525879      55.04857305      87.71662041
H      93.46475424      55.76477934      86.66215314
H      90.95330797      53.75788998      86.38436337
C      92.76555550      53.64639613      89.98051254
H      91.19141349      53.44419542      91.29387232
H      94.31891053      54.65928943      90.88002227
C      93.68207277      51.07636834      89.36257203
O      92.80523976      49.12239134      90.20727970
O      95.42251070      51.11038343      87.70528205
C      89.36026869      58.81101814      86.04232290
O      90.47520721      60.86893010      85.76642287
N      87.48754991      57.97575912      84.49463705
H      86.67496760      56.32224859      84.98785563
C      86.56347375      59.29667782      82.30444425
H      87.96376094      59.50832715      80.80778101
C      84.07470419      57.91717760      81.56178181
H      82.69331426      58.21575436      83.06222451
H      84.24288983      55.86682456      81.50886948
C      82.99189101      58.78267226      79.03143829
H      84.33170697      58.25165915      77.56123121
H      82.69520398      60.81412804      78.86514236
S      80.00234399      57.24254531      78.46074093
C      80.15919127      56.59625890      75.18395551
H      80.48800365      54.59503874      74.82679724
H      81.31192432      57.86237553      74.03689163
H      78.32237729      56.43563218      74.26554853
C      86.05702709      62.10103165      82.79766283
O      87.10960465      63.82446205      81.60524553
N      84.48666453      62.73975916      84.64392543
H      83.78368634      61.34325140      85.73618724
C      83.68731030      65.30411775      85.24674813
H      83.30936503      66.01654457      83.35135264
C      81.11161333      65.16994719      86.65648395
H      81.51979422      65.70285001      88.60290206
H      80.19698580      63.32935377      86.51853393
C      79.09716508      67.01432008      85.64359065
H      77.67987035      67.21463106      87.12513609
C      79.84927616      69.83001228      85.11635700
H      81.02090647      70.07000752      83.43828004
H      80.77713178      70.61991787      86.77553672
H      78.12017658      70.93550217      84.93683301
C      77.82726900      66.02410348      83.32867591
H      79.25401237      65.92205827      81.84713049
H      76.33249549      67.35825027      82.85246488
H      76.87862639      64.21752513      83.60457596
C      85.75278116      66.90660568      86.59790244
O      85.90017981      69.19128478      86.18216266
N      87.74266296      65.61403287      87.64481081
H      87.61227185      63.71674765      87.81488619
C      90.17852018      66.78188374      88.73518290
H      89.81380300      68.61869771      89.59122892
C      91.21220048      64.89782661      90.58900442
H      91.84336906      63.27833115      89.48162480
H      89.67963244      64.20618677      91.77575254
C      93.18507475      66.01843430      92.23495604
H      92.32335955      67.58501742      93.25918770
H      94.74409895      66.86881114      91.19182711
C      94.31135163      64.00587579      93.94137890
H      92.64083357      63.20085237      94.83143999
H      95.63982923      64.90916495      95.23206197
N      95.77777925      62.11614946      92.46172319
H      96.68484788      62.98542357      91.02553120
C      96.56390539      59.78611693      93.00785409
N      95.72486691      58.68629621      95.10167085
H      95.84202994      56.80223908      95.39079897
H      94.30190300      59.50643744      96.07487990
N      98.11915015      58.64283251      91.40158673
H      98.58024337      56.82302607      91.74551691
H      98.51788240      59.36659769      89.68193579
C      92.08525403      67.34691190      86.53743120
O      93.41562136      69.23285877      86.91915592
N      92.22509378      65.93339663      84.41148910
H      91.05157374      64.44240257      84.20172948
C      93.67829331      66.76676593      82.19484013
H      95.55668127      67.42061123      82.72963268
C      93.89939129      64.58980121      80.41660767
H      92.06446704      63.68273258      80.17850215
C      94.95007912      65.06223279      77.66894562
H      93.32680422      65.61214315      76.52944064
H      95.77966897      63.26321334      77.09635854
H      96.32768960      66.58913166      77.78043947
C      95.73242582      62.61314748      81.58067908
H      95.24865588      62.29756320      83.55922252
H      97.76577133      62.88148863      81.39359617
C      95.29589904      60.00910463      80.28621656
H      96.49965470      59.65761553      78.65160330
H      93.29089942      59.81635255      79.85724869
H      95.89116283      58.66928867      81.73185718
C      92.46508902      68.95128955      80.79644265
O      93.90695020      70.49141649      79.63993016
N      89.95553248      68.84735459      80.83234745
H      89.14106044      67.51698727      81.93216818
C      88.28879387      70.77109599      79.61158427
H      89.01822823      70.89770764      77.68973260
C      85.53168318      69.63537046      79.36969930
H      84.39217821      71.30777826      78.98608486
H      85.01011872      68.87759021      81.21407218
C      85.16318655      67.63792976      77.21541129
O      86.51812031      67.88548391      75.36536924
O      83.56636781      65.91260963      77.29289008
C      88.55146583      73.31277787      81.00242282
O      89.15428852      75.15715076      79.82323361
N      87.69919926      73.46017652      83.37969853
H      87.42140949      71.87658588      84.40204046
C      87.28156974      75.84312141      84.77809600
H      87.17952452      77.36624081      83.39670606
C      84.71721114      75.93004882      86.09712497
H      84.49611316      77.57411070      87.31410872
H      84.74366731      74.22362596      87.25174775
C      82.43253203      75.84123168      84.38503292
H      80.79602904      75.99807897      85.62469339
H      82.41741421      74.00630743      83.44961840
C      82.23600049      78.09189572      82.60869020
O      81.64451615      80.06099054      83.68205474
O      83.05047253      78.04087311      80.41282821
C      89.48688035      76.21917695      86.78498534
O      89.90639959      78.45850262      87.44827929
N      90.71331273      74.25008213      87.56922177
H      89.90639959      72.59090242      87.07411347
C      92.39138969      74.29732528      89.88035705
H      93.81813306      75.78076044      89.79720908
H      93.22475900      72.42082706      90.02208652
C      90.89850591      74.86235346      92.45227456
O      88.59681926      74.86046373      92.52597389
N      92.24399104      75.07211308      94.55742967
H      94.12048927      74.78865412      94.34767005
C      91.28778953      75.55966245      97.05564785
H      89.23743648      75.37257956      97.05942731
C      92.47264793      73.68883342      98.85466730
H      94.51922152      73.92504919      98.84710841
H      92.11737938      71.74997421      98.26318296
C      91.73754439      73.98741017     101.77240474
H      91.98887799      75.91115156     102.46593429
C      89.10326591      73.25797581     102.41680141
H      87.90328970      74.86613291     101.95948764
H      88.91618301      73.18994566     104.46715446
H      88.50233294      71.44761800     101.63445472
C      93.24743571      72.18839071     103.41835636
H      92.85626237      70.22118563     102.94592478
H      92.80146030      72.57767433     105.39312034
H      95.27133260      72.51342365     103.23316318
C      91.90761976      78.25630191      97.96649594
O      94.01655432      79.15581164      97.56020478
N      89.99143728      79.42037332      99.19103859
H      88.26422743      78.60590127      99.21749475
C      90.25032978      81.88268670     100.37022781
H      92.22698351      82.37401555     100.67069430
C      89.52656460      84.09744595      98.80931388
H      89.12216317      85.76040509      99.95826748
H      87.91462806      83.42659310      97.71705206
C      91.41251146      84.87223373      96.88368277
H      91.90006085      83.17525950      95.81976685
H      93.03956582      85.89457567      97.62634521
C      90.29001403      86.67503263      94.92592630
H      91.53912313      87.82020678      93.75429598
H      88.87082957      87.98650269      95.63646339
N      88.89350629      84.94593305      92.97950819
H      88.10549042      83.32265815      93.60311789
C      88.53067884      85.60922700      90.59278387
N      89.18452414      87.70871293      89.60823645
H      89.20720086      87.93170063      87.71284096
H      89.71931669      89.23183233      90.62679894
N      87.48943964      83.98028292      89.06588501
H      87.33070263      84.44515558      87.22151213
H      87.04535396      82.22850662      89.68193579
C      88.84059395      81.74851614     102.83254120
O      86.97732381      80.42003854     102.99883711
N      89.62483037      83.28297391     104.81864355
H      91.14606005      84.33933092     104.35377088
C      88.63461378      83.25084856     107.32253092
H      87.17007589      81.80142847     107.27717749
C      90.64528258      82.55920873     109.27650793
H      89.77600848      82.61779024     111.14355751
H      92.29501365      83.78375137     109.13099899
C      91.70352932      79.85690010     108.94391609
H      92.63327466      79.72272953     107.11277130
C      93.31924531      79.22762124     111.30607399
H      95.04267571      80.35011866     111.42890619
H      93.83514060      77.23584969     111.38355276
H      92.46508902      79.63013294     113.13721878
C      89.80813382      77.69505319     108.92690856
H      88.61193707      78.06543955     107.29040557
H      88.67807749      77.66859702     110.64655949
H      90.94007989      75.99240979     108.65667770
C      87.12850191      85.68292632     107.95180978
O      86.39717783      85.85489141     110.15712039
N      86.76378473      87.53107866     106.18491568
H      87.15495808      86.94715322     104.40668322
C      85.89829008      90.12189342     106.47782326
H      84.74177758      90.22771810     108.17857693
C      88.14895412      91.80941902     106.64222944
H      89.43018856      91.30864155     108.17479748
H      87.59904377      93.71048369     107.20914734
C      89.54357214      92.07209099     104.16857770
H      88.20753564      92.55964038     102.67758363
H      90.28623458      90.19937221     103.73772010
C      91.59014574      94.01661936     104.09487838
H      90.78890178      95.88177923     104.44447773
H      92.24966022      93.94103030     102.14468082
C      93.95986253      93.30608227     105.84287521
H      94.66095100      91.47682719     105.20981690
H      93.52711521      93.23427267     107.85543373
N      96.22753411      94.97282087     105.37800254
H      95.77211007      96.82286294     105.26272923
H      96.96641710      94.66857493     103.64323379
H      97.57112952      94.72526672     106.70836987
C      84.11438844      90.92124766     104.30274826
O      83.88573156      89.40001797     102.52262608
N      82.58182040      92.88278358     104.34432225
H      82.74244714      93.97693510     105.89956700
C      80.85083110      93.20025759     102.28263083
H      80.15352209      91.27840593     102.02751779
C      78.52268828      94.73471536     103.12922822
H      79.31070416      96.42602041     104.00417151
C      76.77091199      95.33753805     100.76140116
H      77.99167519      96.53373480      99.61055784
H      75.16842408      96.58097797     101.10911079
H      76.01691119      93.63111520      99.88645787
C      77.06570930      93.37978159     105.19847853
H      78.30159031      93.02073359     106.80852536
H      76.49690168      91.59021078     104.35188114
C      74.59016783      94.68747221     105.97326632
H      73.63207659      93.49505489     107.35276654
H      73.39586080      95.19580858     104.37455787
H      74.98134117      96.28240120     107.21481651
C      82.02813059      94.27929131      99.94881885
O      83.54747055      95.99516281     100.08298941
N      81.38751337      93.11144045      97.81153839
H      80.44831940      91.45415048      97.94003976
C      82.05080731      94.08653924      95.32843801
H      82.81425674      96.00083199      95.31898938
C      84.19186722      92.41602117      94.03397549
H      85.82081130      92.55019175      95.28497430
H      84.68697552      93.19080897      92.19149233
C      83.37928491      89.68725638      93.47839595
C      82.52134916      89.10144121      90.96505995
H      82.37206078      90.56030994      89.54587549
C      81.86939358      86.59566412      90.47562084
H      80.94342769      86.10622502      88.72384454
C      82.33426626      84.59066451      92.21038959
O      81.68420041      82.12835112      91.85134159
H      80.50123173      81.87701752      90.49640783
C      83.11094377      85.35033449      94.62545981
H      83.33393148      83.86123016      96.00496003
C      83.58148562      87.80319925      95.31520993
H      84.04446857      88.14901916      97.27107666
C      79.72455422      94.41157216      93.60122816
O      77.67609090      93.72749124      94.29475772
N      80.06092550      95.55863604      91.36568192
H      81.71443603      96.47893274      91.12379696
C      78.08616151      95.82886690      89.51941931
H      76.35706193      95.48115725      90.58144551
C      77.70254706      98.57841867      88.60479179
H      76.48556332      98.71069952      86.94750181
H      79.54691995      99.25683043      87.99063073
C      76.53280648     100.31318744      90.62490922
H      77.65341418     100.12421480      92.34267044
H      74.57505002      99.87855038      91.09167161
C      76.94665654     103.05707005      89.77831183
H      76.14730231     103.38966188      87.90937250
H      78.93275889     103.45391256      89.40036657
C      75.90352761     104.86931757      91.80031898
H      76.88240584     104.33641475      93.53319801
H      73.91553553     104.39877572      92.05921148
N      76.40808454     107.62831800      91.06521545
H      78.20143481     108.06106531      90.57766606
H      76.47233523     108.78294077      92.58455539
H      74.99834871     108.19901533      89.91248240
C      78.27135468      94.22637898      87.15915115
O      80.22722142      94.29251940      85.94972631
N      76.34950302      92.73349520      86.77175726
H      74.90197267      92.52184585      88.00196909
C      76.70666130      90.68881133      84.91226657
H      78.43387115      89.60599815      85.22407140
C      74.54670412      88.77829802      85.28832210
H      72.77981002      89.72694062      85.76453313
H      75.02480488      87.67280813      86.96072990
C      74.18954585      86.79975457      83.24741769
O      72.86106825      87.38556972      81.37469892
O      75.62384812      84.84766728      83.16426972
C      76.75768391      91.84154437      82.27042919
O      76.13029477      94.13567212      81.87358665
N      77.37184496      90.51495651      80.15204599
H      77.61750938      88.62711991      80.26542957
C      77.43420593      91.55430598      77.67650452
H      78.71921982      93.16246306      77.69162232
C      78.41497388      89.68536665      75.64882819
H      78.04647725      90.25984345      73.70618953
C      81.22499691      88.98238846      76.06645769
H      82.03568950      90.86455586      76.27054814
H      81.96576963      88.02051776      74.39971909
H      81.36672638      87.69548484      77.66894562
O      76.96744353      87.44037178      76.11748031
H      75.45188303      87.50462248      75.12348427
C      74.86228842      92.48405132      76.73731054
O      74.86795759      93.99583236      74.95340889
N      72.75713330      91.85666219      78.02799361
H      72.73445659      90.31653524      79.15616021
C      70.10962674      93.00561579      77.70107096
H      70.02269933      93.76906521      75.78866792
C      68.08950931      91.06297713      78.15838472
H      66.31316658      91.94925878      78.70262590
H      68.70744981      89.91969271      79.75898291
C      67.44133318      89.42836388      75.85669807
H      66.57961799      87.67847731      76.51621256
H      69.00791630      88.74617267      74.70774447
C      65.55727605      90.93258601      74.18240056
O      66.19978300      93.03396168      73.30367782
O      63.39353942      90.08787836      73.52099635
C      69.56727529      95.45092164      79.38670683
O      67.54715786      96.66790538      79.35080203
N      71.54203928      96.39011561      80.80211184
H      73.20121899      95.50194425      80.49030699
C      71.51747284      98.67668445      82.44806346
H      70.35907061     100.24704702      81.78854897
H      73.37696353      99.53084075      82.68805869
C      70.62552202      98.08331039      85.20706388
O      70.73323642      99.90689627      86.72640383
N      69.69388695      95.83642579      85.74941533
H      69.96411781      94.47960231      84.43227609
C      68.35407099      95.01817431      88.04732252
H      67.35251605      96.70192044      88.68416028
C      66.27537205      93.14734526      87.47473544
H      65.24736093      92.61444244      89.17737886
H      67.23724274      91.40312787      86.94372236
C      64.47068342      93.95803785      85.46595637
C      64.05305391      92.17602593      83.55733281
H      64.89965129      90.32598386      83.72173900
C      62.25214473      92.69381094      81.64304004
H      61.95356797      91.25006004      80.22952477
C      61.09752195      95.06541746      81.43139070
O      59.49125459      95.54918740      79.45851642
H      58.78827640      97.21970545      79.38859655
C      61.47357749      96.88900335      83.37780881
H      60.54383214      98.69747143      83.19828481
C      63.24236132      96.29184983      85.33934472
H      63.54849698      97.60520963      86.87191276
C      69.96978699      94.12244404      90.29798657
O      71.73290164      92.65979587      89.86523923
N      69.42365609      94.74794345      92.72439515
H      67.97801546      95.93847102      93.09667122
C      70.97890084      94.03740634      94.90702903
H      72.89508332      94.71014892      94.55931940
C      69.94333082      95.33186887      97.25406911
H      71.13196867      95.00305649      98.90568992
H      67.97423600      94.81408387      97.57154314
C      69.96789726      98.22126040      97.27485610
C      67.63975445      99.43446470      97.10667047
H      65.92010350      98.33464398      97.08399375
C      67.44700236     102.07819181      97.33343763
H      65.64231373     103.03061388      97.33532734
C      69.67876914     103.56162697      97.35611434
O      69.48412733     106.05984516      97.07454512
H      67.76447638     106.62865278      96.94982319
C      72.04092703     102.17834731      97.57154314
H      73.57727452     103.52005299      97.55264587
C      72.20344349      99.51194347      97.57343287
H      73.97978623      98.53117552      97.79453084
C      71.33605912      91.21982442      95.32276882
O      69.55782665      89.84977283      95.65158121
N      73.68309920      90.28440989      95.47394694
H      75.07960694      91.56753405      95.27552567
C      74.36906985      87.54430674      95.42670377
H      72.83461208      86.36322780      96.13157169
C      74.76591237      86.78463675      92.59778349
H      76.51579894      87.68036704      91.98173271
C      75.25157204      83.89335551      92.31999372
H      73.99112459      82.65747450      93.38013018
H      77.19232096      83.50785133      92.89258079
H      75.38574260      83.49273353      90.30365574
O      72.71366960      87.28352451      90.90080926
H      72.43965928      89.07120559      90.77986677
C      76.61973389      86.92825595      97.12745746
O      78.09938959      88.64223773      97.71516234
N      76.77091199      84.61712067      98.04964390
H      75.33660972      83.41903419      97.66225001
C      78.56048281      83.88201715     100.03385653
H      80.31036938      84.91947688      99.70882360
C      77.47389018      84.76829878     102.63411994
H      77.06381957      86.78463675     102.51317744
C      74.83772197      83.58721983     103.36355428
H      75.01724597      81.56521269     103.72827147
H      73.46578067      84.20138089     101.95570818
H      74.20466366      84.34688981     105.17013264
C      79.59983228      84.51696519     104.72415724
H      81.35349830      85.16703103     103.85677286
H      79.78124601      82.50818612     105.14745593
C      79.22566647      86.20827024     107.00505689
H      77.63640664      85.77741264     108.24471736
H      79.21810757      88.20193149     106.49294106
H      80.91130234      86.15535789     108.18613584
C      79.31448361      80.98317698      99.88267842
O      77.90285805      79.57155142      98.80553442
N      81.40641064      80.22917618     101.13934642
H      82.58559986      81.51419008     101.91035476
C      82.06970457      77.65536895     101.38879030
H      80.42753241      76.50641534     101.85933214
H      83.37928491      77.48340384     102.97049122
C      83.32070339      76.52909206      99.06631666
O      84.96665501      77.76875252      97.73972879
N      82.21521350      74.35968625      98.38601518
H      80.95854550      73.63214163      99.62378592
C      82.16230116      73.28821143      95.77630315
H      83.66841303      74.26331020      94.76152011
C      82.84071291      70.46307060      95.47961611
H      81.75978946      69.33301425      96.81943207
C      82.54024643      69.46529510      92.78486639
H      83.60227261      67.72296744      92.50329716
H      83.30180613      70.80133161      91.41481481
H      80.51634954      69.10624710      92.63557801
C      85.78301678      70.02276437      96.14102031
H      86.36883194      71.51375843      97.43548284
H      87.01889779      70.35724593      94.52719405
C      86.38772920      67.28077149      97.22005405
H      85.08381804      67.02754816      98.79419606
H      88.38516991      67.21085161      97.71516234
H      86.29324288      65.87859456      95.71583190
C      79.56770693      73.78520946      94.43459746
O      77.57971485      72.64570448      94.78419683
N      79.24456374      75.98296115      93.10234041
H      80.72043999      77.11490722      92.67526227
C      77.06192984      76.61412974      91.59622853
H      76.80114761      75.45194806      89.91626185
H      77.43420593      78.59456291      91.16915040
C      74.37851848      76.55743795      92.98328765
O      72.51146888      75.70895083      91.80031898
N      74.19521503      77.32466684      95.32465856
H      75.82604884      77.93504843      96.10889497
C      71.82738796      77.79709841      96.70982795
H      70.39875486      76.42326739      96.15235868
C      72.03336812      77.31521820      99.49150507
H      73.48845739      78.66070333     100.05653324
H      72.95933402      75.48407341      99.66158044
C      69.71467394      77.59300798     100.94470460
N      67.82494763      75.73351729     101.09966217
H      68.01580998      74.00441770     100.31164630
C      65.93522131      76.47429000     102.63411994
H      64.20801146      75.46328641     103.02718301
N      66.53993373      78.81377117     103.42969471
H      65.43066439      79.76430351     104.65612709
C      68.75091352      79.62635348     102.27885138
H      69.57861364      81.46694691     102.57742814
C      70.76158232      80.44649471      96.29219843
O      71.78203453      82.34944911      97.40335749
N      68.63941967      80.76585846      94.84088862
H      68.05171478      79.28242330      93.79209052
C      67.26558864      83.17714922      94.44215637
H      68.72634708      84.60578232      94.18326386
C      65.55916578      82.73684300      91.96850463
H      64.08139980      81.31387908      92.15747726
H      66.82717213      82.21716826      90.43026740
C      64.21368064      85.15380296      91.12001750
H      65.49302536      86.76196004      91.24662917
C      63.39731887      84.87979264      88.37235545
H      65.05082940      84.43948640      87.22718131
H      62.56961875      86.65802509      87.74685604
H      62.19545294      83.22817183      88.10212459
C      61.88175837      85.83977361      92.56376840
H      62.12931252      86.40102232      94.53097350
H      60.41533075      84.39413298      92.52786360
H      61.07106578      87.50273275      91.65858951
C      65.76514594      83.83477398      96.97627936
O      64.70123003      82.20016073      98.23672680
N      65.93711104      86.25362367      97.76618494
H      67.21645575      87.28919369      96.79675536
C      64.85051841      87.41580534      99.96015719
H      64.52359576      85.91536265     101.33020878
C      66.79126733      89.25261932     101.32831905
H      65.63475483      90.16157768     102.76829050
H      67.53392977      90.60944281      99.96960584
C      69.04760055      87.98461296     102.62467130
H      70.07750139      86.88101280     101.22438411
C      70.82394328      89.78363241     103.81141942
H      69.91687465      91.10455112     105.10399223
H      71.74046055      90.71337777     102.21649042
H      72.31493735      88.72916514     104.76573122
C      67.83061680      86.30842573     104.82809219
H      67.15220506      84.49239875     104.12889345
H      66.34718165      87.41013616     105.73705054
H      69.27436771      85.67725714     106.15279033
C      62.38631530      88.88034325      99.16647215
O      60.34541088      88.20382122     100.14535037
N      62.46190435      90.81542298      97.61500685
H      64.10029706      91.48816555      96.90258002
C      60.12053345      92.15145949      96.73250466
H      58.62009076      90.80408463      96.30731624
C      59.18889838      94.13000293      98.65624605