 %block lattice_cart
   139.898   0.000   0.000
   0.000 144.87   0.000
   0.000   0.000   168.12
 %endblock lattice_cart

 %block positions_abs
N      94.04962454      41.39530044      85.75602937
H      95.78817274      41.46711004      84.96990322
H      93.03295178      39.98934407      84.95856486
H      94.58441708      41.06081889      87.55882827
C      92.77594900      43.95398987      85.39887110
H      93.63388475      45.21632706      86.78215076
C      93.05751822      45.05192086      82.69467275
H      91.77061460      43.97099741      81.50414516
H      95.02661304      44.78735918      82.14854184
C      92.36020921      47.81848018      82.54538437
H      90.37221713      47.98099664      83.06505909
H      92.82697161      48.35138301      80.61219435
S      94.00049165      50.02757024      84.58061960
C      97.21491611      49.59482293      83.55260848
H      97.33585859      50.37339016      81.64965408
H      97.58719219      47.61627947      83.99480444
H      98.58307796      50.69086419      84.63542166
C      90.14167052      43.89729808      86.23035067
O      88.63933810      42.15874987      85.51981358
N      89.21570463      45.90985662      87.61929951
H      90.38733494      47.27990818      88.24857837
C      86.47560147      46.08560115      88.29393180
H      85.47215680      44.63807080      87.22434671
C      86.15623773      45.25601131      91.04537332
H      86.90834880      43.35872609      91.33261171
H      84.17013537      45.62261821      91.45544392
C      87.39778791      46.98511088      92.93132017
O      87.42235436      49.31325371      92.72722973
N      88.16879625      45.90796689      94.98923213
H      88.73004496      47.21754721      96.25912822
H      88.79996484      44.11083716      94.89852527
C      85.46081844      48.71043100      87.66465295
O      86.85543646      50.51511963      87.35662756
N      82.96637971      48.96932351      87.74213172
H      81.86277954      47.43108630      87.98968586
C      81.85144119      51.52612321      87.44166524
H      82.43914607      52.28768291      85.61996908
C      78.94315239      51.32959167      87.63252759
H      78.40458039      49.53246196      86.78215076
C      77.52396793      51.25400262      90.19688620
H      77.77530153      49.53057223      91.29103774
H      75.49251214      51.16140603      89.87185328
H      78.35544751      52.72231996      91.37796515
C      77.69026384      53.19286183      85.76925746
H      78.80709210      53.58025571      84.08173186
H      77.77908098      54.92952030      86.87285762
C      74.80843122      52.92641041      85.03226419
H      73.55554267      53.13805976      86.65364936
H      74.54009008      51.01211765      84.31794765
H      74.50985446      54.36071268      83.58473383
C      82.77929681      53.64072695      89.21044907
O      82.90968792      55.84225811      88.37330031
N      83.52384897      53.18152346      91.60095286
H      83.69203461      51.32392249      92.00157483
C      84.38745390      55.12416211      93.23556611
H      83.04007904      56.68318633      93.25446338
C      84.72571491      53.90339891      95.81693225
H      85.77262328      55.20353061      97.02257764
H      86.03340552      52.31791853      95.66764387
C      82.24450426      53.20231045      97.16241740
C      81.23161095      54.78212164      98.94820875
H      82.30497550      56.43563218      99.47166295
C      78.72772359      54.39850721      99.83638013
H      78.07765774      55.81202250     101.15918855
C      77.26318570      52.42374322      98.94631904
H      75.26007581      52.40295622      99.33560266
C      78.19482077      50.81936557      97.03391600
H      77.07610279      49.31136397      96.23078232
C      80.79319445      51.12172178      96.24212067
H      81.53396716      49.74789076      94.92309171
C      86.91590770      56.23343146      92.27936460
O      87.12755705      58.57858181      92.05637689
N      88.58642577      54.60259765      91.44221584
H      88.15934762      52.74499668      91.56504806
C      91.05440833      55.22620733      90.45577871
H      91.99738176      56.53389794      91.73701315
C      92.62477090      52.90751314      90.43310200
H      94.34631157      53.35159883      89.39375252
H      91.62888513      51.49399786      89.31060457
C      93.49782445      51.57903554      92.93132017
H      94.53717392      49.86127433      92.47589613
H      91.80085022      51.21053892      94.04058953
C      95.56329531      53.07758852      94.17853955
O      97.80451072      52.34059525      94.15775256
O      94.88866302      54.95786620      95.42575892
C      90.78039801      56.36382258      87.84228721
O      92.35831949      57.87182418      87.07127888
N      88.77728812      55.61549095      86.38530823
H      87.60754753      54.34370515      87.19411109
C      88.02706678      56.63972261      83.95700992
H      89.61632661      56.31279996      82.68711384
C      85.98994181      55.01077854      82.81183578
H      84.26840114      55.25644295      83.91543594
H      86.52473436      53.02089673      82.90254264
C      85.38333966      55.43407722      80.08118124
H      86.99149676      54.82558536      78.94734546
H      85.28885335      57.47876109      79.84118600
S      82.44859470      54.18685787      78.96435299
C      82.00261929      56.26555680      76.30928753
H      82.50339676      55.26967104      74.57640849
H      83.28007428      57.85481663      76.60597456
H      80.03352447      56.84192333      76.12598408
C      87.52439958      59.52533469      83.96267909
O      88.35209970      61.07868972      82.55861244
N      86.06364114      60.43807251      85.87130267
H      85.32664788      59.02266750      86.92010077
C      85.30019171      62.99487221      86.27570411
H      85.34932459      64.18917923      84.59951686
C      82.59032417      63.03455646      87.35851729
H      82.20859946      64.79767111      88.35440304
H      82.31442413      61.78733709      88.97423328
C      80.53808140      62.78511259      85.31005396
H      78.80331264      63.03266673      86.39286714
C      80.65713416      65.09057868      83.63197700
H      82.12923095      65.03199718      82.19389526
H      81.13145546      66.81022963      84.66187783
H      78.90535786      65.50064930      82.62664259
C      80.58343483      60.17917999      84.00425307
H      80.63823689      58.72031129      85.45556289
H      82.22560700      59.93729503      82.78537961
H      78.85433525      59.90327996      82.91766044
C      87.27873516      64.50287381      87.88197147
O      87.44503107      66.86125225      87.71945501
N      88.95681212      63.30100787      89.26336140
H      88.62799974      61.43962746      89.54493063
C      91.22826315      64.64271356      90.31593897
H      90.76528020      66.53810904      90.97734318
C      92.34698113      63.02321810      92.52124957
H      94.33875266      63.28777978      92.96911470
H      92.21092083      61.05979247      91.91842687
C      90.64811717      63.38604556      94.90797391
H      88.76783949      62.57724270      94.69443483
H      90.34954042      65.38915545      95.28213971
C      91.60242896      62.09725220      97.43642770
H      90.35143014      62.58102214      99.00112110
H      93.39199978      62.96274685      97.97877915
N      91.73093035      59.29856753      97.32871330
H      92.85342778      58.41039618      96.06637613
C      90.37410686      57.81135293      98.82348683
N      88.64311755      58.52189002     100.38440076
H      88.22170859      57.29734738     101.78468795
H      88.40690177      60.38704989     100.71510287
N      90.76339048      55.44541558      98.73277995
H      89.45003069      54.31535925      99.53213419
H      92.31863523      54.85204152      97.79925517
C      93.21814496      65.26443350      88.11818725
O      94.65244723      66.93117212      88.22779139
N      93.08586412      63.95674289      85.97334790
H      91.88021873      62.47708719      85.95823008
C      94.50504858      64.58602176      83.59607220
H      96.18501527      65.65182741      84.12708528
C      95.19857813      62.07835495      82.32617611
H      93.40900732      61.06546164      82.24869734
C      95.92801249      62.47519748      79.49347637
H      97.38121203      63.92839701      79.36308526
H      94.22914854      63.36147912      78.73380638
H      96.51571737      60.64405267      78.75837284
C      97.33018942      60.77444379      83.92110512
H      96.84452975      60.75554652      85.92232528
H      98.92700815      62.07457549      83.86819279
C      98.29017038      58.24410025      83.05183102
H      99.10086297      58.33480711      81.15832525
H      96.68201329      56.95530691      82.99702896
H      99.70557539      57.59970359      84.40298533
C      92.98192917      66.59669056      82.02193017
O      94.06474235      68.52232168      81.14320743
N      90.51961578      66.27921653      81.73091233
H      89.79396088      64.56523477      82.15043157
C      88.82642101      67.74186470      80.09440933
H      89.91301364      68.05555927      78.37286866
C      86.21103979      66.39260011      79.53127090
H      84.64067722      67.17683654      80.61030462
H      86.48127065      64.36870323      79.80906067
C      85.40412665      66.69117687      76.83841089
O      86.34710008      68.28988533      75.44757234
O      83.99817028      65.10569649      75.86142240
C      88.30863600      70.37614319      81.15832525
O      89.00783473      72.27720786      79.95834903
N      87.28062488      70.60291034      83.46001189
H      86.60221314      69.16293889      84.51258945
C      86.79496522      73.05199565      84.78659977
H      87.09921116      74.64125547      83.51292423
C      84.26462169      73.19939430      86.27759382
H      84.25139360      74.87936099      87.46812141
H      84.28351895      71.52131734      87.47190086
C      81.78908022      73.28632171      84.76392306
H      80.28107862      73.20695321      86.16421026
H      81.74561651      71.60824474      83.56961603
C      81.46404729      75.70895085      83.22001665
O      80.15446696      77.41159425      84.14031336
O      82.59977281      75.95839471      81.07139783
C      88.81319292      73.51119913      86.93143914
O      89.48026631      75.67871521      87.49835703
N      89.83931431      71.42683102      88.03125984
H      89.44247178      69.64292937      87.48701868
C      91.69502555      71.65359817      90.16476085
H      93.26538812      72.93105316      89.77358750
H      92.63799898      69.91504996      90.74301710
C      90.21159039      72.44350377      92.44566052
O      87.81352770      72.38492225      92.67998658
N      91.59675978      73.36569022      94.41664506
H      93.45814020      73.71717931      94.20121626
C      90.61032265      73.53198613      97.06793108
H      88.55430042      73.49041214      97.15674821
C      91.70636391      71.11502617      98.37751142
H      93.72270188      71.22652002      97.96933053
H      91.02039326      69.48041292      97.32682358
C      91.17346109      70.90526655     101.08548921
H      92.34509140      72.32067156     102.01901401
C      88.50327781      71.19628441     101.90563044
H      87.94958800      70.46685005     103.75189305
H      87.32786804      70.26653905     100.49022543
H      88.05919212      73.20695321     101.97555032
C      92.09753725      68.34279767     101.88484345
H      93.96836630      67.86280718     101.17619609
H      90.67835279      66.92928238     101.40296324
H      92.00683039      68.41460727     103.94086567
C      91.38322071      76.03965295      98.43231348
O      93.45058129      76.40059068      99.23733689
N      89.53884783      77.85379020      98.64018336
H      87.80785852      77.28309285      98.07704492
C      89.87332938      80.45405361      99.57181845
H      91.84809338      80.86223449      99.99322740
C      88.79807511      82.13779976      97.59327500
H      88.50327781      83.98217263      98.45876965
H      86.97448922      81.42915238      96.95076805
C      90.58008703      82.60645188      95.38418493
H      91.61376732      80.97561807      94.66608894
H      92.02194820      83.90280413      96.07582476
C      88.95114294      83.84233289      93.33383188
H      90.22670820      84.78530632      92.01858237
H      87.74171810      85.39379820      93.93854430
N      87.38644956      81.97339356      91.78236657
H      86.70614808      80.40492072      92.62707425
C      87.12188787      81.96205520      89.42209841
N      87.77951263      83.81020754      87.89708928
H      87.34676530      83.68926505      86.04137805
H      88.32753326      85.45237970      88.69833323
N      85.99750072      80.01374739      88.45644827
H      85.89545550      79.86634872      86.55727332
H      85.55341503      78.42259782      89.41453950
C      88.60910248      80.58633445     102.10405171
O      86.36410762      80.80554270     102.39317983
N      90.03017667      80.67893104     104.16196365
H      91.91612353      80.63168789     103.86905608
C      88.98515802      80.75263037     106.81513940
H      87.27306598      79.60934595     106.86238255
C      90.93724530      79.33155618     108.58959241
H      89.89411637      79.17092944     110.35837623
H      92.56618938      80.55987828     108.86549245
C      91.95580778      76.83333799     107.59748609
H      93.21058605      77.05632571     105.97988036
C      93.35609498      75.50108094     109.61571380
H      94.83953013      76.67271125     110.43774475
H      94.28773005      73.76253273     109.02611918
H      92.07108109      75.04754664     111.16150991
C      89.81096842      75.13825350     106.90584626
H      88.66957372      75.83934195     105.34115288
H      88.34076134      74.93794250     108.33447935
H      90.71236787      73.32222651     106.54679826
C      88.32564353      83.47383627     107.83937106
O      87.39400846      83.57399175     110.00688714
N      88.84342854      85.46182835     106.32947973
H      89.71081292      85.14057487     104.65896168
C      88.14234008      88.13390134     106.79624213
H      86.86110564      88.05831229     108.40817868
C      90.57252812      89.73827898     107.45575661
H      91.94635915      89.62489541     105.92696804
H      91.36054399      88.94837338     109.18863565
C      89.94513898      92.43491844     108.23054441
H      88.45981410      92.35932938     109.65728778
H      89.38011082      93.53851860     106.58648252
C      92.04840437      93.72938097     109.62894187
H      93.65278201      94.40212352     108.52534171
H      92.90445039      92.25917388     110.79301329
C      91.13566656      95.91579431     111.31835720
H      89.62010606      95.35832505     112.59770192
H      90.30985616      97.32175068     110.06357893
N      93.35420525      97.35954521     112.41439847
H      94.24426635      96.36932862     113.78256031
H      92.76272092      99.04140163     113.10036912
H      94.63543969      97.66190142     111.03111881
C      86.37166653      89.26017823     104.66652059
O      86.80252413      88.67625279     102.48199696
N      84.51784501      90.83620998     105.35249124
H      84.10021550      90.70770859     107.21009220
C      82.46938169      91.70170463     103.69520126
H      81.31853837      90.09354753     103.11694501
C      80.55886839      93.54985697     105.07848092
H      81.63601239      95.09376335     105.91373995
C      78.66725235      94.62511124     103.21899022
H      79.56676207      95.82508744     101.80925439
H      77.19326582      95.63422508     104.24322188
H      77.82632414      93.05285894     102.18530994
C      79.35511273      92.06264235     107.40284429
H      80.82531980      91.92469234     108.83903629
H      78.64079618      90.24283592     106.74899898
C      77.12145622      93.45915009     108.50266500
H      77.29531104      95.50572370     108.68974791
H      76.60178149      92.76184109     110.36971460
H      75.45282789      93.11521991     107.34426276
C      83.75817504      92.80530479     101.38784542
O      85.39467802      94.56275027     101.49367010
N      82.71693584      91.95681767      99.28269031
H      81.43759112      90.55653048      99.48111157
C      83.11566809      92.88656303      96.70321390
H      84.15690729      94.66290575      96.66919882
C      84.84854712      90.82109216      95.43520754
H      86.40757133      90.45448527      96.72778034
H      85.54774585      91.72438134      93.72122577
C      83.81486682      88.31153563      94.71522182
C      83.12511672      87.76351499      92.22267281
H      83.19314687      89.23183233      90.80537807
C      82.34088030      85.28419406      91.43654666
H      81.88167681      84.86278511      89.49201829
C      82.11978232      83.36423213      93.24690447
O      81.44137058      80.96805916      92.43999134
H      80.98783626      80.92459546      90.68254586
C      82.70937693      83.91603222      95.80559390
H      82.58654472      82.51574501      97.28335988
C      83.80730792      86.31787436      96.50479264
H      84.70114847      86.64101756      98.30948127
C      80.64012662      93.31742062      95.22733765
O      78.70315715      93.77473439      96.44810084
N      80.64957525      93.47804736      92.67431740
H      82.31631386      93.44592201      91.74457206
C      78.41213930      93.97882483      91.05293223
H      76.83610755      93.01884386      91.96944948
C      78.03797349      96.94569515      90.76380409
H      76.38257324      97.37088356      89.61674023
H      79.80486759      97.47292878      89.84917656
C      77.57121109      98.68424335      93.09383664
H      78.81843045      98.38377687      94.70388345
H      75.75140465      98.11732545      93.87429361
C      77.57121109     101.46025130      92.44566052
H      76.10478347     102.13299387      91.16253635
H      79.36456136     101.97047742      91.56693777
C      77.47294532     103.15155635      94.74167798
H      79.16236064     102.77928028      95.86039596
H      75.68715395     102.86242823      95.72622540
N      77.59577753     105.78583484      94.07649432
H      76.15580608     106.32818629      92.94832772
H      79.29653121     106.08441160      93.26013255
H      77.66569740     106.94612679      95.59016510
C      78.47827972      92.80530479      88.46211745
O      80.52674304      92.86010685      87.19033163
N      76.22572595      92.04185537      87.58339471
H      74.88024082      92.15145949      88.93643875
C      75.63802107      90.99305725      85.15509640
H      76.72272397      89.29608303      84.72801825
C      72.75996789      90.46771334      85.16832448
H      71.53920470      92.12500332      85.08895598
H      72.35745619      89.27151659      86.79537883
C      72.03620272      88.81987199      82.92899881
O      70.81166006      89.91780298      81.19611977
O      72.51808293      86.48039083      82.96679332
C      76.13879854      92.90923974      83.03671320
O      76.00462797      95.13344761      83.59985165
N      76.21438759      92.20626155      80.50636966
H      75.95171564      90.40346265      79.93189288
C      76.40336023      94.10165704      78.49381114
H      78.06631938      95.25627982      78.87742558
C      77.12901513      92.92057809      75.91622446
H      77.11389732      94.47393313      74.56507014
C      79.85966965      91.92658205      75.77260526
H      80.28296835      90.70770859      77.37887262
H      81.07098422      93.58765148      75.65733196
H      80.22816628      90.83432025      74.06429266
O      75.32810595      91.08376413      75.14332640
H      74.03175370      91.87744917      74.15122007
C      74.14891673      95.89689705      78.12531451
O      74.49095720      98.19102478      77.45635141
N      71.96628284      95.04652020      78.82073379
H      71.90014242      93.30797200      79.60874967
C      69.75908251      96.67168483      79.03805232
H      69.51719754      97.77906445      77.31651165
C      67.38747599      94.91801881      79.31206264
H      65.62436134      95.96681691      79.12497973
H      67.40826298      93.82197756      81.05628003
C      66.91126495      92.92057809      77.20690753
H      65.42782980      91.63178475      77.82673775
H      68.62902617      91.84343411      76.84219035
C      65.97396070      94.42102080      74.93734622
O      67.44605750      95.81941826      73.75626727
O      63.73463502      94.05819333      74.11342556
C      69.75530306      98.61243375      81.37375404
O      67.90526100      99.63666541      82.15043157
N      71.99840819      99.01305573      82.63042205
H      73.68215433      98.27795219      82.11641649
C      72.38391236     100.67034571      84.90376280
H      71.38613686     102.45991652      84.69967236
H      74.39647088     101.10687248      84.97935186
C      71.56566086      99.73682091      87.52292347
O      71.47684373     101.26183004      89.38430388
N      70.86835185      97.31797122      87.77047762
H      71.24062794      95.99327308      86.44955893
C      69.41326259      96.30696765      89.97389850
H      68.84256525      98.00205216      90.99435071
C      67.11535540      94.86132702      89.30493538
H      66.14970525      94.55897081      91.09639592
H      67.85612811      93.15679388      88.41676401
C      65.32200513      96.11043611      87.49079812
C      64.66060092      94.76117152      85.25336216
H      65.80199561      93.15679388      84.71479016
C      62.68961637      95.67579906      83.78882427
H      62.04710943      94.90290101      82.01248154
C      61.23452711      97.73560074      84.53526616
O      59.11803364      98.31574672      83.27670844
H      58.30545133      99.78028461      83.97023800
C      61.90537995      99.17557220      86.59506785
H      60.79044143     100.75727312      87.24513371
C      63.83290079      98.28173164      88.18243795
H      64.15793372      99.20580782      89.97200878
C      71.05732449      94.97471060      91.82583028
O      72.31966166      93.04152059      91.09828565
N      70.92882310      95.43013464      94.26735668
H      69.63058112      96.71325880      94.82293621
C      72.63524596      94.39267489      96.35928370
H      74.59867160      94.87455510      95.96811037
C      71.70361088      95.74382922      98.80269983
H      72.46517059      94.66101604     100.38062131
H      69.64758866      95.61721755      98.81214846
C      72.32911029      98.62755157      99.26946224
C      70.39781000     100.35287168      99.21654989
H      68.52131177      99.87477094      98.57215322
C      70.61323880     102.83408234     100.08960346
H      69.05043514     104.13988321      99.94220479
C      73.09444945     103.65044411     100.79069191
O      73.49129198     106.10141914     101.37272762
H      71.90014242     106.93478844     101.12139401
C      75.15047168     101.85142466     100.96643647
H      76.90035825     102.54306449     101.75634206
C      74.77063669      99.38344208     100.14440552
H      76.16525471      97.89622748     100.04047056
C      72.43493497      91.46737857      96.67675773
O      70.48851687      90.28818934      96.64652211
N      74.64402503      90.31653524      96.96210641
H      76.26541020      91.32186963      96.94509887
C      74.95771960      87.60288825      97.23989617
H      73.16814878      86.69959907      97.70854829
C      75.92903892      86.46905247      94.67553756
H      76.52430271      84.51318573      94.93065062
C      73.96750301      86.59566412      92.57794135
H      74.80276204      86.07598939      90.76569382
H      73.30987825      88.53074387      92.30771049
H      72.46517059      85.23695091      92.95588661
O      78.07009883      87.67091840      93.98578747
H      79.38534835      87.35344439      95.19521230
C      76.86823290      86.75629086      99.27324169
O      78.50851534      88.15090888     100.08771373
N      76.78886439      84.19382198      99.80803423
H      75.29598061      83.23762047      99.09938686
C      78.53308178      82.72361491     101.49555983
H      80.32832178      83.73272877     101.46721394
C      77.60522616      82.71227656     104.25456024
H      76.96460894      84.61334122     104.71565347
C      75.23172991      81.04364822     104.70242538
H      73.79553791      81.68993462     103.37394778
H      74.70449627      81.02286123     106.69230719
H      75.84589096      79.21250342     103.98243965
C      79.75195525      82.30598539     106.07058724
H      80.30375534      80.36334675     105.65673716
H      79.01307226      82.44393541     107.98676971
C      82.02529601      84.20327061     106.21420643
H      81.29208220      86.08732776     106.61671813
H      83.23472085      84.23917542     104.54935756
H      83.09299137      83.61178628     107.87527587
C      79.14535311      79.99107066     100.48077679
O      77.66002822      78.77975609      99.19387317
N      81.35066371      78.89691914     101.27257212
H      82.81142215      79.97028368     101.87539481
C      81.55286443      76.16059542     101.26879268
H      79.89935390      75.18360692     102.01523457
H      83.01173314      75.46328641     102.54246821
C      82.57142691      75.24029871      98.78191284
O      84.41391007      76.06421939      97.83704968
N      80.97271845      73.63403134      97.78224762
H      79.55353399      73.05199565      98.91986286
C      81.14468354      72.38870171      95.34639040
H      82.73772283      73.24096828      94.35428409
C      81.51318018      69.41616221      95.45221507
H      79.81053677      68.42216618      96.05125833
C      81.88356653      68.63948471      92.70266329
H      83.49550308      69.74308487      92.05259745
H      80.40202110      69.25742521      91.41009050
H      82.19915083      66.60424947      92.69888384
C      83.66746817      68.65082306      97.02824682
H      83.22527222      69.16293889      98.97277521
H      85.42869310      69.52387662      96.41030632
C      84.27784977      65.83324113      97.61028253
H      82.67725158      64.85247318      98.46065936
H      85.92758084      65.49875958      98.79703066
H      84.74272244      64.83168618      95.87362404
C      78.89968868      73.29199089      93.81949155
O      77.07232334      71.91438041      93.21666885
N      78.68048043      75.86579812      93.46422300
H      80.11100325      76.97695719      94.05948679
C      76.81343084      77.01475172      91.71622616
H      76.14635745      75.85445977      90.14964305
H      77.60522616      78.70038759      90.83561370
C      74.27741812      77.78576005      92.95399690
O      72.76752680      78.91581639      91.67465218
N      73.98640027      77.23773943      95.42008974
H      75.56054229      76.78987430      96.39896796
C      71.56377114      77.68749428      96.63896320
H      70.30899287      76.65381399      95.37284657
C      71.59589648      76.37602422      99.20710127
H      72.86579257      77.30954902     100.53368914
H      72.35556646      74.46362120      99.14474030
C      69.01075089      76.33822971     100.33337814
N      67.04921498      74.52031299      99.93275617
H      67.35913009      72.81955930      99.12206357
C      64.96295713      75.35368229     101.13840156
H      63.16582740      74.38992187     101.20454197
N      65.49019077      77.52875728     102.40262845
H      64.32233991      78.69093897     103.36638887
C      67.92226853      78.18638203     101.78846741
H      68.90492622      79.91926107     102.23822227
C      70.84945459      80.49940704      96.84683309
O      72.21950617      81.96772438      98.02413259
N      68.77264537      81.35545307      95.62606990
H      67.83156167      79.90603298      94.81348759
C      67.54054382      83.93492948      95.56937812
H      68.76508647      85.52229958      95.09505680
C      65.47507296      83.81587672      93.61729082
H      63.82345216      82.91258754      94.45254986
H      66.08167510      82.85022657      91.90330907
C      64.40359814      86.36133806      92.86140031
H      64.15982344      87.58588072      94.49790330
C      66.19883813      87.87500884      91.10962401
H      66.54465805      86.70148880      89.45422376
H      67.91470963      88.40413222      92.11873786
H      65.21051127      89.61355706      90.61829518
C      61.99041764      86.22527777      91.33450145
H      62.28710467      85.15947214      89.59784296
H      61.16649696      88.10366572      91.15119800
H      60.64304277      85.63757288      92.78014208
C      66.67693889      84.64357684      98.23767166
O      65.88325384      83.06187592      99.76268079
N      66.93583140      87.09077242      98.78947175
H      67.77486988      88.21893904      97.49689896
C      65.98718879      88.07154037     101.22910841
H      65.59412571      86.46149356     102.45176134
C      68.02620348      89.77607351     102.57648328
H      67.17204719      90.93636548     104.05046981
H      68.69516659      91.18202989     101.23099815
C      70.15592503      88.08665819     103.54969234
H      70.84756486      86.86778471     102.03980101
C      72.36501509      89.79308106     104.30180341
H      71.82833282      90.95526274     105.91562968
H      73.02452958      91.03652096     102.79758125
H      74.06009960      88.66113499     104.59282126
C      69.49452082      86.51251618     105.77201048
H      69.11090638      87.57076290     107.49733059
H      71.05354503      85.24073037     106.21231671
H      67.82589249      85.39946738     105.31280698
C      63.47007334      89.45482005     100.80392000
O      61.42727919      88.97671929     101.87350509
N      63.68361241      91.63178475      99.56614926
H      65.20295237      91.91146425      98.44365183
C      61.57089839      93.37222268      99.23544716
H      59.85313718      92.23460744      99.21843963
C      61.13815107      95.22982366     101.42186050