 %block lattice_cart
   139.898   0.000   0.000
   0.000 144.87   0.000
   0.000   0.000   168.12
 %endblock lattice_cart

 %block positions_abs
N      92.45186094      45.81820489      87.70622692
H      94.28867491      46.26418030      87.98590642
H      92.10226157      44.02674434      87.15064739
H      91.40684228      45.78041036      89.29926620
C      91.21031075      47.55297364      85.92610474
H      91.51455668      49.41057460      86.76325349
C      92.40272805      47.33187566      83.35607695
H      92.14005609      45.47805415      82.49625148
H      94.24521121      48.17091414      83.73969139
C      91.10637580      49.39734651      81.82350891
H      89.08436865      49.34443418      82.21846171
H      91.42007037      48.88712041      79.85252437
S      91.88872249      52.65523468      82.88364537
C      89.70230915      54.79062541      81.12997935
H      90.33725719      55.14211452      79.20056879
H      89.63049955      56.63688803      82.03704798
H      87.75967050      54.11221367      81.23769375
C      88.31902949      47.23738934      85.98468625
O      87.26456221      45.20782329      85.45934234
N      86.91685257      49.25750677      86.73490760
H      87.75778077      50.96959881      86.81805555
C      84.17296996      49.22916088      87.06183025
H      83.52101438      47.90446273      85.62563825
C      83.51723493      48.02918467      89.67154229
H      84.40351657      46.17347342      89.76602860
H      81.51034558      47.63612160      89.92287589
C      84.38272958      49.42758215      92.09606115
O      85.23499615      51.57809068      92.00535428
N      84.41674465      48.11422235      94.16342173
H      84.49611316      49.03451906      95.83393979
H      83.58904453      46.39457140      94.12184775
C      83.12606158      51.88611608      86.77270212
O      84.56981248      53.69269442      86.29271164
N      80.57871051      52.26406133      86.70656170
H      79.48833843      50.71637549      86.93899804
C      79.29369662      54.71881581      86.24735821
H      79.66219325      55.11565834      84.25936613
C      76.48178386      54.01772736      86.66498772
H      76.28336260      52.39823191      85.41020945
C      75.80715157      53.30152109      89.40887033
H      73.90797663      52.52673329      89.58650460
H      76.27391397      54.86432475      90.66553833
H      76.66697704      51.59887767      90.18743757
C      74.51079932      56.01327835      85.99980406
H      74.58827810      57.70458340      87.17521383
H      72.60973465      55.31974879      86.38530823
C      74.83016307      56.97325930      83.24647282
H      74.61473427      55.53139814      81.78949384
H      76.64807978      57.93135055      83.08017691
H      73.29948475      58.33386225      83.02726457
C      80.14974264      56.92979560      87.97078861
O      79.82281999      59.12376785      87.23946452
N      81.38751337      56.31941400      90.13641496
H      81.57837573      54.45425413      90.49924241
C      82.33426626      58.28283964      91.93921386
H      80.95287632      59.80406933      92.08472279
C      82.70087316      57.01294357      94.54892590
H      83.34149038      58.35842870      95.97377954
H      84.04635830      55.45769880      94.44688068
C      80.22344196      55.93957901      95.54481167
C      78.38662799      57.61765598      96.46321866
H      78.91197190      59.58864053      96.55392552
C      76.09250024      56.61610103      97.43831743
H      74.54670412      57.76316490      98.11294973
C      75.63518648      53.93646913      97.24367562
H      74.04025747      53.17679915      98.27168674
C      77.52113334      52.37366547      96.17031108
H      77.29625591      50.35921722      95.91897748
C      79.70565695      53.38466904      95.33505205
H      80.96988386      52.24516408      94.21066489
C      84.76634402      59.58297135      90.94332810
O      84.99689063      61.82796620      91.01702742
N      86.54268676      58.12221290      89.89452999
H      86.13072642      56.29295783      89.54304090
C      88.74232818      59.18801855      88.44322018
H      89.33003307      60.84719825      89.51280528
C      90.56591408      56.85987572      88.36574141
H      90.09537222      55.55785429      86.84262200
H      90.64528258      55.95658656      90.21578347
C      93.29656860      57.89355602      88.09740027
H      93.53845357      59.35431447      86.66498772
H      94.54000851      56.30996538      87.67410157
C      94.14694544      59.23526170      90.45388898
O      93.92962691      61.47080793      90.72978902
O      94.83858527      57.85576149      92.30204132
C      88.04123972      60.09130772      85.73335265
O      89.18074469      61.92056279      84.99824912
N      86.23088191      58.90455961      84.36708053
H      85.65262566      57.14144495      84.82250457
C      85.30680575      59.98359333      82.05972470
H      86.66740869      59.82296659      80.52148748
C      82.99378074      58.48693008      81.33029034
H      81.54814011      58.70991779      82.78160015
H      83.35471847      56.49137909      81.69689725
C      82.18497788      58.81385273      78.62609199
H      83.56636781      58.10331564      77.27115822
H      81.73711274      60.79050646      78.25948508
S      79.35605759      57.19057783      78.00815148
C      79.77935628      56.73893324      74.70113044
H      81.70120794      56.49326883      74.00193170
H      79.26157127      58.47748146      73.72225221
H      78.30725948      55.49171388      73.97736526
C      84.65296044      62.76338073      82.36019118
O      85.50333728      64.31106659      80.81061561
N      83.05425198      63.54761715      84.15732091
H      82.22655186      62.22669846      85.26092107
C      82.48922381      66.30094838      84.63164221
H      81.96765935      66.93211697      82.74191590
C      80.18375771      66.97369095      86.21145341
H      80.73177834      68.20957196      87.76480844
H      79.63384735      65.17845096      87.05805080
C      77.71577515      67.95256919      85.12486078
H      76.27769342      67.70501504      86.57806031
C      77.97088820      70.68511343      84.68644427
H      76.11517696      71.55249781      84.47101547
H      78.90630272      70.96101348      82.87419674
H      79.03669384      71.64887385      86.16043080
C      76.62540306      66.73747516      82.77404125
H      77.87640188      67.05872865      81.17155333
H      74.85283978      67.69745613      82.34696310
H      76.51201949      64.70790910      83.09718444
C      84.82681526      68.03382741      85.41965808
O      84.90051459      70.17110787      84.64676002
N      86.67496760      66.99447794      86.74246650
H      86.00411476      65.47702772      87.67977075
C      88.98799260      68.32862472      87.81583105
H      88.24344044      70.18433597      88.31282907
C      90.03490098      66.72991626      90.05515673
H      91.96998073      67.32895951      90.41987391
H      90.04812907      64.76460090      89.44099568
C      88.39272882      67.05494918      92.41731462
H      86.54646621      66.18567508      92.14141458
H      87.94108423      69.00136729      92.91431264
C      89.68908107      65.90977505      94.71711154
H      88.56469391      66.08362987      96.43676249
H      91.29156898      67.19100948      94.90608417
N      90.41662570      63.20557668      94.42231424
H      92.01533416      62.79550608      93.46233327
C      89.38294540      61.18923872      95.56748838
N      87.37983551      61.06451678      96.98478312
H      86.84315324      59.48659530      97.91263874
H      86.40473673      62.65944579      97.36839756
N      90.62638532      59.10109114      95.41253083
H      89.97442974      57.45513951      96.11928847
H      92.31958009      58.81952191      94.57538207
C      90.94007989      68.41744185      85.65020469
O      92.62949521      69.98780442      85.69177867
N      90.81724768      66.89999163      83.63953590
H      89.72120641      65.33907770      83.56016739
C      92.16084308      67.45746089      81.28682664
H      94.03545159      68.21146169      81.68366916
C      92.43674313      65.03105231      79.77315586
H      90.56780380      64.19579327      80.01693055
C      93.31546586      65.40143867      76.97069174
H      91.69597041      66.21213126      75.98803406
H      93.62727070      63.47769727      76.30739780
H      94.80457020      66.79227724      76.66833553
C      94.34158725      63.41155686      81.16399443
H      94.01088514      63.37754179      83.19733994
H      96.28044645      63.99359257      80.78226971
C      94.18285024      60.54862150      80.58951763
H      95.45274632      59.77194397      82.01437127
H      95.09180860      60.20091186      78.77349064
H      92.26666776      59.79840015      80.64620942
C      90.81535795      69.49080641      79.90543670
O      92.06257732      71.14431692      78.81506462
N      88.24155071      69.28482623      79.63709557
H      87.36282798      67.80139108      80.45912651
C      86.72032103      70.81550455      77.97035696
H      87.52723416      70.81550455      76.07685119
C      84.00856377      69.79694206      77.72469254
H      82.66874781      71.20100872      77.03494243
H      83.45676369      69.07884606      79.57473460
C      83.82715004      67.45179171      76.01260050
O      85.43719686      67.42344581      74.29483928
O      82.11127855      65.86442161      76.12598408
C      86.60126827      73.57450496      78.42200155
O      86.71654158      75.06738875      76.62865128
N      86.53134840      74.30393933      80.86541767
H      86.25355863      72.94900555      82.17877746
C      86.65607033      76.87018765      81.96712811
H      87.78990612      77.83961725      80.54416420
C      84.12950625      78.35551254      81.61563902
H      83.81770141      78.44999885      79.58040378
H      84.17296996      80.12807582      82.66254739
C      81.79191480      77.08561645      82.57561998
H      82.17363952      77.07049865      84.60140659
H      81.71254630      75.10518328      82.01437127
C      79.42786719      78.73345781      81.96901784
O      77.82726900      77.92654466      80.43267034
O      79.15196715      80.89719443      83.05561047
C      87.91840751      77.32750142      84.52014836
O      87.85037736      79.57438602      85.35918684
N      89.20153168      75.34517852      85.54438002
H      88.99177206      73.81072075      84.42944150
C      90.77000452      75.28848673      87.87063311
H      92.36493353      76.58483898      87.70811665
H      91.54857176      73.38931178      88.05771602
C      89.08814810      75.41131894      90.37074102
O      86.98299299      74.51747839      90.27247526
N      90.00088591      76.29193140      92.51369066
H      91.83581016      76.73790682      92.22456254
C      88.69886448      76.67554585      94.94576843
H      86.70331349      77.12530071      94.69443483
C      88.93885972      74.15276121      96.52557962
H      90.86449083      73.43466522      96.40274741
H      87.72754515      72.91499048      95.40875137
C      88.11871850      74.23023999      99.28646977
H      89.25633374      75.71178543     100.15385415
C      85.37105644      75.01069696      99.63984859
H      84.74366731      74.77070172     101.58815642
H      84.34304533      73.76536732      98.36239360
H      85.10838448      76.98168151      99.09749714
C      88.60248844      71.68477866     100.65841107
H      87.30235673      70.27126337      99.91574863
H      88.33414730      71.73013208     102.69742576
H      90.50922229      71.00258745     100.26912745
C      89.78734683      78.84873110      96.75234678
O      91.94163483      78.64086122      97.65941541
N      88.32091922      80.73845742      97.19832219
H      86.64851143      80.66097865      96.28369466
C      88.47776650      82.86250979      98.95387794
H      90.52811955      82.98723173      99.11450467
C      87.55935951      85.37962524      97.76901954
H      87.60660267      86.73833846      99.31859512
H      85.66963320      85.09994575      97.00368038
C      88.92941109      86.81392751      95.53725276
H      89.38672486      85.37206634      94.13885529
H      90.79079151      87.41297075      96.18731861
C      87.29668755      88.90585454      94.30326148
H      88.57603227      90.30047256      93.49067917
H      86.19686684      89.97354991      95.68087196
N      85.42207905      87.86461534      92.34550502
H      84.72099059      86.11283905      92.63085369
C      84.21454394      89.22899775      90.70711231
N      84.57170221      91.59682481      90.46522734
H      83.39629244      92.71176334      89.45611349
H      86.04757846      92.46987837      91.30048637
N      82.53079779      88.21232498      89.16887509
H      81.62183944      89.15529841      87.77992625
H      82.20198541      86.33204730      89.14052919
C      87.43463757      82.10661927     101.43319886
O      85.43530714      81.04270336     101.64484821
N      88.58359117      82.94376802     103.45331629
H      90.03679071      84.17964903     103.37205806
C      87.75967050      82.41842411     106.02334407
H      86.15718259      81.13529994     106.19530917
C      89.89695096      81.02569582     107.29512988
H      89.49254953      80.78570057     109.30012950
H      91.64305807      82.11795763     107.28946070
C      90.83425521      78.50102146     106.11972012
H      91.60715327      78.98290167     104.27156778
C      92.95641786      77.40120075     107.53701485
H      94.22442422      78.91865098     108.12094028
H      93.93151664      75.93288340     106.46931948
H      91.95864237      76.56216226     109.13383359
C      88.68941585      76.45066841     105.95531393
H      87.51967526      76.99490959     107.55969157
H      89.31869471      74.48913251     106.02145435
H      87.69730953      76.60184652     104.15629448
C      86.72410048      84.79947927     107.41607237
O      85.98143804      84.43665181     109.57791927
N      86.67685732      86.99345151     106.07247696
H      87.28723892      86.91408301     104.26589860
C      85.52790373      89.43119846     106.79057296
H      84.57548166      89.21387993     108.60471022
C      87.72943488      91.38328574     107.31780660
H      87.00377998      93.25789424     107.75811283
H      88.82169669      91.79524607     105.62083237
C      89.33570225      90.40251779     109.43241034
H      90.67362848      89.10616554     108.55557733
H      88.29824250      89.52001559     110.97442701
C      90.86071138      92.66452019     110.46798036
H      89.60404338      94.20653685     111.00655236
H      92.17974035      93.47899222     109.11304660
C      92.55012670      91.67997277     112.65628343
H      93.60459399      90.08693349     111.88905455
H      91.39928338      91.23021791     114.30412478
N      94.21686531      93.72843609     113.60870549
H      95.40550316      94.50700333     112.33502996
H      95.29778876      93.13884149     115.06757421
H      93.10948569      95.13817192     114.26255080
C      83.58715480      90.32692873     104.91785418
O      83.42841779      89.40096284     102.75411755
N      81.92419565      92.00311598     105.72098786
H      82.15663198      92.59837976     107.51811759
C      79.66408298      92.57192360     104.29235477
H      78.86850820      90.89384662     103.40040395
C      77.75545940      93.74922308     106.15373519
H      78.71166091      95.23454796     107.21387165
C      75.41219877      94.94919929     104.61927742
H      74.44843835      93.42230043     103.62906084
H      76.14541258      96.55168720     103.55536151
H      74.21600202      95.86760628     106.02334407
C      76.85028050      91.74233374     108.13416837
H      78.46032731      90.80125003     109.00722192
H      76.00179338      90.15685336     107.12694424
C      75.22511587      92.85160308     110.22420567
H      73.63963549      93.89284229     109.42296171
H      76.43832016      94.11394026     111.31079830
H      74.65630825      91.36060903     111.52811682
C      80.27824403      94.34070742     102.15507431
O      81.66152369      96.21153648     102.44042298
N      79.22377674      93.87961420      99.88173356
H      77.74412104      92.67585853      99.93086644
C      79.72833367      95.18919453      97.40997154
H      80.79413931      96.93530164      97.64996678
C      81.13051059      93.53379428      95.57693702
H      83.03157527      93.10104696      96.24023095
H      81.26090171      94.53345950      93.77980729
C      80.04958714      90.96943567      95.06860064
C      78.45843759      90.41385614      92.91809209
H      77.71577515      91.80658443      91.62362957
C      77.69309843      87.93075577      92.74423727
H      76.45154824      87.48478035      91.18710279
C      78.46221704      85.90685888      94.32026902
O      77.84427654      83.45210441      93.89886005
H      76.98634079      83.28580849      92.30771049
C      80.03635906      86.54558638      96.38951933
H      80.76012424      85.18309370      97.72555583
C      80.94342769      88.99278195      96.68809609
H      82.14340390      89.37639640      98.29625318
C      77.13940862      95.95831314      96.22133369
O      75.36873507      94.59015129      96.54825634
N      77.06759902      98.02189427      94.77002388
H      78.49812184      99.28612118      94.77947251
C      74.88307540      98.61526834      93.06171129
H      73.10295322      97.94630522      93.85350662
C      74.44843835     101.38371739      92.47589614
H      73.12185048     101.53300576      90.90742330
H      76.16808930     102.11315174      91.60851176
C      73.67365056     102.77833540      94.92876089
H      75.39141178     102.74621006      96.06070695
H      72.09761882     101.91284075      95.93409529
C      72.96878265     105.43340087      94.12562721
H      71.83872631     105.42962142      92.40408654
H      74.57505002     106.50298598      93.40186203
C      71.61006943     106.86014425      96.20999533
H      72.92531894     107.33446555      97.72366611
H      70.03592741     105.77166189      96.97344476
N      70.76914122     109.33757544      95.01946775
H      69.71656366     109.06545485      93.45099491
H      72.14486198     110.45062423      94.30515121
H      69.80916025     110.52810301      96.16464190
C      74.99078980      96.94097082      90.57294174
O      76.91642092      96.58948173      89.40131142
N      72.74957440      95.90729054      89.72256490
H      71.21700636      95.99610767      90.85451096
C      72.42076202      94.32181015      87.54937964
H      74.06671364      93.11616478      87.25458233
C      70.04348632      92.66640990      87.89330983
H      68.38052716      93.81158405      88.29393181
H      70.66142682      91.37383712      89.37485526
C      69.34428758      91.11872406      85.55193893
O      67.44700236      91.62517071      84.22913051
O      70.65386792      89.24411555      84.85840937
C      72.22234076      95.97910013      85.21367792
O      72.04281676      98.25433062      85.51603413
N      72.10139827      94.96431710      82.94978579
H      72.20722294      93.05947298      82.97246251
C      71.52503175      96.46287007      80.58384845
H      73.06326896      97.83292164      80.54794365
C      71.59117217      94.87549996      78.22358028
H      71.13385840      96.10760152      76.63809991
C      74.12340543      93.66796485      77.72091308
H      74.19521503      93.29757849      75.69701620
H      74.47300479      91.97477007      78.84152079
H      75.62384812      95.07203150      77.86075283
O      69.89041849      92.85538253      78.25759536
H      68.39186552      93.49599975      77.45824113
C      68.87563545      97.75544286      80.64620942
O      68.60162514      99.52800615      79.28182702
N      67.07472628      96.99010371      82.21468226
H      67.55093731      95.49533019      83.30127489
C      64.71256839      98.46786968      82.77971042
H      64.14754022      99.87193634      81.38320268
C      62.48269134      96.55735638      83.18411186
H      60.79138629      97.59670585      83.73969139
H      62.74725302      95.20998152      84.72045935
C      62.00459058      95.07392124      80.67644504
H      63.54660725      93.95898270      79.88842917
H      61.59640970      96.37405293      79.13253864
C      59.66699913      93.32592440      80.94667590
O      60.12242317      90.96754595      81.20556841
O      57.51271113      94.20086767      80.82762314
C      64.90721020     100.28200694      84.98880048
O      63.04205033     101.19096530      86.21901231
N      67.29015508     100.75632825      85.84295678
H      68.70367036     100.09870349      84.73935661
C      67.96856682     102.26432985      88.00480368
H      66.89898173     104.01799587      87.86874338
H      69.97923562     102.69896690      88.05204684
C      67.13519752     101.23253929      90.70333285
O      68.11407575     102.20952778      92.63841260
N      65.65365209      99.19541431      90.79592944
H      65.04704994      98.40928818      89.16698536
C      64.70123003      98.20708745      93.28091955
H      63.78471277      99.53934451      94.55837453
C      62.55639066      96.36460431      92.84439277
H      61.87608919      95.39706443      94.53002864
H      63.31417092      94.65818144      91.97322894
C      60.40399239      97.48899145      91.38552405
C      59.62731488      96.39483992      89.09706549
H      60.64209791      94.76022666      88.41487429
C      57.57129265      97.54568324      87.73457282
H      57.05161791      96.90128658      85.86941295
C      56.11053421      99.39194585      88.92510039
O      54.17734419     100.42184669      87.55693854
H      53.35342352     101.75410374      88.47534553
C      56.84374802     100.29712476      91.31749391
H      55.71180196     101.75032429      92.19432692
C      58.90165997      99.25966501      92.63463315
H      59.31739976     100.03067334      94.47522658
C      66.94622489      97.12994345      94.86262047
O      68.54682308      95.95075424      93.65697508
N      67.09173382      97.27923183      97.35139002
H      65.64420346      98.25244088      98.12617781
C      68.84351011      96.04335082      99.04836425
H      70.64063983      96.60270981      98.21121550
C      68.93610670      97.24143731     101.68075301
H      70.18521579      95.91295971     102.63884425
H      67.15409478      97.10159756     102.70120522
C      70.12285482      99.81335482     101.96421195
C      68.82272312     101.83725170     103.16418816
H      67.03693175     101.30245915     103.99188829
C      69.97923562     104.24098358     103.30213818
H      69.11941015     105.80189750     104.29424450
C      72.49068189     104.56223704     102.38562092
O      73.81915949     106.76754766     102.44420244
H      72.90831141     108.19618074     103.09237856
C      73.82482867     102.38527233     101.55603107
H      75.80148239     102.65739292     101.12139402
C      72.70989014     100.08925487     101.23477760
H      73.84372593      98.63416560     100.35983431
C      68.76414160      93.10104696      99.14096084
O      66.75725226      91.90485021      99.40174307
N      70.90709124      91.88784266      98.99167246
H      72.53981478      92.85160308      99.19387318
C      71.24157280      89.18742376      98.33971689
H      69.56538556      88.12350785      98.89151697
C      71.43810434      89.10238608      95.44654590
H      73.08216623      90.14362528      94.77002388
C      71.45700160      86.25834799      94.72656017
H      69.73546093      85.45332457      95.51646577
H      73.03114362      85.14718890      95.45599453
H      71.24535225      86.47755623      92.69132494
O      69.17799167      90.12850746      94.42798342
H      69.06460809      91.92185774      94.68498620
C      73.69632728      88.25767842      99.62473078
O      75.44999330      89.68064234      99.83638013
N      73.83994648      85.84260819     100.32392951
H      72.21667158      84.85050187     100.17086168
C      76.18509683      84.49901278     101.24233650
H      77.81026146      85.58938486     100.59982956
C      76.40052563      84.41964427     104.18086092
H      75.78825431      86.25834799     104.87816993
C      74.71677949      82.38818849     105.20509258
H      74.53725549      82.16331107     107.24599700
H      75.36306589      80.64397110     104.32259039
H      72.76847166      82.64330154     104.58715208
C      79.20110003      84.04547847     105.13706243
H      80.45965775      85.09427657     103.88795334
H      79.81904053      82.08016310     105.18430559
C      79.41463910      85.06026149     107.86771696
H      79.02724521      83.55792907     109.22454045
H      78.18064782      86.65519050     108.28912592
H      81.39318255      85.56670816     108.12471973
C      76.67453595      81.90441855      99.99133768
O      75.00779734      80.82916428      98.89718615
N      78.94787670      80.91798142     100.40140829
H      80.14785291      82.01969186     101.39729406
C      79.74723093      78.33094610     100.00834522
H      78.51701910      77.19711031     101.21021115
H      81.64640588      78.27236458     100.80392000
C      79.66786243      77.20844866      97.31170577
O      80.94531742      78.24968786      95.69032059
N      78.10505877      75.29982509      96.96399613
H      77.33594016      74.34929275      98.43042375
C      77.26413056      74.27937289      94.53758754
H      78.59827734      74.99746888      93.14485925
C      77.42286757      71.41643751      94.31837929
H      75.82037966      70.66432645      95.37284657
C      76.87106749      70.74369495      91.49134873
H      77.43609565      68.79538712      91.13985963
H      77.81215119      71.98902459      90.14775332
H      74.88307540      70.51314834      91.00001989
C      80.05903578      70.21646130      95.21977874
H      80.09494058      68.18500552      94.88529719
H      80.64296121      70.79282783      97.10761533
C      82.44576011      71.19156008      93.63996754
H      84.13328571      70.29771954      94.41286561
H      82.86905880      73.20411861      93.75524085
H      82.12072718      70.56795040      91.70299807
C      74.67142606      75.40187031      93.84027853
O      72.86862715      74.09228997      93.69665933
N      74.59583700      77.92465495      93.69665933
H      76.16619957      78.84873110      94.27113613
C      72.57571958      79.43076681      92.61384616
H      72.11462636      78.49157283      90.83939315
H      73.30326421      81.31293421      92.19621664
C      70.12852400      79.85028605      94.17476009
O      68.23312851      80.45310874      93.04470376
N      70.40631377      79.20022020      96.65030156
H      72.09005991      78.56905161      97.29280851
C      68.21612097      79.27580925      98.31515044
H      66.74591390      78.18732689      97.36650783
C      68.97768068      78.16842963     100.87761932
H      70.22490004      79.34950858     102.01523456
H      70.27403293      76.59050816     100.60360901
C      66.70433992      77.30482471     102.60104972
N      65.65554182      74.95211545     102.21554555
H      66.15631929      73.63308648     100.92864193
C      63.72991070      74.74046610     103.82370265
H      62.27671117      73.31750218     103.97110130
N      63.61085795      76.87963628     105.18808504
H      62.32773378      77.12719043     106.58081334
C      65.62530620      78.46133722     104.53612947
H      65.84451445      80.37751969     105.20509258
C      67.23346329      82.00457405      98.56837377
O      68.41076278      83.30092630     100.01968358
N      65.10563146      82.76802349      97.20399137
H      64.57650809      81.48678904      95.89063158
C      63.91888334      85.22466769      97.49689895
H      65.27003765      86.66841859      96.91675297
C      61.74002890      85.19632179      95.50701714
H      60.67233353      83.44454550      95.69598977
H      62.42788928      84.99223136      93.57571685
C      59.99392178      87.56036941      95.78858636
H      58.64087774      87.49044953      94.23712106
C      58.11742356      87.42052966      98.07893465
H      59.05472781      88.15941265      99.75890135
H      57.28972343      85.54214170      98.20365659
H      56.64532676      88.68664629      97.39485373
C      61.28082540      90.18330953      95.81315280
H      59.83329505      91.59304536      96.21566451
H      62.10474608      90.76723497      94.01791281
H      62.59040574      90.26834721      97.40052291
C      63.20834624      85.57048760     100.28613499
O      61.90821454      83.97744832     101.36894817
N      63.98313403      87.78902629     101.39729406
H      65.06783693      89.03057648     100.43353364
C      63.32361955      88.20287636     103.99755747
H      62.72268658      86.43787199     104.87250075
C      65.61396784      89.06459155     105.59626593
H      64.79760607      89.48033134     107.44252853
H      66.50591866      90.71621235     104.74777881
C      67.66810034      86.97077480     105.80224610
H      67.82116817      86.16197193     103.91251978
C      70.10395756      88.22555307     106.46365030
H      69.79026299      89.27057172     108.20975742
H      70.68032408      89.53513340     104.98210488
H      71.62329751      86.83660423     106.52790100
C      67.13708725      84.84105324     107.58803746
H      65.21712531      84.13807506     107.34426277
H      67.27881672      85.68576090     109.46264596
H      68.41265251      83.25746259     107.24788672
C      61.08807332      89.98110881     104.43597397
O      59.29661277      89.27057172     105.76445157
N      60.90665959      92.09193310     103.03379705
H      62.30694679      92.35460507     101.76579069
C      58.77315859      93.87205529     103.08481966
H      57.02705147      92.80247020     103.30402791
C      59.14354494      95.68430283     105.37138850