 %block lattice_cart
   139.898   0.000   0.000
   0.000 144.87   0.000
   0.000   0.000   168.12
 %endblock lattice_cart

 %block positions_abs
N      91.99360231      43.34833260      84.98596589
H      91.43991250      41.94237622      83.82189449
H      91.34920563      42.74928935      86.68105039
H      93.88332862      43.57509975      85.12769536
C      90.78795692      45.84088160      84.27164935
H      91.43235359      47.19392564      85.68516463
C      91.37944125      46.48716800      81.49564139
H      90.02261776      45.61978362      80.20873778
H      93.32963881      45.96938299      81.08179134
C      91.49660428      49.23483006      80.99864338
H      89.69380538      50.02284593      81.60335579
H      91.78762214      49.55419381      78.98419512
S      94.13088277      50.43291654      82.86569298
C      93.76616559      53.71348142      81.91327091
H      94.50693830      53.70214306      79.99330898
H      95.03984112      54.97203915      82.93183339
H      91.75549679      54.13489039      82.04933121
C      88.02895650      45.64057061      84.92360492
O      86.43780695      44.40279988      83.70473146
N      87.17102075      47.07865234      86.77553672
H      88.66579427      48.01217714      87.50497108
C      84.52918337      47.67391613      87.47473546
H      83.17235988      46.64023583      86.32011268
C      84.14367920      46.70448653      90.38869342
H      85.01106358      44.85444447      90.63813729
H      82.21804809      46.76306804      91.11623805
C      85.48916434      48.29563608      92.45605401
O      85.55341503      50.63889671      92.29542727
N      86.29607747      47.12967495      94.66136461
H      86.89134126      48.18792168      96.13535115
H      85.99561099      45.24750754      94.76907902
C      84.10399495      50.46126244      87.03064976
O      85.78018219      51.96926404      86.51286475
N      81.66057883      51.01873170      87.21584295
H      80.35099849      49.62978286      87.31410872
C      80.57776565      53.48293481      86.97962716
H      80.83665815      53.85332117      84.96895835
C      77.63735151      53.28073410      87.53142723
H      76.79264384      51.95981540      86.19728047
C      76.75106986      52.66279359      90.34522972
H      77.68270494      51.05652623      91.23907026
H      74.69693736      52.51917439      90.35467836
H      77.23861925      54.15567738      91.67937649
C      76.26352048      55.78651119      86.79821343
H      76.98539593      57.36443266      87.90748278
H      74.25096195      55.59564883      87.18560732
C      76.48083900      56.43657704      83.97496231
H      75.99706907      54.66968294      83.03009916
H      78.48961807      56.88066272      83.86346846
H      75.47928406      58.16378689      83.46851566
C      81.78719049      55.63344336      88.50652602
O      81.98183230      57.64600188      87.42938202
N      82.72449474      55.10620972      90.77797705
H      82.89834956      53.28829300      91.33544631
C      84.04163398      56.85609628      92.27464029
H      83.10244000      58.69102053      92.27653001
C      83.81486682      56.03028588      95.03175097
H      84.91279781      54.29551713      95.21694415
H      81.81742611      55.54651595      95.17159073
C      84.89390055      58.02583687      96.84588824
C      87.06330635      57.39844773      98.21405008
H      88.09887637      55.65989952      97.95137813
C      87.89289621      58.99148701     100.06220242
H      89.61632660      58.29417801     100.90124090
C      86.42268913      61.03806061     100.96171214
H      87.13322623      62.20402175     102.48105211
C      84.16068674      61.53694836      99.81464827
H      82.95882080      63.04683968     100.47983193
C      83.33298661      60.15744815      97.66980890
H      81.46782674      60.58830575      96.95927181
C      86.73638370      57.34175594      91.49796278
O      87.50928176      59.47525695      91.33922576
N      88.12911200      55.29707207      90.87057363
H      87.05385772      53.71915060      90.91592707
C      90.60087401      55.41045565      89.61579536
H      91.86510092      56.28161948      90.98773666
C      91.82163721      52.77617717      89.00352403
H      93.64522310      53.10121010      88.10212458
H      90.56118976      51.82753456      87.67693617
C      92.21847974      51.08109267      91.28820316
H      90.48371098      50.89967894      92.38424441
H      93.61687721      52.14878804      92.35967797
C      93.06507712      48.57342585      90.42648795
O      91.41345633      47.01629137      89.74429675
O      95.20613704      47.80052779      90.69104963
C      90.58197675      56.91089834      87.26119637
O      92.32430441      58.24882457      86.63191751
N      88.49382917      56.91467780      85.77398177
H      87.15401322      55.69769405      86.38058392
C      88.16501680      58.40756158      83.47418484
H      89.90545473      58.63810819      82.39893057
C      86.23560623      57.02239220      81.80555651
H      84.71248682      56.22681742      82.93939230
H      87.09165225      55.25549809      81.18194682
C      85.28129444      58.48315064      79.46229589
H      86.88189263      58.54173215      78.16783335
H      84.97326905      60.47303244      79.89882266
S      82.53741183      57.37010184      77.98641964
C      83.67880653      55.16668096      75.57890831
H      84.47438131      56.17012563      73.96508203
H      82.41268990      53.62466429      75.06679247
H      85.33231705      54.14244930      76.25354060
C      87.49794341      61.17601063      83.97874178
O      88.84342854      62.76527046      82.96962792
N      85.75183629      61.68245728      85.71162080
H      85.27940472      60.14044061      86.73585246
C      84.89201082      64.27705151      86.27664896
H      84.84098821      65.36364414      84.52865212
C      82.33143167      64.42256044      87.59567793
H      82.34465975      66.34630182      88.33267120
H      82.08954670      62.99014789      89.05643638
C      79.98628131      63.99737202      86.05366127
H      80.22060738      62.28716970      84.93305356
C      77.58632889      63.98603366      87.56922176
H      76.14257799      64.00304120      86.09901469
H      77.41625353      65.76426611      88.59723288
H      77.51262957      62.28905943      88.73329318
C      79.71605045      66.19890317      84.09023563
H      81.34310481      65.98536409      82.84679571
H      79.67447647      67.94312056      85.18438715
H      77.86411866      66.17055727      83.18883617
C      86.90078989      65.83040654      87.85646017
O      86.97637894      68.15288018      87.53331696
N      88.72626551      64.54728237      89.15281241
H      88.51650589      62.68212250      89.50430151
C      90.95236311      65.58663184      90.41514960
H      90.61599182      67.24770127      91.58866964
C      92.16178795      63.57218360      92.12346218
H      94.11387523      64.17689602      92.38424441
H      92.19202357      61.73159017      91.19749628
C      90.99015763      63.31896027      94.73884340
H      89.23649161      62.33819231      94.29286799
H      90.61599182      65.10664135      95.69126545
C      92.58886609      61.76182579      96.52841421
H      93.02161342      59.90989400      95.74228806
H      91.11110012      61.56907371      97.95326785
N      94.71291847      63.37565206      97.60555822
H      94.12521359      65.18789958      97.74161851
C      96.99570786      62.67078415      97.91547332
N      97.83285661      60.38610503      97.27674583
H      99.62053770      60.10264609      97.87956852
H      96.77272015      59.40722680      96.02574701
N      98.30717792      64.21658027      99.11544953
H     100.02493914      63.70068499      99.76551539
H      97.61364836      65.94756957      99.52740988
C      92.87232504      66.76204161      88.62746850
O      94.16678757      68.58940696      89.42682274
N      93.06885658      66.01748944      86.25586198
H      92.00494066      64.67578375      85.41304404
C      94.64677805      66.86030738      84.07889726
H      95.94690975      68.37586788      84.58345420
C      96.47981257      64.77782899      83.19261563
H      97.65144289      65.44301265      81.63359141
C      98.22969914      64.43389880      85.49997145
H      97.32263051      63.33785753      86.98907578
H      98.77394032      66.22157989      86.36546610
H      99.91155556      63.45691029      84.81966999
C      95.29873363      62.24370600      82.10980244
H      94.32174512      63.12809791      80.52621179
H      93.83986491      61.52561000      83.37213963
C      97.46813943      60.48248108      81.26887423
H      98.20324297      59.38643981      82.85057516
H      99.02905337      61.51805110      80.41093849
H      96.69146192      59.30329186      79.77032128
C      93.14444563      68.06406304      82.07578738
O      94.19891291      69.21112691      80.37692341
N      90.72559595      67.65777189      82.03421339
H      89.93191090      66.70534982      83.48552320
C      89.17035119      68.66688573      80.06133913
H      90.26450273      68.91632961      78.33223954
C      87.35432421      66.62220186      79.09379925
H      86.02395688      66.29716894      80.63203647
H      88.36910724      64.84963858      78.82734785
C      85.93325002      67.54438831      76.71652355
O      83.64290173      67.99036372      76.70140575
O      87.30141187      67.43478418      74.79089244
C      87.92880101      71.17455255      80.54132961
O      88.00250033      72.94900556      78.89348827
N      86.67402273      71.37297381      82.74286077
H      86.93480497      69.94434072      83.97874178
C      85.44759036      73.70300636      83.60646569
H      85.31153006      75.10518329      82.10602300
C      82.69992830      72.79971718      84.34723840
H      82.98338724      71.14620666      85.54154544
H      81.67569664      72.17232805      82.67294089
C      81.02752051      74.55716265      85.94027768
H      81.79096994      75.46801074      87.62213411
H      79.30597984      73.56505634      86.47695995
C      80.01840666      76.75302462      84.44172471
O      78.00395841      76.47523485      83.31166839
O      81.14279382      78.84495166      84.40770964
C      87.00283511      74.94455655      85.75886395
O      87.47337696      77.27269936      85.79854821
N      87.89100648      73.24002341      87.44261010
H      87.16535158      71.47501904      87.45205873
C      89.95080816      73.51970291      89.36068232
H      91.24527069      75.08061684      88.99974459
H      91.09031313      71.80761087      89.27942407
C      88.88500252      73.63308649      91.94960735
O      86.69669945      73.84851528      92.36156770
N      90.65378635      73.48757756      93.81665695
H      92.46981334      73.16065491      93.32721784
C      89.95647734      73.72190362      96.50573750
H      87.93824964      74.06961327      96.72305603
C      90.42323974      71.11975048      97.82665619
H      92.20714138      70.23913803      97.29564310
H      89.23271216      69.61930779      97.06509648
C      90.05285338      71.10841213     100.75762171
H      91.44180222      72.48224315     101.41335673
C      87.45258998      71.93611226     101.73838966
H      87.08976252      73.86741255     101.11855943
H      87.29196324      71.91154582     103.79252216
H      86.01828770      70.63598056     101.03541148
C      90.66323498      68.48736174     101.94814928
H      92.64177843      67.97902536     101.68736705
H      89.26483751      67.25526018     101.07698545
H      90.44969591      68.58940696     103.99661260
C      91.54573717      75.84406627      97.90602469
O      93.81340874      75.50013608      98.20460146
N      90.11710408      77.80182272      98.70159947
H      88.21037023      77.74513093      98.62223097
C      91.01472408      79.76335865     100.41369151
H      92.97248054      79.28714762     100.84454911
C      90.89378159      82.45054946      99.31953999
H      90.83520008      83.79981405     100.87289501
H      89.17224092      82.62251456      98.20082200
C      93.28428538      83.01935708      97.70193425
H      93.54128816      81.27891915      96.62667998
H      94.96236234      83.16297628      98.89057211
C      93.14633536      85.47411156      96.14857922
H      94.93968563      85.63095885      95.14513455
H      92.85720723      86.98400288      97.51863081
N      91.12810765      85.38907388      94.32688307
H      90.65756580      83.62784895      93.76185489
C      90.50071852      87.45832419      93.00974383
N      91.29629330      89.73166495      93.37257127
H      91.07708504      91.21321038      92.18960261
H      92.38288593      90.13039720      94.89002150
N      89.15901284      87.19187278      90.96694967
H      89.06830597      88.58082161      89.66114880
H      88.31241545      85.53269307      90.53987154
C      89.22704298      79.71611549     102.83065147
O      87.07653444      78.89408453     102.69837062
N      90.37410685      80.67042728     104.91124014
H      92.10131671      81.48300958     104.97927028
C      89.19491764      80.44366012     107.44536313
H      87.48849478      79.30415515     107.26961857
C      90.92590694      79.22856609     109.43146549
H      89.74482799      79.41753873     111.10954245
H      92.69658049      80.26791557     109.59776139
C      91.28306521      76.43555061     108.73793593
H      92.39233456      76.01036218     107.05796924
C      92.99326752      75.28659701     110.78261980
H      92.20147220      75.30549426     112.68557420
H      94.63543969      76.52247801     110.93379790
H      93.30129291      73.40253988     110.00972173
C      88.90956896      74.81983461     108.69636194
H      87.95147772      74.80093734     110.51994783
H      89.38389027      72.84129115     108.36377011
H      87.45636943      75.19589014     107.28662612
C      88.44091684      82.92109132     108.54140438
O      86.81575221      82.81526664     110.19680463
N      89.58987044      85.10561492     107.74771933
H      91.15456382      85.02624643     106.65734726
C      88.45603465      87.70965778     107.99905293
H      87.68313659      87.94965304     109.89444842
C      90.53095414      89.50111834     107.36977407
H      90.99393709      89.31781488     105.37044364
H      92.20525165      89.07970937     108.49416122
C      89.90923418      92.27523657     107.80819057
H      89.25916833      92.58704141     109.73760114
H      88.27462092      92.88183871     106.71214932
C      91.95013860      94.17441150     107.30363365
H      91.12810765      96.06224810     107.36221516
H      92.43390854      93.73977446     105.34776691
C      94.30095813      93.90229092     109.00438734
H      94.86220685      91.92374746     108.87399622
H      93.87199026      94.44464236     110.94513625
N      96.37965708      95.41785142     107.99716320
H      97.06373800      94.58070266     106.42491091
H      97.88765868      95.47265348     109.17068324
H      95.87887960      97.25844485     107.93291251
C      86.25828295      87.89863042     106.02050949
O      86.30552610      86.72322066     104.01739960
N      84.47249158      89.49355943     106.36821912
H      84.46115322      90.40440752     108.04629610
C      82.52040430      90.40440752     104.50872843
H      81.65679937      88.60538806     103.99850233
C      80.57776565      92.23744204     105.45737105
H      81.80041857      93.85504776     105.81641905
C      78.44237491      92.91774351     103.48449677
H      77.47294532      94.65629172     104.01739960
H      76.92303496      91.54580221     103.26339880
H      79.23605997      93.35804974     101.63445472
C      79.34188464      91.45131589     107.95936869
H      80.64768552      90.78046305     109.40689903
H      78.04175294      89.97166018     107.35654598
C      77.51262957      93.43174906     109.15934490
H      77.95671525      95.44052813     109.05352021
H      77.38790763      93.01978873     111.17568286
H      75.65313888      93.33348330     108.28251189
C      83.88667642      91.36438847     102.10310684
O      85.82931507      92.67963800     102.52073635
N      83.03063040      90.73133017      99.82598663
H      81.54152607      89.54080258      99.74283868
C      83.91313259      91.70264948      97.45438010
H      85.11499853      93.32214494      97.88145825
C      85.61766573      89.66174506      96.25440391
H      87.07086526      89.21387993      97.64335275
H      86.60599259      90.68030756      94.76152011
C      84.22493743      87.26557210      95.26040785
C      83.23850030      87.28257964      92.75841023
H      83.58054076      88.77546342      91.40914564
C      81.87978708      85.16419645      91.86456967
H      81.10877874      84.99412108      89.98051254
C      81.39412742      82.99101118      93.40091716
O      80.14123887      80.93687869      92.53164306
H      79.68770455      81.15797667      90.78931540
C      81.99128093      83.10817421      95.97850385
H      81.32042809      81.75890963      97.35611434
C      83.43881129      85.28513893      96.86856495
H      83.84321272      85.43820676      98.86411594
C      81.70215280      92.30547219      95.75173670
O      79.55731344      91.61761180      96.12401279
N      82.24639398      93.55647100      93.60311789
H      84.04163398      93.97221079      93.09667124
C      80.46627180      94.33692797      91.65669979
H      78.58221466      94.26322864      92.48062045
C      80.98216708      97.02789824      90.77797705
H      80.12423133      97.28868046      88.92415553
H      83.00795369      97.37371816      90.64191675
C      80.07698818      99.06880266      92.54298142
H      81.44703975      99.32202599      94.06043166
H      78.27985845      98.69463684      93.48028568
C      79.75384498     101.70875032      91.30143123
H      81.40357605     102.29078602      90.21861805
H      79.54219563     103.05045599      92.85289653
C      77.30853913     101.83158253      89.79909881
H      75.72872793     101.09269954      90.89325035
H      77.65246932     100.89616800      87.99818964
N      76.80965138     104.52633224      89.28131380
H      76.11612182     105.38237826      90.84222775
H      75.37345938     104.73420215      88.04165335
H      78.33466051     105.34458374      88.47818012
C      80.51729441      92.64373320      89.29076244
O      82.51662485      92.04657968      88.25897188
N      78.31765298      92.02390296      88.38369380
H      76.77185685      92.90640515      89.07155418
C      78.10033445      90.23811159      86.36168665
H      79.67636620      88.91152372      86.34467912
C      75.68337450      88.64696204      86.76986754
H      74.04498178      89.89229167      86.82089014
H      75.80053753      87.62650984      88.55565891
C      75.15047168      86.65141106      84.71951449
O      76.70571643      84.78814091      84.60991035
O      73.50263033      87.02746659      83.03954780
C      78.00395841      91.58170700      83.82756366
O      77.55231382      93.86071693      83.64426022
N      78.53497150      90.12472802      81.77721062
H      79.15480173      88.39940789      82.30444425
C      78.21749748      90.69164592      78.99553348
H      79.61778468      92.10327147      78.45318203
C      78.70315715      88.26145787      77.50831888
H      77.32365694      86.81203779      77.99397853
C      78.63512700      88.58838052      74.76632600
H      79.05086679      86.70432339      74.04445055
H      79.87478746      90.05480815      74.01799438
H      76.71327534      89.21765938      74.37326292
O      81.09177121      87.32793308      78.18484089
H      81.00862325      85.53269307      78.43050532
C      75.55298338      91.81036389      78.51743272
O      75.26385526      93.39584426      76.76943588
N      73.46861526      91.18675420      79.92716855
H      73.59711665      89.70331905      81.11769614
C      70.87024158      92.29602354      79.52465686
H      70.51875248      92.19775778      77.49887024
C      68.98807417      90.65196166      80.85691390
H      69.43782903      90.61794658      82.86569298
H      69.10712693      88.66396958      80.32779054
C      66.14025662      91.30391724      80.31645217
H      65.81144424      93.21820999      81.00053311
H      64.97996466      90.02079306      81.43894961
C      65.46751405      90.93731034      77.42895037
O      64.93083178      92.70798389      76.12503922
O      65.48452159      88.85105248      76.36314472
C      70.65103333      95.07770068      80.60935975
O      69.09956802      96.47987761      79.78165963
N      72.06454861      95.87516519      82.48396825
H      73.30420907      94.56180539      83.10001904
C      72.00218764      98.39983954      83.72362872
H      70.79465253      99.70753014      82.68805869
H      73.80876600      99.38060749      83.56489170
C      71.60534511      98.48676696      86.53176202
O      71.40314440     100.53900972      87.56922176
N      71.39180604      96.18130085      87.73551769
H      71.49763071      94.53156978      86.78309561
C      70.57544427      96.09248372      90.43593658
H      69.95561404      97.95953331      91.04442846
C      68.15659459      94.61282801      90.42648795
H      67.43849859      95.04935478      92.30676564
H      68.26430899      92.56058523      90.25452286
C      65.96451207      95.26478359      88.71628564
C      64.80233039      93.37127782      87.33300597
H      65.75475245      91.57036865      87.20639431
C      62.59513005      93.71709774      85.90437289
H      61.91671831      92.23177286      84.68171996
C      61.59357511      96.16618304      85.73240778
O      59.59613440      96.58192282      84.18283222
H      59.26732202      98.35637583      83.97685205
C      62.77654378      98.18252101      87.19694569
H      62.12080875     100.10059323      86.97017852
C      64.99886192      97.82536275      88.43282670
H      66.04577030      99.35604105      89.28509325
C      72.45950141      94.94919929      92.30865535
O      74.04687151      93.49411004      91.57544155
N      72.20438836      95.51422747      94.78419682
H      70.87969021      96.70664476      95.46827776
C      73.99962835      94.60715884      96.84966769
H      75.95171563      94.44842182      96.20905047
C      73.71805913      96.15106522      99.20804612
H      74.22450578      95.18730480     100.95793269
H      71.79053829      96.71042422      99.67669826
C      75.28275252      98.60392999      99.01151459
C      74.33599964     101.04356666      99.46882835
H      72.30643358     101.23442902      99.54252768
C      75.81565534     103.18273684      99.60299892
H      75.12212578     105.06679397      99.96393665
C      78.49906670     102.90683680      99.28174545
O      80.19793066     104.84569599      99.51796124
H      79.25117778     106.32157224      99.97338528
C      79.47605521     100.40105970      98.96616115
H      81.50562127     100.25744051      98.82065223
C      77.93403854      98.26944843      98.81498305
H      78.71638523      96.42129610      98.44270697
C      73.08122136      91.86138650      97.66602946
O      70.80599088      91.36249875      97.99295211
N      74.82732848      90.19653762      97.85878154
H      76.60178149      90.75967605      97.43926229
C      74.68937846      87.36950706      97.97216511
H      72.91114600      86.82337614      98.85655703
C      74.82354903      86.40385690      95.25284896
H      76.53186161      87.07659947      94.31365498
C      74.67615037      83.61840033      94.60278311
H      76.42414721      82.72644951      95.22828252
H      74.56843597      83.29336739      92.57321704
H      72.93949189      82.93998858      95.47772638
O      72.84500558      87.43942692      93.84500286
H      73.01130149      89.20443131      94.22483784
C      76.86445344      86.19409728      99.62945509
O      78.60111193      87.52257489     100.35510999
N      76.47328010      83.83004966     100.41936069
H      74.87835109      82.89085569      99.95259830
C      78.00584814      82.35039396     102.26562331
H      79.88234637      83.14218929     101.96515682
C      76.91358633      82.91353241     104.93202713
H      76.56398696      84.94309846     104.90746069
C      74.50985446      81.59072399     105.67468958
H      73.83900162      82.23323093     107.51339327
H      74.68181955      79.53848121     105.70303546
H      73.14736179      82.11795763     104.22337977
C      78.72205441      82.38251931     107.16190418
H      79.00929281      80.35484297     107.37733298
H      77.73939673      83.11195367     108.81919416
C      81.22783150      83.82815995     107.12033021
H      82.14434876      83.41430988     108.91745993
H      80.90279857      85.85961572     107.23371377
H      82.55819882      83.44265577     105.59532106
C      78.40080094      79.54415038     101.53618894
O      76.94382195      78.52747763     100.22660862
N      80.50028687      78.45377831     102.31853564
H      81.36956097      79.35139831     103.75850709
C      81.21838287      75.87052243     101.71571294
H      79.65179976      74.69889213     102.36010961
H      82.93047491      75.19589014     102.63978911
C      81.39979659      75.43777511      98.85466730
O      82.17647411      76.95522535      97.28619446
N      80.44548481      73.15309600      98.05531308
H      79.70471209      72.04193693      99.42158520
C      79.92014089      72.54271440      95.32654829
H      81.22027259      73.54615907      94.08499810
C      80.23194573      69.70623521      94.84655779
H      78.86000443      68.78971795      96.07676962
C      79.71416072      69.03349264      91.99874024
H      79.55164426      66.98124986      92.03842450
H      81.36767125      69.66277150      90.94238323
H      77.97372279      69.89331810      91.31087987
C      82.99094615      68.70090081      95.42292432
H      83.30464072      68.93333714      97.44493148
H      84.46115322      69.87253112      94.58199611
C      83.33298661      65.92867231      94.92592631
H      81.59443840      65.01026531      95.54008735
H      85.02240194      65.07829546      95.74039835
H      83.46526745      65.60930856      92.89636024
C      77.30286995      73.74458033      94.68404134
O      75.32621622      72.79971718      95.46260858
N      77.45404805      75.93099367      93.45571924
H      79.17936818      76.72467873      93.26863633
C      75.12212578      76.88152601      92.21983823
H      74.52119282      75.31683263      91.02364146
H      75.61345462      78.14386319      90.66648319
C      72.81854941      77.62796790      93.88468710
O      70.84567514      78.26102622      92.81321228
N      73.02075012      77.68465969      96.36589775
H      74.64402503      77.16687469      97.22572322
C      70.84189568      77.67899052      98.06098225
H      69.27153312      76.70956093      97.14446499
C      71.38424714      76.07461288     100.47038330
H      72.68059939      77.14419797     101.66280061
H      72.03242326      74.16976876     100.03385653
C      69.06744268      75.88752998     102.14468082
N      67.67282466      73.59151250     102.30341782
H      68.23029392      71.99847322     101.41146701
C      65.70372984      73.97701668     103.65079268
H      64.05777822      72.77137129     103.72638174
N      65.76042163      76.54326500     104.48416199
H      64.33745771      77.32750143     105.48760667
C      67.88447400      77.75080012     103.46182006
H      68.38714120      79.72556411     103.55630638
C      70.12379968      80.45310875      98.59010562
O      71.37857796      81.79859389     100.08109968
N      68.28698571      81.50001712      97.25973830
H      67.34590200      80.37940943      96.03141620
C      67.52920546      84.19476685      97.35044516
H      69.20350297      85.26057249      96.79675536
C      65.38058664      84.56893265      95.31709964
H      63.80077544      83.31982357      95.75173670
H      66.14970525      83.95288188      93.50863157
C      64.21651523      87.16919606      95.17159073
H      63.47952197      87.61895093      97.04241977
C      66.05710866      89.20443131      94.38924402
H      65.03098727      90.99022267      94.37601594
H      66.70339506      88.84160385      92.46928209
H      67.89203291      89.26112310      95.32465855
C      61.81467309      87.23911594      93.59366925
H      61.10035654      89.12506279      93.17226028
H      60.31423039      86.24134044      94.58955502
H      62.29088412      86.12795687      91.92882038
C      66.76953548      85.21521906     100.00173118
O      65.57711818      83.82249076     101.41713619
N      67.53487464      87.54903106     100.68770183
H      68.96539746      88.19909691      99.60677838
C      66.67882862      88.73010999     103.10844124
H      65.70750929      87.25612348     104.17235716
C      69.11846529      89.69576015     104.54841269
H      68.49485560      91.00345076     106.01295058
H      70.28631615      90.72566098     103.20292756
C      70.68126895      87.41486048     105.67091011
H      71.12157518      86.05614726     104.18936469
C      73.20216385      88.28602431     106.44380818
H      72.89980764      89.82993072     107.77417551
H      74.21694688      88.96065660     104.78273875
H      74.51741336      86.93298028     107.26772886
C      69.23562832      86.01268355     107.75527824
H      70.57544427      85.02246698     108.96659281
H      67.69928083      84.79192037     107.13355828
H      68.27942680      87.34872007     108.99871815
C      64.70973380      90.91085417     102.80419530
O      62.95984723      90.99211239     104.25550510
N      64.83256601      92.68341745     101.11666970
H      66.38025186      92.73632979      99.99795172
C      62.91071435      94.62227664     100.67447375
H      61.04555448      93.74733335     100.59888469
C      62.93528079      96.64806325     102.85143845