 %block lattice_cart
   139.898   0.000   0.000
   0.000 144.87   0.000
   0.000   0.000   168.12
 %endblock lattice_cart

 %block positions_abs
N      93.46191966      43.58076893      84.75069497
H      95.29873364      44.07776695      84.89431417
H      93.30885183      41.99717828      83.69433796
H      92.70980859      43.21227230      86.46467674
C      91.97470505      45.53096649      83.51481396
H      92.73437503      47.31675785      84.20645379
C      92.36587839      45.68592405      80.56306146
H      91.56841388      43.92280940      79.85819355
H      94.40300335      45.58009937      80.27582306
C      91.24338097      48.03107440      79.34418799
H      89.18924847      48.08398674      79.47835856
H      91.63455430      48.02162577      77.32218083
S      92.67768324      50.81842071      80.43833952
C      90.42135002      53.03129022      79.27048866
H      89.35554438      52.29618669      77.66800075
H      91.30007276      54.75661035      78.56562075
H      89.07775460      53.53584715      80.74825464
C      89.23838135      45.30608906      84.23668941
O      88.09698665      43.35400178      83.90787703
N      88.29162847      47.17880782      85.66532251
H      89.22704298      48.73972176      86.23979930
C      85.56286366      47.42636197      86.13208490
H      84.67847176      46.28496729      84.66754701
C      84.75217108      46.38134333      88.80226818
H      85.71971095      44.60689032      89.19911071
H      82.72071530      46.11111247      88.60006747
C      85.54585613      48.11611208      90.95844591
O      86.28851857      50.22693638      90.61073627
N      85.37578077      47.14479276      93.18643323
H      86.05608224      48.21626758      94.61128687
H      84.92224644      45.30419932      93.40942094
C      84.65201559      50.10977333      85.54626975
O      86.05986169      51.83131402      84.77526141
N      82.03663436      50.39512202      86.00547324
H      81.09366094      48.73594231      86.01114242
C      80.49272797      52.78373608      85.91476638
H      80.65713415      53.19380669      83.90409758
C      77.60522617      52.23004627      86.53270688
H      77.18570693      50.66535288      85.25903135
C      77.42948162      51.40234614      89.36351690
H      77.79986797      53.04262858      90.55404448
H      78.85055580      49.94914661      89.69232928
H      75.52274777      50.79007482      89.84350738
C      75.72116902      54.46937194      85.95634036
H      76.19738005      56.20980988      86.95222612
H      73.78042011      54.12544176      86.54782469
C      75.50762995      55.05518711      83.15765569
H      74.36056609      56.75594078      82.97813169
H      74.39836061      53.53395742      82.31861720
H      77.40869462      55.46147826      82.47735422
C      81.57743088      55.15912205      87.38497345
O      81.27507467      57.27561552      86.59695758
N      82.89079066      54.72826445      89.46178267
H      83.23472084      52.93491418      90.01736220
C      84.08698741      56.85798601      90.98490208
H      82.69425913      58.35653897      91.21166923
C      84.76161971      55.76950365      93.77035866
H      85.85766098      57.22081346      94.73978826
H      86.03718498      54.16134656      93.61351138
C      82.52796321      55.05707683      95.29536780
C      81.89679462      56.49326883      97.43831744
H      83.04007904      58.09953619      97.96933053
C      79.94470734      55.73359885      99.06915124
H      79.67825593      56.65011611     100.87383987
C      78.60489139      53.56230332      98.51168198
H      77.31987749      52.73082374      99.86283629
C      79.37023054      51.88800580      96.63707348
H      78.61811947      49.99638977      96.50857209
C      81.37900961      52.64956551      94.95710679
H      81.97805286      51.55730370      93.34328051
C      86.45292475      57.96347590      89.82272039
O      86.71559672      60.22925775      89.52414364
N      88.13100173      56.21547906      88.94399766
H      87.63778315      54.37866509      89.12730111
C      90.62355073      56.84664765      87.77614680
H      91.74226871      57.96914508      89.09328604
C      92.07675027      54.42968770      87.16387547
H      93.78695258      55.05518711      86.20578423
H      90.86354598      53.21270395      86.02814996
C      93.17846071      53.06719502      89.45800322
H      91.68179747      52.45303397      90.73356848
H      94.42945952      54.39756235      90.41042528
C      94.39733417      50.51984395      88.79092983
O      92.99893671      48.63956626      88.40920511
O      96.76327153      50.52362341      88.86273943
C      90.01694858      58.08630811      85.01525665
O      91.59675979      59.67367821      84.19133598
N      87.85888114      57.39277854      83.78126537
H      86.60410287      56.31752428      84.73746689
C      87.12944678      58.37165678      81.33973897
H      88.58075659      57.98615262      79.93000315
C      84.62177997      57.14522441      80.55361283
H      83.28574346      57.73670874      82.00492264
H      84.57264708      55.08542273      80.54794365
C      83.61266611      58.02772660      77.94579052
H      85.01673277      57.30774086      76.61920264
H      83.66368873      60.08563855      77.91744462
S      80.60611155      56.63877775      77.36186509
C      80.73083349      56.67279283      74.00949061
H      82.48449951      55.70147350      73.53138985
H      80.81587117      58.61921093      73.33863777
H      79.03763871      55.76950365      73.25737953
C      86.77417824      61.30829147      81.71012533
O      87.72471056      62.81251362      80.20401346
N      85.41546501      62.19268339      83.64898453
H      84.47816076      60.92467703      84.72423880
C      84.74272244      64.90066119      84.02692979
H      84.17958400      65.71324351      82.22035144
C      82.36544674      64.91955846      85.70311703
H      82.41080018      66.65999638      86.79915829
H      82.49205840      63.32462944      86.99946928
C      79.70849155      65.04239066      84.48613329
H      78.17970297      65.09341328      85.86563349
C      79.64991004      67.62564654      83.04994129
H      80.91602667      67.58596228      81.42099721
H      80.42469782      68.96168303      84.41054423
H      77.77152208      68.02248907      82.30538912
C      79.51384974      62.91644857      82.54727409
H      80.12612107      61.23648188      83.56961602
H      80.69492869      63.32085000      80.90888138
H      77.59766726      62.46669370      81.94256167
C      87.05385773      66.24236688      85.28926697
O      87.27495570      68.55917134      85.38564301
N      88.95870186      64.78916734      86.38341850
H      88.59398468      62.91644857      86.31538836
C      91.44747141      65.78883255      86.98435147
H      91.14700493      67.67288970      87.76291871
C      92.72114694      64.05028436      88.96856410
H      94.77905890      64.03516654      89.00068945
H      92.08052971      62.13599160      88.56038322
C      91.58164197      64.79672625      91.58583504
H      89.56341427      65.20490713      91.60662203
H      92.43012909      66.50125938      92.37574064
C      91.85754202      62.63865880      93.57571685
H      90.68969116      61.02672225      93.04659348
H      91.12621793      63.43423358      95.32938287
N      94.48426158      61.79395114      93.78547647
H      95.82974673      62.78605745      92.86329003
C      95.22881376      59.66422958      94.90797390
N      93.66223064      58.31874445      96.33660699
H      94.18568484      56.52917363      96.73155979
H      91.90289544      58.97447948      96.68431664
N      97.54183876      58.70424862      94.43365260
H      98.11442584      56.96570040      94.97222460
H      98.81551429      59.79840015      93.52658397
C      93.14633536      66.28961004      84.72612853
O      95.11165073      67.44990198      85.03793337
N      92.36020921      65.49403526      82.54349464
H      90.96559120      64.19390355      82.62664259
C      93.57530324      66.27449223      80.17188811
H      95.31007199      67.25526018      80.69534230
C      94.32363485      64.08051998      78.37664812
H      92.58508665      62.99770679      78.15177068
C      95.20613705      65.07073655      75.73859018
H      96.86153730      66.25748469      76.03338749
H      93.77939367      66.25748469      74.84474964
H      95.54250833      63.45124111      74.50648863
C      96.17745636      62.28905943      79.72591270
H      95.65778164      61.88843745      81.67799998
H      97.89710731      63.41533631      79.84307573
C      96.85208866      59.84186385      78.32562551
H      97.95190937      58.48881981      79.42166677
H      98.08419022      60.34075160      76.75337321
H      95.23826238      58.91022878      77.45068222
C      92.04273520      68.42878021      78.98136054
O      93.36554362      70.13709281      78.18767548
N      89.55963481      68.47980283      79.07017767
H      88.66012509      66.89621218      79.64087502
C      88.05163323      70.57550930      78.16121932
H      88.81508265      70.88731416      76.27149300
C      85.32286842      69.55316738      77.95523915
H      84.29485731      71.17266283      77.20501780
H      84.36666691      69.19033992      79.74480997
C      85.06586565      67.32706978      76.10519709
O      86.33009254      67.28927526      74.14933035
O      83.66746817      65.46002018      76.63243073
C      88.25383394      73.13608847      79.69756681
O      87.80974826      75.16565453      78.59774609
N      89.14578475      73.04160215      82.11074731
H      89.15523339      71.29738477      82.88553510
C      89.18924847      75.19211069      83.85307497
H      89.20247654      76.98546097      82.84018167
C      86.65890493      75.27903811      85.40076082
H      86.64000766      76.66420748      86.92576996
H      86.58709533      73.41954741      86.28704246
C      84.13801002      75.79115394      83.89842840
H      82.55630910      75.17132370      85.06438954
H      83.99439082      74.82739352      82.08240142
C      83.97927302      78.54448518      83.55260849
O      84.32509294      79.43454626      81.35674651
O      83.31975854      79.92965456      85.40831973
C      91.45314058      75.37730387      85.75980882
O      92.51894623      77.38797267      86.09618010
N      92.14478041      73.21545697      87.16009602
H      91.25471932      71.62430742      86.59695758
C      93.67923819      73.24758231      89.53170254
H      95.19668841      74.64031060      89.46556212
H      94.46347461      71.37486354      89.88319164
C      92.03328656      73.96189886      91.74268233
O      89.85065268      74.83495242      91.55559942
N      93.17090180      73.84095637      94.01035390
H      94.87732467      73.04538160      94.32404847
C      91.70636391      74.20189411      96.37062207
H      89.73537937      73.86741255      95.87173432
C      92.50760786      72.21579174      98.31137099
H      94.40867254      72.45578700      99.06537179
H      92.63232980      70.26559420      97.65752569
C      90.79362611      72.23090956     100.78124328
H      91.03362135      74.09606944     101.61650231
C      88.08753803      72.04571638     100.25023019
H      87.46581807      73.45356248      98.88017861
H      87.01795293      72.20256367     102.00200648
H      87.72093111      70.14465171      99.54536227
C      91.52683991      70.17488733     102.74655865
H      91.37755153      68.22846922     102.08515444
H      90.59331511      70.75692303     104.48888631
H      93.56207514      70.26748392     103.04513541
C      91.93880024      76.93254863      97.42697908
O      94.13844167      77.84717617      97.28335988
N      90.04529448      78.14953238      98.62128611
H      88.27084147      77.45600282      98.70443406
C      90.17568560      80.52302862     100.04236029
H      92.15233932      80.59105877     100.62061655
C      89.50861221      82.85306117      98.46632855
H      88.77917786      84.51224086      99.44520678
H      87.87399894      82.49023372      97.26824207
C      91.67423856      83.81304213      96.82604611
H      92.67201406      82.36362204      95.75835074
H      93.03295178      84.82971489      97.99011752
C      90.85598707      85.63473830      94.76246498
H      92.54540239      86.39818773      93.86106552
H      89.89411637      87.27691047      95.54859112
N      89.21381491      84.44421071      92.77258317
H      88.97381967      82.59416866      93.18265378
C      88.13856064      85.53836226      90.77892191
N      88.60721276      87.79280575      90.10995879
H      87.71337222      88.50901201      88.58305993
H      89.81285815      88.89640592      91.09639593
N      86.65701521      84.09650107      89.42398814
H      85.89356577      84.52357922      87.72701391
H      86.02017744      82.52424878      90.30082115
C      88.54485179      80.29059229     102.30625242
O      86.44536586      79.32683187     102.17019212
N      89.31208068      81.43954589     104.37739246
H      91.11676929      82.04992749     104.29802395
C      88.22359832      81.36773629     106.93419216
H      86.29418775      80.66097865     106.78112433
C      89.75805609      79.84650661     108.65384310
H      88.99649638      79.86162441     110.56624613
H      91.62510568      80.71200125     108.58203350
C      90.10198627      77.06293974     107.72031830
H      90.92590694      77.03648358     105.83437144
C      92.06352218      75.83839710     109.17729729
H      91.84998311      73.79560295     109.02989864
H      91.94635915      76.25791634     111.18985581
H      93.96269713      76.33350538     108.54990816
C      87.73226947      75.40942921     107.65795734
H      86.31308501      76.25980606     106.43152496
H      86.82709057      75.09762438     109.47965350
H      88.11021473      73.58584333     106.77734487
C      87.91746265      84.05492710     108.11905056
O      87.56597355      84.45743881     110.42262693
N      88.04218459      86.05614726     106.48443730
H      88.45225520      85.61206158     104.67218976
C      87.28629407      88.61105725     106.79435241
H      86.43213777      88.73955863     108.66329173
C      89.62577524      90.40818696     106.69797637
H      88.84153882      92.30547219     106.88127982
H      90.72181651      90.21732461     104.96509734
C      91.52683991      89.77701838     108.76155750
H      91.80462968      87.73800368     108.67651982
H      90.81063364      90.19275817     110.64939409
C      94.15544922      91.02234802     108.56124651
H      93.60931831      92.96687640     108.16440399
H      95.20424732      90.18330954     107.00033258
C      95.74470905      90.65574112     110.91395577
H      96.31540639      88.68097711     111.05568525
H      94.61654243      91.10171653     112.57880465
N      97.91789431      92.35838452     110.89505851
H      97.39066066      94.08181491     111.52811682
H      98.44512794      92.63428457     109.08092125
H      99.45424180      91.75934127     111.85314975
C      85.54585613      89.42552929     104.56636509
O      85.55152530      88.12539757     102.61049835
N      83.97738329      91.30013779     104.86116239
H      84.08509769      92.36594343     106.44286332
C      81.97427339      92.05791804     103.17930597
H      81.07476367      90.28724447     102.63506480
C      80.04297311      93.62639087     104.73077128
H      80.96138009      95.43674868     105.07470147
C      77.73939673      94.18008069     102.93364155
H      78.24395365      95.07770068     101.14973991
H      76.06131977      95.08148013     103.71220879
H      77.09311034      92.35271533     102.24200172
C      79.32487710      92.32247972     107.20631275
H      80.80642253      92.39995849     108.63305611
H      78.70126742      90.43275340     106.67152020
C      77.14791240      93.41852099     108.55368761
H      75.46794571      93.53946347     107.36693948
H      77.46538641      95.22131989     109.49855076
H      76.51674381      92.07492558     109.98232070
C      83.01173315      93.64906759     101.01556935
O      84.47060185      95.48966101     101.47855229
N      82.08198780      92.97821475      98.76112585
H      80.86122459      91.51367685      98.83482518
C      82.98527698      93.85693749      96.31770973
H      84.09643605      95.57469871      96.54825634
C      84.94681288      91.89918102      95.32371369
H      86.56630834      91.67808304      96.57660224
H      85.66112944      92.57381331      93.51146616
C      83.84699217      89.39529366      94.51869028
C      82.53930157      89.10805526      92.22456254
H      82.25773235      90.71054317      90.99246098
C      81.70215280      86.72322066      91.52914325
H      81.03129997      86.53991720      89.61107105
C      82.00261930      84.60672719      93.07493938
O      81.12578629      82.33527616      92.41920435
H      80.78185609      82.10283982      90.65231025
C      83.03629958      84.97144436      95.55615003
H      83.07976330      83.28769822      96.70888308
C      84.05486206      87.29013854      96.26101794
H      84.83342930      87.40541186      98.14318535
C      80.87256296      94.51456225      94.51869028
O      78.65213454      93.44875660      94.70955264
N      81.41113495      95.82792202      92.52313930
H      83.25550784      96.16429332      92.17353993
C      79.52140864      96.44586254      90.63530271
H      77.77152208      95.90540080      91.58205559
C      79.35322301      99.25021639      90.06082591
H      81.07098423      99.69997125      89.01580726
H      79.49684221     100.41050834      91.75780014
C      76.98917538      99.90028223      88.53581677
H      75.31109842      99.33714380      89.59217378
H      77.27263434      98.87416085      86.77270212
C      76.92870414     102.71597445      87.86118448
H      75.79864781     102.88982927      86.14909244
H      78.74851059     103.41517318      87.19411109
C      75.84778069     104.35625688      90.01169303
H      77.16303020     104.49231718      91.58961450
H      74.08088659     103.52666702      90.66931778
N      75.18259703     106.80156272      89.03281479
H      76.51485408     107.16816963      87.71567555
H      75.19393539     107.96941359      90.54459585
H      73.46294608     106.82423944      88.20700440
C      79.81998540      94.75455748      88.29015235
O      81.84577201      94.56936430      87.06560970
N      77.67514603      93.69442102      87.53804128
H      76.14068826      94.51078279      88.32983661
C      77.46727614      92.14673518      85.28170806
H      79.35322301      91.80469471      84.52770726
C      76.41658831      89.53702313      85.89397939
H      74.48906747      89.80725399      85.21934710
H      76.59044314      89.27246145      87.92921463
C      77.63357206      87.33927144      84.59951686
O      79.83699293      86.83849395      85.18533202
O      76.49217737      86.29047332      82.88553510
C      76.30698419      93.26545315      82.91766045
O      75.72872793      95.57469871      82.94600634
N      76.10100402      91.94831390      80.74825464
H      76.38824242      90.06614651      80.87297658
C      75.50196078      92.86294144      78.09507890
H      77.23861926      93.85126830      77.59808088
C      75.15425113      90.73133017      76.21480121
H      74.36056609      91.49477960      74.47436328
C      77.64113097      89.37828612      75.85008404
H      78.97716747      90.83337539      75.26993806
H      77.63168234      87.79280575      74.53483452
H      78.28174818      88.53168873      77.61697814
O      73.49696115      89.02868675      77.22391507
H      72.96405834      88.08193388      75.77071553
C      73.21917138      94.72621159      78.03082820
O      73.37412894      96.69530640      76.84596980
N      71.18393615      94.05913821      79.38765169
H      71.26897383      92.54735716      80.54983338
C      68.80855017      95.39328498      79.36686470
H      68.50808370      96.23421319      77.50926374
C      66.60323956      93.43930797      79.65410310
H      64.80610985      94.44842182      79.60119077
H      66.67315945      92.51145235      81.49280681
C      66.82055809      91.36438847      77.58485279
H      65.45995515      89.90174032      78.08185081
H      68.51375287      90.19086843      77.54705826
C      65.93805590      92.42641467      75.00915583
O      63.83479052      91.71587758      74.16255844
O      67.55566162      93.76434090      73.84697414
C      68.61390837      97.63639012      81.30572390
O      66.53709914      98.73621083      81.56272668
N      70.70016621      98.37338338      82.46601586
H      72.21950616      97.44174831      81.78193493
C      71.21606150     100.45208232      84.15165173
H      70.33355930     102.22464559      83.57906466
H      73.25129673     100.75632825      84.11007775
C      70.39592027      99.90217197      86.80293775
O      70.57544427     101.57269003      88.39975648
N      69.49452082      97.64583874      87.43788579
H      69.93104761      96.30602279      86.15098217
C      68.73296113      96.94664001      89.96633959
H      68.41359737      98.58881218      91.17009525
C      66.22151486      95.53312472      89.93232452
H      65.54121337      95.15895891      91.83905837
H      66.40481830      93.60182443      89.24068469
C      64.15982345      96.95797837      88.50180170
C      62.38914989      95.44241787      87.10718368
H      62.62914514      93.47332305      86.62908292
C      60.28399478      96.64617352      86.07728284
H      58.68150687      95.66918502      85.27603888
C      59.94762350      99.27667256      86.41743358
O      57.78010742     100.27822750      85.63886634
H      57.53255327     101.96764283      86.25680684
C      61.71073815     100.78089470      87.64197623
H      61.47074291     102.78967377      87.89519955
C      63.74219393      99.56391096      88.84762162
H      65.05177427     100.62593714      89.99657521
C      70.75685800      95.32903429      91.45922338
O      72.56532608      94.03079231      90.48034515
N      70.49418605      95.45753568      93.95177239
H      68.81043991      96.03579193      94.64341222
C      72.46895004      94.62038692      95.68843087
H      74.36434553      94.74321912      94.88718691
C      72.47650895      96.51956187      97.83515996
H      73.80120709      95.80524532      99.24111634
H      70.69071759      96.38350156      98.85561217
C      73.35712141      99.19163486      97.31548522
C      71.65258827     101.18718585      97.31926468
H      69.72695717     100.99821323      97.96744080
C      72.47461922     103.68351431      96.58983032
H      71.08756010     105.17828783      96.47833647
C      75.03330865     104.21641714      96.02291243
O      75.73817657     106.56912640      95.26513218
H      74.13379893     107.40627514      95.14229996
C      76.90413770     102.23976340      96.40463714
H      78.92236541     102.43440521      96.17220081
C      75.97250263      99.80201647      97.02257765
H      77.37845900      98.34314775      97.25501398
C      72.04376163      91.86894541      96.66730910
O      69.95750378      90.82959594      96.87706872
N      74.10545303      90.53857808      97.12273314
H      75.66825669      91.62706044      97.00557011
C      74.45316268      87.72855506      97.02635710
H      72.61256925      86.94809808      97.52146539
C      75.12779497      87.08415838      94.17098064
H      76.83799728      88.07059552      93.58516548
C      75.43393063      84.41586482      93.71366687
H      73.57066049      83.62406950      94.09728131
H      76.81721029      83.60139279      95.00623967
H      75.78541972      83.95666134      91.73890288
O      73.21350222      87.92508659      92.58927972
H      73.57821938      89.70142932      92.53258793
C      76.45438284      86.84038369      99.07482042
O      78.05120158      88.35027501      99.99511714
N      76.36934516      84.32704768      99.75512189
H      75.04086756      83.21588862      98.95198821
C      78.33655024      83.22344753     101.08737895
H      80.12045188      83.94343324     100.35038568
C      77.98506115      83.56170854     103.88795334
H      77.23861926      85.47411157     104.04858008
C      75.92525946      82.02536104     105.19564395
H      74.11679138      82.14819325     104.21865545
H      75.57188065      82.83794335     107.05513464
H      76.42414722      80.02981006     105.10682681
C      80.50217659      83.40108180     105.24666656
H      82.14245904      84.00579422     104.15818420
H      80.74406156      81.38852328     105.60760429
C      80.53430194      85.05648204     107.69764159
H      82.39946181      85.06404095     108.57447460
H      79.49117302      84.16642096     109.23209935
H      79.63101276      86.88384740     107.39339565
C      78.69370851      80.47011628     100.23889183
O      77.08744116      79.38919283      98.95576766
N      80.64579579      79.29281679     101.28768993
H      81.89868435      80.14508335     102.44987162
C      81.22027259      76.57916980     100.83982480
H      79.59699769      75.34706825     101.14218101
H      82.68670022      76.02548000     102.17586130
C      82.08765698      76.18421700      98.15452371
O      83.92258123      77.34639868      97.12084341
N      80.84421706      74.30015987      97.02824683
H      79.60266687      73.36096589      98.13373672
C      80.74595129      73.98079613      94.32593820
H      82.29552688      74.88786476      93.31493462
C      81.41113495      71.18967037      93.57382713
H      80.00706831      69.87631057      94.31082039
C      81.46782674      70.63976000      90.70333286
H      82.86433449      72.07028282      90.20066566
H      79.75951416      70.74936412      89.56004844
H      81.91947133      68.67444464      90.28759307
C      83.78274147      70.05772430      94.91931226
H      83.89801479      70.56984013      96.91108379
H      85.52506913      70.72101824      94.04247925
C      83.93202985      67.13998688      94.96088624
H      83.98116275      66.41811143      93.03336540
H      82.26907071      66.38031689      95.91141857
H      85.64223218      66.55228199      95.94921310
C      78.08899609      74.76125310      93.14107980
O      76.39580133      73.18144190      92.77258317
N      77.93592827      77.20088976      92.50802148
H      79.09244078      78.52747763      93.24501475
C      75.85722933      78.32716665      90.85451096
H      75.70227177      77.22545621      89.11785248
H      76.36556570      80.25090804      90.31782869
C      73.21539193      78.56905162      92.16031184
O      71.33511426      79.33439076      91.13608018
N      73.18326658      78.10606867      94.64341222
H      74.78953395      77.50702542      95.48434043
C      70.79087308      78.15331183      96.03991996
H      69.57388934      77.02514522      94.82104649
C      70.93638200      76.79459861      98.47766691
H      72.37635346      77.76969739      99.58315680
H      71.66014718      74.98613052      97.80870379
C      68.43060492      76.67932530      99.87606438
N      66.85457317      74.59684691      99.46410404
H      67.16637800      73.17388299      98.23011276
C      64.68327763      74.97101272     100.80392000
H      63.06945136      73.72190363     100.77179465
N      65.15948866      77.01758631     102.34782640
H      63.90848984      77.64497545     103.64606837
C      67.36101981      78.25724677     101.49555983
H      68.11313089      79.96744908     102.31759078
C      69.89325308      80.88396635      96.55959470
O      71.17637724      82.25590765      98.04491958
N      67.99029868      81.71166648      95.25190409
H      67.30243831      80.38318888      94.06326624
C      66.83945535      84.15886205      95.22166847
H      68.36824395      85.53458281      95.07993900
C      65.28610033      84.25145864      92.78014207
H      63.88203368      82.74534676      92.72911946
H      66.58812176      84.17586959      91.18521307
C      63.87069531      86.67219805      91.90519879
H      63.53810349      86.40763635      89.88886081
C      61.34980042      86.71944121      93.09194692
H      60.37659137      88.31814966      92.23212144
H      61.54633195      86.88951657      95.13285133
H      60.26509752      84.96766490      93.08816746
C      65.24263663      89.13451142      92.34361530
H      66.89614715      88.99278195      91.12285210
H      65.73585519      89.31025597      94.33538683
H      63.92738711      90.65196166      91.88441180
C      65.32389485      84.84483270      97.52524485
O      63.54944185      83.35950782      98.04680931
N      66.03443194      86.84416314      98.98600329
H      67.12480404      88.22933252      98.24712030
C      64.77587422      87.51501598     101.25934404
H      64.39603924      85.90307943     102.48199696
C      66.47095873      89.23466692     102.97710526
H      65.26720307      90.07937459     104.41896644
H      67.03787662      90.89573635     101.90185099
C      69.02775843      87.97044003     103.80669511
H      70.10679216      87.70398861     102.07192635
C      70.84567515      89.73544440     105.33170424
H      72.24596234      88.45420996     106.12727902
H      70.06521817      90.73133017     106.95875860
H      71.72817733      91.19620284     104.17519174
C      68.60257001      85.62339994     105.52067688
H      70.30710314      84.79569982     106.32759001
H      67.85045894      84.20799494     104.22810408
H      67.36479927      86.12984660     107.08725999
C      62.13403684      88.73010999     100.91919330
O      60.21407491      87.74934204     101.78657768
N      62.09246286      90.95053842      99.65118695
H      63.85746724      91.63083989      99.40174307
C      59.98541802      92.46609892      98.76490531
H      58.33379722      91.23777681      98.64963200
C      59.12937199      94.41062730     100.67541861