 %block lattice_cart
   139.898   0.000   0.000
   0.000 144.87   0.000
   0.000   0.000   168.12
 %endblock lattice_cart

 %block positions_abs
N      94.09497796      44.00028817      86.88136139
H      93.74915805      44.34610808      88.72573427
H      95.99415292      43.95493473      86.70939629
H      93.37688198      42.26740914      86.52231339
C      93.08208466      46.09788437      85.42249267
H      93.73970943      47.88178601      86.21239827
C      93.84742383      45.99961860      82.72963268
H      93.29751346      44.29697520      81.71107020
H      95.89966659      46.00906724      82.55577786
C      92.94413465      48.36177651      81.26887424
H      90.90323023      48.47516007      81.53343592
H      93.07830522      47.99139014      79.24875681
S      94.38977528      51.42124340      82.14570725
C      93.13310728      53.12766626      79.51142877
H      93.91356425      52.35287847      77.77099083
H      93.57908269      55.12321724      79.75898291
H      91.10165149      53.03695939      79.18828557
C      90.23048766      45.94481654      85.51886872
O      89.12499777      43.92469911      85.18438716
N      89.07775460      48.18225251      85.94027768
H      90.14544998      49.73749726      85.65870846
C      86.30363639      48.45059363      86.44294488
H      85.12633689      47.13912357      85.37335979
C      85.84632262      47.90635245      89.26241654
H      86.23938569      45.91269120      89.59122892
H      83.82620519      47.86666820      89.65736934
C      87.05007828      49.45403830      91.32977713
O      87.71526194      51.57809068      90.91970652
N      87.32975776      48.28051826      93.49162403
H      88.41257094      49.00050399      94.89002150
H      87.18235911      46.37945360      93.45005005
C      85.30019171      51.21904268      85.76831259
O      86.62866931      52.75350046      84.58345419
N      83.15913180      51.90879278      86.72262438
H      82.22560700      50.83731797      87.99629991
C      81.94592751      54.54685072      86.34656884
H      82.08198780      54.94747270      84.33212059
C      79.01118254      54.26150205      86.99096551
H      78.24017421      52.69869839      85.89303453
C      78.56898659      53.66812798      89.73484812
H      79.65746893      52.04674282      90.39058315
H      76.64713493      53.09176146      90.20350025
H      79.12645584      55.36510222      90.75719006
C      77.33877476      56.60287295      86.44483461
H      78.18915159      58.42834857      86.88136139
H      75.47739433      56.26272221      87.25930665
C      77.10444868      56.84853737      83.78409996
H      75.75518410      58.39811295      83.61969377
H      76.58477396      55.04573846      82.93750257
H      78.83165854      57.43057307      82.82789845
C      83.20448522      56.77672777      87.96606429
O      82.86622422      58.98014866      87.05521621
N      84.46493268      56.27972975      90.06177077
H      84.92602589      54.43724659      90.25641258
C      86.07497950      58.06552111      91.25418808
H      84.96948961      59.80406933      91.29198260
C      86.60221313      57.21514428      94.07932891
H      87.73604893      58.68535135      94.97316946
H      87.95147773      55.65989953      94.02074740
C      84.38178473      56.57641678      95.62890449
C      83.80541820      58.21103005      97.74350823
H      84.72760464      60.02705703      97.88334798
C      81.92703024      57.53072857      99.42158520
H      81.63979185      58.66645408     101.09210326
C      80.74406156      55.19313712      99.28741463
H      79.34377437      54.79629459     100.71793745
C      81.24672877      53.72859922      97.22194377
H      80.12234161      52.04485308      96.97816908
C      83.19503660      54.21803834      95.50985173
H      83.48605445      52.95003198      93.93759944
C      88.74705250      58.70235888      90.00885844
O      89.43680260      60.90389003      89.85579060
N      90.11143490      56.84475791      89.13391515
H      89.31963957      55.11376861      89.25674736
C      92.36587839      57.30207169      87.60512657
H      93.38822033      58.90266988      88.40070134
C      94.16111840      55.12699670      87.87913688
H      95.87887960      55.60320773      86.84923604
H      93.40333813      53.37333068      87.10623882
C      95.12865826      54.41079043      90.58333523
H      96.46091531      52.89900937      90.15247764
H      93.75671696      53.79662937      91.99118134
C      96.52894547      56.63499829      91.78709090
O      95.37432268      58.54551161      92.68093144
O      98.89866226      56.40634141      92.08377793
C      91.85943174      58.31118553      84.92549465
O      93.47892719      59.64911177      83.83512257
N      89.53695810      58.16189715      84.02976438
H      88.38044559      56.78806613      84.67983023
C      88.83397992      59.45258023      81.67327567
H      90.24749519      59.01794317      80.23708367
C      86.33765145      58.20158141      80.87770089
H      84.90712864      58.85353698      82.21184767
H      86.67213302      56.17201535      80.89281870
C      85.34932459      58.86109589      78.14893610
H      86.75150152      58.09953619      76.84313521
H      85.55341504      60.91144894      78.10358266
S      82.04608300      57.81229779      77.61792300
C      81.78908021      58.37732595      74.29389442
H      83.12133726      57.20380591      73.25265522
H      82.29363715      60.30106734      73.75910187
H      79.89935390      57.93890946      73.60414431
C      88.56185933      62.28905942      82.24775247
O      89.32152930      64.03705626      80.76620704
N      87.40534682      62.78983690      84.45306308
H      87.02173237      61.23837159      85.49619200
C      86.59843369      65.39387976      85.40737486
H      85.96537538      66.28205112      83.65937802
C      84.28162923      65.44112291      87.07978265
H      84.91279782      66.26504359      88.85801511
H      83.57298185      63.62509593      87.74874577
C      81.95348641      66.89999163      86.00452838
H      80.66847252      67.02660330      87.60701629
C      82.37678510      69.57206464      85.08045221
H      80.84988625      70.31283735      83.91449108
H      83.94714767      69.78371398      83.76520270
H      82.64701596      70.64542919      86.81522097
C      80.79886364      65.25781946      83.83134312
H      82.03096518      65.18034069      82.18350177
H      78.96015992      66.02693808      83.30977866
H      80.46816152      63.37943150      84.60613091
C      88.92657650      67.01148549      86.07066880
O      88.83209018      69.33395913      85.91193179
N      90.97692955      65.64332364      86.85112577
H      90.89378160      63.76304595      87.16104088
C      93.43357375      66.83007176      87.31788817
H      93.18035043      68.02626851      88.97517814
C      95.29117473      64.60397416      87.83567318
H      95.45936036      63.19423834      86.34467911
H      94.69780067      63.59108086      89.52886795
C      97.97647582      65.48458662      88.43849587
H      97.77049564      66.86219711      89.95405637
H      98.76071223      66.57873815      86.87947166
C      99.94935009      63.49470481      89.40036656
H     101.80884078      64.33563302      89.66303852
H     100.15155080      61.99237239      88.00763827
N      99.21046709      62.15299914      91.70394294
H      98.65488756      60.35964886      91.36568193
C      99.53361030      62.95613281      94.07743919
N     100.60130566      64.91388928      94.87868314
H     100.69012281      65.11797971      96.77407864
H     101.21168726      66.28961003      93.70327338
N      98.66055675      61.42734422      95.74039834
H      99.18779038      61.79773058      97.53752807
H      97.46813943      60.07996936      95.10734003
C      94.47103350      68.55728160      85.27320430
O      95.23070349      70.65676755      85.88736535
N      94.37276773      67.65399242      82.85435461
H      93.41845595      66.04583533      82.46318127
C      95.01716441      69.33206939      80.73975087
H      96.28895021      70.80416619      81.41627289
C      96.65555713      67.87698013      78.81411976
H      97.28105654      69.32828994      77.49131134
C      99.17834176      66.94723479      79.91960965
H     100.19123506      68.38342679      80.99486392
H     100.52571662      66.59007651      78.40404915
H      99.04228145      65.42411538      81.30099959
C      95.20235759      65.73025104      77.46863462
H      93.31641072      66.21780044      76.79778178
H      94.64110888      64.17500628      78.69695673
C      96.59130642      64.39610426      75.46174528
H      97.76482646      65.58852157      74.25987934
H      95.25904938      63.57029386      74.12759850
H      97.78939292      63.03550132      76.43873378
C      93.04051069      70.88353470      79.54355411
O      93.51105254      72.97357200      78.63270603
N      90.69158087      70.15599006      79.74386510
H      90.20025204      68.66499601      80.83234746
C      88.50138809      71.51281356      78.66861083
H      89.06074707      72.15721024      76.79589206
C      86.28851857      69.77237562      78.80278140
H      84.66335394      71.03471280      78.78199441
H      86.37544598      68.51381790      80.43172548
C      85.92947057      68.24547677      76.35369610
O      84.02840590      67.12864852      75.90205151
O      87.72471056      68.18122607      74.85325341
C      87.79652017      74.01292147      79.97252199
O      86.56441861      75.49257718      78.68372864
N      88.45414492      74.14709204      82.39137167
H      89.42735398      72.70334113      83.17182864
C      87.97604417      76.46389651      83.91638080
H      88.29162847      78.08717140      82.68994843
C      85.14145470      76.24279853      84.71951449
H      85.08287318      74.42866126      85.69461326
H      84.02084699      75.87619162      83.02820944
C      84.09832578      78.26858512      86.62435861
H      85.02996085      78.01536180      88.44416505
H      82.16702548      77.72245423      87.07978265
C      84.10588467      81.06538008      85.47162556
O      83.74494696      82.87573789      86.98718606
O      84.38178473      81.29781640      83.06222451
C      89.79963005      76.61885405      86.28609760
O      90.57819731      78.63141258      87.03820867
N      90.27017192      74.49858113      87.57300122
H      89.79774034      72.90743158      86.62813806
C      91.91990299      74.43055098      89.80287827
H      93.24649086      75.99902382      89.64225153
H      93.24082168      72.86018842      89.63847208
C      90.37977604      74.38519755      92.09322656
O      88.12911200      74.05260573      92.00818887
N      91.78573241      74.87463668      94.24184538
H      93.69246627      74.89542367      94.34578032
C      90.79929528      75.03904286      96.81565262
H      88.73949359      75.01447641      96.71927657
C      91.40967688      72.71845895      98.24995489
H      93.41467649      72.35563150      97.94570895
H      90.32119452      71.08762515      97.61878630
C      91.16779191      72.82428362     101.08265463
H      92.38099621      74.14142287     102.10121711
C      88.45036547      73.06805832     101.98027463
H      88.45036547      73.24947205     104.03062768
H      87.49227423      71.34273820     101.38690057
H      87.59620917      74.70645103     101.06753682
C      92.22036947      70.37141887     102.37522743
H      94.23670745      70.39031614     101.95759791
H      91.21503506      68.60830422     102.02751779
H      91.81596803      70.75881276     104.35944006
C      91.63833376      77.44655418      98.05531308
O      93.88899781      77.80371246      98.39924327
N      89.82986569      78.88085645      99.01907350
H      88.01950788      78.47267558      98.57120836
C      90.17190614      81.28647806     100.46660385
H      92.13911124      81.71166647     100.90879981
C      89.58798072      83.47478112      98.70915838
H      89.00405529      85.08104848      99.85811198
H      88.13478118      82.65841936      97.49973354
C      91.76683515      84.31570934      96.98572798
H      92.73626476      82.66408853      96.22416828
H      93.23137304      85.03758479      98.24428571
C      91.11487958      86.23567127      95.07143523
H      92.56429965      87.65863518      94.73128449
H      89.55774510      87.38651458      95.77441342
N      90.21725957      85.02813615      92.76974858
H      90.08686846      83.12896120      92.61857047
C      89.69758484      86.13740549      90.64380648
N      89.40845671      88.57326271      90.43593658
H      88.62611001      89.22710801      88.82022058
H      89.88655748      89.81670263      91.80409843
N      89.34042657      84.61617581      88.71250618
H      88.69980935      85.32860264      87.06277511
H      89.40656698      82.71322141      88.86746374
C      88.79240594      81.37340546     102.92513778
O      86.68158164      80.46066766     102.99505766
N      90.04529448      82.19543641     105.01139563
H      91.78762215      82.96266529     104.86021753
C      88.88311280      82.06504530     107.54740835
H      87.49794341      80.54570534     107.43402477
C      90.99015764      81.19766092     109.44091411
H      90.21348013      81.24112461     111.34953769
H      92.48115169      82.61306593     109.32375108
C      92.26005371      78.62385367     109.31619218
H      93.74915805      78.38007899     110.71647937
C      90.40245275      76.38830745     109.57508468
H      91.35298509      74.57228047     109.36154561
H      89.00405529      76.48090404     108.06519336
H      89.77884307      76.40909443     111.53851032
C      93.53183952      78.23645978     106.78584864
H      94.47670269      76.41476361     106.98049045
H      95.13999662      79.51391477     106.62144245
H      92.23170783      77.95678029     105.21359635
C      87.38078038      84.38373947     108.41857218
O      85.61010683      84.08138326     109.90956624
N      88.12722227      86.60416789     107.47937820
H      89.58987043      86.59282953     106.25483555
C      86.66646384      88.88695728     107.73827070
H      85.70837260      88.77546342     109.55807714
C      88.53351344      91.15462885     107.76472687
H      89.41790534      91.31147615     105.91279509
H      90.02072804      90.53290890     109.04974077
C      87.51306123      93.71709774     108.60376536
H      86.72126590      93.44497714     110.48593276
H      85.96159592      94.46542935     107.47181929
C      89.77128416      95.59170625     108.73226674
H      90.44780619      95.73343571     106.79151782
H      91.47959676      94.87927942     109.63744565
C      88.81508265      98.13716758     109.91901487
H      88.21792914      97.52678599     111.79362337
H      87.15401322      98.90061701     108.97037226
N      90.77283911     100.22531517     109.86610253
H      91.33030838     100.41239806     108.05007555
H      92.36776812     100.17807200     110.91490064
H      89.83364513     101.73142703     110.56908072
C      84.92413618      89.26301281     105.39123062
O      85.52128968      88.29925239     103.38812073
N      82.83409887      90.54613699     105.72760191
H      82.65835433      90.98077403     107.57764397
C      81.09744038      91.36249875     103.68291804
H      80.46627179      89.54836149     102.93647614
C      78.82787909      93.04624490     104.67880380
H      79.59321825      94.79991091     105.44225323
C      76.94571167      93.83426077     102.63034048
H      76.20871842      92.33570780     101.42658482
H      77.95104608      95.41218224     101.77051501
H      75.27330389      94.68841707     103.47315842
C      77.47105559      91.70453922     106.83498153
H      78.69181880      91.31336587     108.44313862
H      76.77752603      89.96599101     105.97704578
C      75.27330389      93.17852573     108.16534885
H      74.68370929      92.30925164     109.93602241
H      73.69538243      93.22765863     106.84254043
H      75.91959030      95.10226712     108.52250712
C      82.54686048      93.09537779     101.69303623
O      83.91124287      94.76967529     102.45270621
N      82.38245428      92.61727702      99.20993585
H      81.13712465      91.28124052      98.65246659
C      83.67691681      94.01567449      97.19359788
H      84.68603065      95.62383159      97.98917266
C      85.66490889      92.42641467      95.91803262
H      87.20503584      92.31114136      97.28241501
H      86.08631786      93.68875184      94.34767005
C      84.85610603      89.79213619      94.97883864
C      83.95281685      89.32915324      92.62801911
H      83.88478670      90.86172128      91.28064424
C      83.17613934      86.95565699      91.73228883
H      82.62055980      86.69298503      89.78587073
C      83.31219963      84.92042176      93.26107742
O      82.50339677      82.62629401      92.47684100
H      82.18214330      82.56204332      90.69293936
C      84.17958400      85.25301358      95.72150108
H      84.27973950      83.57115716      96.87045468
C      84.86933411      87.61706119      96.69848958
H      85.68380615      87.89485096      98.54853164
C      81.61333568      94.73943967      95.10545030
O      79.47605522      93.86071693      95.15269346
N      82.24072480      96.64428380      93.58611035
H      84.01517782      97.33592362      93.70516310
C      80.71760540      97.33025445      91.23529081
H      78.74095168      97.18285579      91.79464980
C      81.15980135     100.10248294      90.40570096
H      80.13179025     100.47097959      88.65959385
H      83.17047016     100.35381655      90.02775570
C      80.32643205     101.89205376      92.47495127
H      81.67002747     102.07535723      94.02452685
H      78.50662562     101.54812358      93.37446100
C      79.99950940     104.54900896      91.50930113
H      81.25617739     104.80979120      89.89736458
H      80.62311908     105.77166188      93.04375889
C      77.26696515     105.29167140      90.94427296
H      76.13312937     105.14238302      92.65825473
H      76.59800204     104.01421641      89.47217616
N      77.07610279     107.82957384      89.88980568
H      78.01151732     107.91650125      88.22873625
H      78.01718650     108.81979043      91.22206273
H      75.23361963     108.22830609      89.58367002
C      81.10310956      95.43674868      89.15092269
O      83.32353799      95.10604657      88.17582391
N      79.02630034      94.38795057      88.03976362
H      77.31231858      94.56747458      88.86179456
C      79.30975930      92.66829964      85.82878383
H      80.76484856      91.30769668      86.35979693
C      76.67170137      91.33982203      85.48296392
H      75.15614086      92.38673041      84.56266720
H      75.87990604      90.69164592      87.27064501
C      76.99484456      89.06648129      83.77087188
O      76.27674857      89.20254157      81.58823798
O      78.04742212      87.21454949      84.70628640
C      80.29808616      93.90796009      83.30221975
O      80.68736978      96.21909537      83.04710670
N      80.91602667      92.53034962      81.25564615
H      80.49461770      90.67841782      81.43894961
C      80.91980612      93.58481689      78.70451563
H      82.21426863      95.17785617      78.87270127
C      81.92891997      91.73666457      76.71463382
H      81.58310006      92.68341745      74.91561437
C      84.68036147      91.11305487      77.03021812
H      85.27751500      89.82426154      75.53922406
H      84.90145945      90.32503901      78.91994443
H      85.78207192      92.80624965      76.62770641
O      80.71004650      89.28946898      76.49920502
H      81.25995685      88.11216949      77.76343193
C      78.46883109      94.65251226      77.83713125
O      78.19671050      96.23988236      76.19117963
N      76.41469858      93.72087719      78.98797458
H      76.56587669      92.13728654      80.04433159
C      73.85789888      95.01156026      78.90860607
H      73.49318170      95.72587680      77.01132085
C      71.80187666      93.05002434      79.34702258
H      71.80943556      92.72688116      81.38414754
H      72.60690007      91.29257888      78.63648548
C      69.17704681      93.59804499      78.05633951
H      68.44572272      95.41785143      78.67994919
H      67.86368702      92.21098586      78.82734784
C      69.14303173      93.27490178      75.27844183
O      68.71217413      95.23832742      73.98964848
O      68.82366799      91.21698982      74.15216494
C      73.50452006      97.34348253      80.79644266
O      71.40692386      98.43385462      80.89470843
N      75.52652722      97.97087167      82.27420864
H      77.12901514      96.93719137      82.21184767
C      75.60211628      99.92295895      84.38881238
H      74.35867636     101.42718110      83.73118762
H      77.52963711     100.62404742      84.59101310
C      74.50229556      99.04990539      86.92860455
O      75.14858195     100.15539528      88.92415553
N      72.71461446      97.22065033      86.81711069
H      72.07021780      96.81624890      85.06722413
C      71.19527451      96.69719613      89.05454665
H      70.17671203      98.35448611      89.73673785
C      69.07689131      94.83770545      88.30810475
H      68.24352201      94.13094781      90.05610159
H      70.19560929      93.26923260      87.57867040
C      67.31377667      95.55958090      86.11602223
C      66.33111898      93.79079706      84.49652678
H      66.83000673      91.82548170      84.73274257
C      64.73807970      94.47109854      82.41593811
H      64.01998370      92.94986886      81.25942561
C      64.13525700      96.95419892      82.02098531
O      62.47796702      97.59103667      80.16905352
H      62.62347596      99.36171024      79.81000552
C      65.05744345      98.80991016      83.71418009
H      64.38848033     100.73554126      83.67638556
C      66.68071835      98.16929293      85.71162080
H      67.45739586      99.70375069      86.80955179
C      72.68437884      95.68619255      91.40347645
O      74.70449627      94.45031155      91.12379696
N      71.93037804      96.38917075      93.74106790
H      70.50174496      97.64205929      93.92248163
C      73.22484057      95.34982128      95.95960660
H      75.25818609      95.68430284      95.92370180
C      72.04187189      96.67451941      98.21405009
H      72.76563708      95.78634805      99.92803185
H      69.99151885      96.48176734      98.27830078
C      72.88468984      99.38627668      98.52963438
C      71.21039232     101.34781259      98.03263636
H      69.19405434     101.08136118      97.85878154
C      72.11746095     103.86870749      97.99295211
H      70.89291830     105.48064404      97.73405960
C      74.66670174     104.44507401      98.42191998
O      75.62857243     106.80345245      98.18948364
H      74.33222018     108.02988483      97.87956853
C      76.31643281     102.52322236      98.86033649
H      78.29308654     102.92006488      99.17403105
C      75.46038680     100.00232745      98.79230634
H      76.76051851      98.45842106      99.08899337
C      72.92248435      92.41507630      96.15424841
O      70.83055733      91.37950628      96.19960184
N      75.11078742      91.14706996      96.13724087
H      76.75295960      92.09193311      95.92370180
C      75.21661210      88.29547295      96.24117582
H      73.35145223      87.46399336      96.51329640
C      76.36934516      87.43942692      93.82421586
H      78.35166806      87.97610919      93.66925830
C      76.36178625      84.67853679      93.24406988
H      74.43993459      83.94343324      93.36879182
H      77.82254468      83.76957842      94.37412622
H      76.85500482      84.55948402      91.24851890
O      75.00307303      88.18775855      91.68504568
H      74.97283741      89.98677800      91.90236420
C      76.85878426      87.32415363      98.36900764
O      78.47827971      88.88695728      99.09844200
N      76.72272398      84.90341421      99.16647215
H      75.20527374      83.76390925      98.95293308
C      78.63323727      83.92075654     100.86344638
H      80.28296835      85.12829164     100.61400250
C      77.88679538      84.27980454     103.64512351
H      77.26318570      86.23756099     103.77173517
C      75.38857719      82.78692075     104.29896881
H      74.74040107      83.37462562     106.16412869
H      75.87423686      80.79136976     104.11755509
H      73.77853038      83.22344753     103.09332343
C      80.05620119      83.85272639     105.55563681
H      81.67380692      85.04892315     105.11155113
H      80.57776566      81.86095485     105.51784229
C      79.07732295      84.14185452     108.32030641
H      80.59477318      83.85272639     109.68468881
H      77.73750700      82.59416867     108.54707357
H      78.34410915      86.04480890     108.60376536
C      79.28330313      81.19577119     100.09999695
O      77.73372756      79.97689772      98.86222621
N      81.46404730      80.36996078     100.79730596
H      82.69425913      81.67954112     101.43792318
C      82.09899533      77.74702067     100.81053404
H      80.29808616      76.76247326     100.97871968
H      83.19125714      76.88719520     102.32987400
C      83.09299137      76.84184176      98.33310284
O      84.62744914      78.09850976      97.05753758
N      82.26718098      74.62897226      97.67358836
H      81.28830274      73.53293099      98.89057211
C      82.14812821      73.63308649      95.02041262
H      83.73927778      74.34929275      93.92248163
C      82.40135154      70.73235659      95.10167085
H      80.68170059      70.07284211      96.02574702
C      82.39757210      69.67033040      92.31243481
H      82.77551736      67.64643352      92.27841974
H      83.97927302      70.45078738      91.24851890
H      80.62311908      69.79883180      91.27308534
C      84.73138409      70.02370923      96.64557725
H      84.53485256      70.71345934      98.57498781
H      86.33954119      71.13486829      95.99362167
C      85.34176568      67.13242797      96.86289577
H      83.68069626      66.08362987      97.48461573
H      86.94236387      66.65243749      98.06665143
H      85.77640274      66.47858267      94.95805165
C      79.56487234      74.64409007      93.84689258
O      77.92836936      73.16065491      93.43115279
N      79.44015042      77.07616782      93.26674660
H      80.93681365      78.10417895      93.85823094
C      77.53341656      78.19110635      91.69827376
H      77.80364742      77.21789730      89.90114404
H      77.95104608      80.16398062      91.27875452
C      74.72339353      78.37440980      92.65258555
O      72.94327134      78.23645978      91.16159149
N      74.40969897      78.27614403      95.17725990
H      75.88179577      78.43677077      96.38290529
C      71.74518486      78.40086597      96.17881485
H      70.59056209      77.32183224      94.85978588
C      71.66203691      77.12341098      98.74506318
H      73.10956726      77.80749191     100.04330516
H      72.24596234      75.18644151      98.35766929
C      69.08067077      77.10451373      99.91291404
N      67.26464377      75.11841136      99.84110444
H      67.34401228      73.33262000      99.17403105
C      65.23696745      76.05949506     101.03541147
H      63.46062471      75.10329355     101.34721631
N      65.69995040      78.35740226     101.95759791
H      64.38281115      79.62729834     102.50561854
C      67.97140142      79.07171881     101.11666970
H      68.76130701      80.95199650     101.21682520
C      71.00441215      81.27136025      96.18259430
O      71.74896431      82.76235431      97.87011990
N      69.52097699      81.98000760      94.27775018
H      69.19783380      80.54759506      93.06076643
C      68.22840419      84.30059152      93.88657683
H      69.56822016      85.86528491      93.86767957
C      67.29865885      84.20232576      91.24473944
H      66.11757990      82.52802823      91.04631818
H      68.88791869      84.14941341      89.93515911
C      65.51097775      86.38306991      90.74963115
H      63.94061519      86.13929523      92.05921149
C      66.76575604      89.17230595      91.15403258
H      66.94150057      89.44442654      93.18737809
H      65.66026614      90.81447812      90.58900441
H      68.60634946      89.28191008      90.23562559
C      64.15604400      86.23567127      88.07566842
H      62.70473418      84.78814091      87.88291633
H      65.63003052      85.52324444      86.82655932
H      63.69495078      88.03658044      87.18560732
C      66.38592105      84.86750942      96.14102032
O      64.81744821      83.28580849      96.66636424
N      66.78465329      86.98211316      97.48461573
H      68.38525148      87.90618932      97.01218415
C      65.33901266      87.80225437      99.60677838
H      64.47918720      86.15630276     100.49683947
C      67.04165607      89.04758402     101.63634444
H      66.09490318      89.88473278     103.26339880
H      68.15848433      90.45543012     100.63101004
C      68.98996390      87.17108580     102.75317269
H      69.97073185      86.31126031     101.16013341
C      71.00252242      88.47688668     104.25361538
H      70.27119835      89.39529366     105.94681016
H      71.96439312      89.67875260     102.88545353
H      72.42926580      87.10305565     104.81864355
C      67.85801783      85.33049236     104.59187639
H      69.33578381      83.97555859     105.06808742
H      66.27064774      84.41775455     103.64890296
H      67.00386155      86.22433291     106.23971774
C      63.24897536      89.70331905      99.03608103
O      61.31200589      89.42363955     100.26440314
N      63.54755212      91.61572208      97.25217939
H      65.19539346      91.71398784      96.29219843
C      61.63136963      93.47899222      96.71927657
H      59.76243032      92.61727702      96.64746697
C      61.61058265      95.55769116      98.79986524