 %block lattice_cart
   139.898   0.000   0.000
   0.000 144.87   0.000
   0.000   0.000   168.12
 %endblock lattice_cart

 %block positions_abs
N      96.31446152      43.54202954      86.80482747
H      95.54345319      43.52502200      88.54904486
H      98.19095975      43.69131792      87.12041176
H      96.04234093      41.89985737      85.86941295
C      95.13149285      45.68308945      85.37430465
H      95.58502717      47.44998355      86.33050617
C      96.36548413      45.70009699      82.68522411
H      95.86848611      43.98611522      81.65532327
H      98.35725567      45.99867375      83.11230225
C      95.29211959      47.97154802      81.22635539
H      93.24365626      47.76556785      81.18667114
H      96.10470190      48.01123227      79.33284963
S      96.03478203      51.02345601      82.65498849
C      93.85403786      52.83759327      80.74258546
H      91.88305332      52.43319184      81.18478142
H      94.20174750      52.66184873      78.71868858
H      94.30001327      54.84070316      80.92399918
C      92.36115408      45.41096886      85.44800398
O      91.36904776      43.32093156      85.38753274
N      90.99866140      47.43486574      85.92799446
H      91.96998073      49.06192010      86.15098217
C      88.29824250      47.60872056      86.58183977
H      86.96031627      46.61661425      85.36863547
C      87.95053286      46.61094507      89.35406827
H      88.54390692      44.63807080      89.39375252
H      85.98710722      46.78291017      89.94744233
C      89.70041943      48.04713707      91.24190485
O      89.12027345      50.18630725      91.71244670
N      91.83581016      47.11739172      92.12062759
H      92.71831235      48.17374873      93.44343601
H      92.07580540      45.22388596      92.06960498
C      87.57258760      50.33370591      86.47034591
O      89.22042894      51.95887054      86.05838558
N      85.05358242      50.82692448      86.71223088
H      83.98777678      49.24333382      86.68766444
C      83.84415758      53.28545841      86.43066166
H      84.30525080      53.71442628      84.46912575
C      80.97555304      53.01522755      86.90498296
H      80.37462007      51.48832868      85.65776360
C      80.22911115      51.93997327      89.61107104
H      81.25901199      50.21843260      90.08539235
H      78.20710399      51.55824856      89.49768747
H      80.68453519      53.58781462      90.75624519
C      79.41274938      55.35848817      86.09618010
H      80.02502070      57.03845487      87.11663231
H      77.44176483      54.93896893      86.53081715
C      79.63762681      55.94619306      83.31072352
H      78.43009170      57.46364329      82.61530423
H      79.43164664      54.24543938      82.16743910
H      81.53113258      56.66050960      82.93466798
C      84.86649952      55.43785668      88.00669341
O      84.50556179      57.61104194      87.34528920
N      86.08915244      54.91062304      90.16287113
H      86.13261615      53.06625016      90.65042052
C      87.01700806      56.77200346      91.89197070
H      85.92285653      58.51433112      91.79748439
C      87.30046701      55.64005739      94.58672043
H      88.30580141      57.08191857      95.66197470
H      88.77256381      54.20008594      94.53380809
C      84.89862487      54.59503874      95.78858636
C      83.68353085      56.13894514      97.51579621
H      84.25422819      58.09103242      97.70665857
C      81.32893186      55.36415735      98.35861415
H      80.15541182      56.60192809      99.48111158
C      80.28391321      53.00955837      97.77090926
H      78.37528963      52.41240485      98.17342097
C      81.70498740      51.31636359      96.24778986
H      80.89807426      49.45498317      96.01913297
C      84.09927063      52.07981302      95.32182396
H      85.27657013      50.90062380      94.14641420
C      89.53601324      57.68852072      90.95277673
O      89.97254002      59.93540530      90.97356372
N      91.17440595      55.96131087      90.27814443
H      90.58481134      54.14906333      90.37263075
C      93.59136591      56.54145685      89.03470452
H      94.43229411      57.95308240      90.27814443
C      95.38471618      54.20575512      88.65864898
H      96.73020131      54.52700860      87.13175012
H      94.17907079      52.62405420      88.12763589
C      96.87571024      53.36482691      91.01513770
H      97.48420211      51.43163690      90.64664106
H      95.70030047      53.39317281      92.70644275
C      99.15094072      54.99377100      91.31938363
O     101.14838143      54.67818670      90.14964304
O      98.73142148      56.88727676      92.75935508
C      93.07358090      57.72253579      86.44577947
O      94.48520645      59.36848741      85.52737248
N      91.20653130      56.89672539      85.01525665
H      90.21442498      55.41140051      85.68233004
C      90.30135239      58.42929343      82.81750495
H      91.85659715      58.44819070      81.46824036
C      88.00911438      57.15750762      81.61185956
H      86.25544836      57.42962821      82.66254739
H      88.31902949      55.12227238      81.69500752
C      87.46298347      58.30079204      78.93978656
H      88.70075421      57.39372341      77.56595553
H      87.57636705      60.34169646      78.70546049
S      84.40729602      57.00821924      77.84563502
C      84.18052887      57.75655086      74.64632837
H      84.26367682      59.78422720      74.29861873
H      82.41552449      57.09514666      73.81484879
H      85.73577362      57.01955760      73.51060286
C      89.74955231      61.27522126      83.31450297
O      90.97409496      62.98542357      82.21090280
N      88.12438768      61.88182341      85.03793337
H      86.78646145      60.61192732      85.52737248
C      87.16062726      64.45941010      85.33651012
H      87.09826629      65.37970681      83.49591670
C      84.53012823      64.63137519      86.60073703
H      84.77579266      65.87292538      88.22590166
H      83.91974664      62.84558383      87.42843715
C      82.45142929      65.62348151      84.93777787
H      80.85839001      66.03733157      86.17554861
C      82.83693346      68.31634150      84.08362158
H      80.96232496      69.06467312      83.67355097
H      83.92730554      68.45051207      82.34129392
H      83.79313497      69.50686908      85.46690124
C      81.58971409      64.02288332      82.72868781
H      81.48199969      62.09347275      83.44867354
H      83.10338487      63.82824151      81.34351843
H      79.82093026      64.72208205      81.94067194
C      89.02389741      66.11103089      86.57806031
O      88.97665425      68.45051207      86.25491711
N      91.05157374      65.06979170      87.67977075
H      90.92685180      63.17817566      87.90464818
C      93.32869395      66.57590357      88.49235307
H      92.52556026      68.32956959      89.21422852
C      94.61370784      65.32868420      90.75624519
H      96.49398552      66.16772268      90.82427534
H      94.84614418      63.35203048      90.22712182
C      93.35515012      65.51954656      93.40753121
H      91.44085736      64.78444302      93.22611748
H      93.19452338      67.57178933      93.44721546
C      94.85937226      64.47641763      95.62229045
H      93.56679946      64.92239304      97.16430712
H      96.67917870      65.38726572      95.94165419
N      95.30912712      61.68340214      95.45221508
H      95.77966898      61.11270480      93.69287988
C      94.63449483      59.91839777      96.99045230
N      93.33058367      60.47775676      98.94064985
H      92.82224730      59.11337436     100.17275141
H      93.32869395      62.18795907      99.78724724
N      94.90472569      57.58269604      96.32904809
H      93.97875980      56.24476981      97.32682358
H      96.06312792      56.98932198      94.93254034
C      95.06535243      67.41872150      86.47034591
O      96.52233142      69.30655809      86.75002541
N      95.25810451      66.02221376      84.40865451
H      94.27355710      64.38949022      84.28204284
C      96.70941432      67.08612967      82.23168979
H      98.50276459      68.01020584      82.64553986
C      97.38782607      64.82601700      80.47991350
H      95.62660114      63.89438193      79.94890041
C      98.46685979      65.88804319      78.02137957
H      99.94273604      67.23730778      78.51081868
H      97.15161028      66.77621456      76.70613005
H      99.44006884      64.26854774      77.20312807
C      99.11314619      63.07802016      81.96712811
H      98.56890501      62.64905229      83.90598731
H     100.98775469      63.92839700      81.91421577
C      99.36825924      60.28122522      80.81817451
H     100.39249091      60.27744577      79.03238314
H      97.46908430      59.52344497      81.06761838
H     100.54555874      59.17384560      82.09751922
C      95.07669079      68.95317927      80.81250533
O      96.07068683      70.79755215      79.87142163
N      92.54256780      68.58468264      80.75581354
H      91.87738414      66.89337759      81.33973897
C      90.82669631      70.25709043      79.34796744
H      91.74132384      71.05266520      77.68311856
C      88.35115484      68.86247241      78.66766597
H      86.68630596      69.99441847      79.10419274
H      88.23777126      67.41872150      80.13031413
C      88.29068360      67.58879687      76.06740256
O      89.69097080      68.38815110      74.30050846
O      86.73543884      65.97875005      75.53072029
C      90.15773319      72.70428600      80.69912175
O      89.87238452      74.58645341      79.39899005
N      90.18985854      72.88569973      83.24458310
H      90.33914692      71.29643990      84.28771202
C      89.82325164      75.22518090      84.74124634
H      90.11237976      76.83711745      83.49213724
C      87.06992040      75.31399804      85.69744785
H      86.99244162      76.85601471      87.05805080
H      86.51245114      73.47340461      86.43633084
C      84.92130158      75.71650974      83.77370646
H      83.18464310      76.33822970      84.69022373
H      84.43753165      74.01197661      82.72112891
C      85.54491126      78.01819639      81.96145893
O      86.89417585      79.74540624      82.86852756
O      84.58115084      78.09378545      79.85063464
C      91.79423618      75.93382827      86.75758431
O      91.58258683      78.10134435      87.71756528
N      93.52711521      74.33323008      87.45678305
H      93.24365626      72.50208529      86.99380010
C      95.23164834      74.80944111      89.55437926
H      96.17462178      76.58956330      89.12541138
H      96.65272253      73.34112377      89.30115593
C      94.13749681      74.74330069      92.21700363
O      91.95297319      74.01197661      92.62896397
N      95.50754839      75.73540701      94.12562721
H      97.09113904      76.64436536      93.57193740
C      94.74409896      75.71650974      96.69943444
H      92.69374591      75.53887547      96.79392076
C      95.94596489      73.30710869      97.77468872
H      97.97553095      73.64725943      97.65941541
H      95.52644565      71.76698175      96.47644674
C      95.14094148      72.19217017     100.43164391
H      95.89494228      73.42049227     101.90374071
C      92.35548490      72.07122769     100.60549873
H      91.49754915      70.77676516      99.25245469
H      91.48621079      73.93827728     100.62439600
H      91.99643690      71.24541729     102.45932025
C      96.21808548      69.59379649     100.76801520
H      95.76077171      68.47507851      99.09938686
H      95.22408944      68.94373064     102.44987162
H      98.27410771      69.64292937     100.90218577
C      95.30345794      78.11268271      98.14129562
O      96.92862257      78.21094848      99.80803423
N      94.10537146      80.27641934      97.40241263
H      92.88838772      80.28208852      95.93031584
C      94.37938178      82.67826148      98.69687516
H      96.36170468      82.95794098      99.18064509
C      93.75955155      84.86656455      96.89785571
H      93.65372687      86.73361415      97.76146063
H      91.91706839      84.48861929      96.05503777
C      95.61904224      84.86089537      94.66041975
H      95.65116759      82.92203618      93.96311074
H      97.48987129      85.35978312      95.36339794
C      94.68362771      86.57865659      92.57794136
H      96.40327866      86.89046143      91.48945900
H      93.87482485      88.28130000      93.40942093
N      92.77500414      85.30120160      91.11151374
H      91.82636153      83.90658358      92.00724401
C      91.84147934      85.71694139      88.79092983
N      92.45753012      87.64824168      87.39442208
H      92.11171020      87.60666771      85.51981358
H      93.92962692      88.79341583      87.80449269
N      90.36182364      84.01429798      87.73079336
H      89.90262014      84.10500485      85.87886158
H      89.75522149      82.44771487      88.63786199
C      92.64083357      82.68015121     101.08737894
O      90.35804418      82.44393542     100.99667208
N      93.84458923      83.05242729     103.17363679
H      95.70596965      83.43037255     102.97899498
C      92.84492401      82.43070733     105.73799540
H      91.27456145      81.10600919     105.60004538
C      94.92362296      81.26852565     107.21765110
H      94.49276536      81.20049550     109.23209935
H      96.41083756      82.65180531     106.87561064
C      95.83636077      78.53598140     106.56380580
H      96.35414577      78.29598616     104.58715208
C      98.41772691      77.97284296     107.94330601
H      98.10214261      77.64781004     109.95019535
H      99.78588876      79.50163155     107.74866420
H      99.15094072      76.29665572     106.99844285
C      93.87671458      76.44216465     106.85293392
H      94.77433458      74.61101985     106.55435717
H      92.33658763      76.67082153     105.50366934
H      93.20586174      76.47429000     108.79935203
C      91.66573479      84.73428371     107.21954083
O      90.30702157      84.34688982     109.12816441
N      92.17407117      87.15313339     106.35971536
H      93.35892957      87.06809571     104.86872130
C      90.64717231      89.47560703     106.88316955
H      89.53034406      89.05608779     108.56124651
C      92.58603151      91.49950391     107.62016281
H      93.71608784      91.94736905     105.95909338
H      93.88427348      90.70959831     109.01100137
C      91.35581968      93.92402277     108.68407872
H      90.53567846      93.38923022     110.49821598
H      89.91962768      94.77439961     107.48032306
C      93.15861858      95.88177923     109.53634529
H      94.20930641      96.59042660     107.91307039
H      94.49087563      94.92746744     110.78356466
C      91.87171496      98.13055354     110.86104343
H      90.79646069      97.51261304     112.50510533
H      90.79457096      99.16801329     109.44752815
N      93.74254401     100.01461068     111.51110929
H      94.77055512     100.52672651     109.98610015
H      94.81590856      99.38911127     112.96052937
H      92.77689386     101.47914857     112.26133063
C      88.75555627      90.13701124     104.80636033
O      89.21853922      89.40757688     102.64073397
N      86.74299775      91.37667170     105.66429607
H      86.53890731      91.39178951     107.55969157
C      84.65296044      91.90201561     103.76134168
H      84.07281447      90.03685574     103.10371692
C      82.59504849      93.59332066     104.92730281
H      83.41896916      95.33375860     105.65673717
C      80.61461531      94.43424887     102.93175183
H      81.69742849      95.39422984     101.46721393
H      79.24267401      95.83831552     103.55347178
H      79.79258437      92.80719452     101.96988113
C      81.35727775      92.11366496     107.09103944
H      82.62528411      91.57887241     108.62360748
H      80.40863515      90.39590374     106.46931948
C      79.08393700      93.36844323     108.42140676
H      79.67920079      95.17124214     109.21887127
H      78.10694850      92.03429646     109.64972887
H      77.72522378      93.71993233     106.91340517
C      85.80569350      93.28529528     101.45776530
O      86.82425598      95.22982365     101.85838728
N      85.87750310      92.03051700      99.29591840
H      84.59059948      90.62645035      99.15607865
C      86.97354436      92.89979111      96.89029680
H      88.09415206      94.61755233      97.08682834
C      88.91807273      91.14045591      95.86039596
H      90.35426473      90.60755309      97.23611672
H      89.95742221      92.22326909      94.45066013
C      87.92785615      88.93325558      94.63963276
C      87.23999577      88.71782678      92.16976047
H      87.31369509      90.18803385      90.75624519
C      86.09293190      86.43692712      91.00946852
H      85.22743724      86.78652649      89.19533126
C      86.02679147      84.20138089      92.58172081
O      84.92130158      82.05843125      91.88630153
H      84.91752213      82.06221070      90.07216427
C      86.92441147      84.34877954      95.08749790
H      86.90740394      82.69148956      96.28180493
C      87.58014650      86.71660661      96.12495765
H      88.32280894      86.91502787      98.01657369
C      84.82681527      93.47048845      95.09127735
O      82.51379026      93.51395216      95.66953360
N      85.23310642      94.22826871      92.71400165
H      87.02267724      93.96370702      92.10362005
C      83.28668832      94.78573797      90.82616506
H      81.46121270      94.53629409      91.74457205
C      83.68920003      97.59387127      90.03625947
H      83.01834718      97.89622748      88.11440780
H      85.67530238      98.02472887      90.38018965
C      82.10938883      99.21525645      91.80315357
H      82.85016154      99.02250436      93.71555660
H      80.15163237      98.57463923      91.76157959
C      82.44576011     101.80040204      90.74868629
H      81.92608538     101.95535960      88.76258393
H      84.40918575     102.42590145      90.77136300
C      80.75823451     103.60131122      92.29826186
H      81.21176883     103.72036398      94.30515121
H      78.76646298     103.07029812      92.28125433
N      80.76579342     106.12031639      91.19844115
H      80.65052011     105.95402048      89.29926620
H      82.38339914     107.03116448      91.63874738
H      79.22944593     107.03872338      91.85984536
C      83.26401160      93.01317469      88.34306469
O      85.31814411      92.44625679      87.33773029
N      80.99067085      92.36688829      87.69488856
H      79.48833843      93.05096921      88.64920035
C      80.40863515      91.09888193      85.27603888
H      81.16830512      89.20537617      84.99635939
C      77.49845662      90.55086130      85.33462040
H      76.51390921      92.35932938      85.28359779
H      77.25657166      89.42269469      87.04293299
C      76.54414484      88.85199735      83.27481872
O      75.08905557      89.85922147      81.65343354
O      77.28491755      86.66180455      83.13875842
C      81.30436542      92.61255271      82.88553510
O      82.20765460      94.81219414      82.98191114
N      80.94153797      91.49005528      80.64242996
H      80.31792828      89.68725638      80.61219434
C      80.98500167      92.83743014      78.12720424
H      82.88417662      93.61032820      77.94201106
C      80.85650028      91.17825044      75.75181827
H      81.09838525      92.48972050      74.18334543
C      82.93519923      89.20726589      75.73670045
H      84.75122621      90.12189343      75.41166753
H      82.74055742      87.94303899      74.12287418
H      83.09015678      88.09421709      77.46580003
O      78.56426226      89.99906122      75.15844420
H      77.92364504      90.80219490      73.66178096
C      79.08582673      94.90668045      77.91933435
O      79.76234875      97.03451228      77.06139860
N      76.87862639      94.49849957      78.89443312
H      76.44398934      92.87900412      79.80339148
C      74.80181718      96.30318820      78.89821258
H      75.00968707      97.54851784      77.26926849
C      72.32627571      94.69503111      78.84530024
H      70.80504602      96.08020049      78.90199203
H      72.10517773      93.56497477      80.55361283
C      71.97289688      92.89979111      76.65510744
H      70.43465967      91.68847654      77.28816576
H      73.57538480      91.60721831      76.61731292
C      71.38141255      94.07331115      74.22113995
O      72.90642168      95.39045039      72.93045688
O      69.15153550      93.93725085      73.55595629
C      75.04181242      98.04551586      81.20745813
O      73.13507857      99.18502082      81.89720824
N      77.14129835      97.95669872      82.69089329
H      78.66441776      97.04585064      81.98602537
C      77.68553953      99.60076061      84.88297581
H      77.49845662     101.56040680      84.28204284
H      79.64896517      99.23982289      85.38753274
C      76.03202900      99.05840916      87.13741930
O      76.30981877     100.40389430      88.98557164
N      74.36340067      97.19702874      87.03537408
H      74.04403692      96.41090260      85.32517177
C      72.98767991      96.18602517      89.33328128
H      71.89541811      97.67512950      90.24412936
C      70.82583301      94.49283039      88.28259345
H      69.36507457      94.40590298      89.73201353
H      71.78203453      92.73538492      87.79693378
C      69.18744030      95.40556820      86.04137804
C      68.45233676      93.78040357      84.07984213
H      69.04571083      91.86044164      83.73213249
C      66.79315706      94.75172289      82.20334390
H      66.13931176      93.56686450      80.67644504
C      65.97301584      97.29340479      82.26381514
O      64.23068818      97.96047817      80.47991350
H      63.68266755      99.67445994      80.70857038
C      66.81583378      98.91667969      84.13842364
H      65.99947201     100.77050120      84.38786752
C      68.34273264      97.92079392      86.09240065
H      69.27247798      99.21525645      87.36607619
C      74.70355141      94.79896605      91.23056650
O      76.47611469      93.50261380      90.64286161
N      74.19899448      95.45281136      93.58138603
H      73.02547444      96.93813624      93.81382236
C      75.81660021      94.55708108      95.69410005
H      77.76490803      94.99549759      95.19143285
C      74.78669936      95.72493195      98.11672918
H      75.84494610      94.81597359      99.63039996
H      72.81949427      95.11455035      98.05814766
C      75.20432888      98.59353649      98.49845389
C      73.04248198     100.14500179      98.80458956
H      71.13574813      99.47225922      98.53624842
C      73.51113410     102.82085425      99.02946699
H      71.96344825     104.13799349      99.23355743
C      75.96399886     103.84319619      99.09182796
O      76.34950303     106.45857740      99.44520678
H      74.91142130     107.50548578      99.80614450
C      78.04080808     102.22748019      98.81970737
H      79.83415835     103.18935088      98.96710602
C      77.62317856      99.62343733      98.62317583
H      79.19354113      98.32141590      98.52679979
C      75.77124677      91.64690256      96.11172956
O      73.72467318      90.63589898      96.53313853
N      77.94821149      90.39023456      96.10795011
H      79.42597746      91.55052652      95.76968910
C      78.43765060      87.65580059      96.16086245
H      76.62918252      86.79030594      96.63329402
C      79.32204252      86.84510800      93.46422300
H      80.06470496      84.92325634      93.43209765
C      77.35483742      86.79975457      91.41198022
H      76.06982353      85.19726666      91.56315833
H      78.36584100      86.33677162      89.67721147
H      76.53847566      88.68948088      91.33450144
O      81.17208458      88.46649318      92.50613176
H      82.51379026      88.78963638      93.68343125
C      80.49556256      86.93014568      98.04302985
O      81.94120319      88.59499457      98.91608341
N      80.64485093      84.49995765      98.67986762
H      79.43920555      83.35478350      97.74067364
C      82.23789022      83.37368076     100.77746383
H      83.91785691      84.56420834     100.82848644
C      80.71099136      83.70249314     103.26623338
H      80.11950702      85.66969823     103.10560665
C      78.29970058      82.13779976     103.34182244
H      78.88173628      80.17815357     103.57236905
H      77.26979974      82.28141895     101.56358997
H      77.06948875      82.64424641     104.91596445
C      82.33048681      83.23384102     105.71153923
H      82.91063278      81.26096675     105.82681254
H      81.37995447      83.86500961     107.42930045
C      85.08759750      84.59066451     105.88350433
H      86.13450587      83.70816232     104.34337738
H      85.85860583      84.12012266     107.73543611
H      84.95720638      86.63534838     105.67752416
C      83.11283350      80.65058515     100.16897196
O      81.81081207      79.17848835      98.99923137
N      85.31058520      79.94949668     100.87006042
H      86.31025042      81.20427496     101.90563044
C      86.50111278      77.40403534     100.73966930
H      85.27845985      76.21728722     101.89807153
H      88.34737539      77.51363947     101.64295848
C      86.66173952      76.64436536      97.91452846
O      88.00911438      77.84434157      96.37440152
N      85.37861535      74.61479930      97.20021192
H      84.07848365      73.77954027      98.32270935
C      85.38428453      73.45072789      94.62262523
H      87.00755943      74.22362596      93.61918055
C      85.29735712      70.51598293      94.84561293
H      83.49266849      69.90560133      95.62418017
C      85.53924209      69.65237801      92.03747963
H      84.23155148      70.50842402      90.69577395
H      85.38050508      67.61147359      91.81827138
H      87.46487320      70.12858904      91.47812064
C      87.27590057      69.49364099      96.72211116
H      87.06236149      70.41204798      98.55325596
H      89.17129606      69.86780680      96.00023571
C      87.04724368      66.59102138      97.15485849
H      86.96976490      65.65560685      95.32182396
H      85.26145232      66.19228913      98.09972164
H      88.56280419      65.88804319      98.35861415
C      82.88795607      74.38803215      93.36973668
O      80.99822976      73.10868743      93.56626822
N      82.82181565      76.61224002      92.33227694
H      84.32981725      77.66103812      92.84817222
C      80.72610917      77.57033126      90.79403972
H      80.18942689      76.13413926      89.41831896
H      81.32326268      79.23706986      89.73957243
C      78.24300879      78.36401631      92.06015635
O      76.54036538      78.93660338      90.62774380
N      77.86128408      78.21850738      94.58861015
H      79.32582197      77.81032650      95.74512266
C      75.43109604      78.39614166      95.82827061
H      74.07616227      77.29443121      94.73411908
C      75.69187827      77.44938877      98.49656417
H      76.76335309      78.67015197      99.76268080
H      76.73500719      75.67682549      98.42664430
C      73.06515869      77.14703256      99.67008421
N      71.56093655      75.03431854      99.41686088
H      72.03147840      73.38647720      98.57782240
C      69.34428758      75.56533164     100.35605486
H      67.70022569      74.35968625     100.43920282
N      69.42176636      77.90103336     101.35005090
H      68.17265727      78.65692389     102.58026273
C      71.71211465      78.96872873     100.84360425
H      72.13352362      80.95672081     101.03446661
C      74.16875886      81.04742767      95.94354392
O      74.99645899      82.70660738      97.43075853
N      72.17887705      81.58788940      94.44688068
H      71.86896194      80.22350700      93.14863870
C      70.95244468      84.11067403      94.55081563
H      72.37540859      85.59221946      94.39018889
C      68.79248750      84.17492472      92.49668312
H      67.44322291      82.64802586      92.80659824
H      69.65042325      83.76296438      90.67120751
C      67.45645100      86.87723335      92.17542965
H      66.52103647      87.29864232      93.96311074
C      69.23090400      89.09199259      91.27025075
H      68.09139904      90.80786408      91.25891239
H      70.33072472      88.71026787      89.57138679
H      70.68599327      89.49261457      92.67242767
C      65.39664932      86.63345865      90.03814919
H      66.12230422      86.10622501      88.18243795
H      64.48202178      88.45893427      89.77358751
H      63.98313403      85.30309133      90.72223012
C      69.63719516      84.60200287      97.03769545
O      67.88163942      83.19037731      97.71043802
N      70.44221857      86.58999495      98.40585731
H      72.00313251      87.50273276      97.79169625
C      69.22334510      87.37990055     100.71888231
H      68.66398611      85.74150783     101.83382084
C      71.27936733      88.69326033     102.39695928
H      70.59906585      90.01984821     103.81803347
H      72.10328800      89.95370779     100.99289263
C      73.06326897      86.82621074     103.75378277
H      74.09505953      85.47505642     102.59160109
C      75.41408850      88.25673356     104.66841031
H      76.58949827      87.04730872     105.84948925
H      74.60717536      89.75528652     105.82681254
H      76.51768867      88.81042337     103.01867924
C      72.01447086      85.54119684     106.10649203
H      70.58016859      84.20705007     105.46587481
H      71.23590362      86.90557924     107.43874908
H      73.40152998      84.30909529     107.00033258
C      66.86496666      89.15624328     100.23133292
O      64.99224788      89.02396244     101.57492833
N      67.03126258      90.77573873      98.29625318
H      68.48257238      90.73227503      97.05659272
C      65.01492460      92.55208147      97.24745508
H      63.45967984      91.26706757      96.84494337
C      64.24391626      94.32464475      99.32426429