 %block lattice_cart
   139.898   0.000   0.000
   0.000 144.87   0.000
   0.000   0.000   168.12
 %endblock lattice_cart

 %block positions_abs
N      94.07230126      41.50773916      84.14787228
H      95.86754125      41.02774868      83.71512495
H      92.85909696      40.50618422      83.07072828
H      93.75104777      40.84444523      85.90909720
C      93.59042104      44.18926080      84.01559144
H      95.05684866      45.12845478      85.11919160
C      93.50727309      45.04908627      81.14320744
H      91.93313106      44.16658408      80.14921140
H      95.19857813      44.16280463      80.36652993
C      93.48081691      47.98194151      80.59707654
H      91.59675978      48.54696968      81.20934786
H      93.65467173      48.21437785      78.55995157
S      95.59353093      49.97371304      82.46601586
C      94.40489308      53.01806213      81.46068146
H      95.56518504      54.36732672      82.50003093
H      92.37343730      53.14089434      81.77248630
H      94.73370546      53.03695940      79.42733595
C      91.03362135      44.89034926      84.96801350
O      89.50105330      43.21794148      85.08328680
N      90.52339524      47.26195578      85.73335265
H      91.62699541      48.75861902      85.30816423
C      88.06297158      48.03296412      86.64231101
H      86.69858917      47.00873246      85.48768823
C      87.71526194      47.23549962      89.37296553
H      87.98360307      45.21538219      89.66587311
H      85.81230754      47.72493873      89.98901631
C      89.60120879      48.58476420      91.15686717
O      89.96781570      50.79196454      91.10584456
N      90.41190138      47.24116880      93.03147568
H      91.76494543      48.12367098      94.05003816
H      89.67301840      45.57820964      93.60973193
C      87.39967764      50.89967894      86.15098217
O      89.04751899      52.43413670      85.52359303
N      84.96004097      51.35888243      86.34940343
H      83.63345309      50.06064045      85.90153830
C      83.99817028      53.86465952      86.00169379
H      84.72382519      54.52606373      84.19133598
C      81.07287394      53.88544651      85.64453552
H      80.59099374      52.47193123      84.22535106
C      79.81431622      53.14089434      88.40731539
H      80.12234162      54.47315140      89.94933206
H      80.62500880      51.33053654      88.95911547
H      77.84522140      52.78562580      87.91598655
C      80.25651218      56.58208596      84.76203333
H      81.53207743      57.38521964      83.35796668
H      80.23194574      57.95780672      86.29460137
C      77.57876999      56.68413118      83.63197699
H      76.18604171      55.82241598      84.88297581
H      77.38223845      55.86398996      81.75358904
H      77.04208772      58.64188764      83.26914954
C      84.81453204      55.87721805      88.00291396
O      85.37389104      58.03339577      87.26403097
N      85.50428214      55.03062066      90.32349787
H      85.06397591      53.31096971      91.02458633
C      86.84220838      56.57452706      92.29448241
H      85.59687873      58.17512524      92.65919959
C      86.86866455      54.98715695      94.76624443
H      87.13889542      56.35909826      96.27991521
H      88.47493192      53.70025333      94.83805403
C      84.58020598      53.42624302      95.34261096
C      82.37489537      54.53740209      96.43109331
H      82.39568236      56.46492293      97.10383588
C      80.18848203      53.12010736      97.16997630
H      78.58032493      54.19536163      97.81815243
C      80.25651218      50.53685149      97.00368039
H      78.68237016      49.40490542      97.64240788
C      82.48449951      49.30286020      96.04936860
H      82.42402825      47.26384551      95.97377954
C      84.57642652      50.72015494      95.15552805
H      86.18836308      49.76017397      94.35050464
C      89.43680260      57.44569089      91.57260696
O      90.61032264      59.17668019      92.58550027
N      90.55174113      56.12855165      89.72823408
H      89.85443212      54.39567262      89.33706073
C      93.05373876      56.81641202      88.57550103
H      94.15733894      58.07874920      89.76980806
C      94.74693354      54.49393838      88.41676402
H      96.44579751      54.73204390      87.27725905
H      93.61876693      53.03506967      87.50024676
C      95.56140558      53.50750125      91.07182949
H      96.76327152      51.84832155      90.85829042
H      94.09686769      52.74783127      92.30393104
C      97.32263051      55.31407960      92.52313930
O      97.84041552      54.86243502      94.76057525
O      98.37142862      57.07530453      91.38174460
C      92.70035995      58.12410263      85.98279653
O      94.42001089      59.38643981      85.22312655
N      90.64622744      57.51372103      84.61274495
H      89.26483752      56.43657703      85.37241493
C      89.89222664      58.84408836      82.34129392
H      91.16968163      58.44346638      80.77660054
C      87.45447971      57.62521489      81.38698213
H      85.97482400      57.54584638      82.81939468
H      87.69069549      55.61643581      81.00336769
C      86.48882955      58.89700069      79.00214753
H      87.63589344      58.02583686      77.53194046
H      86.86677482      60.91522840      79.17600235
S      83.22716195      58.27906019      78.68845296
C      83.22905166      57.27939497      75.35686547
H      84.55186008      55.78462146      74.85230854
H      83.59754829      58.92912604      74.18145570
H      81.32420755      56.69546954      74.83530101
C      89.46703823      61.72592098      82.67199603
O      90.65756580      63.30573218      81.40209995
N      88.00816951      62.38921492      84.57872988
H      87.07086527      60.99648663      85.48768823
C      87.61699616      64.91388927      85.43477590
H      87.10865978      66.08740932      83.81905990
C      85.33420678      64.90822010      87.22056726
H      85.50617188      66.51637719      88.49424280
H      85.46459789      63.22258422      88.39786676
C      82.77362762      64.87987420      85.75413964
H      81.37145071      64.08051997      87.03537408
C      82.41457962      67.68800750      85.08139708
H      80.64390607      67.69934586      84.03070925
H      83.91691205      68.49114119      83.92488457
H      81.91002270      68.75381314      86.77270213
C      82.70559747      63.35675479      83.35418723
H      80.88768076      63.54761715      82.39987544
H      83.24039003      61.37443189      83.52615232
H      83.97360384      64.17689601      81.95390003
C      89.97537461      66.21591070      86.57806032
O      89.75805608      68.45712611      87.06938916
N      92.18635439      64.98191942      86.78215076
H      92.33186331      63.20557669      86.09995956
C      94.52961502      66.16299837      87.92543518
H      94.09497796      67.47824788      89.45044431
C      96.42878996      64.13910149      88.96289492
H      97.49081616      63.30006300      87.41331935
H      95.28172610      62.71613757      89.91342726
C      98.18245598      65.47135854      90.79214999
H      97.23759283      66.57117925      92.25668789
H      99.49581578      66.64676830      89.72634435
C     100.05139530      63.47958700      92.07716389
H     101.36286537      64.50192894      93.29225791
H     101.13042903      62.50637795      90.61640545
N      98.79283759      61.53694835      93.62296001
H      98.29206010      59.90044537      92.78203180
C      98.15033063      61.82418675      96.04180969
N      97.83285661      63.85186309      97.33627222
H      96.96358252      63.72336170      99.02946699
H      98.53016562      65.47135854      96.59927895
N      97.60419974      59.75682617      97.32871331
H      96.91255990      60.04784402      99.08426906
H      97.37743258      58.07874920      96.44621112
C      95.72392206      67.63887462      85.72957320
O      96.87287564      69.55505710      86.26814520
N      95.33274871      67.03038275      83.34284887
H      94.52772530      65.30506262      83.17844268
C      96.12454403      68.53460489      81.04494167
H      97.41333737      69.98024552      81.74791986
C      97.46435998      66.94912451      78.93978656
H      98.27505257      68.29838910      77.60752951
C      99.77927472      65.59419075      79.95456959
H     100.98492010      64.78160843      78.49570088
H      98.97236158      63.96335694      80.92021974
H     100.86775707      66.55606144      81.41721776
C      95.82407754      65.17656123      77.35430618
H      94.11387523      66.19512371      76.83085199
H      95.19290896      63.57974250      78.49381115
C      97.10153253      64.36586864      74.84285991
H      95.58408231      63.45691029      73.78650290
H      98.68323345      63.06951639      75.09608324
H      97.93112239      65.80772982      73.62965562
C      93.96836630      69.94056127      79.91110588
O      94.43512871      71.51281356      78.25948509
N      91.54384745      69.37553310      80.57062037
H      91.23393233      67.85997260      81.68555889
C      89.34420601      70.82117373      79.56717570
H      89.76939444      71.78682388      77.79650214
C      87.20692555      68.99380838      79.02860370
H      85.35499377      69.79505234      79.45190239
H      87.53384820      67.30439306      80.16243948
C      87.35999338      68.12831373      76.23180875
O      85.59687873      66.68456283      75.46080042
O      89.18168955      68.83696110      74.87120581
C      88.12155309      72.84507061      81.29249582
O      86.65323574      74.31905713      80.28338197
N      88.71870660      72.93577747      83.77937565
H      89.60309853      71.40509916      84.50125110
C      88.08564829      74.92565928      85.65587388
H      88.01572842      76.71334037      84.63731139
C      85.36444241      74.46267633      86.68199526
H      85.40223693      72.96412337      88.09740027
H      84.34399020      73.61040977      85.10785324
C      83.81864627      76.83239313      87.49835703
H      85.11310880      78.23268033      88.27692427
H      82.57331663      76.03492863      88.93265930
C      82.42402825      77.90575768      85.16265531
O      83.48794417      79.55170930      83.75858866
O      80.23572519      76.95144589      84.54093535
C      89.82230677      75.37163469      87.91220709
O      90.14922942      77.45789254      88.66809762
N      91.04873915      73.42143714      88.90431341
H      90.74260348      71.70556564      88.12574617
C      92.80996408      73.34962754      90.98301235
H      94.49937940      74.40409482      90.45388898
H      93.36743333      71.39942998      91.33450145
C      91.62132622      74.36063111      93.47367163
O      89.26861697      74.43244071      93.73067441
N      93.21247579      74.97668189      95.31048561
H      95.05684866      74.78392981      94.86639993
C      92.44524689      75.90264778      97.96933053
H      90.40812193      75.95178067      98.26790729
C      93.51294226      73.92410434      99.92330754
H      95.48581653      73.58206387      99.44331706
H      92.55485103      72.11941571      99.65685613
C      93.00271616      74.77448118     102.78624290
H      94.02316837      76.53759583     103.09804774
C      90.15678833      75.42076758     103.58937659
H      89.70703346      77.27080964     102.80325044
H      90.16623696      75.40187031     105.64728854
H      88.84531828      73.92788379     103.04513541
C      94.17245675      72.85640897     104.73833018
H      93.23326277      71.03849226     104.51345275
H      93.97970467      73.26647958     106.74710926
H      96.20202281      72.67877469     104.43219452
C      93.31830046      78.58794888      98.43609293
O      95.56896449      79.23045582      98.35483470
N      91.41345634      80.22634159      98.93687040
H      89.58420126      79.87485249      98.52113061
C      91.80273995      82.72644950     100.07070619
H      93.77939367      82.87951733     100.62628573
C      91.04306998      84.80703817      98.19798742
H      91.10732067      86.51157131      99.35449992
H      89.11176969      84.54058676      97.53091403
C      92.92712711      85.16608617      96.14007546
H      93.55073680      83.28391876      95.58449592
H      94.42756980      86.18275893      97.11895369
C      91.86699064      86.49456377      93.80059428
H      93.29751347      87.79091602      93.07871883
H      90.21914931      87.56981804      94.41097588
N      90.90134049      84.77680255      91.77858713
H      90.55552059      83.00234954      92.39085846
C      89.93946980      85.20199097      89.54304090
N      90.22859794      87.24478512      88.32983661
H      89.00594501      87.68320162      86.92954941
H      91.67612829      88.46176886      88.58117021
N      88.64500728      83.47856057      88.42810238
H      87.93069074      83.70154828      86.67254663
H      88.46926274      81.73434319      89.18210318
C      90.26261300      82.93053994     102.59160109
O      88.02895650      82.35228369     102.68230796
N      91.71581255      83.41242015     104.68730757
H      93.45436075      84.18342849     104.54557810
C      90.73315486      83.53336264     107.26489426
H      89.32341902      82.04236858     107.45197717
C      92.88366340      82.88140706     109.05068563
H      92.45280580      82.95510638     111.06513388
H      94.42945952      84.20610520     108.74266024
C      93.86821081      80.08272239     108.84659519
H      94.02694783      79.64430588     106.84159557
C      96.27383241      79.65186479     110.27144883
H      95.94879948      79.97689772     112.27833817
H      97.90466621      80.75924441     109.67429531
H      96.93901607      77.70166723     110.25066184
C      91.94635916      78.30071048     109.96342344
H      92.40934209      76.32783621     109.60626517
H      90.01316913      78.57094134     109.30390896
H      91.95958723      78.61818450     111.99865868
C      89.53695810      86.04858836     108.13227864
O      88.12911199      85.84071846     110.00877687
N      89.81852732      88.10272086     106.71309418
H      91.07141587      87.99122701     105.27879191
C      88.26139284      90.29858284     106.89072845
H      86.98393785      90.08315404     108.48943692
C      89.83364514      92.56247496     107.69197241
H      91.08842340      92.78357294     106.07058724
H      91.04873915      91.98610843     109.25099662
C      88.57697713      94.90762531     108.63116639
H      87.13889542      94.43141428     110.02956386
H      87.56408383      95.76178161     107.05324492
C      90.17757532      96.93152220     109.83681178
H      90.84464872      95.98287959     111.54134491
H      88.92090733      98.44708270     110.44530365
C      92.52461540      97.82536274     108.22865468
H      91.71014336      98.68518821     106.54112909
H      93.67923817      96.16807277     107.82614298
N      94.08174988      99.75477331     109.63272134
H      94.98692879      99.04801567     111.15584074
H      93.25027030     101.41017356     110.08058647
H      95.53305969     100.28767613     108.51211363
C      86.33765146      90.60849795     104.78179389
O      86.69480972      89.69576014     102.58026273
N      84.16635591      91.82926115     105.38461658
H      83.80541819      92.32625917     107.18930521
C      82.21804810      92.49066536     103.31536627
H      81.33743563      90.79747058     102.53868876
C      80.11478271      94.06102793     104.54557810
H      81.05586640      95.71075900     105.34115288
C      78.07198856      95.16840755     102.72199221
H      76.85878426      96.46287007     103.76323141
H      76.90980687      93.67363403     101.91318935
H      78.99606472      96.25877963     101.23855705
C      78.60300165      92.64751264     106.83970584
H      80.05053201      91.78201799     108.02456424
H      77.51829875      91.03179665     106.16318382
C      76.91547605      94.29157454     108.66707119
H      76.22383623      93.31458603     110.34136870
H      75.12401551      94.89628696     107.85448887
H      78.11545226      95.81091449     109.37193910
C      83.28196400      94.15551424     101.27824131
O      84.37044636      96.15106523     101.78657768
N      82.96637971      93.26734287      98.97277520
H      81.82498502      91.74611319      98.83293546
C      83.76951339      94.37094304      96.58416114
H      84.57075736      96.22287483      97.00179066
C      86.05797195      92.70042498      95.64685689
H      87.24472009      92.27901601      97.27769070
H      87.29385297      93.63394978      94.29003340
C      85.33987597      90.19275816      94.43176287
C      85.06775537      90.00945471      91.78992549
H      85.76506438      91.48722069      90.56538284
C      84.00761890      87.84571808      90.64097189
H      83.85077162      87.53391324      88.63030309
C      83.49361336      85.78780613      92.23968035
O      82.37300565      83.63351813      91.23434595
H      81.82498502      83.73745308      89.50902583
C      83.76384422      85.88040272      94.86073075
H      83.52195925      84.27413535      96.09283230
C      84.77106835      88.01390372      95.96244119
H      84.44981487      88.14429484      97.97310998
C      81.65868911      94.89628696      94.80781841
O      79.50818055      94.31803071      95.41253083
N      82.29552688      96.00555630      92.64030233
H      83.96604494      96.92585302      92.54959547
C      80.53052250      96.11138098      90.53325749
H      78.60489139      95.66540557      91.11529319
C      80.64201635      98.74376973      89.33706073
H      79.59321825      98.48487723      87.58339472
H      82.45993305      99.41273284      88.63219282
C      79.29653121     100.72609263      90.94899728
H      80.44737453     101.42151192      92.50991121
H      77.54664464      99.89461305      91.64819601
C      78.50662561     102.90305734      89.25391278
H      77.42003299     102.13015928      87.68355021
H      80.09399572     103.90272256      88.40731539
C      76.87579181     104.76632749      90.71278149
H      78.03608377     105.21986180      92.35306393
H      75.10322852     103.89138421      91.29292747
N      76.51296436     107.01510180      89.25202305
H      78.19860023     107.89382454      89.09328604
H      75.30920869     108.28877734      90.00791357
H      75.82888342     106.45385309      87.55882827
C      81.01429243      94.02512313      88.58683939
O      83.18747769      93.99677723      87.60229198
N      79.04330788      92.57948250      87.81583105
H      77.36334120      92.69286608      88.71345105
C      79.10755858      91.32470423      85.35162794
H      80.83098897      90.20976570      85.54060057
C      76.82854865      89.46332381      84.93777788
H      75.12212579      90.61227741      85.03982310
H      77.09500006      88.14051539      86.49302263
C      77.01374183      88.04035989      82.44711860
O      75.82699371      88.82081686      80.60841489
O      78.62567838      86.34338566      82.25814596
C      79.51762919      93.05002435      83.06127965
O      78.78819484      95.21565070      83.11419198
N      80.47761016      92.07681530      80.92210946
H      80.64957526      90.18519926      80.71990875
C      80.81965062      93.64339841      78.55617212
H      82.01773711      95.23454797      79.08340576
C      82.48072004      92.43208384      76.38109713
H      82.47694060      93.68119294      74.74270442
C      85.21137458      92.10894065      77.13887738
H      86.32820283      93.83615050      77.25793014
H      86.10143566      90.68030755      75.95590871
H      85.46459789      91.58737618      79.11364138
O      81.43192194      90.09449240      75.72725183
H      82.32387277      89.54080259      74.24759612
C      78.34977832      94.52401087      77.46202058
O      78.51229480      96.46287007      76.12031490
N      76.14824717      93.47710250      77.96657751
H      76.01596634      92.01823378      79.19112016
C      73.76152285      94.81880818      77.59808088
H      73.46483581      95.29123976      75.61386825
C      71.59400676      92.83081610      78.05917410
H      71.54676360      92.23366258      80.03015864
H      72.11746095      91.16974667      76.96124311
C      68.86146251      93.80024570      77.16911300
H      68.44005354      95.68619256      77.88531928
H      67.31566639      92.68341744      77.95145970
C      68.83122689      93.87016557      74.29294956
O      69.63247085      95.62005213      73.00037676
O      68.24919119      91.72721593      73.29328434
C      73.27208372      97.18852497      79.17222290
O      71.85478900      98.84959440      78.44089881
N      74.44560376      97.30379828      81.34918761
H      75.64180053      95.86193710      81.72146369
C      74.09222494      99.10470746      83.48457834
H      72.71650418     100.57302480      83.04049266
H      75.87801631     100.02311444      83.93811266
C      72.78642407      98.22598472      85.89586912
O      72.72217337      99.87004661      87.61174061
N      72.21005754      95.88272409      86.30216027
H      72.68248912      94.76211639      84.83195320
C      70.85134432      94.84904380      88.42621265
H      69.43027014      96.22665428      89.00068945
C      69.62491195      92.44720166      87.59473307
H      68.34178778      91.66296524      89.00446890
H      71.22551012      91.29257888      87.00324874
C      67.90904045      92.63050511      85.30438478
C      67.21551089      90.53290890      83.98346609
H      68.10746171      88.75656617      84.45022849
C      65.32956404      90.41196642      82.10507813
H      64.70973380      88.59782916      81.41154858
C      64.03510151      92.57948250      81.54004997
O      62.31545056      92.66640991      79.59930104
H      61.32712370      94.18952932      79.55205788
C      64.61902693      94.76967529      82.90632209
H      63.68739187      96.53845912      82.49625148
C      66.64859300      94.86794106      84.67699565
H      66.93583140      96.59893036      85.71823484
C      72.53886991      94.41251702      90.77703218
O      74.42481678      92.97254557      90.72600957
N      71.92659860      95.35926990      93.00124005
H      70.40347919      96.51011323      93.05982157
C      73.39491594      94.88494860      95.42575891
H      75.34511349      95.34415209      94.95899651
C      72.42359662      96.63672489      97.51768594
H      73.07744192      95.94508506      99.34505129
H      70.36946410      96.70286531      97.37028729
C      73.39869538      99.21242186      97.29469824
C      71.85667871     101.31190779      97.06604135
H      69.85167910     100.96419815      96.91297352
C      72.83933640     103.74209583      97.03958519
H      71.62424239     105.35970155      96.76557487
C      75.47361488     104.16161507      96.94320914
O      76.48650818     106.55589831      96.55770498
H      75.45660735     108.02799511      96.80714885
C      77.10633842     102.10370311      96.94698860
H      79.13212502     102.33424972      96.90541462
C      76.15013691      99.59603630      97.23800645
H      77.43704052      98.01622510      97.36083866
C      73.44593854      92.15429408      96.17975971
O      71.41637249      91.19242338      96.66541938
N      75.66825669      91.06014254      96.87706872
H      77.18003774      92.17319134      96.53124881
C      75.93281838      88.30681130      96.70699335
H      74.22072633      87.42997829      97.44587634
C      76.65280409      87.60383311      93.90452923
H      78.53119205      88.40885652      93.63996755
C      76.65091438      84.70121350      93.55870932
H      78.15324680      84.01902230      94.79081087
H      77.07043362      84.29870179      91.58394532
H      74.78575450      83.92453598      93.97066965
O      74.72906271      88.51090175      92.23401117
H      74.59300242      90.31936983      92.29826187
C      78.20048994      87.48478036      98.29247373
O      79.87667719      88.92097236      98.85939162
N      78.20615912      85.19443207      99.50000884
H      76.68303972      84.04736819      99.55292118
C      80.37745466      84.27980453     101.04769470
H      82.10466451      85.19065261     100.39384939
C      79.67636620      84.99034162     103.67819372
H      79.20771408      86.99534124     103.61772248
C      77.23106036      83.80548323     104.76667608
H      75.69282313      84.05303737     103.41552177
H      76.60367121      84.75979501     106.48065785
H      77.60333643      81.81182197     105.12761380
C      81.81742611      84.66341897     105.50933852
H      83.55030515      85.38151497     104.65707195
H      81.92136107      82.63196319     105.83059199
C      81.38467879      85.80481366     108.03212315
H      79.90691281      84.90152449     109.14517195
H      81.12011710      87.84571808     107.96787245
H      83.25172839      85.68387118     108.89572807
C      80.81587117      81.46600205     100.90407550
O      79.15480174      79.93721346     100.26723773
N      83.12700645      80.71578070     101.59193587
H      84.53296282      82.00079460     101.49367011
C      83.90935315      78.11740702     101.78468796
H      82.27473989      77.03081439     102.41018737
H      85.52506913      78.03803852     103.06025322
C      84.40824088      76.83617258      99.13151221
O      85.63467327      78.02481043      97.53280375
N      83.38022978      74.57039073      98.60616830
H      82.49583785      73.58206387      99.97810960
C      83.08354274      73.69355772      95.90008022
H      84.61422106      74.38330783      94.70577319
C      83.48794417      70.84196072      95.72055622
H      81.99506038      69.93111264      96.80714885
C      83.44259074      70.18055651      92.97667361
H      81.64924047      70.46968463      92.00535429
H      83.76951339      68.14721100      92.99557088
H      85.05830674      70.85518880      91.89008098
C      85.93702948      69.97268661      97.30603660
H      85.75183630      70.39409558      99.31292594
H      87.68691605      70.83818127      96.64841184
C      86.35465899      67.19478893      97.17186603
H      88.07242020      66.54661281      98.10917028
H      86.57386725      66.28205113      95.33883150
H      84.74839163      66.26126414      98.06192712
C      80.65146498      74.82928324      94.74167799
O      78.74095167      73.50269537      94.34105601
N      80.72138485      77.29159662      94.20121626
H      82.35788784      78.23079060      94.48278548
C      78.67859071      78.36874062      92.66297904
H      78.56142768      77.19333086      90.97545345
H      78.78252566      80.38129915      92.23023172
C      76.03297387      78.33283582      93.71366687
O      74.29820512      78.71645026      92.34361530
N      75.70983066      78.25346732      96.16653163
H      77.20649391      78.35929199      97.34761057
C      73.09822891      78.41220433      97.24745508
H      71.67526499      77.15364660      96.45377003
C      73.40814403      77.29915553      99.79291642
H      74.36623527      78.64086121     101.02690771
H      74.55331817      75.60407103      99.56048009
C      70.94394091      76.73223764     101.14973992
N      69.67971400      74.54015511     101.00990017
H      70.21450656      72.88664459     100.22377402
C      67.66337602      74.51936812     102.59538055
H      66.21206623      73.10774257     102.85805250
N      67.53865409      76.92121027     103.53835398
H      65.98529906      77.47112062     104.50211440
C      69.57388933      78.32905637     102.69931549
H      70.28820587      80.08650184     103.45142657
C      72.17226301      81.18821228      97.36650784
O      73.17192823      82.78881047      98.72711078
N      70.46961960      81.67009249      95.54481167
H      70.15781477      80.23767995      94.32215875
C      69.19027489      84.05492710      95.38040548
H      70.54142920      85.60828213      95.33316232
C      67.59345615      84.02469148      92.89919483
H      65.90404083      82.90975295      93.28658873
H      68.59123164      82.93431940      91.46489256
C      66.66937999      86.51724048      91.79370494
H      68.19816857      87.89674069      91.85606591
C      65.83034151      86.07126508      89.11407303
H      65.02153864      87.80036465      88.33928524
H      64.57367351      84.44610045      88.96856410
H      67.47251368      85.59694377      87.96700916
C      64.17116180      87.34683034      93.01635786
H      64.55666597      88.13484621      94.87773828
H      62.88614791      85.73867324      93.13919008
H      63.18472466      88.87939838      92.05259745
C      67.86179730      84.55003539      97.93909491
O      67.24952597      82.95510638      99.44331706
N      67.65959657      87.02368714      98.34349634
H      68.51375287      88.07815442      96.99990093
C      66.32733952      88.04602907     100.63384463
H      65.52798530      86.47944596     101.70720918
C      68.37391313      89.20443130     102.32892914
H      67.57644862      90.20976570     103.93897595
H      69.28287148      90.51401164     101.02123853
C      70.61701826      87.60194339     103.51000808
H      71.41259303      86.42653362     102.01901402
C      72.71461447      89.27624090     104.69108703
H      71.86234789      90.21732461     106.31436193
H      73.59333720      90.41007669     103.21332105
H      74.18293181      88.02524208     105.40918303
C      69.67782428      85.45143484     105.34682206
H      68.25486036      84.34027577     104.35471574
H      68.72351249      86.24323017     106.99088395
H      71.37668823      84.41775455     105.87972488
C      64.20517688      89.91874785      99.91574863
O      62.18127999      89.73544440     101.08170977
N      64.60957830      91.78768717      98.37940114
H      66.42560529      92.05980776      97.86161613
C      62.64426295      93.53379429      97.60650308
H      60.86225102      92.50200372      97.59516472
C      62.16427246      95.60871378      99.60583352