 %block lattice_cart
   139.898   0.000   0.000
   0.000 144.87   0.000
   0.000   0.000   168.12
 %endblock lattice_cart

 %block positions_abs
N      92.56335479      44.05697996      85.49902658
H      91.57691765      42.45827150      85.17021422
H      92.28178557      44.45571221      87.34528919
H      94.45875028      43.97194228      85.27603889
C      91.38983475      46.10733301      84.20834351
H      92.19863761      47.77029216      85.11541214
C      92.12682801      46.13567890      81.43989446
H      91.35770940      44.50106564      80.45156760
H      94.11670982      46.22071659      80.91455056
C      91.28212035      48.48271898      80.24558744
H      89.23743648      48.70381696      80.14921139
H      91.72620603      48.17091414      78.25759535
S      92.64272329      51.30030092      81.43422530
C      91.74699302      53.52639851      79.10041329
H      92.31958009      52.82719978      77.24848151
H      92.56713424      55.36321249      79.54449897
H      89.68908107      53.55285468      79.16088453
C      88.59303981      46.20748850      84.57495042
O      87.29857728      44.30453411      84.39542642
N      87.64439720      48.50350597      85.19289093
H      88.88216793      49.93780825      85.43855534
C      85.03657488      49.08932113      85.62941770
H      83.88195211      47.94603671      84.36519080
C      84.45642891      48.24650320      88.42243319
H      85.23121669      46.37567415      88.79281955
H      82.41174504      48.45437309      88.57361131
C      85.70175855      49.93024934      90.40475609
O      86.97543408      51.88611607      90.03248002
N      84.96098583      49.35766227      92.74801672
H      85.83970857      50.23260555      94.19932653
H      83.42085889      48.24839292      92.94265853
C      84.31658916      51.79540921      84.98313131
O      85.89073118      53.42813275      84.32928601
N      81.81459152      52.27917915      85.22123683
H      80.71477081      50.72204467      85.30060532
C      80.64863039      54.83219940      85.20233955
H      81.12106196      55.48793443      83.30883379
C      77.66664226      54.71881582      85.33084095
H      76.89185448      53.39789712      83.95134074
C      76.75012500      53.66245881      87.99535504
H      74.70166168      53.61899510      88.18621740
H      77.25657165      55.00038504      89.47879020
H      77.52869224      51.79540921      88.39408730
C      76.09061052      57.33041758      85.09651489
H      76.60461608      58.81385274      86.42877194
H      74.07805200      57.02239219      85.42343754
C      76.36084138      58.38299514      82.32050693
H      78.31103894      59.00660482      82.08240141
H      74.90197267      59.76816453      81.87642125
H      76.09816942      56.89200108      80.92210945
C      81.98844634      56.89767026      86.74435623
O      81.63128807      59.16345211      86.23601985
N      83.42085889      56.29484756      88.75880448
H      83.95376171      54.49015893      89.06494014
C      84.83626389      58.08252865      90.40475609
H      83.70053838      59.75304671      90.80915753
C      84.90051459      56.89955998      93.05037293
H      86.19119766      58.06363139      94.15208338
H      86.05702709      55.20447548      92.84628249
C      82.52701834      56.56129897      94.66419921
C      82.40985531      57.48537514      97.23233726
H      84.01990213      58.50771707      97.95799218
C      80.39351733      56.95058259      98.85939163
H      80.21021388      57.72726011     100.73777958
C      78.43009169      55.15912205      98.06192712
H      76.86350858      54.77550761      99.31481566
C      78.70977119      54.19914108      95.59205483
H      77.32838125      52.86310458      94.90986362
C      80.64107148      54.91534735      93.89886006
H      80.57304133      54.28606849      91.95811113
C      87.41574031      58.81574246      89.24824360
O      88.05257808      61.08530377      88.93832847
N      88.93508027      56.83530929      88.59061884
H      88.52311993      55.00416449      88.94210793
C      91.33503269      57.10931960      87.36796591
H      92.46697875      58.55118078      88.31471880
C      92.75421715      54.48071030      87.45111388
H      94.31513108      54.15189792      86.14720271
H      91.40306283      52.94436281      87.22056726
C      94.13182763      54.27284041      90.06082591
H      94.91417432      52.37177574      90.21389374
H      92.75610687      54.21047944      91.59339395
C      96.15383478      56.28350920      90.50869104
O      95.99509777      57.54206693      92.39652763
O      98.04923028      56.46870238      88.97423328
C      91.27456144      58.13166154      84.66187783
O      93.07547062      59.27872541      83.75102976
N      89.22609812      57.90678411      83.40520983
H      87.85604654      56.91089834      84.28204284
C      88.39461854      59.10298086      81.00336769
H      89.54735159      58.64377737      79.35930579
C      85.67719210      58.03906495      80.38353747
H      84.19375695      58.22047868      81.80083219
H      86.02112229      56.00760916      80.39676554
C      84.69075497      58.53795270      77.74925898
H      86.05702709      57.64411215      76.49448071
H      84.68886524      60.58641602      77.51871237
S      81.38751337      57.68568613      77.17478218
C      81.76734836      56.66145447      73.86587140
H      82.10371965      58.16567661      72.49959929
H      79.98722618      55.72603994      73.42745491
H      83.48510958      55.53139813      73.76571592
C      88.47209732      61.96402650      81.41721775
O      89.90639959      63.35675479      80.19834429
N      86.93952928      62.82574170      83.19922967
H      85.99844558      61.45569012      84.13653392
C      86.36883193      65.52238115      83.82661880
H      85.88506200      66.45401622      82.05405552
C      84.10682954      65.78883256      85.83350814
H      84.64162208      67.13242797      87.29993577
H      84.05202748      63.99926174      86.85018091
C      81.40074146      66.53149500      84.63542166
H      79.99289535      66.67322447      86.13019517
C      81.35538803      69.19222965      83.35418723
H      82.35505325      69.25081116      81.55327804
H      82.34371489      70.44700792      84.65620866
H      79.42786719      69.88197975      83.14064815
C      80.48044474      64.72869610      82.74569535
H      78.63418214      65.55450650      82.35830146
H      80.26123649      62.86731568      83.60174138
H      81.56892710      64.82318241      80.99958824
C      88.81791724      66.84707929      84.52581754
O      89.12783235      69.06939744      83.85874415
N      90.82291685      65.57907294      85.39320191
H      90.58292161      63.73658978      85.82783896
C      93.30601723      66.72046763      86.07539311
H      92.94130005      68.01493016      87.63630704
C      95.08991887      64.49625976      86.83128364
H      95.08991887      63.01282460      85.40265055
H      94.45308110      63.60619867      88.57739075
C      97.72986653      65.38254140      87.50591594
H      97.59191651      66.69401146      89.09139631
H      98.43662417      66.29527921      85.80327252
C      99.74053533      63.33785753      88.36007222
H     101.75309385      63.75359732      88.22023248
H      99.57423941      61.84686347      86.94466721
N      99.07157221      62.09063816      90.73923765
H      98.21174674      60.38988448      90.66742806
C      99.81045520      62.75015265      93.01446814
N     101.25798555      64.69279130      93.75713058
H     101.92694867      64.65688650      95.54481166
H     102.13481856      65.70190515      92.39652763
N      99.17361743      61.13821610      94.72844991
H      99.90494151      61.48403602      96.45754947
H      98.20607756      59.56785354      94.23901079
C      94.44552220      68.32484527      83.81717018
O      95.69463129      70.24480720      84.38219833
N      93.87671458      67.71824312      81.41910748
H      92.66162056      66.25370523      81.24714239
C      94.83291609      69.14309676      79.23458387
H      96.34280741      70.43000038      79.79016339
C      96.12170944      67.26092936      77.34674727
H      97.23286851      68.46468502      76.09952791
C      98.16450358      65.43923319      78.47491388
H      99.44006884      66.48047239      79.71079489
H      99.05834413      64.41122208      76.93289721
H      97.18940480      64.12776313      79.72969215
C      94.16584270      65.70379487      75.89354774
H      92.56335479      66.96046287      75.59686070
H      93.56490973      64.08240970      77.01226571
C      95.04645516      64.98947833      73.31596104
H      96.85681297      64.00682065      73.37265283
H      95.18251546      66.72991626      72.22369924
H      93.60459399      63.89910625      72.32952391
C      92.77500414      70.89676278      78.05917410
O      93.53467411      72.57106030      76.76282185
N      90.35237500      70.80605592      78.83774134
H      89.96687083      69.42844544      80.09818879
C      88.30769113      72.31594724      77.74736925
H      88.83870423      72.89420350      75.84441485
C      85.99466612      70.60574493      77.63776513
H      84.34115560      71.83595676      77.63398568
H      85.93797434      69.61174889      79.44245376
C      86.03246065      68.74814396      75.30962231
O      84.64540154      66.89621218      75.29072505
O      87.00755943      69.44923243      73.26682816
C      87.76722941      74.64786951      79.26292976
O      86.74488747      76.52436774      78.19145493
N      88.13194658      74.37763865      81.80461164
H      88.71587202      72.64098017      82.33373502
C      87.17763480      76.10106905      83.66788179
H      87.49699854      77.97378782      82.86852756
C      84.38650903      75.80816147      84.19511544
H      84.24477956      73.88819954      84.92643951
H      83.45487396      76.02359027      82.36963981
C      83.20920954      77.66576244      86.10940818
H      84.38650903      77.66009326      87.80071324
H      81.37806474      76.87207738      86.61585485
C      82.98244238      80.50224163      85.29304642
O      81.31759350      81.96111035      86.27570411
O      84.55847413      81.48867877      83.85874415
C      88.92752136      76.23523962      85.92988418
O      89.42451938      78.31582829      86.91254188
N      90.23710170      74.21890164      86.61585485
H      89.80435437      72.57483975      85.74469102
C      91.83203071      73.98835503      88.84573190
H      93.02444801      75.66265254      88.94966684
H      92.89405689      72.24413764      88.57550102
C      90.29379349      74.02237010      91.38363433
O      87.97698903      74.02992901      91.15875689
N      91.55046149      74.04882627      93.52847370
H      93.45530561      74.15843040      93.47367164
C      90.36938254      74.40787427      95.94354393
H      88.33603703      74.44188935      95.61473154
C      90.66606957      72.04382665      97.74445309
H      92.57847260      71.29171558      97.88618257
H      89.51900570      70.53015588      96.95076805
C      89.89695096      72.44633836     100.50534324
H      90.67740793      74.15087149     101.36138926
C      87.03968478      72.64098017     100.50723297
H      86.24599972      74.19622493      99.41497116
H      86.52945867      73.24947204     102.40829763
H      86.21576410      70.81172510     100.03102193
C      90.64717231      70.27126337     102.15507431
H      92.65784110      70.54338396     102.51412231
H      90.47709694      68.52704599     101.07226114
H      89.63427900      70.36385996     103.94842458
C      91.42384982      76.92309999      97.16619685
O      93.71041866      77.47678980      96.98289340
N      89.77222902      78.24212896      98.52491007
H      87.96187122      77.65442408      98.67797789
C      90.18229963      80.76869304      99.64740749
H      92.14005609      80.94254786     100.25967882
C      89.67396326      82.97778310      97.64240788
H      89.12027345      84.59349910      98.79325121
H      88.03368082      82.21055422      96.66163993
C      91.97376018      83.61651060      96.16275217
H      92.62760548      81.80237333      95.44465617
H      93.37782683      84.44421072      97.42319962
C      91.49943887      85.38718415      94.02547171
H      93.34948094      85.89929998      93.27336064
H      90.39961816      87.02935632      94.60372797
N      89.99710646      84.07382436      91.95622140
H      89.28845909      82.33905561      92.31148995
C      89.11082481      84.93364984      89.87563273
N      89.75333176      87.08793783      88.92132095
H      89.26767210      87.55281051      87.13552957
H      90.95519770      88.18964827      89.91153753
N      87.84470819      83.33872083      88.49235307
H      86.79591008      83.77713733      86.96167476
H      87.75400132      81.51513494      89.04793260
C      88.61760625      81.14474858     102.09082362
O      86.45575935      80.40208614     102.13428733
N      89.81380300      82.03858912     104.17708147
H      91.47298271      82.97589338     104.06936706
C      88.57036309      82.20677477     106.60915923
H      86.86394023      81.06349035     106.43530442
C      90.36938254      81.02002664     108.61415885
H      89.73632422      81.53025275     110.50766461
H      92.02100334      82.25212820     108.58959241
C      90.77000452      78.10417894     108.57069515
H      91.28023062      77.37285486     110.43018584
C      88.49855349      76.59617734     107.78456900
H      86.81669707      77.54859940     108.49888554
H      88.74988709      74.70645103     108.56502597
H      88.64973159      76.29571086     105.75122348
C      93.00744047      77.25002265     106.85104420
H      93.34948094      75.25258193     107.22709973
H      94.77055512      78.27614403     107.12505452
H      92.62571576      77.44466446     104.83470623
C      87.42329922      84.69554432     107.50488950
O      85.83970857      84.69554432     109.25288634
N      88.04123972      86.92542137     106.28979548
H      89.32058444      86.70621312     104.88950829
C      86.78268200      89.46521353     106.54301881
H      85.81892158      89.34238132     108.35904580
C      89.11838372      91.38706519     106.57514416
H      90.26544759      91.10927543     104.88761856
H      90.32024966      90.97132541     108.19652933
C      88.15651303      94.26511837     106.47687839
H      86.60315800      94.78857256     107.72220803
H      87.65951501      94.71109378     104.52857056
C      90.47331749      95.99421795     107.16095931
H      91.89439167      95.47076376     105.76634130
H      91.19330321      95.40651306     108.99777330
C      89.75144204      98.85148413     107.07592164
H      88.00155547      99.02155950     108.14739645
H      89.55868995      99.25588556     105.06525283
N      91.90573003     100.37271381     107.94897518
H      92.58414178     101.35915095     106.46176057
H      93.40617272      99.33714379     108.51400335
H      91.27834090     101.23631874     109.53067612
C      84.80413855      89.87339442     104.43975342
O      85.18586326      89.07404019     102.30625242
N      82.85772045      91.49288987     104.78368362
H      82.33804571      92.08437420     106.52223182
C      81.10783388      92.31681054     102.87506004
H      80.30847965      90.65574111     101.95476333
C      78.99700959      94.14039643     103.94653485
H      80.08738167      95.56336035     104.96320762
C      77.60239157      95.61249323     101.90563043
H      76.66697704      94.27267727     100.65085217
H      78.74378626      96.89561740     100.76990492
H      76.19454547      96.84648451     102.76167645
C      77.11484218      92.74577841     105.73799540
H      78.02946972      91.61005290     107.18930522
H      76.26257561      91.30580696     104.53990891
C      74.95299528      94.46353963     106.82080858
H      73.66987111      94.79613146     105.24288710
H      75.70888580      96.33058923     107.26111481
H      73.94199170      93.61883197     108.40061977
C      82.54213615      93.70386965     100.74911794
O      84.45453918      95.05502397     101.22532897
N      81.70309767      93.30513740      98.36995251
H      80.22722142      92.19586806      97.88051339
C      83.13173076      94.11205054      96.04747887
H      84.04446857      95.89784190      96.51991044
C      85.02712625      92.12972764      95.33694177
H      86.19875657      91.91996801      97.01690847
H      86.41607509      92.95742776      94.05948679
C      84.04068912      89.62773000      94.29003339
C      83.30558558      89.37261694      91.66520354
H      83.16196638      90.88817745      90.30649033
C      82.40607586      87.07282002      90.75813491
H      81.74467165      86.84794259      88.84006272
C      82.72921906      84.84672243      92.33605639
O      82.02813059      82.54692550      91.26458157
H      81.64073670      82.54692550      89.49201829
C      83.19031228      85.08860739      94.96277596
H      82.82559510      83.44832495      96.11928846
C      83.70053838      87.47911118      95.94543364
H      84.01801240      87.67186326      97.95232300
C      81.11161333      94.80935955      94.04814842
O      79.15385687      93.64339841      94.06137651
N      81.90340866      96.33814813      92.06015634
H      83.65896440      97.07325167      92.18865773
C      80.36517144      96.82947698      89.64130667
H      78.34316428      97.12427428      89.90397862
C      81.11350306      99.43729929      88.32605716
H      80.68642491      99.40706367      86.31349864
H      83.13928967      99.80201647      88.36007222
C      79.80014327     101.72953731      89.66398338
H      80.88295645     102.33047027      91.30993500
H      77.97844711     101.11159680      90.39908691
C      79.40519047     104.09736438      88.07661328
H      78.30536976     103.52288758      86.43444111
H      81.15129758     104.97041793      87.41898853
C      77.62128883     105.86614820      89.33706073
H      78.44143005     106.32535170      91.17198498
H      75.89218926     104.78900421      89.64319640
N      77.13940862     108.12437115      87.99346533
H      76.07738243     108.00909784      86.41365412
H      78.71166091     109.05789595      87.44166524
H      76.17753793     109.47930492      88.92887984
C      80.82626466      94.79613146      87.55315909
O      83.05236226      94.12527862      87.00702818
N      78.79291915      93.88906283      86.37019043
H      77.10728327      94.48999580      87.02970491
C      79.00267877      92.23177286      84.20267433
H      80.68642491      91.05447336      84.34062436
C      76.68020513      90.44409176      84.35196271
H      74.96811309      91.30769669      85.10785325
H      77.35294770      89.04191484      85.70122731
C      76.03391873      89.09104772      81.81217055
O      74.00813212      89.81481290      80.68400395
O      77.64585527      87.73800368      80.70290121
C      78.94787670      93.69820048      81.82917808
O      78.55103418      96.10760152      81.92555413
N      79.47133089      92.71554279      79.62197776
H      80.24422895      90.97132541      79.58040377
C      79.55447885      93.98921833      77.24281233
H      81.05870100      95.39706443      77.29005548
C      80.01746180      92.15996326      75.03750172
H      78.39040744      90.90329526      74.90711060
C      80.86027973      93.55458128      72.70746917
H      79.13495961      94.17630123      71.76449575
H      82.05080731      92.30736191      71.58119229
H      82.09805047      95.04935479      73.40099874
O      82.29647173      90.86739046      75.59875043
H      82.50245190      89.68064233      74.24381666
C      76.96933325      95.43296923      76.81195472
O      76.88996475      97.19797361      75.27938668
N      74.73189730      94.72054241      78.04027684
H      74.72622812      93.21820999      79.21757632
C      72.10895718      96.03390220      77.78327405
H      71.75746808      96.92018384      75.95779844
C      69.99624316      94.02890258      78.28405152
H      69.34428758      93.87772448      80.23235935
H      70.48757200      92.07492557      77.84941448
C      67.58873184      94.52590060      76.66644580
H      67.04449066      96.49121597      76.95746365
H      66.11852476      93.15206957      77.10297259
C      68.02903807      94.28212591      73.84130496
O      68.01958944      96.29846388      72.50148900
O      68.37107853      92.08437420      73.04761991
C      71.81793932      98.14472649      79.75992777
O      70.02647878      99.64138973      79.84874491
N      73.85506429      98.44897243      81.19611977
H      75.32905081      97.38127706      80.62353271
C      74.16875886     100.36515491      83.31639270
H      73.73412181     102.32291137      82.84207140
H      76.17375848     100.31413230      83.77937565
C      72.57005040      99.84548017      85.68799922
O      72.64563945     101.43662973      87.41520907
N      71.32661048      97.71008944      85.80705197
H      71.33794884      96.58003310      84.27070448
C      69.96033836      96.79735163      88.09740027
H      68.89264299      98.39228064      88.84384216
C      68.04226615      94.91518422      87.20922891
H      67.38086194      94.12149917      88.99124081
H      69.18177112      93.39017509      86.42499249
C      66.14687066      95.81280422      85.17588339
C      64.94122527      93.78512789      83.79071400
H      65.31350136      91.81603307      84.18188734
C      63.09118321      94.50322388      81.96334866
H      62.26537281      92.97065584      80.89565330
C      62.45245572      97.05435441      81.56272667
O      60.93689521      97.66473601      79.63520585
H      61.16744182      99.45430682      79.45568185
C      63.58062233      98.97431634      83.08017691
H      62.87575441     100.89049882      82.99324950
C      65.35507533      98.32614022      84.86974772
H      66.28482068      99.80201647      85.92988418
C      71.98045579      95.73343571      90.01736220
O      73.76057797      94.30669235      89.49012856
N      71.39842008      96.38539129      92.36440228
H      69.71467394      97.23954759      92.65164069
C      72.82894290      95.52745555      94.52246974
H      74.85661924      95.70508982      94.21822380
C      72.52469697      97.21120169      96.77880296
H      73.22956488      96.25311045      98.46065937
H      70.52914598      97.39261542      97.25501399
C      73.61695877      99.83414181      96.14952408
C      72.02202977     101.90717158      95.86606514
H      70.00191234     101.66717634      96.03425078
C      72.92342922     104.36759524      95.64118772
H      71.85384412     106.10236399      95.51457604
C      75.59550222     104.66806172      95.35772877
O      76.61595443     106.93951275      94.70010401
H      75.30070492     108.13759923      94.34672518
C      77.17720315     102.48353810      95.57693701
H      79.19165140     102.78967377      95.43898699
C      76.30603932     100.09492404      96.06259667
H      77.55892786      98.56235600      96.55770497
C      72.51524833      92.67018936      94.95899651
O      70.40631377      91.75556183      95.19710202
N      74.61473427      91.27557134      95.23489655
H      76.29092151      92.18641942      95.21221983
C      74.84528088      88.54869627      95.04970337
H      73.04626143      87.60005366      95.36906713
C      75.80904130      87.69076053      92.40786599
H      77.64963473      88.58838052      92.18487828
C      75.94321187      84.86184024      92.05070772
H      76.37595919      84.32893742      90.10806906
H      74.12907461      84.00012504      92.50613175
H      77.26979974      83.91508735      93.31115517
O      74.25568627      88.66207985      90.52002941
H      74.49190206      90.45920957      90.61640544
C      76.69154349      87.50556735      96.96210641
O      78.24867797      89.02490730      97.80681406
N      76.45721742      85.15285809      97.96177162
H      75.19110079      83.95855106      97.17375576
C      78.26001633      83.95099215      99.73055546
H      80.10060975      84.83538407      99.46599376
C      77.38318332      84.80325872     102.42341545
H      76.80492706      86.77802272     102.31381133
C      74.98134117      83.28580849     103.15662925
H      75.36684534      81.43954588     103.98432938
H      73.69254783      83.19888108     101.55414135
H      74.26891435      84.55003539     104.61927742
C      79.45621308      84.37618057     104.35093629
H      80.89240508      85.63851775     103.57992796
H      80.28013375      82.49023371     104.44542261
C      78.87606710      85.09805602     107.10804697
H      78.16553001      87.02746659     107.19308467
H      80.52012900      85.07159986     108.34581771
H      77.22822576      84.07382436     107.80346626
C      78.60961569      81.08616706      99.55859035
O      77.00334833      79.87107304      98.36806278
N      80.79602904      80.14130391     100.33904732
H      82.10938883      81.32049313     101.06659195
C      81.66341342      77.52592269     100.34660623
H      80.22344196      76.44688896     101.34816118
H      83.39818217      77.40875966     101.45020639
C      82.14151417      76.83050341      97.66130515
O      83.51723493      78.33094610      96.37251179
N      81.25523253      74.58172909      96.78825158
H      80.53146735      73.50836455      98.19042850
C      81.02468592      74.00725229      94.12562721
H      82.61205602      75.00502779      93.27525037
C      81.38373392      71.30116421      93.43209765
H      79.70754668      70.19189487      93.88563197
C      81.71443603      71.21234708      90.52947803
H      83.24889379      72.43500000      89.90775808
H      80.04391797      71.88319992      89.52603337
H      82.03946895      69.29994405      89.83783820
C      83.67408221      69.99725306      94.81348759
H      83.38306436      70.21457158      96.84116393
H      85.27279067      71.15754501      94.23145188
C      83.92730554      67.15132523      94.18231900
H      81.99600525      66.46346485      93.99334636
H      84.91752213      66.12331412      95.66764389
H      84.81547691      67.11353070      92.32471804
C      78.54914445      75.14108808      92.92943046
O      76.55359347      74.05071600      93.01068869
N      78.70788146      77.45222336      91.88063234
H      80.38406870      78.36307145      91.93354469
C      76.71233048      78.34795363      90.18932729
H      76.74634555      77.35773705      88.38274895
H      77.19610041      80.25657721      89.58272516
C      73.94955061      78.58794888      90.90364385
O      72.43965928      79.05093182      89.21422852
N      73.58672315      78.66920711      93.33383188
H      75.17220353      78.36118172      94.35050463
C      71.14141730      78.70133246      94.59616906
H      69.78270409      77.47112063      93.65508535
C      71.38330227      77.35395759      97.09627697
H      72.57760930      78.62196395      98.19609768
H      72.18643596      75.46045183      96.95076805
C      68.91531971      77.04782193      98.33782716
N      67.27692699      74.94455655      98.34538606
H      67.72101268      73.19844943      97.71421747
C      65.27381710      75.41887785      99.87417466
H      63.67132919      74.19433520     100.18597949
N      65.51570207      77.76402820     100.73400012
H      64.22690873      78.90164344     101.56547971
C      67.79849146      78.82038521      99.88362328
H      68.61107377      80.66664782     100.19731785
C      70.16631853      81.39797190      94.86828965
O      71.42676598      82.91920159      96.10795011
N      68.02714834      82.09717064      93.73634359
H      66.94433516      80.74412660      92.93698935
C      67.14464615      84.74278748      93.56248876
H      68.84539983      85.89174108      93.39241340
C      65.54026851      84.99790053      91.20600006
H      64.04549500      83.58060580      91.25324321
H      66.84040022      84.56893266      89.66587311
C      64.17021694      87.56981804      90.86773904
H      62.95701264      88.04224962      92.46455778
C      66.00514119      89.60883273      90.26491635
H      66.95567352      89.30647652      88.46400717
H      67.37519276      89.83559989      91.78614604
H      64.87697458      91.33226313      90.24601909
C      62.75292220      87.37139678      88.50180171
H      61.30539185      85.91063834      88.41676401
H      64.09084843      86.87061931      87.01647682
H      61.71546246      89.10049636      88.08606192
C      65.85585281      85.32104373      96.06448640
O      64.24580599      83.88485173      96.90163517
N      66.48891112      87.54903105      96.98856258
H      67.91187504      88.45609968      96.09850147
C      65.39475959      88.38240036      99.41308143
H      64.66721496      86.75156655     100.44109255
C      67.14842561      89.62017109     101.15918854
H      66.04293571      90.54424726     102.63128534
H      68.03848670      91.19998229     100.18597949
C      69.20822729      87.96288112     102.46120998
H      70.30048910      86.90463438     101.07415086
C      70.86362754      89.72032659     104.13550749
H      72.43021065      88.69231547     104.99344324
H      69.63908489      90.57448288     105.55280222
H      71.50235503      91.31147614     102.99222307
C      67.88730859      85.94276369     104.09582323
H      66.27915150      86.72511038     105.11816518
H      69.06838754      84.83538407     105.36949877
H      67.00291668      84.55948403     102.85427304
C      63.05527841      89.86772524      98.74222860
O      61.01626372      89.30836625      99.64929722
N      63.19511816      91.70264949      97.03769546
H      64.91476910      92.03902077      96.28558438
C      61.05405825      92.98955311      95.97944872
H      59.60841762      91.67052414      95.33694177
C      60.01848823      94.73566022      98.00901479