 %block lattice_cart
   139.898   0.000   0.000
   0.000 144.87   0.000
   0.000   0.000   168.12
 %endblock lattice_cart

 %block positions_abs
N      92.17312630      41.98867451      87.41426420
H      93.95702794      41.75434845      86.77553672
H      91.07519533      40.46933456      87.05143675
H      92.23737700      42.27780264      89.30210080
C      91.26605767      44.16374950      85.93649824
H      92.04840437      45.90607716      86.70939630
C      91.72148172      44.00690221      83.03954780
H      90.63488908      42.41197321      82.32523124
H      93.73781969      43.65352339      82.81467036
C      91.05062888      46.50134095      81.73941609
H      88.99460665      46.63551151      81.66949621
H      92.02950710      46.25756625      79.94228637
S      92.30162770      49.24522355      83.22096152
C      90.60465346      51.18408275      81.08935023
H      88.64878673      50.53212717      81.11391668
H      91.33030837      51.09526561      79.16182940
H      90.91834804      52.89995424      82.17972233
C      88.36343806      44.48689270      86.32956130
O      86.84031866      42.90141232      85.48674338
N      87.57920164      46.69976221      87.23096075
H      89.04940871      47.67864044      87.95283620
C      84.91657727      47.44431438      87.78087111
H      83.38400922      46.43331080      86.84923604
C      84.57075735      46.74133619      90.50396673
H      85.54018694      44.98955990      90.98773666
H      82.56197829      46.31992722      90.68727019
C      84.93736426      48.72932827      92.53731224
O      83.18747769      50.20898397      93.19304727
N      87.22582282      49.20931875      93.32910757
H      87.36188311      50.15796136      94.97883864
H      88.64878673      48.27768368      92.45983347
C      84.40446144      50.24677850      87.40292585
O      86.11844321      51.72454448      86.89269975
N      82.03285492      51.05747109      88.00385882
H      80.77240746      49.73277294      88.55187944
C      80.94815200      53.71631601      87.59000875
H      81.35444316      54.12260717      85.61146530
C      78.04742211      53.54624064      88.13236020
H      77.38223845      52.15162262      86.76797781
C      77.27641378      52.80357820      90.81010240
H      77.18003774      54.43630174      92.06299094
H      78.57465576      51.42974717      91.63024361
H      75.42637172      51.89839930      90.77419760
C      76.68681917      56.01233348      87.52197861
H      77.44648915      57.60537276      88.58589453
H      74.67237092      55.74210262      87.85268071
C      77.06476444      56.75310619      84.74975011
H      76.62067876      54.97865319      83.80110749
H      78.99606472      57.33136245      84.32645141
H      75.65502860      58.15717285      84.21873702
C      82.23316590      55.84981702      89.30776997
O      82.48638922      57.90583925      88.30432530
N      83.15535234      55.09581622      91.60000799
H      82.73772282      53.29679677      92.08188820
C      84.45359432      56.83625415      93.34422537
H      83.39723731      58.60503798      93.35556374
C      84.27407031      55.84603756      96.09188744
H      85.43814173      54.15095306      96.20905047
H      82.28418851      55.55690944      96.53408339
C      85.21893348      57.66962346      98.07043088
C      86.17891445      56.67373769     100.35888945
H      86.25828294      54.65173053     100.63289977
C      86.99527621      58.21575436     102.39223497
H      87.61510645      57.45041520     104.17991605
C      86.95181250      60.79712050     102.04641505
H      87.86077087      62.15016454     103.27473715
C      86.11844321      61.86292615      99.74283868
H      86.26395213      63.87926412      99.46315918
C      85.24916909      60.33791701      97.83988428
H      84.79374505      61.12782261      96.01440865
C      87.15023376      57.23120695      92.53920197
O      88.13667090      59.35147988      92.72628488
N      88.48438054      55.38116489      91.31843878
H      87.49038451      53.87883247      90.68349073
C      90.95803229      55.72698481      90.13924955
H      92.19580303      56.61893563      91.52441894
C      92.31107632      53.29868649      89.42493300
H      93.77939367      53.63127833      88.01708690
H      90.90511996      52.25366784      88.34023011
C      93.50160390      51.87761231      91.58111073
H      92.34131195      52.31791854      93.22517262
H      95.27416719      52.88672616      91.86834912
C      93.53183953      49.03357421      91.27497506
O      91.62510567      47.85438499      90.47373111
O      95.36865350      47.77123703      91.88724639
C      90.37032740      57.30301655      87.74496631
O      91.40778715      59.44029701      87.68449508
N      88.64311756      56.65861988      86.16893457
H      87.91935237      54.90873331      86.40704008
C      87.85510168      57.95875158      83.76898216
H      89.52184030      57.99276666      82.56144704
C      85.71404177      56.63783289      82.26098056
H      83.95470657      56.99310144      83.27009440
H      86.03151579      54.63850245      81.88870447
C      85.37389103      57.88883171      79.70229113
H      87.01228374      57.38238506      78.55900671
H      85.48727461      59.94296421      79.77976990
S      82.51473512      57.08569803      78.11492103
C      82.68292077      53.73710300      77.20974211
H      83.64479145      52.76389395      78.74797933
H      84.01328808      53.48387967      75.65827681
H      80.76673829      53.09081660      76.82045849
C      87.50928176      60.81790749      84.22818564
O      89.08909296      62.23331250      83.20584372
N      85.55152530      61.63993844      85.56800160
H      84.31375457      60.29823276      86.12547086
C      85.22082320      64.40838749      86.08767633
H      85.19058759      65.25687460      84.21117811
C      82.61678034      64.98286429      87.29143199
H      82.30497550      67.01243035      87.47095599
H      82.76228926      64.20807650      89.19438639
C      80.44548481      63.80367507      85.88547562
H      80.87823213      61.95930219      85.07856248
C      78.26096119      63.37092774      87.66748753
H      76.74918014      62.46007966      86.60168189
H      77.59199807      65.18317528      88.37802462
H      78.67103180      62.07646522      89.21706312
C      79.39857643      65.51198766      83.70473146
H      80.59477319      65.09246841      82.07956683
H      79.86155937      67.46029548      84.19228084
H      77.43137135      65.16049856      83.20395398
C      87.42424408      65.67639384      87.35001352
O      87.60565780      68.04233119      87.01742169
N      89.13444639      64.45563065      88.82588976
H      89.40089780      62.58480160      88.56321780
C      91.41534605      65.71040892      89.93326939
H      90.95992201      67.63037085      90.51341537
C      92.47926197      63.88304357      92.10078547
H      94.47481296      64.29878336      92.39369304
H      92.32430442      61.85725697      91.77008337
C      91.12810766      64.55389641      94.57254749
H      89.10232104      64.42350530      94.22483784
H      91.59487006      66.52110151      94.97127973
C      92.11643452      62.96274686      96.78919645
H      91.37188235      63.71485793      98.55609055
H      94.13466222      63.30289760      96.56053956
N      91.67423856      60.22831288      96.56620874
H      90.17190615      59.71241760      95.50607229
C      92.94035519      58.53511811      97.89090688
N      94.61276298      59.26644219      99.62000647
H      95.57274394      58.10615023     100.79352651
H      94.86598631      61.12593288      99.96393665
N      92.53028459      56.11437870      97.60555822
H      93.55262651      54.88605660      98.64868714
H      91.40211798      55.36415735      96.26007309
C      93.41467650      66.36803368      87.99063073
O      95.02661305      67.81745376      88.78998497
N      93.16901207      65.76521098      85.61902421
H      91.91990298      64.39893886      85.15415153
C      94.71291848      66.64015426      83.52709719
H      95.61431792      68.35602576      84.22818564
C      96.58185779      64.45374092      82.77876557
H      97.34152778      65.29088968      81.05911461
C      98.90244171      63.84146959      84.38125347
H      98.66622591      62.78889204      86.13680922
H     100.14966107      65.46852395      84.58534391
H     100.08730010      62.70196463      83.13970328
C      95.17212197      62.05189878      82.17027369
H      93.65089228      62.43173377      80.83234746
H      94.49937940      61.20341166      83.92204999
C      96.65933657      59.93540531      80.84368582
H      95.41400694      58.31024068      80.61124949
H      98.03127788      59.15116889      82.16649424
H      97.60986891      60.50610265      79.11080680
C      93.14633535      67.58690715      81.18572629
O      94.16678756      68.97774571      79.66071714
N      90.70669868      66.86692142      81.08935023
H      90.24560546      65.40049380      82.21940657
C      88.77728812      67.96485241      79.49631095
H      89.70703346      68.57712374      77.76154220
C      86.69103028      66.00898568      78.89348827
H      85.33609651      65.91827881      80.44306384
H      87.55274547      64.16650252      78.57223479
C      85.26806637      66.44929191      76.44062351
O      82.91346737      66.26976791      76.38204199
O      86.57953642      66.86503170      74.49420541
C      87.80407908      70.48196786      80.28621655
O      86.83275975      71.83690163      78.71018481
N      88.00061060      71.02809876      82.74664021
H      88.90578952      69.91504996      84.00519794
C      87.14834404      73.54899366      83.68772393
H      86.88756181      74.83022810      82.09657436
C      84.61422106      73.06711345      85.14281318
H      85.12255744      71.97107219      86.81144151
H      83.18747769      72.28854621      83.87858628
C      83.27251537      75.46328642      86.17082430
H      84.65201558      76.65759345      87.12513608
H      82.08387752      74.87369181      87.74685605
C      81.69270417      77.02420035      84.36613567
O      79.27952368      76.56310713      84.54188021
O      82.52040430      78.57566566      82.79955255
C      89.12499776      74.50519518      85.70784134
O      89.62388551      76.83144827      85.69461327
N      90.34765068      72.84601548      87.18938678
H      89.89600610      70.99219396      87.12702581
C      91.82919612      73.53387585      89.56855221
H      92.85531750      75.21573227      88.96950897
H      93.23515249      72.05610988      89.84067280
C      90.31174588      73.73607657      91.99685051
O      88.19714214      74.65826301      91.94960736
N      91.24149123      72.86680247      94.13224125
H      92.80240517      71.79343792      93.90925354
C      90.26072328      73.34490322      96.82510124
H      88.20848050      73.18994567      96.73439439
C      91.54951662      71.50242007      98.62790015
H      93.43357375      72.29421539      98.90002073
H      91.66101047      69.63159102      97.77563358
C      89.97159515      71.43627965     101.14312587
H      89.77506361      73.38080802     101.79319172
C      87.25794816      70.45740142     100.62345113
H      86.29229803      69.90371161     102.35444044
H      87.42424408      68.73964020      99.49906398
H      86.20537061      71.93138794      99.64079345
C      91.63266458      69.90371161     103.05741862
H      93.47703746      70.80889051     103.21804536
H      91.96525641      67.96296268     102.45270620
H      90.74827267      69.89993215     104.92068878
C      90.72559595      76.19083105      97.25217939
O      92.72303666      77.19238600      96.89880057
N      88.81886210      77.43238124      98.38223573
H      87.05763717      76.75585922      98.08365897
C      89.15901283      79.93437888      99.65024209
H      91.13944602      80.46728170      99.82976609
C      88.27084147      82.12079222      98.04397472
H      88.16690653      83.59855820      99.47449753
H      86.45103503      81.74851614      97.15391363
C      90.30796643      82.85778548      96.15991759
H      90.69347060      81.27041538      94.90891876
H      91.89722627      83.60044792      97.24084104
C      89.60120879      85.01207348      94.30042690
H      91.37188235      85.59788864      93.42926307
H      88.73382441      86.60133331      95.27930512
N      87.83242497      84.02185689      92.47306154
H      86.70614808      82.58188544      93.02675136
C      88.41446067      83.89146578      90.06743995
N      89.54829645      85.74717702      88.82966921
H      89.91490336      85.46749752      86.97962716
H      90.30607671      87.21171491      89.78965018
N      87.37889065      82.04142372      88.58400479
H      87.62266535      81.96205521      86.69238875
H      86.31308501      80.65058515      89.34367477
C      88.02706678      79.97217340     102.32420482
O      85.86710960      79.02353079     102.88356380
N      89.38200054      81.00585370     104.09865783
H      91.18479945      81.44993938     103.65268242
C      88.65823536      81.02853041     106.87655550
H      86.87055427      80.02697547     107.07497677
C      90.74449322      79.92870970     108.48660232
H      89.95836707      80.02886519     110.38766700
H      92.57752773      80.84333723     108.27495298
C      91.31519056      77.12624558     107.54362889
H      92.03517629      77.18104764     105.61421832
C      93.13499701      76.06043993     109.54106961
H      92.32997359      76.37413450     111.41189866
H      95.05306920      76.80499210     109.53351070
H      93.30129292      74.00819716     109.44280385
C      88.96059157      75.38958709     107.45292204
H      88.28217982      74.97762676     109.35398670
H      89.41412589      73.62269299     106.49672051
H      87.53195848      76.27775846     106.26617391
C      87.69825439      83.57966093     108.04440637
O      86.67402273      83.53241778     110.17601765
N      88.10076610      85.70182358     106.74616439
H      89.21759435      85.60544754     105.20225799
C      86.76850906      87.99973078     107.31875146
H      85.94269865      87.70115402     109.18202161
C      88.79051620      90.05008383     107.45481175
H      90.25505410      89.81008859     106.02617867
H      89.74104854      89.67780775     109.24249285
C      87.85888113      92.69570067     107.22615487
H      86.27151104      92.94892399     108.51116876
H      87.04251937      92.80152534     105.33642856
C      89.72782045      94.92179826     107.67590974
H      88.66201481      96.68302319     107.61921795
H      91.23582205      94.92179826     106.26995336
C      91.02795216      94.71392837     110.21948135
H      92.18068521      93.02640277     110.46514577
H      89.45003070      94.50983793     111.52717196
N      92.61343253      96.90790062     110.64278004
H      94.04773481      96.46003548     111.81630008
H      91.43991249      97.94158091     111.73504185
H      93.28617510      97.99827270     109.22926476
C      84.70681765      88.21515958     105.41957652
O      85.09988071      87.48950468     103.21048645
N      82.76039954      89.71560227     106.13011361
H      82.65457487      90.22204892     107.96503786
C      80.81398144      90.56597911     104.34243252
H      79.60455660      88.96538093     103.87000095
C      78.89779895      92.44247734     105.46304023
H      79.98439158      93.89378715     106.43813900
C      77.31609804      93.85410290     103.63567489
H      76.13123963      95.27328736     104.54463323
H      76.20493896      92.59743490     102.44136785
H      78.43481601      94.94447498     102.29585893
C      77.37090009      91.12533810     107.57008507
H      78.46883109      90.18047495     109.03462296
H      76.05943003      89.77040434     106.74238494
C      75.64369024      92.90735002     109.02706405
H      76.55075887      94.75550235     108.98171061
H      75.28653198      92.28185061     110.95647462
H      73.84656053      92.88656303     108.01983992
C      81.87789735      91.53918816     101.86689105
O      83.39723731      93.38356105     101.87633969
N      81.07098422      90.48094143      99.75606675
H      79.71038128      89.14679465      99.84866334
C      82.10277479      91.13100728      97.22950267
H      83.22527221      92.85065823      97.38068078
C      83.95659629      89.10900013      96.31298541
H      85.44003145      88.85388707      97.71705207
H      84.78051697      89.88945709      94.59522420
C      82.74717146      86.63723811      95.61189695
C      82.20859945      86.14968872      93.00785409
H      82.83031941      87.31942931      91.45449906
C      81.32042809      83.82154590      92.14424917
H      81.13901437      83.28486363      90.18271325
C      81.00484379      81.84678191      94.00751931
O      80.51729441      79.42982195      93.25729796
H      80.00706830      79.51108018      91.51686003
C      81.40924523      82.37590527      96.61912109
H      81.22027259      80.76585845      97.85878154
C      82.26529124      84.74562207      97.42225476
H      82.61111116      85.21805365      99.37623177
C      80.04108337      91.67146901      95.41536541
O      77.98884061      90.67936269      95.55898461
N      80.69492869      93.05663839      93.33477674
H      82.42591798      93.80685974      93.04942807
C      78.86567361      93.40245831      91.23340108
H      76.96460895      93.04152058      91.93637927
C      78.58599412      96.25216559      90.39625233
H      77.86600839      96.26350395      88.46684176
H      80.46438208      97.06096845      90.63624757
C      76.69437808      97.73182129      91.90803338
H      77.08177198      97.04396091      93.81098778
H      74.77063670      97.27639725      91.32977712
C      77.11767678     100.57774912      91.69638403
H      79.09244076     101.01994508      92.08755738
H      75.85722932     101.50938419      93.03053081
C      76.70004725     101.80607122      89.18304803
H      74.72717299     101.88166028      88.59912260
H      77.63735150     100.38121758      88.02653553
N      78.09088582     104.24759762      89.06399529
H      77.76018371     105.00348814      87.34056488
H      79.98061214     103.97925648      89.07722336
H      77.55798300     105.47214027      90.42648795
C      79.22472161      91.35777444      89.23218092
O      81.12389655      91.45226075      87.83189373
N      77.23106035      89.84221394      88.99974459
H      75.98006154      90.08976808      90.42270849
C      76.79075413      87.93548009      87.03442922
H      78.28174818      86.51440590      87.09867991
C      74.38702226      86.57865659      87.72606905
H      72.83366722      87.92225200      87.86401908
H      74.55898734      85.64324207      89.55343439
C      73.73317694      84.35255900      86.01586674
O      75.21661210      82.57999571      85.93271878
O      71.99840819      84.48861929      84.40015075
C      76.83610755      89.08821314      84.35479730
O      76.95516030      91.38045115      83.99952876
N      77.00051375      87.56698345      82.44806345
H      77.39357681      85.74150784      82.84490598
C      76.85689454      88.42680893      79.81000552
H      78.30253518      89.88000846      79.60969454
C      77.30475967      86.29519765      77.95429429
H      75.89124440      84.81365222      78.18295117
C      77.45215832      87.21927381      75.08380001
H      78.62756809      88.90868914      75.04222603
H      75.61723407      87.86933966      74.40916773
H      78.21560776      85.73583866      73.87437517
O      79.69148401      85.09522144      78.33790872
H      79.63290249      83.54753559      77.39682502
C      74.39080171      89.81575777      79.12403487
O      74.39836060      91.66391010      77.62737164
N      72.26108014      89.31687002      80.25787066
H      72.15903492      87.75595609      81.35202220
C      70.01986475      91.06675659      80.19550969
H      69.88569417      91.75272724      78.25854023
C      67.63880958      89.54363718      80.65849264
H      67.31377667      89.56820362      82.69372787
H      67.80132604      87.60288825      79.98952952
C      65.14437086      90.49416951      79.35647121
H      64.51698171      92.24783553      80.23141449
H      63.67038432      89.09010286      79.67205551
C      65.39381472      91.00439562      76.46141049
O      65.68105313      93.25505966      75.68851243
O      65.43538870      89.10144122      74.97419589
C      70.30899286      93.49694462      81.73374691
O      68.37958230      94.81408386      82.20428877
N      72.45005277      94.14701048      82.75230939
H      73.77097148      92.77506917      82.64459499
C      73.08122137      96.37688753      84.06755890
H      72.12501986      97.97937544      83.19639507
H      75.10133880      96.73782525      83.89181437
C      72.14202739      96.51294782      86.75474972
O      72.04565135      98.63133102      87.71095125
N      71.41448275      94.40779271      87.88858552
H      71.68282389      92.81853288      86.86246413
C      69.87246608      94.28496050      90.17137490
H      69.32444545      96.20114298      90.69671881
C      67.34968147      92.83365069      89.34178504
H      66.70717451      91.99272248      91.10678943
H      67.92604798      91.13856619      88.32322256
C      65.21618045      94.02984745      87.80165811
C      64.02187342      92.72215684      85.79854821
H      64.63036529      90.79652572      85.50564063
C      62.02065325      93.69914534      84.38503293
H      61.18161477      92.63711915      82.86002380
C      61.40649220      96.24649641      84.78376518
O      59.60558302      97.28017670      83.29466084
H      59.44684601      99.05840916      83.62347322
C      62.63103485      97.80552062      86.63380724
H      62.11136012      99.77083598      86.79632370
C      64.39037006      96.56963961      88.13047049
H      65.30877704      97.73371102      89.53264740
C      71.07055257      93.11521991      92.48817935
O      72.64847405      91.42202513      92.30487591
N      70.44883261      93.99016319      94.70293859
H      69.19405434      95.42824492      94.74829203
C      71.32755535      93.16435279      97.13879581
H      73.33822414      93.56119532      97.35044516
C      70.17860175      94.65912631      99.32142970
H      70.95527927      93.65001246     100.94092516
H      68.12635897      94.60621397      99.49339480
C      70.90425665      97.38600138      99.26095847
C      69.04287623      99.24171262      99.65213182
H      67.10779650      98.73715569     100.05464351
C      69.80632567     101.76260752      99.42725438
H      68.42304601     103.21202760      99.82031745
C      72.21761645     102.60164600      98.66002549
O      72.86201311     105.05829021      98.36522820
H      71.62613210     106.32629656      98.75829126
C      74.00718726     100.75160394      98.09877678
H      75.86478822     101.22025607      97.39579860
C      73.39113649      98.14945081      98.44081724
H      74.95205042      96.83987047      98.31042614
C      71.13102381      90.32220442      97.71516234
O      69.09578858      89.38112072      98.11578431
N      73.34956250      88.99372682      97.52052054
H      75.03897782      89.77985297      97.10856019
C      73.40625429      86.09488666      97.44871093
H      71.59589648      85.25017899      97.94948840
C      74.18860098      85.41458518      94.78419684
H      75.87045740      86.34622026      94.04342411
C      74.35678662      82.64613614      94.30987552
H      75.63046216      81.76174422      95.66291956
H      75.05976481      82.33622102      92.39936223
H      72.47650895      81.81654628      94.43648719
O      72.01352600      85.95693664      93.27997468
H      72.04943080      87.76540472      93.41792471
C      75.32621622      85.07443445      99.35355506
O      77.07610279      86.52196480     100.12834284
N      75.06543400      82.67448203     100.26251342
H      73.43271046      81.74095723      99.93559075
C      76.75484933      81.48206473     102.01051025
H      78.53497150      82.50440666     101.84232461
C      75.74384574      81.92992986     104.75250313
H      75.08244153      83.88012742     104.75817231
C      73.55365295      80.17059467     105.38745117
H      72.51241375      80.64491597     107.10143293
H      74.18104209      78.22039711     105.60854915
H      72.18549110      80.16492549     103.84921395
C      77.86600839      81.86000999     106.84631988
H      79.03574898      80.17437412     106.66490615
H      76.78697467      82.01496755     108.59431672
C      79.43826068      84.20516034     107.33386927
H      78.24017420      85.58466055     108.28251188
H      80.23761491      84.91569744     105.57453408
H      80.81776089      83.47383626     108.67935440
C      77.37467956      78.72117458     101.26406835
O      75.72683821      77.39836616     100.23416751
N      79.74817580      77.91048200     101.91980338
H      80.98972599      79.07266368     102.78529803
C      80.46060263      75.33478503     101.73272049
H      78.98661609      74.09512457     102.46593429
H      82.27851933      75.10990760     102.67758364
C      81.15980135      74.73952124      98.83954949
O      83.07220438      75.55399328      97.90602469
N      79.39290725      73.32789569      97.52241025
H      78.24206392      72.30744348      98.65246659
C      79.01874144      73.05766482      94.73506394
H      80.14123887      74.58078423      93.91681245
C      80.04486284      70.52165211      93.80342887
H      78.86567361      69.21774096      94.87868314
C      79.67825593      70.15315548      90.97828803
H      79.89368472      68.11980997      90.73451334
H      81.01429243      71.26431455      89.87090842
H      77.79608852      70.81455969      90.45861329
C      82.76984817      70.24764180      94.48562007
H      82.69236939      70.31567194      96.54164230
H      83.89045587      71.75753312      93.64280213
C      83.88478670      67.60013523      93.91870217
H      82.79252489      66.26409873      95.04308934
H      85.84632261      67.46785439      94.53475296
H      83.84321273      67.06156323      91.93071009
C      76.19926978      73.56600120      93.96972478
O      74.54764898      72.03532289      94.72939476
N      75.64746970      75.51997821      92.58077594
H      76.86067399      76.86546334      91.98173270
C      73.07366246      75.89414402      91.30143123
H      72.26485960      74.11969101      90.63813729
H      73.51396869      77.27175450      89.83311389
C      71.11968545      76.99396473      93.11556849
O      69.50585918      78.24118410      92.06866012
N      71.33133480      76.62168865      95.64780176
H      72.73162199      75.38769737      96.04653400
C      69.18082625      77.06010515      97.49595408
H      67.51219792      76.20216941      96.64557724
C      69.98584966      75.82044469     100.03007707
H      71.02708886      77.19805518     101.14879505
H      71.02708886      74.07055813      99.70693388
C      67.70683973      75.10045897     101.43981290
N      66.75819712      72.71184491     101.67035952
H      67.53676436      71.06211384     101.10911079
C      64.60012968      72.97640659     103.01206519
H      63.45117607      71.46273582     103.75661736
N      64.38470087      75.45950697     103.80575024
H      63.38692538      76.02264541     105.33264911
C      66.44072310      76.79743320     102.95159395
H      66.87724988      78.79109446     102.98371930
C      68.46839944      79.83233366      97.75106714
O      69.46995438      81.39135786      99.16836188
N      66.48229708      80.51074540      96.40747174
H      65.90026137      79.34289454      95.01474344
C      65.36735855      83.11667799      96.47172242
H      66.73741014      84.41869942      95.64969148
C      63.00898011      83.08644237      94.75774067
H      61.70884841      81.70505243      95.56465379
H      63.56078020      82.32866211      92.92281641
C      61.74853266      85.66402906      94.23806593
H      60.78477224      86.14590927      95.99173194
C      63.49275005      87.77485335      93.52941855
H      62.41938550      89.34521592      92.74140268
H      64.74185915      87.18903819      91.99874024
H      64.77209476      88.32854316      95.04497906
C      59.88148307      85.20671529      92.12535191
H      58.63615343      86.80731348      91.77386282
H      58.57946164      83.77997192      92.83966845
H      60.81311814      84.49428847      90.43026740
C      64.80233039      83.95571647      99.18347968
O      63.69117131      82.50629639     100.54408263
N      65.24074690      86.33488190      99.89023733
H      66.18561005      87.49139440      98.70348920
C      64.27509674      87.53863756     102.23538768
H      63.30944660      86.17992434     103.44670224
C      66.29521417      88.90301996     103.84543451
H      65.34657157      89.97638450     105.32697993
H      67.30999721      90.27874071     102.69648091
C      68.21517611      87.01329364     104.83565108
H      69.06555295      85.97772363     103.27095771
C      70.44316344      88.16413697     106.13011361
H      71.81510474      86.80731348     106.84820962
H      69.82333320      89.54552690     107.53040081
H      71.51652798      89.35844400     104.83943054
C      67.14370129      84.89680017     106.51750750
H      68.62713644      83.78942055     107.42457613
H      65.86057712      83.66280889     105.48193749
H      66.03443194      85.87000923     107.95558924
C      62.16994163      89.25261933     101.56642456
O      60.06478652      88.98805764     102.54341308
N      62.52332045      91.07242577      99.83921471
H      64.23163304      91.07809494      98.98694815
C      60.47674686      93.00183633      99.20237694
H      58.92150210      91.69603545      98.84899812
C      59.96085157      95.00494622     101.40579784