 %block lattice_cart
   139.898   0.000   0.000
   0.000 144.87   0.000
   0.000   0.000   168.12
 %endblock lattice_cart

 %block positions_abs
N      93.24743572      44.06831832      84.11669179
H      93.02444801      42.68314893      82.82411899
H      93.14916995      43.47305453      85.92704960
H      95.06157298      44.49539646      83.70662118
C      91.60904300      46.29252619      83.68394447
H      92.58981096      47.97060315      84.37180484
C      90.99866141      46.63834610      80.91360569
H      89.76089067      45.08310135      80.36747479
H      92.59925959      46.67047145      79.61536371
C      89.47743172      49.03451907      80.29377546
H      87.56691842      48.92680467      81.05344544
H      89.48121118      48.92491494      78.23775323
S      91.02889703      51.89934416      81.21974135
C      93.38916519      52.35098875      78.74231016
H      94.38694068      50.66724260      78.11114157
H      94.81023938      53.68324580      79.41883218
H      92.38761025      53.21270394      77.16249896
C      89.22420840      46.02418505      85.31855773
O      88.17352057      43.93414775      85.46784611
N      88.16596166      48.12556071      86.15003731
H      89.28278991      49.66568765      86.29365651
C      85.60727223      48.39201212      87.19127650
H      84.29958163      47.27140442      86.06310989
C      85.52412428      47.39801608      89.84256252
H      86.34615522      45.51206922      89.94082829
H      83.49833767      47.39234690      90.22617696
C      86.99433135      48.98727591      91.73417856
O      86.61071691      51.27951393      91.92882037
N      88.86893985      48.03296412      93.10611986
H      90.16529210      49.19325608      93.89035628
H      89.35459951      46.19237069      92.95872121
C      84.74933649      51.13778445      86.92671482
O      86.27056617      52.81208197      86.14058867
N      82.29080255      51.70848180      87.30843954
H      81.25334281      50.32331241      88.11157322
C      81.15885649      54.24638424      86.85679495
H      81.83537851      54.53740209      84.93305356
C      78.18442728      54.08197805      86.89081002
H      77.85561490      52.14311885      86.28042842
C      76.91075174      54.42968769      89.44760972
H      77.19610042      56.41767977      89.91059267
H      77.92364505      53.33364643      90.86490446
H      74.96055419      53.76639375      89.42493301
C      77.15641616      55.98871190      84.97273781
H      78.36017182      56.12477219      83.30788893
H      76.89374420      57.85009232      85.81555575
C      74.51079932      55.15534259      83.88803491
H      74.50513015      53.91568213      82.24208329
H      73.42987587      56.81074284      83.30977866
H      73.40908888      54.48826921      85.49430227
C      82.14718336      56.49326882      88.29676640
O      81.64640588      58.59842394      87.36513132
N      83.56447809      56.16634617      90.34333999
H      83.98777678      54.39378289      90.91214761
C      85.06114133      58.05985194      91.58111073
H      84.09927064      59.88343783      91.58866963
C      85.50711674      57.18868811      94.29097826
H      87.12283274      58.18079442      95.09033249
H      85.96254078      55.19313712      94.50640706
C      83.38495409      57.64033270      96.15802786
C      83.66652331      59.65478095      97.87767880
H      85.15184819      61.03239143      97.63201438
C      82.03757923      60.10264608      99.90346541
H      82.35127380      61.62954494     101.22060465
C      79.83604807      58.48315063     100.29085931
H      78.62662323      58.70991779     101.92169311
C      79.44676445      56.45358457      98.58443644
H      77.61750938      55.56163375      98.72427619
C      81.17964348      56.09075712      96.46605325
H      80.73366807      54.53929182      95.21694416
C      87.55369034      58.53795269      90.08633722
O      88.49855349      60.72436604      89.97862282
N      88.88216793      56.63499830      89.19060694
H      87.98643766      55.03440011      89.71406113
C      91.10448608      56.78617640      87.57300122
H      92.35548490      58.22425813      88.35345819
C      92.40650751      54.18024382      87.87913688
H      93.92206801      54.07441914      86.48640859
H      91.14039088      52.58909426      87.54276560
C      93.51388713      53.79851910      90.56254825
H      94.60047976      52.05997089      90.74774142
H      91.86415606      53.73993759      91.79653953
C      95.15605929      55.96981463      91.53197784
O      94.42284548      57.07341480      93.52563910
O      97.43884868      56.40256196      90.80632294
C      90.68874629      57.75749573      84.86502341
O      92.30446229      58.88566234      83.57056089
N      88.34926511      57.40978609      83.91827053
H      87.24944440      56.03217560      84.65148434
C      87.28723893      58.49637872      81.64870923
H      88.51178158      58.01071905      80.06700830
C      84.70587278      57.49104432      81.20084409
H      83.28857805      58.43779720      82.35924632
H      84.58870975      55.47470634      81.59957634
C      84.05769666      57.94646836      78.40782860
H      85.62239004      57.34742512      77.20974212
H      83.65896441      59.94012962      78.08090595
S      81.30058597      56.07185986      77.52532641
C      80.86594891      56.72381543      74.10870124
H      82.48544437      55.72603994      73.31501619
H      81.08137771      58.73826368      73.73831488
H      79.18031304      55.85076188      73.30934701
C      87.10204575      61.48781547      81.87358666
O      87.66707392      62.84841841      80.05000077
N      86.36127303      62.44401698      84.09779453
H      85.55624962      61.26671749      85.36580089
C      86.01923257      65.10097218      84.41904800
H      85.39940234      65.96457710      82.65404363
C      83.85927539      65.53371951      86.29176678
H      84.20698504      67.12297933      87.55410396
H      83.77612744      64.07296107      87.74307659
C      81.24767363      65.79261201      85.13336455
H      79.85305561      65.44868182      86.60924080
C      80.93397906      68.37019870      83.99196986
H      81.57648601      69.88009002      85.23540977
H      79.03480412      68.70468026      83.26442523
H      82.00167443      68.35319116      82.23263466
C      80.56548243      63.85942199      83.04332725
H      81.99978470      63.63076511      81.58256881
H      78.63985132      64.12209395      82.35735660
H      80.56926188      61.94701896      83.80299722
C      88.41162608      66.71101900      84.98218644
O      88.33981648      69.03538236      85.05777550
N      90.54512709      65.40143866      85.34123444
H      90.41284625      63.51360208      85.09557002
C      93.03200692      66.43322923      85.92704960
H      93.04334528      67.52549104      87.67126699
C      95.12204422      64.39610426      86.24074417
H      95.89683201      63.87831925      84.40204047
H      94.28111601      62.87487458      87.34434434
C      97.42184114      65.35608523      87.82055537
H      96.59603074      66.04016616      89.57989056
H      98.08891453      66.86030738      86.58278463
C      99.51754762      63.35297534      88.03220471
H     101.12381499      64.53027483      88.55754863
H     100.04667099      62.49881905      86.23507499
N      99.12259482      61.47836684      90.12791119
H      98.52355158      59.78328233      89.48918370
C      99.58368805      61.81662785      92.55054033
N     100.39249091      63.86509117      93.52941856
H     100.25454089      64.15610902      95.40969624
H     100.39627036      65.42978456      92.43526702
N      99.35125171      59.87776865      94.04909329
H      99.91250042      60.07618991      95.86323055
H      98.73520093      58.23370676      93.30265140
C      93.81246389      68.25303567      83.71795954
O      94.48709618      70.39031613      84.44739390
N      93.86348650      67.51037323      81.32934548
H      93.57624810      65.65655172      80.97029748
C      94.64016401      69.17144266      79.22985955
H      95.79667651      70.60952438      80.14070763
C      96.47130881      67.67477942      77.37036886
H      97.33680346      69.15254539      76.22897416
C      98.68228859      66.69023201      78.88403963
H      98.20229811      64.87798447      79.74008565
H      99.13582291      68.17933634      80.22952477
H     100.32446076      66.49747992      77.65571753
C      95.26755315      65.43356401      75.71118915
H      93.47231315      66.13843193      74.98931370
H      95.25054561      63.83674528      77.01321058
C      97.05145479      64.73625500      73.53989362
H      98.15127550      66.38031689      72.96541682
H      96.02911285      63.75926650      72.04134065
H      98.33646868      63.32651917      74.31846086
C      92.47264793      70.58684767      77.95240456
O      92.74854797      72.01737048      76.31590157
N      90.22576334      70.12575445      78.93317252
H      90.26355787      68.80105630      80.30511382
C      87.78423695      71.11786076      78.03744224
H      87.88250272      71.79249305      76.09291387
C      85.62805922      69.07506662      78.09602376
H      83.88762129      70.14654144      77.83524153
H      85.76600924      68.44200830      80.05000077
C      85.97009969      67.03794165      75.90772069
O      84.21454394      65.53371951      75.28978018
O      87.80880339      67.06439782      74.45263143
C      86.83748406      73.52537208      79.48686233
O      85.90773872      75.34139907      78.46829984
N      87.29101838      73.52915154      82.02287504
H      88.25666853      72.18366640      82.97529710
C      86.41607510      75.64564501      83.67071638
H      86.03812983      77.33883978      82.55955731
C      83.78179662      74.70834075      84.84423642
H      84.14462407      73.17199326      86.16704484
H      82.57237178      74.09606943      83.29466085
C      82.33426626      76.66798694      86.32956131
H      83.50778630      77.70355696      87.66937726
H      80.74689616      75.80249229      87.31788817
C      81.13995923      78.62196395      84.37747402
O      79.04425275      78.07205359      83.38914716
O      82.21710323      80.67609645      84.14503769
C      88.30769114      76.23146016      85.79287903
O      88.73665901      78.46700639      86.34656884
N      89.39428377      74.31338796      87.02876004
H      89.15428852      72.46901507      86.60735107
C      90.85315248      74.73290720      89.42682273
H      91.73187521      76.58672871      89.23596037
H      92.05123896      73.07939667      89.68949469
C      89.32625362      74.74802501      91.86079022
O      87.14173000      74.06772353      92.06866012
N      90.74543808      75.66076282      93.79964942
H      92.39705888      76.46389650      93.28753359
C      89.95364275      75.59840185      96.57754710
H      87.92029724      75.29604564      96.68526150
C      91.42573955      73.34962754      97.77563358
H      93.40995218      73.81827966      97.49973354
H      91.14417033      71.51848274      96.87234441
C      91.04779429      73.04160215     100.71793745
H      91.52400532      74.84818050     101.58343210
C      88.35304457      72.31216779     101.34910604
H      88.15651303      71.44100396     103.20481728
H      87.66140474      70.84951962     100.07165105
H      87.30802592      74.07906189     101.52107114
C      92.91484389      71.16132447     101.74216911
H      92.55012671      70.92321895     103.75661736
H      94.73276060      72.08729036     101.45115126
H      92.86382128      69.26781870     100.93525598
C      90.45253050      78.13441456      97.89846579
O      92.61437740      78.99612976      97.93059114
N      88.47587678      79.37596475      98.84899813
H      86.75055665      78.64086121      98.49561931
C      88.24344044      81.91197746     100.07354078
H      90.15017429      82.53936660     100.54219291
C      87.41951977      83.76012979      98.06476171
H      86.84504297      85.56103897      98.88301320
H      85.81703185      82.83038445      97.16147253
C      89.44530638      84.51035114      95.93315043
H      90.70953328      82.95132693      95.46260858
H      90.65095176      85.88607190      96.87990331
C      88.41162608      85.56292870      93.41414525
H      89.97820920      85.98622739      92.14424917
H      87.53668280      87.40163240      93.72406037
N      86.80724844      83.94154352      91.86079022
H      85.84726748      82.52802824      92.71305679
C      86.22332301      84.03225038      89.40036656
N      87.13417110      85.71032735      87.85268071
H      86.35371413      85.81993148      86.11413251
H      88.29824250      87.16919606      88.26275132
N      84.55091523      82.40708575      88.61046096
H      83.89518019      82.29559190      86.81900042
H      83.94809253      81.00301910      89.75185566
C      86.65418061      81.83071923     102.39790414
O      84.55847413      80.60428685     102.44325758
N      87.46487320      83.38785371     104.29140991
H      89.03712549      84.41208537     103.94370027
C      86.66740870      82.73022895     106.95592401
H      84.87027897      81.72867401     106.85387879
C      88.72154120      81.23167599     108.24282763
H      88.37761101      81.28080887     110.27428342
H      90.55646545      82.11606790     107.94803033
C      88.73665901      78.48401393     107.29040557
H      89.33759198      78.71645026     105.33453883
C      90.80968877      77.04215275     108.80407635
H      92.60870822      77.92276521     108.31841668
H      91.12905252      75.06927848     108.30896805
H      90.79268124      77.20844867     110.85820885
C      86.32914769      77.02325549     107.70992481
H      85.69797910      77.04782193     109.67146072
H      86.62016554      75.01447642     107.36221517
H      84.77957211      77.42198774     106.41168283
C      85.87183392      84.94687792     108.43368999
O      84.46587754      84.56515320     110.25916561
N      86.55213539      87.18809333     107.59465151
H      87.91084861      87.10872482     106.25672528
C      85.09893586      89.48222107     107.83464675
H      84.01234323      89.45576490     109.58453331
C      87.10393547      91.67052414     108.00283239
H      88.26989661      91.71587757     106.30585816
H      88.35871375      91.15462886     109.55051824
C      86.16474150      94.35960468     108.53762494
H      84.52067960      94.31236153     109.77539567
H      85.43152769      95.15140001     106.78206919
C      88.14139522      96.03957138     109.81507992
H      90.00844482      96.17185222     108.95147500
H      88.33603703      95.23076851     111.69724733
C      87.09448684      98.81368960     109.90200733
H      85.35971809      98.90250674     111.00938695
H      86.65984979      99.28801091     107.94614060
N      89.12216318     100.53712000     110.77695062
H      89.70986806     100.08925486     112.53628581
H      88.44753088     102.31913191     110.90545201
H      90.63583395     100.72042345     109.62988674
C      83.25267325      90.02646225     105.72760191
O      83.51156575      88.92286208     103.66591050
N      81.34215995      91.65729606     106.24727664
H      80.94909687      92.15807353     108.04629609
C      79.51101515      92.42452494     104.18558524
H      78.53024719      90.75778633     103.47315842
C      77.46822100      94.00433614     105.38556145
H      78.70410201      95.25722468     106.45892599
C      76.06415435      95.52556582     103.32009059
H      74.34639314      96.15106523     104.26873319
H      75.33660972      94.45787045     101.71760267
H      77.12051136      97.21309142     102.78529804
C      75.65786320      92.57381332     107.10899184
H      76.68965376      91.80658443     108.71714894
H      74.88496513      91.14706995     105.84287521
C      73.35995600      93.81347378     108.37510847
H      72.70422097      92.60782839     109.91334569
H      72.02391950      94.20086767     106.85576852
H      73.98734514      95.60115487     109.18391133
C      80.83382357      93.73032582     101.91791366
O      82.37772997      95.46320485     102.25806440
N      80.17052963      92.91585378      99.57465303
H      78.78158079      91.62517071      99.34410642
C      81.28546816      94.01000532      97.27485611
H      82.66118891      95.51611719      97.55642533
C      83.10338487      91.97477008      96.17503540
H      84.57926112      91.31903505      97.45249038
H      84.16163160      92.91585378      94.67837216
C      82.07726348      89.44442654      95.06954550
C      81.47255106      89.36127859      92.43148757
H      81.80703262      91.04124528      91.32410795
C      80.62973313      87.07282002      91.24851890
H      80.02691043      87.24478512      89.30588025
C      80.34438445      85.00923889      92.77919721
O      79.50912542      82.77369266      91.64914088
H      79.06126029      82.78692074      89.89169541
C      80.95287633      85.01490807      95.40213733
H      80.85461056      83.25368314      96.42825872
C      81.70309767      87.31092554      96.61156217
H      81.96576963      87.38651459      98.63356933
C      79.28802744      94.80558009      95.37379144
O      77.45499292      93.45820523      94.89002150
N      79.77935628      96.90317630      94.04153439
H      81.05303182      98.23165390      94.54987077
C      78.21655262      97.60615449      91.83244433
H      76.22667082      97.08647975      91.94393818
C      78.19765536     100.47097958      91.19182711
H      79.98722618     101.29678998      90.59656332
H      78.06726425     101.36670985      93.04186917
C      75.98478585     101.37615848      89.80476799
H      74.46922535     100.67318030      91.01041338
H      75.91108652     100.48987684      87.94716703
C      75.89974816     104.23531440      89.35690286
H      77.56081759     104.52255279      88.17204446
H      76.01502147     105.18017755      91.18237848
C      73.37129436     105.12537549      88.10212459
H      71.84439550     104.75687886      89.43438164
H      72.97067238     104.12193082      86.34656884
N      73.23523406     107.87114782      87.58433958
H      71.64975369     108.38515338      86.65081478
H      74.73756648     108.48152942      86.57333600
H      73.29570531     108.89726921      89.19249667
C      79.28991717      96.02634329      89.57422138
O      81.55002984      95.96398232      88.93360416
N      77.55892787      94.56369513      88.30999448
H      75.82982829      94.42574510      89.10745899
C      77.98411629      93.09726751      86.04610236
H      79.61306037      91.86327622      86.28798733
C      75.61250976      91.38139601      85.55855297
H      74.11584652      92.47554755      84.66282270
H      75.01535625      90.46487875      87.30654981
C      76.27580370      89.23088747      83.62536295
O      75.29125629      89.35560941      81.49942085
O      77.85183545      87.53013379      84.02787466
C      78.42820197      94.79424174      83.65370885
O      77.57971486      96.99766262      83.70284173
N      79.50345624      93.90040119      81.55989209
H      79.88896041      92.04280022      81.34824274
C      79.35794732      95.51044801      79.20151365
H      80.16675018      97.37371815      79.53788494
C      81.07381881      94.56180540      77.05289483
H      80.85650028      95.59359597      75.28411101
C      83.80069388      94.20275740      77.58012848
H      84.08793228      92.76467568      79.02576911
H      84.72477005      95.92996725      78.21507652
H      85.16318655      93.55647100      76.17606183
O      80.27824403      92.08059475      76.30267349
H      81.39318256      91.35493985      75.06868221
C      76.66319759      95.98098986      78.31901146
O      76.21911191      97.92362851      77.14549142
N      74.84528088      94.18197041      78.57790397
H      75.15330627      92.46420919      79.34702258
C      72.10139828      94.59959993      78.13948746
H      71.62518724      94.97754519      76.17228237
C      70.78047958      92.07492557      78.76498687
H      70.68410354      91.79146662      80.80211184
H      71.65920232      90.49889383      77.77099083
C      68.03470725      91.91618856      77.91649976
H      66.84795913      93.40340317      78.70640536
H      67.25047083      90.20220679      78.74608961
C      67.84951407      91.96910090      75.10269728
O      67.05960847      93.84748885      73.89705189
O      68.05549424      89.81859235      74.02744301
C      70.98645975      96.80113108      79.77788018
O      68.71878817      97.53623462      79.50953904
N      72.38296750      97.58158805      81.83390241
H      74.09128008      96.73310093      81.88681474
C      71.78581398      99.70941988      83.44583895
H      70.63308093     100.93018307      82.24964220
H      73.49601629     100.63349604      84.12614042
C      70.41576240      98.89494783      85.85901945
O      69.89230822     100.46908985      87.44638956
N      69.94900000      96.36082485      86.28609760
H      70.45733638      95.03801643      85.00675289
C      68.42588060      95.52556582      88.40637052
H      67.05204957      96.89750712      89.09045145
C      66.99913723      93.11427504      87.69583343
H      65.87475007      92.65507155      89.35879258
H      68.41832169      91.66674469      87.32733680
C      65.26247875      93.26734287      85.43005158
C      64.90154102      90.98833294      84.05622055
H      65.74246923      89.20632103      84.58912337
C      63.19700789      90.91652334      82.05311066
H      63.07039623      89.24033610      80.89470843
C      62.02159812      93.08781887      81.27265369
O      60.57784722      92.92908186      79.19206502
H      59.50259295      94.35582523      78.88592936
C      62.49969888      95.51044801      82.41971756
H      61.52460010      97.19419415      81.79799761
C      63.98880321      95.40462333      84.60613091
H      64.40454300      97.12238455      85.62091394
C      70.05293495      95.20620207      90.85545582
O      72.33761406      94.77156502      90.53798180
N      69.00602657      94.97754519      93.10800959
H      67.12196944      94.96242738      93.41414525
C      70.77481040      94.69597597      95.34355582
H      72.73445659      94.98699382      94.78608656
C      70.15686990      96.62916599      97.35422462
H      71.09795360      96.03768165      99.09088310
H      68.15376001      96.80868999      97.78886167
C      71.17543238      99.21809103      96.89880057
C      69.72412257     101.08892008      95.74039834
H      67.79093256     100.60137070      95.30198184
C      70.83150219     103.50588004      95.20560580
H      69.60318009     104.84380627      94.27963990
C      73.28058749     104.08980547      95.95771687
O      74.15931023     106.46708117      95.65536066
H      73.23712379     107.76721287      94.78797628
C      74.88118568     102.09992366      96.97438963
H      76.84461132     102.58558332      97.24839994
C      73.74923962      99.75666303      97.50540272
H      74.96244391      98.21653609      98.07043089
C      70.74268506      92.01634406      96.32999295
O      68.73201626      90.91463361      96.52841422
N      73.06515869      90.96187677      96.73061493
H      74.49379179      92.19019888      96.42447927
C      73.49979575      88.19909690      96.55864984
H      71.80093179      87.04636385      96.71549712
C      74.70166168      87.69076052      93.93759944
H      76.75579418      87.80981328      94.01696795
C      74.11584652      85.05837177      92.87746298
H      72.06738320      84.83160461      92.85856572
H      75.15897545      83.72233527      94.04909329
H      74.94543638      84.83727379      91.00663393
O      73.69254783      89.32537379      91.97228408
H      74.49568151      90.94675896      92.07810875
C      75.25535149      87.25801320      98.57120836
O      76.81626543      88.73577918      99.57654276
N      75.14385764      84.80703817      99.19103859
H      74.15931023      83.53336264      98.16491720
C      77.09972437      83.61840032     100.87100528
H      78.75701435      84.83538407     100.72927581
C      76.15297149      83.92453598     103.65079269
H      75.51991318      85.87662326     103.83220642
C      73.79648278      82.21811312     103.97393589
H      72.42076202      82.58849948     102.48483155
H      72.93098813      82.76991321     105.75783753
H      74.25568627      80.21878268     104.14401126
C      78.16175056      83.42186878     105.66524094
H      79.90974740      84.22689219     104.93202713
H      78.70599174      81.43576643     105.67468957
C      77.56081759      84.56326348     108.29385024
H      77.00901751      86.54747611     108.35054203
H      79.28424799      84.40641619     109.41067849
H      76.06226463      83.45588386     109.17257298
C      77.68742926      80.93687868      99.95070857
O      76.23422972      80.01280252      98.41058162
N      79.65463435      79.71611548     100.91635872
H      80.88484618      80.88018689     101.79508145
C      80.35950226      77.04215275     100.50817783
H      78.75890408      75.82138955     100.94281488
H      81.84104769      76.42610197     101.80075063
C      81.17208458      76.41098416      97.76807468
O      82.75189578      77.76024875      96.53975257
N      80.14974264      74.23401945      96.89880057
H      79.39763157      73.06049941      98.20082200
C      80.03257961      73.47057002      94.16247687
H      81.65963397      74.08473107      93.05887671
C      80.07226386      70.56228122      93.93381999
H      78.42442252      69.60230026      94.71049750
C      80.10627894      69.87631057      91.04064900
H      81.75223056      70.75125386      90.16570572
H      78.33371566      70.43566956      90.15247764
H      80.15541182      67.84296506      90.72317498
C      82.56859232      69.60041053      95.22450306
H      82.70465262      70.34496270      97.13879582
H      84.25233847      70.37330859      94.32499334
C      82.69709371      66.67322447      95.45127022
H      84.63028373      66.14032165      95.92370180
H      82.33048681      65.65844144      93.69760420
H      81.47444079      66.09307849      97.00651497
C      77.38885250      74.50425031      93.07966370
O      75.62762758      73.16065490      93.45571923
N      77.11106273      76.89286437      92.19338205
H      78.59449789      78.07961250      92.36156770
C      74.91709048      77.93788302      90.85545582
H      74.65252880      76.77192189      89.17548913
H      75.31960219      79.88619085      90.32255300
C      72.39052640      78.02858989      92.19149233
O      70.41576240      78.08528168      91.11434833
N      72.28470173      78.26291595      94.70860778
H      73.89663827      78.48023448      95.71205245
C      70.00191234      78.18165772      96.14857923
H      68.73012653      76.93254863      95.12056811
C      70.59906586      76.97790206      98.62601042
H      71.83872632      78.09473031      99.83543526
H      71.13952758      75.03148395      98.22349872
C      68.25958468      76.60562597     100.09243804
N      66.73646527      74.49102223     100.09999695
H      67.01425504      72.96034392      98.99639678
C      64.70500949      75.08628602     101.44548208
H      63.04582978      73.91843516     101.63634444
N      65.02059378      77.48623843     102.40924250
H      63.53148945      78.39141734     103.18969947
C      67.24102220      78.41787351     101.56264511
H      67.87785997      80.32838681     101.89523695
C      69.20066838      80.88207662      96.27519089
O      70.25324594      82.55259468      97.56776369
N      67.18622014      81.37529519      94.79931464
H      66.46245496      79.90697784      93.82043641
C      65.92955214      83.81682158      94.75585093
H      67.28259618      85.29269783      94.26830155
C      64.02092856      83.86595447      92.63368829
H      62.97024073      82.09906036      92.76974858
H      64.90721020      83.73367363      90.77986677
C      62.34852077      86.21677400      92.55809923
H      61.56617408      86.66652886      94.41003102
C      64.09462789      88.42208461      91.76441418
H      65.06783694      88.90774427      93.51430075
H      62.94945374      90.02079307      91.15025313
H      65.43066439      88.04224962      90.24318450
C      60.16021770      86.08071371      90.75341060
H      59.16622166      87.88162288      90.85734555
H      58.79205585      84.61995527      91.24473945
H      61.03138153      85.73489379      88.91848635
C      64.78248826      84.50279223      97.41280613
O      63.38220107      82.94943721      98.62601042
N      65.01681433      86.87628848      98.21216036
H      66.14687066      88.11783867      97.30509173
C      63.46912848      87.82493109     100.24550587
H      62.68111260      86.28480415     101.36044440
C      65.29649382      89.12884225     102.12578356
H      64.09651761      89.92630675     103.59788035
H      66.17899601      90.63495412     101.02974229
C      67.38653112      87.54903105     103.43158444
H      68.20667234      86.19787674     102.10877602
C      69.38397184      89.22710802     104.42558048
H      70.08506030      90.51779109     102.98182958
H      71.03937209      88.08571332     104.87722507
H      68.74524434      90.25133968     106.09420881
C      66.27159260      86.14307467     105.65201286
H      67.83628599      85.42497868     106.78395892
H      65.02248351      84.70499295     104.86777644
H      65.27192738      87.42430911     106.91812949
C      61.33751720      89.64851699      99.49717425
O      59.27204634      89.27246145     100.44581686
N      61.90065564      91.36060902      97.77941304
H      63.67510865      91.45320561      97.08210403
C      60.08462865      93.13128258      96.69471013
H      58.50103800      91.99366734      96.02763674
C      59.21724427      94.97943491      98.63167960