 %block lattice_cart
   139.898   0.000   0.000
   0.000 144.87   0.000
   0.000   0.000   168.12
 %endblock lattice_cart

 %block positions_abs
N      92.10982047      42.52441192      87.18560733
H      91.51644641      42.79653251      88.97895759
H      94.00332624      42.28441668      87.28198337
H      91.52778477      40.78586371      86.66215314
C      91.09881690      44.42736631      85.35257280
H      92.04368005      46.11867136      86.05555098
C      91.99832662      44.29130602      82.60869020
H      90.83614494      42.86645238      81.68083458
H      93.98253925      43.77919019      82.40271003
C      91.37282721      46.69692762      81.24619752
H      89.33192279      46.84621599      81.01187146
H      92.18163007      46.87834134      79.35836094
S      92.28934447      49.68269519      82.68238952
C      90.66984902      51.80863729      80.45818164
H      91.42384982      51.62722357      78.54955807
H      91.25944363      53.69269443      81.04777626
H      88.64406242      51.51195026      80.68683853
C      88.16407193      44.54830880      85.58878859
O      86.94897791      42.78708387      84.85935424
N      87.07369985      46.56086732      86.62813807
H      88.32091922      47.85532985      87.27064501
C      84.49422343      46.82731873      87.41048475
H      83.25645270      45.52340758      86.40326064
C      84.29769190      46.17347343      90.29609683
H      85.17263518      44.36878480      90.75341060
H      82.39662722      46.26607002      91.08600244
C      85.95876132      47.71926955      92.13669026
O      87.48943964      49.38789789      91.47339633
N      85.62050031      47.35077292      94.56687830
H      87.11149438      47.62856269      95.72528053
H      84.42052411      45.99772888      95.17537018
C      83.53424247      49.54096572      86.99096551
O      84.91185295      51.18880706      86.03098454
N      81.14373868      49.83387330      87.53709642
H      80.08360222      48.30697443      87.97362319
C      79.81715081      52.28106887      87.14025390
H      80.13462483      52.76105935      85.16171045
C      76.85594968      52.10910378      87.65992862
H      76.11895641      50.40457064      86.77175726
C      76.24556808      51.87099826      90.55687907
H      77.43231620      50.39701174      91.37135111
H      74.31804724      51.19825569      90.84411747
H      76.58382909      53.68135607      91.47906550
C      75.47833919      54.34465000      86.51853393
H      76.23611944      56.04351396      87.40292584
H      73.47333958      54.50338701      86.96450935
C      75.82415911      54.77928706      83.69339310
H      77.73278268      55.38966866      83.21340262
H      74.45977671      56.08319821      82.86191351
H      75.58794332      52.91223746      82.85624434
C      81.14373868      54.38055480      88.78242606
O      80.91886125      56.65767501      88.24385405
N      82.52134916      53.64167182      90.75907979
H      82.59315876      51.76328386      91.07844353
C      83.87250348      55.27628508      92.53920196
H      82.79158002      56.94302369      93.07966369
C      84.27312545      54.04418352      95.08844276
H      85.67152293      55.16101177      96.11078470
H      84.90051459      52.10343460      94.79364545
C      81.89962920      53.80607801      96.83077042
C      81.31192432      55.63911253      98.73561455
H      82.60827657      57.21514427      98.77718852
C      79.31448361      55.44825017     100.38345589
H      78.88740546      56.97703876     101.66280061
C      77.68364980      53.41679438     100.22471888
H      75.96966803      53.36010260     101.33020877
C      78.19576563      51.45903792      98.53341384
H      76.92964900      49.87355755      98.32365422
C      80.17997826      51.66690782      96.83266015
H      80.75634479      50.12300142      95.62890450
C      86.28379425      56.23248659      91.33544631
O      87.14361972      58.38866431      91.81921625
N      87.73510406      54.62055005      89.92193102
H      87.24188549      52.78373607      90.10145503
C      89.80624410      55.46903716      88.42904723
H      91.01566894      56.72759489      89.52130905
C      91.39172447      53.19947586      87.80921700
H      92.86571100      53.81363691      86.50719557
H      90.12371812      51.81619620      86.95884016
C      92.92807197      52.07130925      89.88791596
H      91.83958961      51.59509822      91.57166209
H      94.39072013      53.45080946      90.33767081
C      94.26977765      49.66757738      89.09045144
O      96.28800535      49.72237944      87.82433481
O      93.21531037      47.60210652      89.69516387
C      89.23365703      56.84097846      85.99696947
O      90.77945315      58.45858419      85.35446253
N      87.02267724      56.60854213      84.87636176
H      85.89829008      55.14589396      85.36769061
C      86.32158878      57.86898958      82.55577786
H      87.85226709      57.61009707      81.19895436
C      83.98588705      56.48948937      81.48808249
H      82.47032655      57.05829699      82.75986829
H      84.25044874      54.45425413      81.64870923
C      83.32259312      57.19435728      78.72719234
H      84.74177758      56.40445169      77.45918599
H      83.31125476      59.25037951      78.63270603
S      80.21966251      55.83375434      77.87492578
C      80.33871527      55.58808992      74.41294717
H      80.22344197      57.50805185      73.67784363
H      78.56237254      54.72826445      73.82335256
H      82.00167443      54.73015417      73.54934224
C      85.89451063      60.71113795      83.03387861
O      87.05102313      62.32874368      81.67327567
N      84.15974188      61.38010107      84.65904324
H      83.38306436      60.01571867      85.74185643
C      83.51534520      64.00115146      84.97273781
H      83.19787118      64.75326254      83.08112177
C      80.90941262      63.82918637      86.37491474
H      80.62784340      65.61686746      87.35568269
H      80.86027973      62.56306974      88.00007937
C      78.47166567      63.60808839      84.79888299
H      76.92964900      63.85942199      86.14058868
C      78.20332454      65.70001542      82.76931694
H      78.44143005      67.57084447      83.59512732
H      76.34950302      65.75103803      81.87547638
H      79.66408298      65.35041605      81.35958110
C      78.25245742      61.10042157      83.33623482
H      76.42320235      61.01160444      82.38948194
H      78.48678348      59.59997888      84.72518367
H      79.70943641      61.12498802      81.88303529
C      85.72254554      65.49214553      86.35034830
O      86.03435038      67.76359655      85.98185166
N      87.55558006      64.16933711      87.53709642
H      87.00944916      62.43645808      88.12291157
C      89.90828932      65.19734822      88.43660614
H      89.39995294      67.01337521      89.26619600
C      90.91929290      63.53249934      90.53987152
H      92.97153567      63.70824389      90.62301948
H      90.52434010      61.54261753      90.18838243
C      89.49821871      64.08996860      93.00974382
H      87.60660267      63.31707054      92.74329241
H      89.20909058      66.11197576      93.26107741
C      90.87016001      63.26415820      95.44371132
H      89.65317627      63.77438431      97.02730196
H      92.62004658      64.29783850      95.77630314
N      91.63738890      60.61287218      95.45315995
H      93.14916995      60.10075635      94.40814130
C      90.80590932      58.70991779      96.69282040
N      88.81602751      58.78550684      98.07987951
H      88.48721513      57.25104907      99.16836187
H      87.49699854      60.13477143      97.78508221
N      91.96053210      56.57830651      96.44337653
H      91.09125799      54.93424461      96.87045467
H      93.42318026      56.38366470      95.23206196
C      91.77911837      65.73780995      86.31822295
O      93.66695496      66.97180123      86.68105039
N      91.22542856      64.92711736      84.01275684
H      89.77033930      63.71958224      83.75197461
C      92.60492877      65.57340376      81.63926059
H      94.45119138      66.31039702      82.18728122
C      93.24932544      63.22825340      79.82890278
H      91.49565942      62.15299913      79.73063701
C      93.93340637      64.13154258      77.13793251
H      94.81779828      62.51204713      76.21763580
H      95.16172847      65.77371475      76.93195234
H      92.19485816      64.64176868      76.15716456
C      95.28078123      61.74292852      81.41816261
H      94.90661542      61.66544974      83.44205949
H      97.13460274      62.60086427      81.15549065
C      95.36770864      58.99526646      80.37125424
H      96.55067731      57.96158617      81.69973183
H      96.27666699      58.98014865      78.52121217
H      93.46475424      58.22236840      80.25598093
C      91.17251622      67.67666914      80.14637680
O      92.19485816      69.71190438      79.48119314
N      88.59492953      67.44234308      79.80244662
H      87.77478831      65.75670721      80.16527407
C      87.14361972      69.06939744      78.34546764
H      88.19241783      69.46623996      76.61825778
C      84.64729126      67.80894998      77.61414354
H      83.19220200      69.22813445      77.27777227
H      83.78368634      66.78849778      79.18072667
C      84.90807349      66.23669769      75.20474250
O      86.40851619      66.81306422      73.39816415
O      83.50211712      64.33185357      75.05734384
C      86.62583471      71.59974097      79.66071715
O      86.58048128      73.56505633      78.31523201
N      86.54835593      71.57706425      82.26287028
H      86.17041067      69.93678181      83.16426972
C      86.16663122      74.05260572      83.61969378
H      86.64095252      75.68910871      82.46318127
C      83.52101438      74.27370370      84.90659740
H      83.52101438      75.68154980      86.41270926
H      83.46432259      72.45200754      85.86468863
C      81.42341817      74.35307221      82.95639983
H      79.76801792      74.41732290      84.17716304
H      81.58593464      72.60129591      81.88681475
C      81.51601476      76.61885406      81.30666877
O      82.82559510      78.40086597      82.11169218
O      80.41430432      76.68877393      79.26198490
C      88.09793151      74.44944825      85.71728997
O      88.26611715      76.59428761      86.64325587
N      89.44152692      72.37452876      86.50152639
H      89.29601799      70.84574017      85.36769061
C      91.11204498      72.33673423      88.75785962
H      92.48020683      73.87497145      88.67660138
H      92.13627664      70.55283259      88.86935346
C      89.65317627      72.71845895      91.20505519
O      87.39495332      72.78081991      91.32032849
N      91.02511757      72.99246926      93.28942331
H      92.89405689      72.65798770      93.10045068
C      89.85726671      73.38364261      95.86134082
H      87.80124448      73.45734193      95.92748124
C      90.83047576      71.05361006      97.29564310
H      92.85815209      70.88731415      96.96683071
H      89.93096603      69.44356325      96.38101556
C      90.25977841      70.91188059     100.18881408
H      91.08369909      72.63909044     100.94659433
C      87.44030675      71.00258745     100.65179703
H      86.53323812      69.33206939      99.85811197
H      86.55024566      72.68066442      99.85244280
H      87.12283273      71.14620665     102.68136309
C      91.62605054      68.30405828     100.89746145
H      91.27456144      66.72991626      99.61811674
H      91.33125323      67.73903011     102.85710764
H      93.61215289      68.82562274     101.06564710
C      90.94007989      75.84595599      97.23139241
O      93.28145079      76.18799646      97.44682120
N      89.18641387      77.35962677      98.05531307
H      87.34015126      76.96089452      97.77563359
C      89.64372764      79.81627098      99.28363518
H      91.62605054      80.13941418      99.73905923
C      89.02200768      81.91575691      97.34666570
H      88.93319054      83.72044554      98.33499258
H      87.10582520      81.71355620      96.62290053
C      90.67929765      82.10661927      95.01852289
H      90.88905728      80.26413611      94.12090290
H      92.46319929      82.95132693      95.60811750
C      89.42640911      83.75068116      92.99462600
H      90.84559357      84.84483270      91.98173270
H      87.93163560      84.86561969      93.86390012
N      88.17163084      82.30693026      90.86112500
H      87.74833214      80.46255738      91.11245861
C      87.70297871      83.22722697      88.58778424
N      88.41351581      85.57615678      88.09078622
H      88.31713976      86.30559114      86.32956130
H      89.06358166      86.59282954      89.57044193
N      86.77134364      81.90819801      86.69049903
H      86.34237577      82.83983308      85.08234193
H      86.04757846      80.16964980      87.00608332
C      88.07336507      79.98067717     101.69870540
O      85.83214966      79.16809485     101.84988351
N      89.32436389      80.93498895     103.72071256
H      91.06102237      81.65119523     103.37867209
C      88.54390692      80.71011152     106.37577803
H      86.68063678      79.83705797     106.39278556
C      90.27111677      78.91865098     107.88188991
H      89.54168241      78.77881123     109.80185184
H      92.03990060      79.95044155     108.09731870
C      90.97409496      76.39397662     106.77073083
H      91.91895812      76.86073902     105.00005727
C      92.99799184      75.13163945     108.46203589
H      93.49498986      73.34584808     107.56441588
H      92.09659239      74.87085722     110.29507040
H      94.64961264      76.35996155     108.39400574
C      88.80468915      74.55905237     106.28318144
H      89.61727147      72.76759183     105.67846902
H      87.26645193      75.28281755     105.12099976
H      87.84470819      74.11496669     108.05196527
C      88.06013699      83.26880095     107.78740358
O      87.20220124      83.39730234     109.86610254
N      88.19808701      85.32671291     106.36443967
H      89.57002831      85.16986562     105.04730044
C      86.93952928      87.84949753     106.85954796
H      85.66018457      87.79091602     108.47337423
C      89.13161180      89.82426153     107.48882683
H      90.29190376      90.23244241     105.83531630
H      90.44119214      88.79058124     108.69825167
C      88.25288907      92.15807353     108.87210649
H      86.89984503      91.59304536     110.31774713
H      87.21731905      93.36938809     107.56819533
C      90.34859555      93.80969433     109.99460393
H      91.41251146      94.60337938     108.42046190
H      91.53345395      92.49822426     111.05285065
C      89.48310090      95.98854876     111.67268089
H      88.11493905      95.21376098     113.00304822
H      88.28501442      97.28301129     110.60876497
N      91.73376494      97.02033933     112.76116325
H      92.59548014      95.76934051     113.91956547
H      91.27834090      98.68329849     113.58130446
H      93.04523500      97.42285104     111.43457538
C      85.36538726      88.49200448     104.46337500
O      85.70175855      87.48855981     102.38467605
N      83.56069863      90.20598625     104.88100452
H      83.34526983      90.59526987     106.73671576
C      81.72199493      91.05258363     102.95726314
H      80.84894137      89.45576490     101.99539243
C      79.54314049      92.77034485     104.10432700
H      80.38217898      94.05724847     105.47815804
C      78.19765536      94.28779508     102.01051025
H      76.74445582      95.51233773     102.80608502
H      77.45310319      92.95553803     100.62723059
H      79.48266925      95.69753091     101.23383273
C      77.66097308      91.10927542     105.64823340
H      78.52268828      90.36094380     107.36221517
H      77.13940862      89.55781012     104.39912430
C      75.27991793      92.59649003     106.38522667
H      74.11584652      91.64595770     107.79307277
H      74.03647802      92.89506679     104.77140040
H      75.89785843      94.48999580     106.91435003
C      83.00700882      92.30736191     100.65935594
O      84.32603779      94.19897795     101.06942654
N      82.45520874      91.16029803      98.51262684
H      81.43664626      89.55214094      98.40869190
C      83.10905404      92.19775778      96.01062920
H      84.29013299      93.87961420      96.12590252
C      84.93263994      90.41763559      94.73506395
H      86.50678196      90.24189105      96.05220318
H      85.79435514      91.35305012      93.11367877
C      83.86683430      87.86839480      93.84311313
C      83.34526983      87.42430911      91.28820315
H      83.81581169      88.82081686      89.87279814
C      82.06403539      85.25112385      90.42459823
H      81.60861135      84.91664230      88.46495204
C      81.58782436      83.32360301      92.29731700
O      80.61650504      81.07482870      91.58111073
H      80.22911114      81.12207186      89.80854744
C      82.25678748      83.68832019      94.77852764
H      81.97899771      82.11984735      96.05220318
C      83.36227737      85.90118971      95.72528053
H      83.85549594      86.10339042      97.69626507
C      80.86027973      92.82514692      94.39680294
O      78.80614723      92.81758801      95.50796200
N      81.03224483      93.45064633      91.95905599
H      82.71599097      93.47332304      91.06332571
C      78.99323014      94.39361976      90.17704407
H      77.13373944      94.04779984      90.99151611
C      79.40896992      97.28301129      89.71784059
H      78.13151494      97.90284152      88.22495679
H      81.33082158      97.65528737      89.08100282
C      78.70977119      98.85148413      92.05732176
H      79.97966727      98.30913268      93.58800007
H      76.70099212      98.72487247      92.49573826
C      79.18598222     101.65394825      91.44694015
H      77.87640188     102.14338737      89.93137966
H      81.19665102     101.73520648      91.00852366
C      78.45654786     103.52666703      93.56343363
H      79.58093502     103.19407520      95.25662840
H      76.45343797     103.41328345      94.03397548
N      78.91008218     106.13259961      92.59022458
H      78.32237729     107.34580391      93.94137889
H      77.96143957     106.50109624      90.97450858
H      80.78658041     106.47652980      92.50707662
C      78.96677397      92.93475104      87.81110674
O      80.98689140      92.66074073      86.81900042
N      76.79358871      91.94453445      87.18182788
H      75.34038917      92.28468519      88.37235545
C      76.12462559      90.56125479      84.98029672
H      77.40774976      88.99467168      84.59479254
C      73.46011149      89.47277244      85.41304404
H      72.15620033      91.02612747      85.77209204
H      73.44121423      88.15185374      86.99474496
C      72.34328324      88.05358798      83.19261563
O      73.80593141      86.75156655      81.92271955
O      70.13230345      88.41830515      82.53688059
C      76.21911191      92.35082561      82.69939705
O      76.86161885      94.59959992      82.99230464
N      75.95643995      91.29635833      80.39960013
H      75.48967755      89.45009572      80.26542957
C      76.53091675      92.71365306      78.01476553
H      78.53591637      93.18230519      78.11114156
C      76.01313174      90.91463361      75.68284325
H      76.03391873      92.06358721      73.97264094
C      78.20521426      89.00978949      75.96630221
H      80.02880015      89.84315879      76.43495433
H      78.51323965      88.15374347      74.11814986
H      77.50979498      87.41675021      77.07179210
O      73.75490880      89.61828136      75.55623159
H      74.07049309      87.85138726      75.28789045
C      74.87551650      95.11927466      77.80878535
O      75.81093102      97.11482565      77.09446881
N      72.38107777      94.99266300      78.33034982
H      71.74990918      93.22198944      78.66105193
C      70.60473503      96.93530165      78.51743272
H      70.89764261      98.16173402      76.89037838
C      68.02336889      95.72965626      78.35491626
H      66.57583853      97.19797360      78.35113681
H      67.62841609      94.51456224      79.96874253
C      67.56227567      94.04024094      76.10614195
H      65.53837879      93.65473677      76.09291386
H      68.53926417      92.22988313      76.21763580
C      67.94589011      95.29312948      73.62115184
O      68.99846767      94.17063205      71.87126528
O      67.26369891      97.56080106      73.47186347
C      70.80504602      98.69463684      80.80211184
O      69.34050813     100.40483916      81.21596191
N      72.78358947      98.60392998      82.32334152
H      74.04403692      97.23765786      81.89059420
C      73.29381558     100.35381655      84.41715827
H      72.97256210     102.29834492      83.81811504
H      75.29125629     100.23665352      84.91226657
C      71.81038042      99.77556030      86.66404286
O      70.75213368     101.45174754      87.91504169
N      71.63652560      97.41529213      87.53898614
H      72.48879217      96.04713028      86.52042367
C      69.87341095      96.65184270      89.53642686
H      69.17043276      98.25999979      90.61546058
C      67.54526813      95.34982127      88.38180407
H      66.48513167      94.72621159      90.03720433
H      68.39564497      93.81725323      87.30277036
C      65.69711580      96.95986809      86.61679971
C      64.93933555      95.82225285      84.40204046
H      65.61963702      93.97787997      83.85401984
C      63.08362431      97.01655988      82.91293612
H      62.28427008      96.13972687      81.25186670
C      62.13309197      99.43351983      83.57245062
O      60.20746086     100.44074396      82.21940657
H      59.64054296     101.77489073      83.30599921
C      62.98157909     100.71853373      85.86846808
H      62.19734267     102.55345798      86.29932568
C      64.75792182      99.37871777      87.29521145
H      65.42499521     100.19130008      89.04509802
C      71.12440977      94.93408148      91.29954151
O      72.75902303      93.34482165      90.54365098
N      70.54615352      95.28368085      93.77886242
H      69.47278897      96.72743175      94.41192075
C      72.24879692      94.25755946      95.75740587
H      74.24056846      94.47298826      95.28497430
C      71.76313726      95.78634805      98.24995488
H      72.81571482      94.74510885      99.68047770
H      69.77325545      95.34982127      98.54853164
C      72.49635107      98.50188476      98.42003026
C      70.49135145     100.29523503      98.37089737
H      68.58650733      99.57146985      98.29341859
C      70.87685562     102.81612993      98.77907826
H      69.10429234     103.80067734      99.02663240
C      73.47144985     103.74776501      99.10222146
O      73.96277869     106.28188799      99.72205168
H      72.46989490     107.28155321      99.47449754
C      75.39330151     101.89016404      99.13623652
H      77.25090247     102.50432509      99.72016196
C      74.99267953      99.29368009      98.90757964
H      76.66319759      98.12016005      98.96049197
C      71.93510236      91.36627820      95.92748124
O      69.76380682      90.41574587      95.82543602
N      74.01947048      90.07181568      96.28841897
H      75.62195839      91.10738570      96.32243404
C      74.34072395      87.42052966      95.94070934
H      72.60784492      86.36039320      96.29408815
C      75.16086517      86.84794259      93.14013493
H      76.87295721      87.93642494      92.78675612
C      75.62951730      84.06626546      92.47495127
H      76.94665654      83.32927219      93.87523848
H      76.46666605      83.82060103      90.60979141
H      73.83994648      83.05715160      92.61290130
O      73.14641692      87.57926667      91.51308059
H      73.23334433      89.35560941      91.16726066
C      76.40241536      86.43409253      97.81342810
O      78.19576563      87.77579821      98.50317821
N      76.14163313      83.98878668      98.59199534
H      74.62796235      83.09872558      97.84366372
C      77.91419641      82.82471527     100.18692436
H      79.71510559      83.82249076     100.07165105
C      76.95610517      82.94376803     102.92891724
H      76.25123726      84.87695804     103.00828574
C      74.83961170      81.12774104     103.29930359
H      73.78136496      81.42820752     105.04163125
H      75.25346176      79.13219005     103.00072683
H      73.53003136      81.74946100     101.83476570
C      78.87984656      82.27480491     105.12855866
H      79.75101039      80.43799093     104.79407710
H      77.92175532      82.48078508     106.94080619
C      81.12295169      84.12295724     105.18147100
H      82.26434638      84.13996478     103.46748923
H      82.38150941      84.09272162     106.81419453
H      80.39540706      86.04858836     105.09643331
C      78.63796159      79.99957443      99.46882835
O      77.23578466      78.70889136      98.11011514
N      80.79224959      79.06793936     100.46660385
H      81.98844634      80.10728883     101.52485058
C      81.14373868      76.24279852     100.46471413
H      79.54314049      75.24124357     101.28674507
H      82.86338962      75.66076282     101.44170263
C      81.36861611      75.27147919      97.63012466
O      83.10716432      76.05193616      96.24117581
N      79.84360698      73.31561246      97.13123691
H      78.79102942      72.60885482      98.55798028
C      79.70565696      72.12319516      94.53286322
H      81.36672638      72.58995756      93.41225553
C      79.68864942      69.19033992      94.60845228
H      77.86884298      68.83696110      95.50607228
C      79.68675969      68.27949184      91.92504092
H      80.88295645      69.27159815      90.57199687
H      77.75545940      68.32484527      91.20694492
H      80.42753241      66.36708881      91.75874501
C      81.74467165      68.03949659      96.23739636
H      81.40074146      66.02693807      96.50951696
H      81.68420040      69.01081592      98.05153362
C      84.34493505      68.10752674      94.83332971
H      85.01389817      69.95756880      94.22105838
H      84.37706040      66.83007175      93.21950344
H      85.65451539      67.39509992      96.25440389
C      77.47200045      73.27025903      93.23273152
O      75.29881519      72.33484450      93.25540824
N      77.92931422      75.27903810      91.82866487
H      79.77746656      75.75902858      91.77197308
C      76.21344273      76.55649309      90.19783107
H      76.05092627      75.50013608      88.43849586
H      77.13373944      78.30637965      89.61768509
C      73.58294370      77.34261923      91.31465932
O      71.80471124      78.04748715      89.95216665
N      73.29948475      77.39931102      93.87523848
H      74.61662399      76.69633283      95.06576605
C      70.81260493      77.94922138      95.11300920
H      69.39719992      76.99490959      93.95838642
C      70.68788299      76.67743557      97.65658082
H      72.16564897      77.39742130      98.89813101
H      71.29259541      74.71589966      97.48839519
C      68.20478261      76.48657321      99.12111871
N      66.41332207      74.54393456      98.99261732
H      66.63442005      72.84129116      98.15735829
C      64.14565049      75.53982033      99.73527977
H      62.37875639      74.64409006      99.23828174
N      64.59540536      77.97756728     100.58754633
H      63.25558940      79.33439077     100.65935594
C      67.14086670      78.62763313     100.16046818
H      67.78715310      80.56082314     100.25684423
C      69.76569655      80.64208138      95.30765102
O      71.06015907      81.98000761      96.68526149
N      67.76447638      81.37718491      93.99996040
H      66.56638990      80.19988542      93.09478150
C      66.78370843      83.97366887      93.85634121
H      68.31249701      85.34749990      93.72783982
C      64.92421773      84.34405522      91.52063949
H      63.58251205      82.79258992      91.34300522
H      66.29237959      84.32893741      89.97862281
C      63.38031134      86.80825834      91.21828328
H      62.61119273      86.83849396      89.30965969
C      60.97657947      87.13707071      92.97383902
H      61.66632957      87.68320162      94.83710916
H      59.98447315      85.33805126      92.81699173
H      59.95990671      88.72444082      92.14235945
C      64.72957592      89.39718338      91.34489493
H      63.40487778      90.89573635      90.84978664
H      66.23001862      89.46899298      89.93704883
H      65.48546645      89.82804098      93.21005480
C      65.43444384      84.48956415      96.39802309
O      64.23635736      82.80770773      97.46571847
N      65.71223361      86.80447888      97.46760819
H      66.66087622      88.05358798      96.38479502
C      64.68611222      87.37517623      99.96204693
H      63.89242717      85.69143008     100.84643884
C      66.82906186      88.28413459     101.54374784
H      66.11852476      89.38395530     103.13489741
H      67.95533874      89.56914848     100.39668398
C      68.62997103      86.27346579     102.61144322
H      69.63908489      85.16230672     101.19792793
C      70.85795836      87.42241939     104.09865783
H      71.98045579      88.61294696     102.84576928
H      72.05415511      85.95032259     104.90557097
H      70.40631377      88.69987437     105.65012312
C      67.22023521      84.46310798     104.37077841
H      68.58650733      83.50879619     105.58209299
H      66.07317133      83.14407901     103.28040634
H      66.06939188      85.59127459     105.65579231
C      62.56017012      89.32348406      99.84110444
O      60.71957669      89.19498267     101.25650945
N      62.67544342      91.33604258      98.31420558
H      64.27226216      91.81036389      97.38257050
C      60.52304515      93.22954835      98.00806991
H      58.71457707      92.31681054      97.64146301
C      60.02037795      94.91896367     100.35322027