 %block lattice_cart
   139.898   0.000   0.000
   0.000 144.87   0.000
   0.000   0.000   168.12
 %endblock lattice_cart

 %block positions_abs
N      92.72020208      41.58899740      85.00108371
H      94.62315648      41.43970902      85.06533440
H      92.19863761      40.11123142      83.91449108
H      91.84525880      41.29042064      86.66971204
C      91.87927386      44.04942105      84.03165411
H      92.64839248      45.32498632      85.45650775
C      92.76933496      44.76184787      81.42950097
H      91.95297319      43.54864358      79.97630144
H      94.82346746      44.63334649      81.38981673
C      92.01155471      47.34888320      80.58290358
H      90.09159278      47.93469835      81.04966598
H      92.24588077      47.39045718      78.53632999
S      93.84647896      49.70915136      82.14759697
C      93.11515488      52.46437233      80.24275285
H      94.07135639      54.01394790      81.20084408
H      91.07614018      52.75161073      80.18606106
H      93.71608785      52.09209624      78.30767310
C      89.06169193      44.17036354      84.42282746
O      87.79179586      42.44504341      83.85401984
N      88.10360070      46.24906248      85.56233242
H      89.32247416      47.61344488      86.11035305
C      85.40696124      46.57409541      86.20861881
H      84.46776726      45.57443019      84.67227132
C      84.71721113      45.26262535      88.73518290
H      85.56191881      43.38234767      88.77486716
H      82.65551973      45.24750754      88.76163906
C      85.44286604      46.92369478      91.02364146
O      85.90017982      49.13467456      90.91403733
N      85.05925160      45.96371381      93.24406989
H      85.60160305      47.08243179      94.69160024
H      84.85894061      44.07965668      93.47083704
C      84.63784263      49.32931637      85.89492426
O      86.05513737      51.15668172      85.60957558
N      82.19253678      49.87922673      85.97996194
H      80.92264070      48.46571145      86.15192702
C      80.93019960      52.44358534      85.96295439
H      81.44609489      53.28829300      84.15637605
C      78.10127931      52.06941953      86.41270926
H      77.65530391      50.61621999      85.02376043
C      77.62317856      50.92802483      89.00163431
H      75.98856530      49.68080547      88.85612539
H      77.17153397      52.36043738      90.40948041
H      79.04614248      49.74127671      89.89736458
C      76.58193937      54.62432950      85.98374139
H      77.50979498      56.21547906      86.90781756
H      74.63552125      54.44858496      86.63191751
C      76.52713729      55.61643582      83.26820467
H      78.45087868      56.13233110      82.74286076
H      75.19676997      57.18868811      83.24174851
H      75.87140227      54.07819860      82.06633874
C      82.18497788      54.22559725      87.98496156
O      82.61394576      56.41956950      87.14781279
N      83.02212664      53.46214782      90.18838243
H      83.10716432      51.60643658      90.62679894
C      84.22021312      55.30652070      91.79842926
H      82.76512385      56.74271270      92.05543203
C      84.77390292      54.13866984      94.47428171
H      85.49199892      55.61454609      95.71772162
H      86.11182916      52.58720454      94.25318373
C      82.48733409      53.19380668      95.71394217
C      80.23289059      54.65645485      95.69882437
H      80.17808854      56.51216609      94.84655779
C      77.95010121      53.74938622      96.77974782
H      76.17753794      54.74716171      96.90635948
C      77.77435666      51.25494749      97.46949792
H      75.98289612      50.51984395      98.11389460
C      80.00801316      49.72993835      97.63768355
H      79.99478508      47.89312438      98.52774465
C      82.41552449      50.77873646      96.87045467
H      84.05013776      49.56553216      96.72872520
C      86.78079228      56.45925375      90.80254349
O      87.51778554      58.70235889      91.08978189
N      88.22265345      54.84164803      89.51941931
H      87.58392596      53.05207721      89.33422615
C      90.72087164      55.57486184      88.33267119
H      91.64872726      56.98837712      89.50997069
C      92.48398628      53.26183683      88.33078147
H      94.23765231      53.84009308      87.41804365
H      91.73565466      51.64801056      87.29332172
C      92.85437265      52.27539970      91.05576681
H      91.14794979      51.59887767      91.99307107
H      93.28900970      53.87788761      92.27841973
C      94.80268047      50.07764799      91.18804765
O      97.05334451      50.60677136      91.84189295
O      94.03545159      47.81564560      90.76663869
C      90.40528735      56.75972024      85.77587149
O      91.90195059      58.29984718      85.01242207
N      88.15651303      56.16445645      84.67794051
H      87.38739441      54.48637948      85.16926935
C      87.32503346      57.64033270      82.48207852
H      88.87838848      57.59686899      81.13281395
C      85.11216394      56.36287771      81.24808724
H      83.45487396      56.60665240      82.44806346
H      85.68286129      54.39567262      81.02887900
C      84.32414807      57.25860798      78.58546287
H      85.75278116      56.52728390      77.29477980
H      84.07659391      59.30518158      78.60624986
S      81.30814488      55.89044613      77.79177782
C      81.80325317      56.23437632      74.29956359
H      80.21966252      55.53139813      73.18462507
H      83.39629245      55.01550285      73.83469092
H      82.24733885      58.17134579      73.75532241
C      86.79402035      60.49570916      82.98474573
O      87.92974588      62.21347038      81.85657912
N      85.16129682      60.97947909      84.83478779
H      84.42241383      59.52816928      85.83256328
C      84.46209809      63.55895551      85.61146530
H      83.88384183      64.71924747      84.00897740
C      82.04513814      63.42289522      87.12324635
H      81.59349355      65.26348864      87.93204922
H      82.48544437      62.22102928      88.73896236
C      79.77557684      62.47236288      85.55288379
H      80.19131662      60.74515303      84.51164458
C      77.82159982      61.78828195      87.43316147
H      76.09250024      61.20057707      86.47884969
H      77.65152445      63.44746166      88.63880686
H      78.37528964      60.11209472      88.49329794
C      78.84772122      64.49437003      83.61213487
H      76.97122298      64.06540216      82.88081078
H      80.08549195      64.53216456      81.96429352
H      78.67575611      66.38598607      84.40959936
C      86.82047653      64.83641050      86.98529634
O      87.02078751      67.12486906      86.90781756
N      88.62894460      63.49281509      88.20605954
H      88.47209732      61.62576549      88.57077671
C      91.12338335      64.71357829      88.91092744
H      90.62071614      66.28016140      90.14869819
C      92.74098907      62.64054852      90.23184614
H      93.28711996      61.17790036      88.89014045
H      91.69786013      61.89410663      91.84378269
C      95.16172847      63.78194321      91.22773191
H      94.83480582      65.60552911      92.12535191
H      96.38060194      64.47547277      89.71784059
C      96.58091293      62.03772583      93.07588423
H      95.11826476      61.41033669      94.38546458
H      98.05300973      63.02983214      94.11901317
N      97.83569120      59.86454057      91.67937650
H      98.68228859      60.21980911      90.00507899
C      97.40105415      57.49671350      92.53542251
N      96.73964994      56.84286819      94.76718929
H      96.84925406      55.00605422      95.27174622
H      97.18940481      58.09953619      96.12968197
N      97.81868367      55.77895228      90.91403733
H      97.58624733      53.94591776      91.39780727
H      98.43473445      56.20414070      89.15848160
C      92.46130958      65.99670245      86.72829355
O      93.55735083      68.00359180      87.22907102
N      92.17029171      65.23703248      84.26598017
H      90.90039563      63.84052473      83.97496231
C      93.31924531      66.63731967      82.04744147
H      94.88204898      67.87131096      82.57089566
C      94.02978240      64.60397416      79.93661718
H      92.45941984      63.37565206      79.42261163
C      94.85370309      65.69623597      77.41194283
H      96.63760472      66.70157037      77.63493053
H      93.41562135      66.95290397      76.64093450
H      95.22597917      64.14855012      76.10425223
C      96.03667175      62.70290949      81.11958585
H      95.01055037      61.59364014      82.51987306
H      97.31412675      63.82162747      82.28743672
C      97.31034729      60.75838111      79.31678695
H      96.00265669      59.27872541      78.72908208
H      98.78622354      59.76816453      80.35991588
H      98.08324536      61.62954494      77.61792300
C      91.35392996      68.64231929      81.18761600
O      92.01344443      70.88353470      80.65660292
N      88.83492477      68.11130620      81.15360094
H      88.26989660      66.41622170      81.82256405
C      86.80913817      69.87253112      80.31834191
H      87.31747455      70.94211621      78.63459575
C      84.73421867      68.15288018      79.42261163
H      83.12984103      69.42466599      79.19773420
H      84.17296996      66.79983614      80.87014199
C      85.24822424      66.91510944      76.89037837
O      86.18174903      68.09996784      75.04600548
O      84.33548642      64.83074132      76.63148587
C      86.00978394      72.07028282      82.07200792
O      85.05358243      73.87308173      80.99864338
N      86.71654158      71.95123007      84.53054185
H      87.31558481      70.27504283      85.21462278
C      86.59748882      74.14898177      86.32767158
H      86.70520322      75.96311903      85.35446253
C      84.10305009      74.10929752      87.89425468
H      84.46587754      74.67810514      89.84067279
H      83.59849317      72.11185680      87.87724715
C      81.93742374      75.55682787      86.44483461
H      80.14029400      75.30738400      87.41993339
H      81.57837574      74.72156884      84.59668228
C      82.46465738      78.36874062      86.08956607
O      83.81392196      79.37596475      87.86968824
O      81.66341342      79.49690723      84.20739865
C      88.70642338      74.18866602      88.13802939
O      90.00655509      76.10484850      88.38747326
N      89.40562213      71.97390678      89.15092269
H      88.49477404      70.46590518      88.41770888
C      91.42951901      71.67721975      91.16726067
H      93.29845832      72.23090956      90.50207700
H      91.65061698      69.68733794      91.64725115
C      90.80212987      72.99246926      93.68437611
O      88.75933572      74.11685642      93.67870694
N      92.14194582      72.87719596      95.87834836
H      93.74443374      71.84729512      95.74039834
C      91.36337858      73.82772829      98.44081725
H      89.32436390      73.63497621      98.66191523
C      92.23265269      71.89075882     100.54408263
H      94.21308587      71.35974573     100.74061417
H      91.30668679      70.07851129     100.21527026
C      91.44274709      72.50680960     103.30875223
H      92.20808625      74.33039549     103.88133930
C      88.56469391      72.70901032     103.70370503
H      88.17918975      73.15498573     105.67846902
H      87.56124924      70.96857238     103.25206044
H      88.10549041      74.18110712     102.33743290
C      92.18163007      70.42811066     105.09076414
H      94.23954203      70.42811066     105.14367648
H      91.40306283      68.66310628     104.37077841
H      91.35959912      70.79093811     106.94458565
C      92.19485816      76.51680884      98.86222621
O      94.54378797      76.86073903      98.56553917
N      90.55646544      78.30071048      99.68236744
H      88.71965148      77.78481519      99.74661812
C      91.09881689      80.58161014     101.22816356
H      93.13216242      80.87262799     101.36233412
C      90.33347775      82.87384816      99.54063795
H      90.08781332      84.59538883     100.64234839
H      88.43619252      82.49968235      98.83199058
C      92.26666775      83.40864070      97.38634996
H      92.92240280      81.75701990      96.34511077
H      93.95986253      84.34027577      98.09877678
C      91.09125800      85.27946975      95.44182159
H      90.94763879      87.13896044      96.31298542
H      89.27523100      84.54814567      94.80120436
N      92.75799660      85.62339994      93.35745346
H      93.98253926      87.08226865      93.48028568
C      92.70130481      84.50090251      91.10489970
N      91.29156898      82.50535152      90.66459346
H      91.40684229      81.66253359      88.95817060
H      90.14261538      81.61718016      91.90425393
N      94.24710093      85.31537455      89.43627137
H      94.56835441      84.27980453      87.86590879
H      95.83258131      86.19031783      90.04098379
C      89.72120642      80.59861767     103.72638173
O      87.46487319      80.22823132     103.68480777
N      91.02322785      81.34694929     105.68602792
H      92.82980621      81.85717540     105.34587720
C      90.21631472      81.54159110     108.30329887
H      88.46642815      80.45877793     108.25983516
C      92.09092322      80.36051216     110.10231831
H      91.15550869      80.22067241     111.92968366
H      93.80868444      81.49812740     110.03239845
C      92.59359041      77.55615831     109.49004700
H      93.21153091      77.31994252     107.53984944
C      94.77244486      76.60562597     111.11521163
H      96.27855672      77.99646454     110.90545201
H      95.48865112      74.80660652     110.41223343
H      94.22631394      76.36374101     113.08430645
C      90.08403387      76.09917932     109.97759638
H      88.68563639      76.78703970     108.62833180
H      89.11082482      76.50358075     111.74638022
H      90.33347775      74.05827491     109.84909500
C      89.30735635      84.20988466     109.10454283
O      88.44942061      84.59727855     111.20969794
N      89.45286527      85.96355068     107.38300216
H      90.55835518      85.72922461     105.84665466
C      88.46831787      88.54869627     107.74582961
H      87.07558958      88.50901202     109.26516957
C      90.61315723      90.36850271     108.32030640
H      91.95297319      90.42708423     106.75561301
H      91.59959438      89.70142932     110.00216282
C      89.53790297      92.88750789     109.11021200
H      88.24910962      92.75144759     110.71081019
H      88.46453841      93.82292241     107.62299739
C      91.72242658      94.52212115     110.18546628
H      93.14916995      94.58637184     108.70203112
H      92.38761024      93.54324292     111.86921243
C      90.63961341      97.15450990     110.92812872
H      88.86327067      96.90128658     111.93724256
H      90.32402912      98.16929293     109.16501407
N      92.25910885      98.63794506     112.59297761
H      93.13972132      97.42096131     113.76838736
H      91.28967926     100.04012198     113.45280307
H      93.47042343      99.51855752     111.41000892
C      86.82803544      89.30647652     105.40256898
O      87.12661218      88.17453046     103.42213581
N      85.08192831      91.02423774     105.84854438
H      85.05169269      91.85760705     107.56819534
C      83.17330474      91.63083989     103.89267765
H      82.16419089      89.97921909     103.18403029
C      81.07192908      93.40907235     105.09076414
H      81.95821072      95.17029727     105.68413821
C      79.19732057      94.13472725     102.97993984
H      80.14974265      94.64873281     101.22627382
H      77.73656213      95.52745555     103.39001046
H      78.20710400      92.38295096     102.53963362
C      79.38818294      92.05413858     107.12977883
H      80.72043998      91.67052414     108.65289824
H      78.54347527      90.31370065     106.42302119
C      77.42664702      93.57347854     108.43557971
H      75.97155777      94.04968957     107.05796922
H      78.11450741      95.23454797     109.43902439
H      76.53091675      92.50578317     109.95114022
C      84.48666453      92.69097635     101.57587320
O      86.18741822      94.36527386     101.76295611
N      83.58526507      91.82737143      99.31953997
H      82.11505801      90.61227741      99.25717901
C      84.39595766      92.77790376      96.87045467
H      85.40129207      94.57503349      96.90635948
C      86.27245590      90.75022743      95.78386205
H      87.72565542      90.43275341      97.21060542
H      87.20220124      91.49666932      94.10578509
C      85.13673038      88.22933253      94.95805165
C      84.62461455      87.78146739      92.36156769
H      84.66051935      89.07970937      90.78553594
C      83.99344597      85.19821152      91.79464979
H      83.58526507      84.46688744      89.93326938
C      83.73077401      83.28769822      93.65980967
O      83.22243762      80.85751018      92.89069106
H      83.39251300      80.48334437      91.12379695
C      84.04257885      83.90185927      96.18448402
H      83.48321985      82.65086045      97.69626508
C      84.74933648      86.33960621      96.86856495
H      85.25767286      86.66652887      98.81876250
C      82.10938882      93.23143808      95.19615717
O      80.02880015      92.79113185      96.11645387
N      82.32292791      93.82292241      92.75085132
H      84.08226310      93.84181968      92.01385806
C      80.17241935      94.29157454      90.99718530
H      78.44520951      93.85693749      92.03275532
C      80.03824879      96.98632426      90.06177078
H      78.60961570      97.01278043      88.57833562
H      81.81837097      97.59292641      89.22273229
C      79.18409249      98.81746906      92.11968272
H      80.13840429      98.29590460      93.86767957
H      77.18287233      98.66818068      92.58455539
C      79.70754669     101.52544686      91.14647368
H      78.60772596     101.91284076      89.44760971
H      81.64262643     101.71819895      90.46995165
C      79.25779182     103.41517318      93.16659111
H      80.54280571     103.09202998      94.74640231
H      77.36239632     102.93329297      93.81476722
N      79.18031304     105.99464959      92.25385329
H      77.89907860     106.24598319      90.86490446
H      80.91130234     106.41605856      91.57166209
H      78.91386163     107.29289157      93.62768432
C      80.21021389      92.41885576      88.88447128
O      82.24922857      91.82926115      88.02653553
N      78.08049232      91.61383235      87.86590879
H      76.45343797      91.98799816      88.79187469
C      77.90474779      90.42708423      85.40359541
H      79.11039317      88.75656617      85.38658788
C      75.19676997      89.44631627      85.04076796
H      73.85695401      91.00345075      85.20706387
H      75.04748159      88.20098663      86.67349150
C      74.77347128      88.08004415      82.54254977
O      76.45910715      86.44543089      82.12869971
O      73.04626143      88.78869151      81.05344544
C      78.77213216      92.22043450      83.25875605
O      79.15952605      94.45787045      83.70095201
N      79.14440824      91.33415286      80.99486393
H      78.68898420      89.53891286      80.53755015
C      79.66786243      92.80058048      78.71585398
H      81.14373868      94.13661698      79.24308763
C      80.71288108      91.11494461      76.78266397
H      81.12295170      92.15429408      75.05356439
C      83.10149515      89.86961497      77.56690038
H      83.74211236      88.98333333      75.82268301
H      82.83882318      88.52224010      79.10324789
H      84.43375220      91.30391724      78.19995871
O      78.89685410      89.17419568      76.47274885
H      79.80014328      87.61139202      76.29889403
C      77.23011548      94.37472250      77.97319154
O      77.44554429      96.46287007      77.07179210
N      74.96055419      93.72654637      78.71963343
H      74.89441376      91.97477008      79.47363423
C      72.66264699      95.31769593      78.76309714
H      72.90075250      96.63672489      77.19651404
C      70.22867949      93.91929845      78.09980321
H      68.58839706      95.00589108      78.71018481
H      70.22867949      92.14106599      79.13915268
C      69.82616780      93.44686688      75.28033156
H      71.02236454      91.93508583      74.55467665
H      70.45544666      95.05691370      74.16161357
C      67.07850573      92.82136747      74.68695748
O      65.65932127      94.55802595      74.04256082
O      66.39064536      90.55558562      74.57357390
C      72.28470172      96.98254481      81.18761600
O      70.08695002      97.68741272      81.73563663
N      74.27080409      97.19986333      82.65215389
H      75.85250501      96.34570704      82.01531612
C      74.69977195      98.99321361      84.85557478
H      74.31048834     100.93585225      84.29432607
H      76.71044076      98.93463209      85.29966047
C      73.33349982      98.32236076      87.26497582
O      73.54703890      99.72642741      89.06966446
N      72.00124278      96.22476456      87.42182311
H      71.71211465      95.34226237      85.75508451
C      70.42143158      95.22131988      89.41170492
H      69.23468345      96.80113108      89.98996117
C      68.69044227      93.15395930      88.33645065
H      67.39409002      92.57003387      89.82744471
H      69.79026300      91.51556658      87.74874576
C      66.92543790      93.90229092      86.13680921
C      66.65142758      92.39428932      83.96551368
H      67.61329828      90.59904932      83.85401984
C      65.18688969      93.23332780      81.90760173
H      65.06972666      92.19019888      80.15771517
C      64.17777584      95.64839803      81.89437365
O      62.42410982      96.33625841      80.13692818
H      62.51859614      98.14472649      80.02165487
C      64.36296902      97.23954759      84.02598492
H      63.34629626      99.01022114      84.02787466
C      65.99947201      96.38161184      86.06877908
H      66.19411382      97.64583874      87.66181836
C      71.94644071      94.13850671      91.54898538
O      73.50546493      92.44531193      91.14080449
N      71.78770370      95.04179588      93.92248162
H      70.85039946      96.67640915      94.22861729
C      73.20877789      94.04968957      96.05976208
H      75.20810833      94.36527386      95.67992710
C      72.38863667      95.51800692      98.52018574
H      73.45822176      95.01533972     100.20771135
H      70.39308568      95.14195138      98.86789538
C      72.82705318      98.26188952      98.25562407
C      70.89764261      99.98343019      97.80964865
H      68.96256286      99.45808628      97.43737258
C      71.42487625     102.58558333      97.48272600
H      69.87719040     103.81579516      96.98005880
C      73.88341019     103.55879238      97.70571370
O      74.62229318     105.91717082      97.18981842
H      73.22578544     106.82045999      96.46416351
C      75.79959267     101.79756745      98.20271173
H      77.74034159     102.43062577      98.15546857
C      75.33094055      99.16139925      98.51451657
H      76.76902226      97.72898670      98.73750427
C      73.12374020      91.17541585      96.26574225
O      71.09228443      90.01890334      96.17692511
N      75.22133641      90.03402116      96.88935194
H      76.73689691      91.18864393      96.79108618
C      75.65219401      87.25990293      96.73250466
H      73.94010198      86.28480415      97.32776845
C      76.39296673      86.62495489      93.87334875
H      77.94632175      87.83437973      93.26674660
C      77.23956412      84.00768394      93.37824044
H      75.67109128      82.76046458      93.85823093
H      78.85150067      83.53147291      94.56876802
H      77.62695801      83.74879144      91.37135111
O      74.25379655      86.78747135      92.32944234
H      73.89852799      88.56003463      92.20094095
C      77.76490803      86.49267404      98.67325357
O      79.32204251      88.05358798      99.35733451
N      77.64207583      84.21366411      99.65969072
H      76.33627494      82.97400365      99.02285295
C      79.31826306      83.18565300     101.69303623
H      81.15507704      84.10217026     101.53807867
C      78.17875810      83.42186879     104.34243252
H      77.37184497      85.31348483     104.47471336
C      76.00368312      81.46600205     104.71092914
H      75.35739671      81.61529043     106.66112671
H      76.53469620      79.47800997     104.60699421
H      74.44843836      82.10850900     103.52418102
C      80.21021389      83.04770298     106.39089584
H      81.09649552      81.19199174     106.44380818
H      79.35983705      83.23289615     108.25794544
C      82.44387038      85.07348958     106.50805887
H      83.90651855      84.43476209     107.81197002
H      81.44609489      86.78180217     107.07308704
H      83.17330474      85.48544992     104.62589146
C      79.93431384      80.31515873     101.10911079
O      78.66441775      79.26069144      99.46882835
N      82.04135869      79.47989970     102.12011438
H      83.15440747      80.68743481     103.09143370
C      82.56670260      76.81538560     102.24483632
H      80.90374343      75.75902859     102.84198983
H      84.11627817      76.28248278     103.49394541
C      83.46054315      76.03114918      99.59544002
O      85.07625913      77.23679456      98.50317821
N      82.24733885      73.89575844      98.86411594
H      80.91130234      73.26647958     100.07543051
C      82.26812584      72.90932131      96.26763199
H      83.86494458      73.74269061      95.26796677
C      82.86527935      70.11063664      96.30353679
H      81.22688663      69.09585361      97.02541224
C      83.30369586      69.30561323      93.49351376
H      85.08948722      70.06339348      92.80565337
H      81.73144357      69.78938316      92.25385329
H      83.52668356      67.27037799      93.28564386
C      85.18964271      69.24892144      97.83421509
H      85.13673038      70.02181950      99.74094895
H      87.03023615      69.57962354      96.97249989
C      85.13106121      66.41622170      98.52774465
H      83.54936027      66.35952991      99.84299416
H      86.82614570      65.92300313      99.58977085
H      84.75500566      65.12931808      96.96305126
C      79.82659944      73.60663032      94.84088862
O      78.06159507      72.14965133      94.85222698
N      79.86061452      75.78170530      93.57477199
H      81.34027022      76.95522534      93.85445148
C      77.81215119      76.59428762      91.79087035
H      77.50034636      74.90676202      90.65136538
H      78.71921983      77.98134673      90.57199687
C      75.30826383      77.37096513      92.77352802
O      73.44877314      77.71300559      91.29198261
N      74.87551651      77.45222336      95.25473867
H      76.42320236      77.37852404      96.36967721
C      72.41887229      77.58828366      96.50384777
H      71.14330703      76.39208690      95.41347569
C      72.64752917      76.71900955      99.31009134
H      74.10828761      77.90386795     100.14724011
H      73.31271284      74.76881200      99.25906873
C      70.14742126      76.85318012     100.60077441
N      68.34840181      74.96156408     100.58943607
H      68.89264299      73.27970766      99.86945034
C      66.20545218      75.88564025     101.61177800
H      64.37052793      74.98990998     101.66846979
N      66.81205432      78.21189334     102.67380418
H      65.62530620      79.56115793     103.31631112
C      69.14208686      78.88652563     101.76862528
H      69.88852876      80.77625195     101.97838491
C      71.55715710      80.45121902      96.64746698
O      72.63997027      82.03669940      98.04964390
N      69.50680404      80.88963553      95.32654827
H      69.00980602      79.60084218      94.01129876
C      68.15187027      83.36517700      95.13001675
H      69.48979651      84.74656693      94.39491320
C      66.00703092      83.35005919      93.28375414
H      64.71634785      81.94410281      94.06043164
H      66.77803925      82.67731662      91.49418332
C      64.29682861      85.75190133      92.93793422
H      63.41621613      86.22433291      94.74073312
C      65.62908565      88.21043526      92.24440466
H      66.82528240      87.80603383      90.61735031
H      66.72890637      88.66396958      93.92437136
H      64.23068818      89.68253206      91.88724638
C      62.29560843      85.10750466      90.95561131
H      60.86508561      86.58149118      91.12001750
H      61.37720144      83.35194891      91.51686004
H      62.87575441      85.06404095      88.97895759
C      67.15598452      84.16642095      97.68681645
O      65.77459458      82.73589813      98.96616116
N      67.77581474      86.49834322      98.52018574
H      68.91909917      87.55658996      97.41280613
C      66.65142758      87.66997354     100.82187240
H      66.19600354      86.11472878     102.09176848
C      68.57705870      89.34427105     102.11066575
H      67.51692223      90.36283353     103.55252692
H      69.39342046      90.43653286     100.56675935
C      70.92409879      88.08949278     103.47126869
H      71.95210990      86.92731110     102.11633492
C      72.58327848      89.97921909     104.58242775
H      73.51491355      91.26990216     103.27473715
H      73.90797663      89.08915800     105.88633892
H      71.46833996      90.97321513     106.00161223
C      69.97923563      86.39629800     105.71059436
H      68.79059777      87.60383312     106.88222469
H      71.61951806      85.62906912     106.68947260
H      68.93043753      84.77113337     105.00194701
C      64.42344026      89.32726351     100.25684423
O      62.61119272      89.18553404     101.87256023
N      64.57650810      91.19998229      98.65246659
H      66.27915151      91.13384187      97.79453084
C      62.58851601      92.88750789      97.82854592
H      61.02382263      91.62706044      97.38068079
C      62.09907689      94.72432186     100.12078393