 %block lattice_cart
   139.898   0.000   0.000
   0.000 144.87   0.000
   0.000   0.000   168.12
 %endblock lattice_cart

 %block positions_abs
N      93.67451386      43.54297440      85.43288617
H      92.89972608      42.30709339      84.20267434
H      92.92051306      43.06487364      87.12041177
H      95.57935799      43.45604699      85.50091632
C      92.88271854      46.08087684      84.57306070
H      94.11104064      47.40368527      85.56138756
C      93.54412275      46.32654126      81.70445616
H      92.48587601      44.86578282      80.70857039
H      95.57935799      46.03363368      81.78949384
C      93.02822746      48.99105536      80.82195397
H      91.01377922      49.24994786      81.16966361
H      93.46853370      49.11388757      78.81317490
S      94.83858527      51.30597009      82.50192065
C      93.81057416      54.31063493      81.29816500
H      94.54189824      55.87721804      82.41499325
H      91.75644166      54.44858495      81.21312732
H      94.57780304      54.37110617      79.38576197
C      90.23710170      46.77629612      85.15887585
O      88.53067884      45.19081574      85.05305118
N      89.57758722      49.13656429      85.84862595
H      90.73976890      50.58220492      86.29460137
C      87.02267724      49.90001373      86.78781993
H      85.89451063      49.06286496      85.27981833
C      86.64473198      48.71893478      89.49012856
H      87.01511834      46.69125844      89.50713611
H      84.74177758      48.80208273      90.27058554
C      88.49855349      50.17780348      91.11718292
O      87.82203147      52.04107363      92.22078308
N      90.75677644      49.36900062      91.44977475
H      91.90761976      50.41779873      92.55526464
H      91.10448608      47.54352500      91.01891715
C      86.36316276      52.82342033      86.85018091
O      88.05824726      54.37299590      86.25680684
N      84.07092474      53.63033346      87.40765017
H      82.79158003      52.31130449      87.92543517
C      83.20920954      56.27028112      86.78026103
H      83.79691443      56.65578529      84.84329156
C      80.29714129      56.25705303      86.76136376
H      79.52235351      54.64889594      85.73524238
C      78.89118492      56.04918315      89.37674498
H      78.95543561      57.88599712      90.30838005
H      80.04202824      54.77361789      90.51436022
H      77.00901751      55.26116727      89.10462440
C      79.42219801      58.62488010      85.34784848
H      80.30281047      58.71747669      83.48835779
H      80.29903102      60.31618515      86.13397463
C      76.72555856      59.25415897      85.07950734
H      76.45910715      60.71680713      83.65276399
H      75.90919680      59.82863577      86.88230626
H      75.78825431      57.60442790      84.27637366
C      84.58870975      58.31118555      88.43188183
O      84.98744200      60.47870162      87.40576044
N      85.67908183      57.60631762      90.58428009
H      85.54680099      55.75249611      91.02269660
C      87.27590057      59.17101101      92.21700363
H      86.04190929      60.69979960      92.82927495
C      88.07525480      57.73481901      94.61506632
H      89.58703585      58.78550685      95.54103222
H      89.03145631      55.93390983      94.34105601
C      86.01167366      57.36443265      96.61817622
C      85.93608461      58.82519110      98.81403819
H      87.49132937      60.12154334      99.05592316
C      84.07281447      58.50771707     100.62061654
H      83.63628769      60.08374883     101.84137975
C      82.31914845      56.62743939     100.45810009
H      81.01334757      56.51027636     102.02090374
C      82.23789022      55.15156314      98.27735591
H      80.94909687      53.57931085      98.10161138
C      84.14462407      55.54084676      96.42920359
H      84.23344120      54.13300066      94.95332734
C      89.53790296      60.12154334      90.81860617
O      90.26733732      62.30417724      91.11529319
N      91.01566894      58.44157665      89.59406351
H      90.12371812      56.76349970      89.41642924
C      93.43829807      58.89133151      88.18999687
H      94.71197361      60.12154334      89.24257442
C      94.96708666      56.43279758      87.86307421
H      96.80012119      56.60665240      86.94277750
H      93.98253925      55.14967341      86.58750894
C      95.67006485      54.95881106      90.26302663
H      96.75665748      53.22971148      89.98145740
H      93.89372212      54.38811371      91.13608018
C      97.25176577      56.65200583      92.04125909
O      99.26432430      57.64978134      91.28536856
O      96.51099306      57.14900385      94.23523134
C      92.70697399      59.97036524      85.60107182
O      94.36237424      61.02483253      84.39353669
N      90.32402911      59.59619943      84.66565729
H      89.00500014      58.73826368      85.74658074
C      89.50010844      60.69413042      82.20334390
H      90.91362372      60.53917286      80.71234985
C      87.04724368      59.59053025      81.26981911
H      85.53924209      60.09130773      82.58128916
H      87.36282798      57.55718475      81.18100197
C      86.37450112      60.58641602      78.50892895
H      87.56502869      59.66611930      77.10297259
H      86.71276213      62.61787181      78.59018719
S      82.96732457      60.08185909      77.92878298
C      82.92197114      59.48281585      74.65577701
H      80.93019961      59.35431446      74.14555090
H      83.77990689      57.65922996      74.23247832
H      84.01423295      60.94168456      73.69390631
C      89.32058444      63.52116098      82.55105355
O      90.57725244      64.97058107      81.20745813
N      87.98832739      64.33752275      84.48235383
H      87.05102314      62.92589719      85.35918685
C      87.52345471      67.01904439      85.13619913
H      86.85449160      68.06028359      83.49024753
C      85.45609413      67.21179647      87.12608095
H      85.89262091      68.80861520      88.34873387
H      85.22365779      65.43923319      88.15220233
C      82.84260264      67.78438354      85.89964857
H      81.50278668      67.64832326      87.45867277
C      82.45331902      70.52826616      84.82628403
H      83.87250348      70.90621142      83.37875367
H      82.74622660      72.02870885      86.20767395
H      80.52957763      70.46023600      84.09495994
C      81.88073194      66.07985041      83.75480920
H      79.82281999      66.17622646      83.70945578
H      82.31914845      64.12965285      84.25369696
H      82.71032180      66.69590120      81.97279729
C      89.95364275      68.40043432      85.97901708
O      89.94041467      70.74180523      85.98657597
N      91.94352456      66.91321971      86.57428086
H      91.85281770      65.03483177      86.25302738
C      94.51355235      68.03760687      87.41142962
H      94.05245913      69.43033517      88.85707024
C      95.91950872      65.83796544      88.69455379
H      96.25399028      64.37153782      87.29048714
H      94.75165786      65.24270165      90.28381361
C      98.55567693      66.69401146      89.76602861
H      98.41772691      68.09051922      91.27403021
H      99.40038459      67.69367668      88.17676877
C     100.20729773      64.41122207      90.53325749
H     101.95340484      65.24270165      91.24568430
H     100.84980467      63.54572742      88.77770175
N      99.19629415      62.82007253      92.55715438
H      98.96952699      60.96436128      92.17165020
C      98.56512556      63.46257947      94.84939238
N      99.00165234      65.65655172      95.79992473
H      98.40260910      66.22724906      97.51957566
H     100.31690185      66.75070325      94.95332734
N      97.23097878      61.91300389      96.19109807
H      96.33902797      62.63676907      97.71610720
H      96.95129929      60.13855089      95.54670139
C      96.04423066      69.63064615      85.43666562
O      97.65994666      71.17644227      86.14720271
N      95.31857576      69.56261600      83.02159539
H      93.97120089      68.32295554      82.47735421
C      96.26721837      71.41265806      81.19045059
H      97.25554523      72.94522610      82.14287265
C      98.01143575      69.94056127      79.36497497
H      98.96763727      71.23502379      78.07807135
C     100.27343815      68.40421377      80.75959299
H      99.74431478      66.74692380      81.86130343
H     101.31089789      69.60230026      82.07484252
H     101.53766505      67.95634864      79.19867906
C      96.42595538      68.18500553      77.68500829
H      94.61559757      69.13175840      77.42800550
H      95.78533816      66.57117926      78.79616735
C      97.69396173      67.16266359      75.25482024
H      98.41583718      68.82373301      74.27594201
H      96.45052182      65.89843669      74.20602214
H      99.34936198      66.14032166      75.92567308
C      94.12615845      72.99435899      79.84118600
O      94.61370784      74.88219557      78.62420227
N      91.75077248      72.31027807      80.04527645
H      91.40684229      70.60574493      80.83329233
C      89.49254953      73.78426459      79.22135578
H      90.01222427      74.41732290      77.32973974
C      87.38361497      72.00603213      78.79427763
H      85.72632499      73.22679532      78.86608724
H      87.29479783      70.68322371      80.37219910
C      87.45353484      70.33740380      76.53983414
O      86.29135316      68.29083019      76.52660606
O      88.77067408      71.00636692      74.69546125
C      88.64217269      75.98390602      80.79360808
O      87.45731429      77.74135150      79.81661956
N      89.13917071      75.84406627      83.22190639
H      89.92907631      74.19811465      83.77559619
C      88.43619252      77.56938640      85.29871561
H      87.92029724      79.39864146      84.50503055
C      86.17041067      76.31649785      86.56672195
H      86.91685257      74.77259145      87.70622693
H      84.83437417      75.71556488      85.11919160
C      84.72854950      78.05882551      88.31282907
H      85.92285653      78.96211468      89.72823407
H      83.41518971      76.90231300      89.39375252
C      83.22810681      80.05248678      86.88230626
O      83.93486445      82.31259944      86.92954940
O      81.36483666      79.30604487      85.64642524
C      90.45630995      77.97567756      87.25269260
O      90.78890178      80.07705322      88.21456331
N      91.69408069      75.89130944      87.92354546
H      91.22353884      74.30393932      86.97490285
C      93.47231315      75.61540938      89.88319164
H      95.02566818      76.96656370      89.78681560
H      94.41717630      73.79371323      89.69610873
C      92.20241707      75.88752998      92.50613176
O      90.29946267      74.64975924      92.86140030
N      93.00744048      77.39175213      94.41286561
H      94.59859003      78.39519680      94.08405323
C      91.78289782      78.00024400      96.77313377
H      89.76467012      77.61096037      96.89785571
C      92.91862334      76.29004169      98.81214847
H      94.97653529      76.35618210      98.84427382
H      92.32335955      74.43433045      98.14696481
C      92.14950473      76.80404723     101.60705369
H      92.03612115      78.83550303     101.92263797
C      89.45097555      75.40564976     101.95287359
H      88.77067408      75.25069221     103.88984307
H      89.44341665      73.51970291     101.12328375
H      88.07903425      76.51302939     100.88706795
C      93.87293513      75.29037647     103.40796285
H      95.73620527      76.14264303     103.20954159
H      93.92773719      73.34395836     102.73522030
H      93.13216241      75.39242168     105.32603506
C      92.19863761      80.74601632      97.30414687
O      94.30568245      81.62851851      97.03958518
N      90.34859555      81.87040348      98.58727103
H      88.82925560      80.76680332      98.93309096
C      90.74354835      84.16453122     100.04047056
H      92.72398153      84.37051139     100.56959394
C      90.21064553      86.69109531      98.59482994
H      91.70163959      87.98933729      99.17686564
H      88.27556579      87.20699060      99.07104097
C      90.46953804      86.46243842      95.58260620
H      88.76878436      85.90874862      94.56026427
H      91.88305332      85.05270259      95.07615954
C      91.07614018      89.00601005      94.17098064
H      93.09058843      89.37828612      94.38262998
H      90.06324688      90.49889383      95.16875613
N      90.54134764      88.83404494      91.48001038
H      89.49821871      87.39218378      90.79214999
C      91.31802515      90.27212668      89.63941694
N      92.53122944      92.33003862      89.84917656
H      93.47231315      93.05191407      88.35251332
H      92.84870346      93.07459080      91.57827614
N      90.74543808      89.74678275      87.29804605
H      91.29345871      90.96565623      85.93555337
H      89.95364275      88.04602908      86.95789530
C      89.62294065      84.15130314     102.66152096
O      87.39117387      83.49934756     102.85049359
N      91.02889703      84.53491758     104.68352813
H      92.89594662      84.66908815     104.31314177
C      89.99521673      84.36295250     107.38394702
H      88.77067408      82.70944196     107.48032306
C      92.26099858      83.77902707     109.18485620
H      91.28401008      83.76579897     110.99899346
H      93.69719058      85.23600605     108.95241986
C      93.79356662      81.30726505     108.69919653
H      94.41717630      81.12018213     106.74521953
C      96.26343891      81.39797190     110.37727351
H      97.22908906      79.59895245     110.10515291
H      95.79667651      81.91008773     112.31802243
H      97.44829731      82.92865022     109.67807476
C      92.07769513      78.97156333     109.28123225
H      90.95330797      79.44210517     110.94041194
H      93.22475900      77.26514047     109.42107198
H      90.69819492      78.59739752     107.79968682
C      88.65729050      86.71188230     108.20597796
O      87.08692794      86.46999733     109.98987960
N      89.05413303      88.93420044     107.11938534
H      90.47898667      88.93042099     105.85137898
C      87.43652730      91.20943092     107.17040794
H      86.47843606      91.05825282     108.98832466
C      89.22609812      93.41285181     107.17796685
H      89.96120166      93.90040120     105.31469670
H      90.77378397      92.92908187     108.44786293
C      88.15840276      95.90918027     108.16629371
H      87.84659791      95.80524532     110.19963922
H      86.49922305      96.47798789     107.08159081
C      90.20119690      97.89150316     108.15495535
H      90.80968877      98.19007992     106.20853726
H      91.88305332      97.42285104     109.24721716
C      89.32436389     100.46720013     108.99966302
H      88.48532541     100.26877887     110.87049207
H      88.00344520     101.26844408     107.63528063
N      91.51644641     102.35314700     108.75777805
H      91.10448608     104.11626165     109.36249047
H      92.23454241     102.47219975     106.99466341
H      93.00744048     101.61426400     109.68941312
C      85.41452015      91.44942617     105.09170901
O      85.76411952      90.43842258     103.05647376
N      83.45676369      92.92530242     105.69642143
H      83.40007190      93.63772923     107.46709498
C      81.49900723      93.74166418     103.77456976
H      80.75823451      91.89162212     103.25678476
C      79.39574184      95.40840280     104.96698707
H      80.44453995      96.79357218     106.07058724
C      77.79514366      96.64050435     102.98088472
H      78.97811233      97.80079631     101.75823178
H      76.96933326      98.21842581     104.01834446
H      76.43643044      95.50477883     101.92830715
C      77.60806075      93.94386489     106.70931473
H      78.70788146      93.07837025     108.22298550
H      76.78225035      92.37161260     105.66807553
C      75.65786320      95.41029252     108.05479987
H      74.17631777      96.07547618     106.78679350
H      76.47233524      97.02033933     109.04690618
H      74.84150143      94.14228617     109.45697678
C      82.76134441      94.97376574     101.44642694
O      84.43375219      96.55924612     101.67886329
N      82.06781485      93.90984983      99.19576291
H      80.88106672      92.42074550      99.06159234
C      83.04669308      94.79991091      96.79014131
H      83.68731030      96.71420367      97.19265301
C      85.20098108      92.96687639      96.02291242
H      86.54646621      92.62294621      97.54414211
H      86.32914769      93.74922309      94.48656493
C      84.16730078      90.49700411      94.92498144
C      83.93108499      90.34015682      92.20944472
H      84.26745628      91.89162212      90.92821029
C      83.49833767      87.88729206      91.12096238
H      83.61739043      87.63028929      89.10084495
C      83.13928967      85.88040273      92.81793660
O      83.35660819      83.54848046      91.85606591
H      83.24511434      83.57493661      90.04570810
C      83.20354036      86.10716988      95.49378906
H      83.31881367      84.36862167      96.55581524
C      83.79313497      88.50901203      96.53313854
H      83.97076925      88.71877165      98.55514568
C      80.96799414      95.33092401      94.96088625
O      78.98378151      94.28590536      95.35394931
N      81.57648601      96.68207832      92.84250305
H      83.39062327      97.26033458      92.72911946
C      79.67731106      96.87294069      90.80726781
H      77.86506353      96.15106524      91.46867202
C      79.34471923      99.55257259      89.90586835
H      78.40930471      99.61115412      88.07094410
H      81.15885649     100.49554603      89.66020393
C      77.84805599     101.08325090      91.95811112
H      78.67575612     100.96419815      93.84027854
H      75.96399886     100.25177134      91.93543442
C      77.56837650     104.05201095      91.47245147
H      79.39385212     104.95530013      91.77102823
H      76.19265574     104.73798160      92.84250305
C      76.65185924     104.41672812      88.73990721
H      74.87173705     103.42462181      88.44510991
H      78.00490328     103.75343419      87.33395085
N      76.28336261     107.09636004      88.08606191
H      74.66575688     107.79744849      88.81360654
H      76.35895166     107.58957860      86.24357875
H      77.44365456     108.24720336      89.07060932
C      80.40485569      95.11171576      88.69077433
O      82.63095329      95.06258288      88.14842289
N      78.55103418      94.10827108      87.39253235
H      76.74445583      94.57692321      87.78937489
C      78.87984656      92.58515167      85.05872036
H      80.51068037      91.36816794      85.37808410
C      76.56871128      91.01667883      84.66376757
H      74.98701035      91.91240912      83.69622768
H      76.10005915      90.20787598      86.49869182
C      76.95421545      88.82459632      82.83262276
O      76.43076126      89.24411556      80.59140736
O      77.76868749      86.68164667      83.42788655
C      79.22755620      94.43897319      82.83640221
O      78.79480888      96.78979272      83.17655296
N      80.17241936      93.53379428      80.70479094
H      80.54658517      91.66485496      80.58762791
C      80.48611393      94.99455273      78.37664811
H      81.33838049      96.83136670      78.75270366
C      81.94498264      93.33537302      76.35086151
H      81.46877161      94.08559437      74.49137082
C      84.74933649      93.25033534      76.75148348
H      85.51089619      94.85093352      75.70079566
H      85.85104693      91.65729605      76.05039503
H      85.17641463      93.58481689      78.73947556
O      81.13995923      90.80691921      76.17700669
H      81.65018533      90.17953009      74.55373178
C      77.87262243      95.68808229      77.46768976
O      77.56459705      97.73843533      76.44534782
N      75.91486597      94.40117867      78.13098369
H      76.01691120      92.63050512      78.83774134
C      73.27302859      95.21754043      77.75681789
H      73.27113886      96.28901526      75.99748268
C      71.30960295      92.94419967      77.71146445
H      70.60473503      92.34326671      79.55016815
H      72.36973941      91.28313026      77.10486231
C      69.18744030      93.05947298      75.73859018
H      67.84951407      94.53534923      76.26771356
H      68.04415588      91.34549122      75.73292101
C      70.06238358      93.53379428      72.92478770
O      69.28759579      95.42730005      71.77772383
O      71.71022493      92.19019889      71.87787933
C      72.32249625      97.18285579      79.71646408
O      70.18899525      98.00488674      79.43489486
N      73.90608690      98.04835045      81.63075682
H      75.69187827      97.38316678      81.70445616
C      73.10484295      99.82091374      83.50914478
H      71.98423524     101.32702560      82.66632684
H      74.77347128     100.93963171      83.96456882
C      71.95399962      98.84392522      86.01681160
O      71.88596947     100.37082409      87.73646254
N      71.12440977      96.52523104      86.14342326
H      71.33983857      95.21754043      84.76959224
C      69.82994725      95.72209735      88.43188183
H      68.46556485      97.23576814      88.73612776
C      68.37674771      93.23521754      87.87630229
H      66.96134270      92.93853050      89.34650937
H      69.49168624      91.56847892      88.35062360
C      67.22968384      93.07081135      85.12486079
C      67.35629550      90.76534524      83.73969139
H      68.20100316      89.02679703      84.39542643
C      66.08073024      90.67652810      81.40965884
H      66.36229946      88.97199496      80.32117650
C      64.56139029      92.72499142      80.49125187
O      63.05149896      92.57003386      78.31995632
H      62.39576393      94.18197041      77.80595077
C      64.47635260      94.98510409      81.88209043
H      63.37842161      96.58759201      81.25281157
C      65.82939664      95.04557533      84.17999762
H      65.68199799      96.74254956      85.30438478
C      71.55337764      95.31769593      90.76380410
O      73.58294370      94.28779508      90.36696158
N      70.76158232      96.20019812      92.97667362
H      69.42365609      97.56080106      92.97856333
C      72.37351886      95.72209735      95.20088148
H      74.20277393      96.58381256      94.81537732
C      71.42676598      96.81624890      97.75201201
H      72.12218526      95.55580144      99.22599852
H      69.37830266      96.59326118      97.76524008
C      72.52469697      99.34470271      98.42097512
C      70.80882548     101.27789272      99.15796839
H      68.77736969     101.18529613      98.98411357
C      71.89541811     103.57202047      99.79102669
H      70.54426379     104.99309465     100.35416513
C      74.49568151     104.03878287      99.79669588
O      75.41030905     106.32913115     100.43164391
H      74.20277393     107.67650602     100.29747334
C      76.15108176     102.04512160      99.21654989
H      78.17308892     102.31346274      99.16930673
C      75.10039393      99.76044250      98.31892989
H      76.34194412      98.26188952      97.70476884
C      72.56627095      92.88750788      95.52969387
O      70.51402817      91.75934129      95.52213496
N      74.73945621      91.86327622      96.25156932
H      76.16619957      92.97632502      96.85817145
C      75.60495086      89.19309294      96.00968435
H      73.98923486      87.92130714      95.89819049
C      77.06381957      88.83782440      93.62673946
H      79.01401713      89.48977998      93.49634835
C      77.14885726      86.04669863      93.06171130
H      75.21755696      85.37962524      92.80848797
H      78.25623688      85.00923890      94.45443958
H      78.12584576      85.88607190      91.25324321
O      75.67487073      89.81859235      91.64819601
H      75.72778307      91.62895016      91.71244670
C      77.22444631      88.52224011      98.33026825
O      78.28836222      90.24000133      99.57181844
N      77.56081759      86.10716988      98.99734165
H      76.65185924      84.73144913      98.04114014
C      79.35416786      85.09427658     100.84549398
H      81.04736264      86.26212743     100.98155428
C      78.40363553      85.68198145     103.51567725
H      77.40963949      87.48667008     103.60260467
C      76.34950303      83.78091678     104.37172327
H      76.83138324      81.78158634     104.29991367
H      74.92086993      83.83760857     102.88828813
H      75.58227414      84.11161889     106.25578042
C      80.45587830      86.01268357     105.60004538
H      81.69742849      87.44509611     104.79502197
H      81.40641064      84.19476685     105.77956939
C      79.93242412      87.11250427     108.22298550
H      81.54058121      87.94020441     109.20564318
H      79.10661372      85.72544516     109.50421994
H      78.47166568      88.55247572     108.03401288
C      80.20454470      82.17464942     100.57148366
O      79.12362125      80.86317937      99.07482043
N      82.32103818      81.44332533     101.82815167
H      83.36794655      82.66786798     102.84860388
C      83.17330474      78.78070096     101.75634207
H      81.73144357      77.66576244     102.71443331
H      84.87783788      78.50291119     102.87883949
C      83.68731030      77.89630905      99.09182796
O      85.24255506      79.05093182      97.73122502
N      82.61772521      75.75902859      98.46443883
H      81.72766411      74.57228047      99.66819448
C      82.59882794      74.97857163      95.78102746
H      84.19375695      75.65698337      94.66608894
C      83.01834718      72.01926022      95.61851100
H      81.69742849      70.96857238      96.79770021
C      82.80102866      71.28604641      92.83305441
H      84.11060899      72.38586713      91.68788026
H      80.87539755      71.55627727      92.15275293
H      83.09204651      69.29427487      92.39652764
C      85.74522225      71.52226219      96.52557963
H      85.98521750      72.53326577      98.30381209
H      87.16629644      72.50680961      95.40497193
C      86.54646621      68.77837959      96.84305364
H      88.48154596      68.43633912      97.46099416
H      86.46520798      67.95256918      94.95710679
H      85.26712150      67.59730064      97.94287436
C      80.18375772      75.94611149      94.45066013
O      78.19198618      74.80282708      94.78703142
N      80.27068513      78.20055498      93.39808257
H      81.99222580      79.02447566      93.38296476
C      78.44520951      79.61595999      92.05259745
H      78.19009646      78.78637015      90.18554785
H      79.24456374      81.48867877      91.74457205
C      75.68431936      79.61973944      93.18076405
O      73.83805676      80.16776007      91.91653715
N      75.33472000      79.21344828      95.63929798
H      76.85783940      78.72211945      96.67864746
C      72.86106825      79.22478664      96.79014131
H      71.71967356      77.96055974      95.63362881
C      73.11807103      78.47834475      99.42441980
H      74.48245343      79.49501750     100.58471174
H      73.75679852      76.52058830      99.50567803
C      70.60662476      78.46133721     100.79258165
N      69.07216699      76.34673348     101.11194539
H      69.37830266      74.69133322     100.21432540
C      67.08606464      77.18199251     102.28924488
H      65.47601782      75.95744985     102.55191683
N      67.08417491      79.67643123     102.56325520
H      65.61018839      80.80270812     103.02056896
C      69.40853828      80.50224163     101.73177562
H      70.03025824      82.43165219     101.48989066
C      71.81982905      81.98000762      96.62951458
O      72.80248674      83.66186402      97.90885929
N      69.61262872      82.33149671      95.38796439
H      69.01547521      80.90475334      94.26924640
C      68.01392026      84.65019090      95.24245547
H      69.08917453      86.37173157      94.90041500
C      65.80860965      84.17586958      93.22422775
H      64.56328001      82.63385292      93.78358675
H      66.71000910      83.99445586      91.37985488
C      63.98880321      86.53991720      92.87084893
H      62.86630578      86.90085493      94.55837454
C      65.52326098      88.90585455      91.90519879
H      64.17210667      90.33070818      91.28536856
H      66.70056047      88.18775855      90.37452047
H      66.65520704      89.54647177      93.50201752
C      62.03860566      85.89929998      90.84695206
H      60.62131092      87.36950705      90.57861092
H      60.89910069      84.38562920      91.65386520
H      63.11197020      85.46277320      89.14241892
C      66.58339744      85.35505880      97.73878393
O      65.63286511      83.70343801      99.07482043
N      66.58906662      87.67753244      98.48144637
H      67.40542839      89.01734841      97.39296401
C      65.33617807      88.57515244     100.85683234
H      64.56328001      87.00667960     101.94153525
C      67.44511264      89.95087319     102.52924013
H      66.54749264      90.93731034     104.10149241
H      68.25580523      91.52312549     101.47477284
C      69.54081912      88.21421471     103.46654438
H      70.30615828      87.12384263     101.89618180
C      71.63463588      89.96977047     104.34337738
H      72.06738320      91.31147615     102.84104497
H      73.45444231      89.24222583     104.97832543
H      70.91842960      91.25667408     105.78334883
C      68.51847719      86.35472402     105.34493234
H      67.13519752      84.96766492     104.70809457
H      67.84573462      87.44509611     106.95875860
H      70.05293495      85.50245745     106.42396605
C      63.09307294      90.29858284     100.44487201
O      61.31295075      89.89418140     101.77901877
N      63.22913323      92.14106599      98.67797789
H      64.89209239      92.16563243      97.73878393
C      61.10319113      93.75111281      97.91830792
H      59.56873337      92.40184823      97.64996679
C      60.70256915      95.73154600     100.03669111