 %block lattice_cart
   139.898   0.000   0.000
   0.000 144.87   0.000
   0.000   0.000   168.12
 %endblock lattice_cart

 %block positions_abs
N      93.51955630      43.29353052      85.67099169
H      92.28367529      42.71905372      87.00891791
H      95.27511205      43.66391687      86.32294726
H      93.60648371      41.94048648      84.32928599
C      92.33658764      45.55364320      84.51447917
H      92.88082882      47.15424137      85.68799922
C      93.30790695      46.06764874      81.90665687
H      92.68051782      44.51618344      80.70668065
H      95.34692165      46.24528303      82.12586511
C      92.05312868      48.32020252      80.65376833
H      90.01789344      48.04808193      80.47802377
H      92.84114455      48.32398197      78.75081393
S      92.77311441      51.24927829      82.19200553
C      91.82825125      53.48671425      79.75047914
H      92.18918898      52.86688403      77.82106857
H      92.64272329      55.30463097      80.27393333
H      89.79112628      53.78529101      79.81472983
C      89.42829883      45.26451506      84.58250933
O      88.49099458      43.35967095      83.78504482
N      88.22265345      47.27329414      85.46879096
H      89.19586251      48.89656904      85.70878620
C      85.49388866      47.45848731      86.01114241
H      84.47910562      46.18481178      84.74880524
C      85.01956734      46.42291730      88.75691475
H      85.84159829      44.55586770      89.04793260
H      83.01267800      46.02418504      88.98557163
C      85.68475101      48.08398673      90.93765892
O      86.29135315      50.26662061      90.51624994
N      85.31058520      47.17880782      93.09572637
H      85.58837496      48.35421759      94.57160262
H      84.70020360      45.38923700      93.36595723
C      84.48666452      50.14567813      85.48390878
O      85.90395926      51.88800579      84.99257993
N      81.99978470      50.55007957      85.50847522
H      80.79035986      49.07231359      85.50469576
C      80.81681602      53.12199707      85.06438954
H      81.36294693      53.73426840      83.17466323
C      77.87262243      53.11065871      84.91510116
H      77.40397031      51.86154962      83.34662832
C      76.73122774      51.80296811      87.23757480
H      77.39641140      49.86032945      87.10907341
H      74.69221304      52.01650718      87.44166524
H      77.75923886      52.56641754      88.85140107
C      76.34572357      55.56352347      84.49747165
H      77.11106272      56.66334418      86.06027531
H      74.32560614      55.17423985      84.51258945
C      77.09972437      56.87688327      82.05594525
H      78.99511986      57.60442790      82.40554461
H      75.83360774      58.44157664      81.62319791
H      76.83705241      55.53706730      80.51392857
C      81.68609014      55.04762818      87.02214600
O      81.68042095      57.35120457      86.56294250
N      82.54024642      54.18024381      89.16131619
H      82.97299376      52.35854765      89.53548199
C      83.30747532      55.82808515      91.23623568
H      82.32292791      57.63466351      91.17198498
C      83.01078827      54.64889593      93.73823332
H      84.17863915      55.64289197      95.11206434
H      83.77801716      52.74405182      93.58516549
C      80.45776803      54.21614861      94.71144236
C      79.51668432      55.72037076      96.72400088
H      80.45965775      57.30585113      97.59705444
C      77.03925312      55.26494671      97.76712982
H      76.40808454      56.33264209      99.38662526
C      75.60873032      53.14467380      96.91108379
H      73.85506430      52.63255797      97.82004215
C      76.68965377      51.69336399      95.09316707
H      75.48967755      50.17024457      94.46199848
C      79.07259864      52.14311885      93.89697032
H      79.93809329      51.21526323      92.29826187
C      86.02679147      56.88822162      90.77136300
O      86.38206002      59.18234936      90.89419521
N      87.87305409      55.35754330      90.01736220
H      87.59715404      53.46970672      90.00413411
C      90.28245513      56.29295783      89.22556687
H      90.86827028      57.59308954      90.71089175
C      92.21753487      54.04040407      89.15942646
H      91.72242658      52.93113471      87.49646730
H      92.22698350      53.02940048      90.95655618
C      94.80268047      54.77928705      88.60573664
H      95.51321756      56.19280233      89.92476561
H      94.93118186      55.76572418      86.80104801
C      96.61114855      52.52106410      88.51125033
O      95.93273680      50.41779872      89.16698537
O      98.88448930      52.94247307      87.83661804
C      90.15962293      57.98426287      86.76136376
O      91.51077724      59.84753303      86.48357400
N      88.42485416      57.38521963      85.01903610
H      87.40251223      55.78462145      85.21178819
C      87.78234721      58.74204314      82.58695833
H      89.34704060      58.84597808      81.25281157
C      85.52601401      57.31718949      81.37186431
H      83.78557606      57.70269366      82.40554461
H      85.80002432      55.28195426      81.54760887
C      85.17263518      57.99371152      78.58073855
H      86.82425597      57.09420178      77.73792061
H      85.28790849      60.00627004      78.15932958
S      82.28891282      56.65767501      77.36564454
C      83.10338486      56.67468254      74.00949060
H      83.20731982      58.54740132      73.15344459
H      81.67097233      55.58242073      73.01171512
H      84.76445430      55.54084676      73.56162546
C      87.00944915      61.31774010      83.25403173
O      88.05257808      63.12998762      82.29216103
N      85.62427976      61.72403125      85.34217931
H      84.41485492      60.41256119      86.02059105
C      85.00067008      64.30350768      86.09995955
H      84.55280495      65.55261676      84.52581754
C      82.62906356      64.13532202      88.00102422
H      83.12417185      64.99892696      89.80382312
H      82.13962444      62.15488885      88.27692427
C      80.13084538      65.44868182      86.96734394
H      78.57938007      65.08018519      88.26936536
C      80.38973788      68.35319116      86.81994529
H      81.47066133      68.95790358      88.46778663
H      78.49812184      69.14120704      87.01458709
H      81.45176407      69.11664058      85.23068545
C      79.50912543      64.25437478      84.36519080
H      80.95098659      64.69846046      82.96679332
H      77.67420118      64.75893172      83.57339547
H      79.83415834      62.22858817      84.54849425
C      87.16251698      65.68300788      87.40009125
O      87.53479307      67.90154657      87.05616106
N      88.71587202      64.36397892      88.97612301
H      88.39272881      62.48748068      88.85140107
C      90.94574907      65.41277702      90.25546771
H      90.49788394      67.24581154      91.08505756
C      91.82636152      63.54761715      92.35873310
H      93.74065429      64.16744737      92.80281878
H      91.71675740      61.68434701      91.48378983
C      90.06135715      63.87831925      94.62073550
H      88.07903425      63.68367743      94.10106076
H      90.14639483      65.87009079      95.13663078
C      90.85504220      62.30417723      96.89785570
H      90.67929765      60.28783925      96.52368990
H      89.64939681      62.86542594      98.47199772
N      93.38538573      62.93912527      97.64240788
H      94.58158249      63.86509116      96.48211591
C      94.40772767      62.71424785      99.80236505
N      93.35326038      61.46324902     101.64295848
H      94.27355710      61.38577025     103.31158681
H      91.79045672      60.38988448     101.42941941
N      96.53744922      63.69312607     100.22755347
H      97.13649247      63.64399318     102.03791127
H      97.48987128      64.45846522      98.76112586
C      93.20397202      65.80206064      88.39786675
O      95.15794901      66.57117924      89.30871484
N      92.86949046      65.32962905      86.01681159
H      91.24054638      64.47736249      85.50847522
C      94.33780780      66.12898329      83.77181674
H      96.14816561      66.89054300      84.39731615
C      94.92740240      63.74036922      82.21846170
H      93.13216241      62.81251360      81.80839110
C      96.06879710      64.47547277      79.59552159
H      97.71852817      65.70379487      79.71835379
H      94.64961264      65.56962429      78.58262828
H      96.51855197      62.79739579      78.48814196
C      96.84925406      62.20024229      83.77370647
H      96.28044644      61.74292852      85.69933758
H      98.51410295      63.39832877      83.98724553
C      97.25554522      59.59997888      82.50381038
H      97.80167614      58.29795744      84.00425307
H      98.86181260      59.43746241      81.22257595
H      95.62282169      58.58330612      81.76870684
C      92.88082882      68.23224868      82.50758984
O      94.09214338      70.27504282      82.27515349
N      90.47709694      68.05650413      81.97657673
H      89.63616873      66.48992101      82.67199602
C      88.91429328      70.05961402      80.72557792
H      89.82703108      70.55472232      78.94545573
C      86.13261614      69.33206938      80.38920663
H      84.91563240      70.99502854      80.43833953
H      85.54869071      67.95634863      81.80461164
C      85.70175854      67.89587739      77.87209119
O      86.80346898      68.81806384      76.02015941
O      84.22210284      66.10063739      77.76815625
C      88.91618300      72.60318564      82.24302816
O      90.04434961      74.39842564      81.33973898
N      88.15084386      72.39342602      84.67510592
H      87.73510407      70.75503330      85.55949782
C      87.76533968      74.66298732      86.31349862
H      88.04879862      76.40342526      85.24958272
C      84.96476528      74.70078185      87.18844191
H      84.76823375      76.33917455      88.42054346
H      84.49422343      73.02837406      88.29393180
C      82.99756020      74.75180445      85.00391829
H      81.00578866      74.92943872      85.50091631
H      82.93519922      72.96223364      83.98724553
C      83.49833767      76.84562121      83.19356048
O      84.14084461      79.03203456      83.77370647
O      83.07692869      76.33728484      80.91833001
C      89.63427900      74.85951886      88.51502978
O      89.89128178      76.92687944      89.62051967
N      90.91740318      72.87908567      89.28036893
H      90.66040039      71.23880324      88.33550578
C      92.73343016      72.77326101      91.38741377
H      94.14883516      74.26614480      91.31938363
H      93.68207276      70.94778539      91.29859665
C      91.30101762      72.98302063      93.88941141
O      89.25066456      71.89453827      94.20310598
N      92.60681849      74.14142286      95.71866648
H      94.30946191      74.91054147      95.33694177
C      91.72431631      74.27748315      98.38318059
H      89.68530161      74.54393457      98.28113536
C      92.47642738      71.75280880      99.62284105
H      94.51544207      71.76603689      99.34316155
H      91.75644166      70.14087226      98.56081486
C      91.91706840      71.34273819     102.42719489
H      92.89594662      72.65042879     103.68008344
C      89.04279467      71.25770051     103.04513540
H      88.62705489      71.37486354     105.05769392
H      88.30391169      69.41710708     102.48955586
H      88.12816713      72.77704046     101.99822702
C      93.10003706      68.65743710     103.07726075
H      92.83736511      68.30783772     105.09170900
H      95.09180860      68.58373777     102.55380657
H      91.96809100      67.14187659     102.26656816
C      92.81090893      76.54326500      99.70976846
O      94.91228459      76.47712458     100.51857132
N      91.43140872      78.66731737      99.86661575
H      89.69286052      78.78825986      99.08426905
C      92.10793075      81.17498420     100.95698782
H      94.02789268      81.17876365     101.69965027
C      91.98698827      83.07982832      98.95198820
H      92.00588552      84.95065736      99.81748287
H      90.30702157      83.00045981      97.76335036
C      94.33591807      82.97589337      97.28713932
H      94.91795378      81.11640268      96.62006593
H      95.73431554      83.69587910      98.61561692
C      94.37371260      84.69932377      94.94576842
H      95.99887723      84.37051139      93.72311550
H      94.43985301      86.69298502      95.45599454
N      92.16462254      84.10405997      93.40942093
H      90.92307235      82.66786798      93.62484973
C      91.40117310      85.52135472      91.44032612
N      92.77878359      87.39596322      90.59372872
H      92.56524451      88.02335236      88.80415790
H      94.39638931      87.92886603      91.45544392
N      89.33003306      84.78058200      90.29515197
H      88.73854873      85.75946022      88.76825310
H      88.96909534      82.94376802      90.66742806
C      90.28812432      81.76835826     103.22654912
O      88.09793151      80.95388621     103.20576214
N      91.44085736      82.94943721     105.19942341
H      93.27578161      83.37084617     104.88572883
C      90.38072089      83.13085093     107.78456900
H      88.67618776      81.97622815     107.91684983
C      92.31013146      82.04992748     109.59681654
H      91.33692242      81.59450344     111.35237227
H      93.87104539      83.38029479     109.78011998
C      93.59703508      79.47423052     108.96375821
H      94.64394347      79.59706273     107.19308467
C      95.39227508      78.60873586     110.95930920
H      96.58280265      80.24901829     111.33347502
H      96.56201566      76.93254862     110.69285779
H      94.30190300      78.42165295     112.69596768
C      91.48432106      77.52214323     108.54801842
H      92.27611640      75.63808610     108.29290538
H      90.35804418      77.84339671     106.85104420
H      90.44308186      77.43710555     110.32247143
C      89.30168717      85.68009172     108.55557733
O      87.99777601      85.86717463     110.48876735
N      89.82136191      87.56981803     107.00789149
H      91.22920801      87.35627897     105.73610568
C      88.71965148      90.16630199     107.01734011
H      87.42896839      90.30047255     108.61793830
C      90.97031551      92.10705092     107.24977646
H      90.20119689      93.95331352     106.75655788
H      92.64839247      91.64973715     106.14806601
C      91.62605053      92.07681530     110.14861661
H      92.16273281      90.16441227     110.69663725
H      89.89695097      92.48310645     111.19174553
C      93.61026316      94.05724847     110.67396052
H      92.87704935      95.96209260     110.39050158
H      95.15039011      93.69631075     109.35493157
C      94.37938177      94.02323340     113.41973287
H      95.08047024      92.13350709     113.84492128
H      92.72398152      94.19330876     114.63293715
N      96.25399028      95.92051862     114.06790899
H      97.52766582      96.29279469     112.69407795
H      97.32735482      95.12494383     115.43040165
H      95.64738813      97.56835996     114.81813033
C      87.07747930      90.72944044     104.72888154
O      87.66707392      89.93197593     102.68608740
N      85.04980298      92.17697079     105.01800968
H      84.84949198      93.18986410     106.62427704
C      83.17897393      92.70042498     103.05836349
H      82.28324364      90.91085416     102.56892437
C      81.10594416      94.43708346     104.10338214
H      81.95821072      96.14350631     104.87816992
C      79.24078428      95.47643292     102.10783115
H      80.15352209      96.64428380     100.67730833
H      77.83671763      96.79924134     102.82781687
H      78.38095881      93.88528338     101.11950429
C      79.54880968      92.92719213     105.96665228
H      80.89996398      92.19208860     107.33859358
H      78.73244790      91.19431311     105.20698230
C      77.45121346      94.56936429     107.15529014
H      76.71422021      93.53757374     108.77856503
H      76.02447009      95.01722944     105.73610568
H      78.35261291      96.31547142     107.77323064
C      84.34304532      93.96843134     100.73588985
O      86.08915244      95.47265348     100.90596521
N      83.82903977      92.85916199      98.68553680
H      82.33804571      91.67430359      98.58160186
C      84.98366254      93.57536826      96.23078231
H      85.91718735      95.37060826      96.61250703
C      86.90740393      91.66674468      95.15174860
H      88.54012747      91.46454397      96.39140905
H      87.72754516      92.35649479      93.39241339
C      85.83592911      89.03624566      94.81915677
C      84.75122622      88.57515244      92.46644751
H      84.94775774      90.07748486      91.09828565
C      83.81203224      86.23945072      91.63496792
H      83.02779581      86.12984659      89.75469024
C      84.12194736      84.18720794      93.38107503
O      83.18464309      81.97433842      92.72722973
H      82.88606634      81.91953636      90.93954865
C      85.04980298      84.63318335      95.90008022
H      85.48821947      82.99290090      97.03013655
C      86.05135791      87.02746658      96.55014606
H      86.97354436      87.36383787      98.33971689
C      82.80102865      94.10260190      94.27113613
O      80.59193859      93.56025045      94.87017937
N      83.44164588      95.23832742      92.14141457
H      85.28601875      95.58981651      91.81449192
C      81.73711274      96.01122548      90.04948755
H      79.84738644      96.31736113      90.81104725
C      82.51945943      98.72676218      89.09706549
H      81.60294217      98.96864715      87.26781041
H      84.56603304      98.93085262      88.97423328
C      81.61994971     100.63916522      91.09450621
H      82.93330950     100.82624813      92.66864822
H      79.70754668     100.12515966      91.66709327
C      81.37050583     103.39249645      90.10995879
H      80.35572280     103.41139372      88.31849825
H      83.17897393     104.16161507      89.49390802
C      80.11950702     105.04978644      92.13196595
H      81.21743800     105.16128029      93.87051415
H      78.23167043     104.28444728      92.43810160
N      79.89651932     107.60847586      91.19088224
H      81.43475653     108.17350402      90.21011429
H      79.24456373     108.85002605      92.48156531
H      78.61906432     107.63304231      89.76980805
C      81.92419564      93.98732860      87.85740502
O      83.94242335      93.52056620      86.77459185
N      79.69809806      92.97632502      87.16387547
H      78.12773548      93.39773399      88.15976124
C      79.50156652      90.93353088      85.41965808
H      81.46688188      90.44031231      85.05494090
C      78.16930946      88.65641067      86.41365412
H      76.12462559      88.82648604      86.58372950
H      78.84016231      88.20854553      88.30904961
C      78.56426226      86.47944596      84.62786275
O      80.80547767      85.58371569      84.66754701
O      76.86917776      85.78402668      83.26914953
C      78.32615674      91.85571732      82.97246250
O      76.37217974      93.13506202      82.85340974
N      79.11795208      90.68975617      80.92399918
H      80.70532217      89.65418616      81.14509716
C      78.26190605      91.10171652      78.22735973
H      79.94376247      90.53857808      77.18045136
C      76.18698656      89.22521828      77.34296783
H      75.28369738      90.27401638      75.81795868
C      77.26602028      86.77424326      76.50392933
H      75.73723170      85.42308895      76.80061636
H      78.96488425      86.36795211      77.59808087
H      77.55703813      86.72133093      74.46491464
O      74.28025271      88.85861139      79.30261400
H      75.06259940      88.25200924      80.82384368
C      77.60239157      93.80969433      77.37320345
O      79.24267402      95.07392123      76.35275123
N      75.13818846      94.62416637      77.55461716
H      73.84750539      93.35238055      78.15555013
C      74.33694450      97.24899622      77.02927325
H      75.70699608      97.78189904      75.58552235
C      71.76124753      97.31324690      75.73292100
H      70.92787823      99.19163486      75.61575797
H      70.44032884      96.51200295      77.09541368
C      71.72723246      95.99988712      73.15911377
H      72.18832568      93.99299778      73.23470281
H      72.76469220      97.12994346      71.78528273
C      69.11752042      95.98854877      71.96669646
O      68.65264776      94.35771496      70.33208319
O      67.35629550      97.46820446      72.49959929
C      74.79425826      99.10659718      79.18734070
O      74.68843359     101.45930644      78.79238790
N      75.67676045      98.08047579      81.40398966
H      75.60495085      96.18508030      81.61752875
C      76.69910239      99.46753491      83.63008727
H      76.86161885     101.47442425      83.19733994
H      78.61717461      98.77778480      83.93244347
C      75.29881520      99.10470745      86.18310752
O      75.39519123     100.63727549      87.93299407
N      74.19521502      96.82758725      86.45711782
H      74.44465890      95.58036788      85.03604364
C      72.48312298      95.99799739      88.38841811
H      71.41731734      97.69497163      88.86273943
C      70.73701587      94.06102793      87.27725904
H      69.26491907      93.70764911      88.67376679
H      71.52881120      92.16941189      87.46434195
C      69.49357596      94.53912868      84.79415867
C      69.96222808      92.80624965      82.78348988
H      71.21889608      91.25667408      83.21056803
C      68.78303886      93.07270105      80.47802377
H      69.15720468      91.80847415      78.91899956
C      66.85173857      94.86605134      80.25503606
O      65.58940139      94.88494859      78.07618163
H      64.27415188      96.10571180      77.81917886
C      66.36040973      96.53656940      82.25436650
H      64.69934030      97.71575861      82.14098293
C      67.57550375      96.31358169      84.62030386
H      67.01236531      97.26033457      86.33806508
C      73.81538004      94.98699382      90.72034039
O      75.89029953      93.93819572      90.47845542
N      72.69099288      95.21376097      93.13541061
H      70.80693575      95.48021239      93.31493461
C      74.15175132      94.50133416      95.38418493
H      76.09438997      95.10604658      95.05726227
C      73.41286833      96.11516042      97.61973115
H      74.16119996      95.20242262      99.30914648
H      71.35873584      96.03201247      97.74256336
C      74.38607738      98.88171974      97.69343048
C      72.53603533     100.90183717      97.89941065
H      70.53481516     100.57491452      97.66697432
C      73.54514918     103.37926838      97.78791680
H      72.25068665     104.95530012      97.69532021
C      76.23045027     103.88571502      97.71232774
O      77.16586480     106.25732154      97.35327974
H      75.99423447     107.61981422      97.59138526
C      77.92742449     101.90150240      97.78791680
H      79.85494533     102.52133262      97.52713456
C      77.03736341      99.36548969      97.74256336
H      78.46221704      97.95953331      97.33627221
C      73.98545540      91.54391247      95.76968910
O      71.97289688      90.45543011      96.11172957
N      76.10383860      90.50456300      96.09661175
H      77.69309843      91.55714056      96.00401516
C      76.61406471      87.75879067      95.98322817
H      74.87551651      86.74967682      96.42353440
C      77.38885249      87.17675497      93.21477912
H      79.24645347      88.01390371      92.89919482
C      77.55892786      84.40830591      92.62707425
H      75.76746732      83.42753796      92.90675373
H      79.00645822      83.61651059      93.86106553
H      77.91608614      84.00012503      90.63908215
O      75.63329676      88.15752292      91.48756927
H      76.15297148      89.86961496      91.19277196
C      78.70788146      87.04447413      97.83893941
O      80.25367758      88.71499218      98.61372719
N      78.56426226      84.73333885      98.98222383
H      77.14885725      83.54092154      98.52302033
C      80.44831939      83.62029005     100.64707271
H      82.19631623      84.71066212     100.69053641
C      79.27668908      83.89807981     103.37394778
H      78.69276365      85.86906436     103.50055944
C      76.75390445      82.45432890     103.47599300
H      77.12240109      80.46066765     103.12072446
H      75.57093578      83.14407902     101.93586605
H      76.03202900      82.53180769     105.40351384
C      80.91697153      83.22344752     105.70775977
H      81.38751337      81.22033762     105.76823102
H      79.60550147      83.62973867     107.24599699
C      83.38306436      84.77680255     106.22932425
H      84.64540153      84.73711830     104.60038015
H      84.25233846      83.72422499     107.77134091
H      82.80291838      86.74967682     106.36160508
C      81.13240032      80.78759030     100.11605961
O      79.54125077      79.28147843      99.17308619
N      83.26968078      79.92776482     101.00612071
H      84.52445905      81.05215199     101.90185098
C      83.85549595      77.25191237     101.03068715
H      82.51945943      75.95744984     101.91129962
H      85.64317704      76.85695956     101.97177086
C      84.17485969      76.21823208      98.28869427
O      85.89073117      76.89097465      96.84116391
N      82.48922382      74.43622017      97.82193188
H      81.17208457      74.27370370      99.19198345
C      82.35127379      72.94144664      95.50890687
H      84.08037337      73.13041928      94.40719642
C      82.32103817      70.07095238      96.19298779
H      80.51823927      69.71946329      97.12840232
C      82.68386562      68.52515625      93.88185251
H      84.58870975      68.91255014      93.19777158
H      81.45176407      68.95790358      92.28881323
H      82.61205602      66.50881827      94.30137176
C      84.03879939      69.19600910      98.35861415
H      83.91596718      70.56984012      99.88740273
H      85.85482637      69.57017491      97.45910442
C      83.89895964      66.46724430      99.36205881
H      81.92986482      66.24047714      99.92330753
H      85.21231943      66.31228674     100.94187001
H      84.43564191      64.99514751      98.02791204
C      80.19698579      73.96378859      93.72122577
O      78.52646773      72.68633360      92.84439276
N      80.42753240      76.46578623      93.15619761
H      81.97332854      77.38041376      93.80248400
C      78.72110954      77.88119123      91.46867201
H      78.59260815      76.81916505      89.70933682
H      79.75478985      79.64052643      91.18710278
C      76.08116189      78.49913174      92.36818173
O      74.55804248      79.34761884      91.01324797
N      75.62006866      78.01158235      94.83427457
H      76.92964900      77.38797267      96.07393504
C      73.09728404      78.29882075      96.00590488
H      71.71211465      77.11396235      95.04970337
C      73.36184572      77.24057400      98.71577242
H      74.48812261      78.58794888      99.79102669
H      74.49190205      75.52281280      98.57593268
C      70.80315629      77.10829317      99.89874109
N      69.13263824      75.05982985      99.70409928
H      69.50869377      73.53293099      98.61939637
C      66.98779887      75.76091831     101.05336386
H      65.24169175      74.70834075     100.92864194
N      67.32417015      78.12118648     102.02657292
H      66.19411381      79.31171405     103.00545116
C      69.75624791      78.92054071     101.28768994
H      70.47812337      80.81404647     101.53335436
C      72.40186475      81.03136500      95.97377954
O      73.48845739      82.63763236      97.31926467
N      70.25513566      81.58316507      94.68687592
H      69.24224236      80.18854706      93.86673470
C      69.16665330      84.11350861      94.62451495
H      70.65008846      85.50623691      94.30893065
C      67.26558864      84.24201000      92.42109407
H      65.64609318      83.04770296      92.86329002
H      68.33895318      83.39163316      90.88285685
C      66.28293095      86.63629323      91.23245622
H      65.13775681      86.05236781      89.62240940
C      64.37808683      87.99500646      92.95021743
H      62.93433592      86.86495013      93.88752170
H      63.38409079      89.23277719      91.63685766
H      65.35318562      89.13262169      94.35995327
C      68.58839706      88.19153800      90.46522733
H      69.79404245      88.86428057      91.99212619
H      67.75502775      89.77134919      89.43721623
H      69.72223284      87.05014329      89.18021344
C      68.08195040      84.72389021      97.30981605
O      67.03126257      83.15730710      98.61561692
N      68.26147441      87.12951181      98.02035313
H      69.44633280      88.24634006      97.02257764
C      67.14275642      88.21610444     100.33715759
H      66.60040498      86.75345626     101.68453245
C      69.20633756      89.24600528     102.00956539
H      68.39375524      90.08315404     103.70653961
H      70.19844387      90.81069867     101.10438648
C      71.09606387      87.17864469     102.90151620
H      71.54392902      85.75001160     101.48611119
C      73.56593616      88.38617980     103.81047456
H      74.83583225      86.90841382     104.47754794
H      73.19177035      89.53513340     105.47910289
H      74.32938559      89.77134919     102.48955586
C      70.15498017      85.84638763     105.35816042
H      71.81038043      84.98845189     106.23310369
H      68.82272312      84.31004015     105.02367885
H      69.26869853      87.19376250     106.63939485
C      64.93366636      90.04535951      99.83638013
O      62.99102771      89.45954434     100.81714808
N      65.21334586      92.16374271      98.47955663
H      66.99346804      92.83081610      98.33593743
C      63.25369967      93.84370940      97.52713456
H      61.63987340      92.60026948      97.20777082
C      62.25025500      95.70320009      99.43197869