 %block lattice_cart
   139.898   0.000   0.000
   0.000 144.87   0.000
   0.000   0.000   168.12
 %endblock lattice_cart

 %block positions_abs
N      90.86827029      41.61072924      87.51158512
H      92.75799660      41.87340120      87.47379058
H      90.53945791      39.78147417      87.07505833
H      90.31458048      41.63718541      89.33706073
C      89.38294541      43.56092680      86.02248077
H      89.70041943      45.46955037      86.73112814
C      90.14072566      43.58927269      83.25970091
H      89.12027345      42.14930124      82.19578499
H      92.16651227      43.25101168      83.40898928
C      89.84781808      46.25378679      81.97846648
H      87.82014175      46.59393753      82.11074731
H      90.58103189      46.21977172      80.05283535
S      91.53345395      48.94286734      83.38442284
C      90.26922705      51.37494510      81.41721775
H      91.75266220      52.79979874      81.47201982
H      88.61004734      52.19130687      82.32239666
H      89.94041467      50.60393676      79.53694007
C      86.47276688      43.34927745      86.40609523
O      85.43341741      41.28002714      86.45711783
N      85.21798861      45.49411681      86.98435147
H      86.08726272      47.19109104      86.89364461
C      82.43253203      45.70009698      87.23190562
H      81.71065658      44.56248174      85.67288142
C      81.75223055      44.82893315      89.94555260
H      82.08671211      42.80503627      90.11751770
H      79.79258437      45.26357020      90.41042527
C      82.89551497      46.23488953      92.19621664
O      83.66463358      48.44397959      92.07905361
N      82.85394100      45.26734966      94.44121150
H      83.99533569      46.14040321      95.69598977
H      82.00923333      43.58927269      94.78136224
C      81.60294218      48.44964877      86.83317336
O      83.06181089      50.08237230      86.04137804
N      79.13684934      49.13372969      87.22434671
H      77.91608614      47.86194388      87.95189135
C      78.22789098      51.70375748      87.05616108
H      78.74567599      52.12705617      85.10974297
C      75.32716109      51.81903078      87.19789055
H      74.61284454      50.41874359      85.86563349
C      74.26324518      50.88172653      89.78303614
H      72.21478185      50.72109980      89.63374777
H      74.89441376      52.10437946      91.31560418
H      74.83205280      48.92019062      90.04948755
C      73.94199170      54.45708872      86.80860692
H      74.94165692      56.01611293      87.70244747
H      72.04470648      54.72165040      87.56449746
C      74.07049309      54.91818194      83.90031813
H      73.31460257      56.81735688      83.65087425
H      72.63430109      53.93363453      82.80049741
H      75.99801393      54.85771070      83.17844267
C      79.41274938      53.56324817      88.83061409
O      79.98911590      55.81769166      88.09362082
N      79.77746656      52.95664602      91.22300759
H      79.29936580      51.21809782      91.84850700
C      81.02657565      54.75377575      92.93509964
H      79.59794256      56.21831364      93.17887433
C      81.57270655      53.42340842      95.38985411
H      82.27946420      54.97109427      96.55014607
H      82.95409649      51.89839929      95.32938287
C      79.16330551      52.49744253      96.59360978
C      77.56270732      54.16607086      97.94854355
H      78.08616151      56.13705541      97.90319010
C      75.26102067      53.29679676      98.91797313
H      74.10450817      54.60448737      99.97433015
C      74.58071920      50.66629773      98.70821351
H      72.67587507      50.23732986      99.29591841
C      76.16430985      49.00900776      97.41753044
H      75.71077553      47.03046431      97.20399137
C      78.63607186      49.84615651      96.47077756
H      80.01368235      48.67830565      95.52024522
C      83.51534520      55.74966152      91.66520356
O      83.69108975      58.09859132      91.54993024
N      85.07625914      54.08103318      90.67876641
H      84.63973236      52.24043975      90.91876165
C      87.59148486      54.59314901      89.53170255
H      88.66484941      55.86871427      90.74490683
C      89.01822823      52.11571782      88.98368192
H      90.73976890      52.64106173      87.98401670
H      87.86927463      50.99133066      87.69677830
C      89.68530162      50.81558611      91.56693778
H      88.25477880      50.86660872      93.04848322
H      91.33503269      51.85493558      92.22645227
C      90.56213463      48.13973365      90.96411509
O      92.91673361      47.66352262      90.83183425
O      88.89161657      46.53157656      91.00379935
C      87.14361973      56.15028349      87.06938916
O      88.36627265      58.06079680      86.50625071
N      85.21231943      55.67785192      85.51792385
H      84.16541106      54.12071743      85.86752322
C      84.70776251      57.01766787      83.20678857
H      86.34426550      57.10081583      81.95956921
C      82.76134441      55.52100463      81.74980959
H      80.98500167      55.36037789      82.77971042
H      83.29424723      53.54435091      81.50981434
C      82.17363952      56.45830888      79.12686946
H      83.63628769      55.99343621      77.75303844
H      82.18686761      58.51811056      79.14198727
S      79.03858357      55.73643343      78.08563026
C      79.31826306      55.70430808      74.76538113
H      77.94065258      54.34370514      74.06051321
H      81.29302706      55.29234775      74.36097971
H      79.22944593      57.63182892      74.04539540
C      84.09360146      59.77666829      83.74536058
O      85.03279543      61.43584799      82.57939943
N      82.71977043      60.31713001      85.76358827
H      81.93931346      58.78078252      86.58372950
C      81.87317304      62.87015026      86.52514798
H      81.44420517      64.11170046      84.93777787
C      79.26913018      62.71519270      87.96700915
H      79.20487948      64.42350529      89.11407303
H      79.37873431      61.29222879      89.45233404
C      77.01657641      62.46763856      86.29460137
H      77.00334833      60.69318555      85.25147244
C      74.74890484      62.14827481      88.12196671
H      74.93787747      60.32846837      89.06682987
H      73.05004088      62.13693645      86.95600558
H      74.62418290      63.45407569      89.71122654
C      76.65185924      64.65594164      84.57872987
H      74.72433840      65.03955607      83.95889965
H      77.95010121      64.51043270      82.98380087
H      77.29625591      66.38315148      85.49713686
C      83.93864390      64.32712925      88.01425231
O      83.82148087      66.63259535      88.19944549
N      85.54680099      62.93062150      89.32950182
H      85.19720162      61.05601300      89.44099568
C      87.72565543      63.80556479      90.74868628
H      87.40251223      65.50442874      91.86551453
C      88.73665901      61.80812407      92.67620712
H      89.47554200      60.07524505      91.84283783
H      87.09070739      60.91050408      93.53036342
C      90.72654082      62.81156875      94.66608894
H      89.67207353      64.05122921      95.92842612
H      92.34414654      63.85280795      93.93098539
C      91.56746902      60.81979721      96.57471251
H      89.81380301      59.96753065      97.24178591
H      92.60492877      61.67962269      98.12995727
N      93.24554599      58.90550446      95.37662603
H      94.42851466      59.56879839      94.03303063
C      93.40617273      56.54523629      95.90385968
N      92.32146982      55.56068888      97.91830792
H      92.52933972      53.72765436      98.39640868
H      90.96275660      56.54712602      98.82726627
N      94.84992363      55.23376623      94.47333685
H      95.21086136      53.42907760      94.97222460
H      95.65494704      55.97264922      92.90864346
C      89.84025917      64.53877861      89.04226342
O      91.12149361      66.48897615      89.41076005
N      90.37505172      63.26510306      86.95978504
H      89.87238452      61.42639936      86.85396035
C      91.89250195      64.13059771      84.78471004
H      93.74632346      64.79767111      85.38564301
C      92.18918898      61.98764807      82.83451249
H      90.29757294      61.36781784      82.30727884
C      93.41184191      62.81534820      80.22291072
H      94.41717630      61.23742673      79.36497497
H      94.78756266      64.21563541      80.84841013
H      91.99076772      63.68273258      79.00781671
C      94.01088515      60.08091422      84.20645379
H      93.22286927      59.66139498      86.06216503
H      95.86092721      60.94451915      84.47290520
C      93.98253925      57.45986383      83.04616183
H      95.15416957      56.23721090      84.21968187
H      94.81401883      57.45419465      81.16021498
H      92.06635677      56.70397330      83.08206663
C      90.50922229      66.36614395      83.44678382
O      91.69597041      68.00264694      82.32239666
N      87.89384107      66.23953228      83.03293375
H      86.77701282      64.75798685      83.48079888
C      86.73354912      68.24075244      81.45879174
H      87.85604655      68.35980520      79.73536133
C      84.09927064      67.43950849      80.66699640
H      82.78591085      68.82467787      81.44367392
H      83.53235274      65.69151165      81.59485202
C      83.74211236      67.32612491      77.79461241
O      84.64918099      69.13837244      76.44345809
O      82.49678272      65.51765683      76.87998487
C      86.74299775      70.93361244      82.63609123
O      87.54235198      72.61546886      81.33218007
N      86.04757846      71.12825426      85.04549227
H      84.80791800      69.89804242      85.81650061
C      86.17796958      73.67749506      86.31916781
H      86.24788945      75.16093020      84.89053472
C      83.50211712      74.30677392      87.39442209
H      83.82337059      76.10390363      88.34873387
H      82.86905881      72.86869218      88.72667913
C      81.56136820      74.42582667      85.24769299
H      79.63762681      74.72251370      85.92421501
H      81.33460104      72.68349901      84.17432844
C      81.92986483      76.50452562      83.23135501
O      80.98878112      75.93193855      81.13942798
O      82.46654710      78.69849787      83.92110511
C      88.04312945      73.79654780      88.43188183
O      89.35082006      75.80721661      88.66431816
N      88.41540553      71.74808448      89.82083066
H      87.00189025      70.47818840      89.63563749
C      89.87238452      71.52320706      92.20377554
H      91.72998549      72.37925308      91.95811112
H      90.19552772      69.50875880      92.48534477
C      88.63083433      72.69483736      94.67175811
O      87.04724368      74.23685405      94.57160262
N      89.68341189      72.00130781      96.83549475
H      91.18574431      70.82589805      96.73155980
C      88.88594739      72.74963944      99.43953760
H      86.82803543      72.71562435      99.53024447
C      89.86104616      70.53676992     101.22721870
H      91.74699302      70.89581792     101.97366059
H      89.78545711      68.80200117     100.12172881
C      87.95809177      70.14937603     103.44197793
H      87.46487320      71.97863109     104.25078079
C      85.34082082      68.80956006     102.67096960
H      84.44509055      69.76954104     101.08548923
H      84.17108024      68.45429153     104.32825958
H      85.83970857      66.99920226     101.82248248
C      89.24310566      68.66594086     105.46965427
H      89.78734684      66.82534745     104.71943293
H      88.04690890      68.35602575     107.11560589
H      91.01188949      69.37080879     106.25200097
C      89.68908107      75.49730149     100.05558838
O      91.90761976      75.95083580     100.52235078
N      87.88439244      77.30576957     100.04425002
H      86.21954356      76.67460098      99.35449991
C      88.17541029      80.00240902     100.76423575
H      90.13127703      80.59767281     101.01934879
C      86.95653682      81.61812502      98.63640391
H      86.64473198      83.55887394      99.25434442
H      85.20098108      80.66570296      98.12995727
C      88.80657888      81.73717777      96.29881248
H      89.17885496      79.88902544      95.47111234
H      90.61693669      82.49117857      96.92809134
C      88.10738015      83.71761095      94.32026902
H      88.17918975      85.62434480      95.09505680
H      86.14395451      83.43604174      93.75902031
N      89.76844957      83.73083904      92.06015636
H      91.18763404      85.00640429      92.15653239
C      89.24688511      82.92014645      89.77547723
N      87.54424170      81.26852565      89.30682512
H      87.26645194      80.81499134      87.47568032
H      86.45764907      80.52019404      90.68821504
N      90.78323260      83.60611711      87.94055298
H      90.59048052      82.78597588      86.22657122
H      91.99265744      85.08199336      87.99913451
C      86.85260187      80.52208375     103.37016833
O      84.55847413      80.76585846     103.39851422
N      88.41351581      80.83577833     105.27312273
H      90.23899143      80.70160775     104.73833018
C      87.74833215      80.93026464     107.90362175
H      85.90584899      80.02508574     108.05857932
C      89.61160229      79.36368153     109.52311721
H      89.16373715      79.51108017     111.52811682
H      91.44085736      80.26697071     109.24721716
C      89.96876056      76.57444548     108.78801368
H      89.80057492      76.41948794     106.74144007
C      92.54256780      75.63714124     109.72153847
H      92.99610212      73.77576081     108.96186850
H      92.37060271      75.46895559     111.76811206
H      94.05245913      77.00341337     109.41351309
C      87.86360545      75.02486991     109.91618028
H      87.93919450      75.07022334     111.97598196
H      87.80691366      73.03120866     109.39650554
H      86.11749834      75.95272553     109.34359320
C      87.58581568      83.72516985     108.73888078
O      87.47810128      84.46405284     110.97820646
N      87.18519370      85.34277558     106.88505928
H      87.33070263      84.63790767     105.11627544
C      86.47087716      87.96571571     107.23654837
H      85.56569825      88.14334998     109.08092125
C      88.95019808      89.44159196     107.37449839
H      89.95553248      89.18269944     105.59437621
H      90.04623934      88.60822265     108.90517671
C      88.91240355      92.34421158     107.93385738
H      87.85037737      92.62200133     109.67618504
H      87.78234722      93.25694938     106.47120921
C      91.62416081      93.23805211     108.15117591
H      92.41028696      93.38734049     106.25389068
H      92.81657812      91.90012588     109.16973838
C      92.13816637      95.66446070     109.43052062
H      91.12527307      95.57942302     111.22198116
H      91.16684705      97.20647737     108.47242937
N      94.78378321      96.05941351     109.95775427
H      95.62093197      94.43046942     110.49065709
H      95.11448531      97.39922945     111.27678323
H      95.71730801      96.99482803     108.58203350
C      84.88917623      88.89546105     104.99722268
O      85.16507628      87.92603145     102.81836824
N      83.02212664      90.47338253     105.57358921
H      82.88984580      90.93825519     107.42174155
C      81.09082635      91.37667169     103.67630399
H      79.91163713      89.81575777     103.03190732
C      79.24645346      93.34954597     104.98021515
H      80.21021388      94.45881532     106.42207633
C      78.04269780      95.20714693     103.27190257
H      79.34093978      96.56019097     102.42341545
H      76.62351334      96.38444642     104.19219928
H      77.08271684      94.47204339     101.60705368
C      77.24523330      91.73005051     106.44475304
H      78.28647250      90.31842496     107.52378676
H      76.06793381      90.71526748     105.09359874
C      75.46889056      93.23238294     108.18708070
H      74.10261844      94.26984268     107.05135519
H      76.63863115      94.69503110     109.04690618
H      74.60906509      91.98327384     109.58169872
C      82.29458201      92.42358007     101.17619608
O      83.85549594      94.15078992     101.32548446
N      81.51034559      91.31431073      99.08237933
H      80.08171249      90.05008383      99.18064509
C      82.51379026      91.90201561      96.53124880
H      83.78368634      93.52151106      96.59738923
C      84.11060899      89.72127144      95.72433567
H      85.02901598      88.99183709      97.41753044
H      85.64884621      90.43180854      94.55270536
C      82.76701358      87.43848206      94.53569782
C      82.36450188      87.22116353      91.94677277
H      83.05047253      88.63089937      90.63908216
C      81.17775376      84.97238923      90.96600481
H      81.04358319      84.76640905      88.93832848
C      80.68642491      83.05998619      92.67809686
O      79.83037889      80.80365298      91.78047685
H      79.76045902      80.58822417      89.97956767
C      81.05114209      83.29998144      95.25001436
H      80.50312146      81.60489693      96.24401040
C      81.99222580      85.51663041      96.32148918
H      82.54213615      85.49773314      98.28869427
C      80.30470020      92.53129447      94.60372796
O      77.96143957      91.77918340      94.87017937
N      80.98311195      93.82008783      92.54203656
H      82.62717384      94.76306125      92.74423727
C      79.27479936      94.53251464      90.37263075
H      77.35672715      94.36810845      91.10962402
C      79.71321586      97.26316916      89.53737172
H      78.77969106      97.50883358      87.71756529
H      81.72766411      97.25561025      89.10651412
C      78.91197191      99.29273523      91.54426107
H      80.04391797      99.10943177      93.25446338
H      76.92020037      99.14155711      92.04314881
C      79.23700483     101.94969043      90.35562322
H      78.02380054     103.36509542      91.23245622
H      78.90819245     101.89866781      88.32038797
C      81.97899771     103.15344608      90.78459108
H      83.63250824     102.15567058      90.06649508
H      82.45142929     103.53706052      92.75368590
N      82.24544912     105.60442111      89.66209366
H      81.44609489     106.95557543      90.74868628
H      81.59538327     105.73103277      87.87063312
H      84.02935076     106.22803079      89.38430389
C      79.71699532      92.58987599      88.20889413
O      81.87128331      92.19870264      87.36229674
N      77.71766488      91.20848606      87.44355497
H      76.07171326      91.62611558      88.32038797
C      77.40019086      89.76284542      85.20800873
H      78.89307464      88.35310960      85.07950734
C      74.82449389      88.44948564      85.24202382
H      73.28625667      89.62111595      84.53526618
H      74.39552602      88.01106913      87.20922891
C      74.92464939      85.94181882      83.91165649
O      73.28625667      84.21082953      84.41432368
O      76.42131263      85.40891601      82.22980007
C      77.77624639      91.37100252      82.79104878
O      77.81026147      93.73316041      82.85340976
N      77.77624639      90.47338253      80.40054499
H      77.22066686      88.66113498      80.19267511
C      77.99734437      91.96059712      78.05917410
H      79.50912542      93.31364117      78.41444265
C      78.83449313      90.49983868      75.77449498
H      78.97433287      91.97571494      74.34775161
C      81.40641064      89.07687477      76.18078614
H      81.96954908      88.03752531      74.49515027
H      81.39318256      87.63879306      77.65477266
H      82.83693346      90.45259554      76.73069649
O      76.83516269      88.68759116      75.25859970
H      76.47611469      88.18681369      73.55217684
C      75.54258989      93.43647338      77.29572466
O      75.46700084      95.24683118      75.89354775
N      73.37318408      92.68247258      78.36530975
H      73.43932450      91.17825043      79.53694007
C      71.06582825      94.28685022      78.25948508
H      71.17543238      95.36399421      76.50581906
C      68.50902855      92.79018698      78.10074807
H      66.87441529      94.00339127      77.77571516
H      68.08384013      92.07398070      79.98480520
C      68.56761007      90.71148804      76.15244025
H      69.90931575      89.24317070      76.69101224
H      69.25547045      91.44281212      74.35531052
C      65.79538157      89.75339679      75.71402374
O      64.18344502      91.05730795      74.60286468
O      65.18499997      87.47627658      76.01260050
C      70.94299604      96.12555392      80.38542718
O      69.14019714      97.48804659      80.48180324
N      72.90075250      96.12744366      82.01626100
H      74.42387191      95.03518184      81.65154381
C      73.24846215      98.19480423      83.85118525
H      72.43210038      99.89744764      83.02726458
H      75.29881520      98.32519536      83.98535581
C      72.04470648      97.61465825      86.37963905
O      72.36973941      99.01683518      88.13897425
N      70.59906586      95.59265110      86.69333363
H      70.58205832      94.30763721      85.28170807
C      69.38019238      94.74983316      89.07060932
H      68.36162990      96.35987998      89.85295601
C      67.34873660      92.69948012      88.49991198
H      66.45678578      92.30452732      90.31404923
H      68.39564497      91.04219015      87.86307421
C      65.34751643      93.37033296      86.63286238
C      64.64264852      91.57887242      84.77148196
H      65.33806780      89.66268994      84.68077510
C      63.04582978      92.27429169      82.70601110
H      62.41088174      90.91368876      81.32462116
C      62.19734267      94.82542222      82.76270289
O      60.56083968      95.55863602      80.94478617
H      60.40777185      97.36521439      80.89565329
C      62.85874688      96.62633139      84.50881000
H      62.11608444      98.52172688      84.39353669
C      64.55194165      95.90445594      86.43066167
H      65.18688969      97.45592124      87.59473307
C      71.08094607      93.68969670      91.18332334
O      72.98390046      92.39712391      90.63719244
N      70.40442405      94.44936669      93.38863395
H      68.95122451      95.68335796      93.51335589
C      71.85384413      93.80308028      95.65630552
H      73.78136497      94.39267489      95.24056573
C      70.87874535      95.48493670      97.82382161
H      71.83683659      95.11455034      99.60772324
H      68.86051765      95.11832979      98.00712505
C      71.29070569      98.32708507      97.59516472
C      69.24413209      99.98437505      98.11106000
H      67.47912771      99.26816879      98.84427382
C      69.47278897     102.61676381      97.85783667
H      67.83439626     103.79217357      98.17720042
C      71.74235027     103.72603315      96.92809134
O      71.91809482     106.35842191      96.71077281
H      70.46300556     107.26927000      97.29280851
C      73.70766564     102.06874318      96.14952410
H      75.34416863     102.98148098      95.34450068
C      73.53003137      99.48359758      96.55014607
H      74.87929595      98.25149602      95.64118772
C      71.56660573      91.00250589      96.26290768
O      69.44444308      90.09354753      96.45377002
N      73.63963549      89.69859474      96.75990569
H      75.18732134      90.81353325      96.75990569
C      73.84750539      87.00195529      96.75423652
H      72.04848594      86.07409967      97.14352013
C      74.56938084      86.07976884      94.08027377
H      76.59894690      86.05709212      93.73256413
C      73.59239234      83.39257803      93.41320039
H      71.54392901      83.53808695      93.59461411
H      74.38229793      81.82599491      94.49412384
H      74.38229793      82.66503339      91.65386520
O      73.42609642      87.57076291      92.05070771
H      73.99490404      89.28852413      92.16976048
C      75.87329199      86.23472641      98.65719090
O      77.50223608      87.76162526      99.53780338
N      75.51802345      83.82910480      99.58504652
H      74.06104446      82.79920397      98.90285532
C      77.14318808      82.70093819     101.63162012
H      78.94031780      83.70438286     101.57681806
C      75.94510159      83.00896359     104.26967805
H      75.23645423      84.92514607     104.52290138
C      73.62451768      81.34222497     104.83848567
H      73.12374021      81.75985449     106.79246269
H      74.20844311      79.37124044     104.71943293
H      72.20911267      81.83166410     103.42308067
C      77.84427654      82.78597588     106.42774550
H      78.43954033      80.85845504     106.84537503
H      77.01090724      83.43226227     108.19652934
C      80.21966251      84.46972202     106.35026672
H      79.59794256      86.42369903     106.15184547
H      81.29869624      83.75918494     104.74777882
H      81.41963872      84.41491996     108.02267452
C      77.61939911      79.92304051     100.97210564
O      75.96966804      78.71550540      99.96677124
N      79.82470972      78.99707462     101.88862291
H      81.17019485      80.23484536     102.43475380
C      80.57304134      76.37413451     101.51823655
H      79.25968155      75.07967197     102.43664354
H      82.51945944      76.43649547     102.18530993
C      80.57682079      75.68060494      98.63829365
O      81.60861135      77.09223049      97.04903382
N      79.33338087      73.65670807      97.88807230
H      78.27702387      72.84034629      99.25056498
C      79.05370138      72.66838121      95.29536780
H      80.32548719      73.77198136      94.11050940
C      79.72833367      69.85268899      95.05726229
H      78.85905957      68.77365527      96.58227142
C      78.91008218      68.64515388      92.57038245
H      79.65841380      66.72708167      92.61384616
H      79.37495485      69.55222251      90.78081163
H      76.85783940      68.57334428      92.72911946
C      82.71410125      69.53332524      95.31615479
H      83.34715956      70.92794326      96.69565499
H      83.49266849      69.97363147      93.46044355
C      83.50400685      66.69117687      95.94543365
H      82.58182041      66.23197337      97.72933528
H      85.51278592      66.70818440      96.39329878
H      82.93330950      65.36836845      94.47522657
C      76.30603932      73.42238199      94.74545744
O      74.49946097      72.05422014      95.29536780
N      76.11139751      75.63903096      93.45288464
H      77.68553953      76.69538797      93.22800721
C      73.96466842      76.53476123      92.02236182
H      73.37318408      74.99274457      90.79026027
H      74.55993221      77.97662242      90.67876641
C      71.65542286      77.26797504      93.53036342
O      69.85073424      77.85756965      92.15842212
N      71.70077630      77.45883740      95.99078708
H      73.32972038      77.26419559      96.96588586
C      69.36696430      77.87268746      97.37217702
H      67.95533874      76.76719757      96.35928372
C      69.45011226      76.56499686      99.94409452
H      70.89386316      77.61757442     100.97210564
H      70.32694527      74.74141097      99.56614927
C      67.03126258      76.56688658     101.36327898
N      65.29649382      74.60724039     101.64106875
H      65.46467946      72.75908806     101.19887279
C      63.21590515      75.52942684     102.83348606
H      61.55105627      74.55243834     103.50055944
N      63.59385041      77.95961487     103.39473477
H      62.44111736      79.06132532     104.44164316
C      65.90876515      78.62668826     102.34215721
H      66.65520704      80.52775293     102.29302433
C      68.66776556      80.71672556      97.46099416
O      69.86963150      82.30787513      98.66663955
N      66.86118721      81.44427020      95.84338843
H      66.10340696      80.21594809      94.59427934
C      66.23001862      84.05587196      95.54103222
H      68.02714834      85.00073511      95.20277121
C      64.78059854      84.34688981      93.00124005
H      63.25936886      82.96172042      93.09383665
H      66.18844464      83.64958080      91.66709327
C      63.80172031      86.92447651      92.19432692
H      65.52137125      88.05075339      92.32471803
C      63.18377980      86.92069706      89.39942171
H      61.82317686      85.39946738      89.12352165
H      64.72012730      86.49739836      88.09551054
H      62.27860090      88.70648841      88.90998258
C      61.59451997      88.17358559      93.39430312
H      59.81061833      87.74272799      92.45888860
H      62.01025976      90.15212905      93.00124005
H      61.28838431      87.72572046      95.38040548
C      64.85807732      84.97994812      97.74823255
O      63.41432641      83.50974106      98.91608342
N      65.40798767      87.24006080      98.74222860
H      66.83662077      88.21326985      97.93153600
C      64.29682860      87.98650269     101.20076252
H      63.59385041      86.52385452     102.46498942
C      66.49269058      89.13167684     102.65207233
H      65.64231374      90.37322703     104.05991843
H      67.44700237      90.46960307     101.41052214
C      68.57516897      87.34021630     103.72921633
H      69.29515470      86.45015520     102.01712430
C      70.90520152      88.84443844     104.72132264
H      71.91809482      89.65891049     103.12261419
H      72.29226063      87.53863756     105.50177962
H      70.31371718      90.39968319     105.93263721
C      67.38842085      85.63946261     105.80413583
H      65.60829866      84.70215837     105.36760904
H      67.19188931      86.76007032     107.52000731
H      68.79815668      84.18248363     106.17830163
C      62.15009951      89.95937696     100.81714808
O      60.11108482      89.42647414     101.71854753
N      62.55450094      91.90957452      99.39229445
H      64.19856283      92.30641704      98.50601280
C      60.57406776      93.55363641      98.35672443
H      58.74292297      92.64467805      98.10539083
C      59.91077383      95.61154837     100.38440076