 %block lattice_cart
   139.898   0.000   0.000
   0.000 144.87   0.000
   0.000   0.000   168.12
 %endblock lattice_cart

 %block positions_abs
N      94.37843691      46.06103471      86.74246650
H      96.24359678      46.41063408      86.95033640
H      93.99860192      44.47555433      85.75413964
H      93.69057653      45.92875387      88.51691951
C      93.30885182      48.07359323      85.15320668
H      94.02883754      49.87450241      85.84862596
C      94.22914853      47.79580346      82.43578024
H      93.32396963      46.07804225      81.74791986
H      96.27194268      47.64084591      82.22980007
C      93.40711759      49.99544489      80.85785877
H      91.38888989      50.40740523      80.77849026
H      94.02505809      49.45876262      78.96813245
S      94.48048213      53.08514741      81.63642601
C      91.86321119      54.70086341      80.29661005
H      92.10887561      56.72476029      80.58951763
H      90.14922942      54.18874758      81.31517253
H      91.78573241      54.58936956      78.24058782
C      90.50071852      48.03768843      85.33651013
O      89.31019094      46.08371142      85.00580802
N      89.32908820      50.26756548      85.56327729
H      90.19080340      51.93052464      85.19289093
C      86.73260425      50.59637786      86.38152878
H      85.41546501      49.24522355      85.55571838
C      86.42079941      50.01056270      89.23690524
H      87.22393309      48.14918228      89.58839433
H      84.51028611      50.37339016      89.91909644
C      88.13289145      51.68108076      90.81671644
O      89.26483751      53.52167419      89.90019917
N      88.36154833      51.28801769      93.12785172
H      89.50294302      52.52011925      94.03303062
H      87.43936189      49.90095858      94.06137652
C      85.81230754      53.25711251      85.68421977
O      87.29574269      54.96542510      84.94155733
N      83.39156813      53.73143381      86.10751846
H      82.36733647      52.18374796      86.55538360
C      81.88545626      56.05579718      85.73713211
H      82.11222341      56.66428905      83.78126537
C      79.09055104      55.33770118      86.56105278
H      78.53875096      53.81647150      85.28548752
C      78.70315715      54.69519423      89.39186280
H      76.70193698      54.20764484      89.37107581
H      79.49117302      56.22020337      90.53136776
H      79.77274224      52.99444055      89.84917656
C      77.10255896      57.28978846      85.97334790
H      77.42570216      58.95841680      87.13741930
H      75.22417100      56.50555204      86.27948356
C      76.94760140      58.11937831      83.24269337
H      78.76173866      58.97542433      82.77404125
H      75.38857719      59.45541482      83.08584609
H      76.63768629      56.53956711      81.95767948
C      82.94748244      58.18740846      87.38497345
O      82.75095091      60.32846837      86.66498773
N      84.43847651      57.63749810      89.37674499
H      84.65012585      55.77233823      89.72256490
C      85.85955069      59.61604155      90.84695206
H      84.65768476      61.27144180      91.08127812
C      86.31308501      58.83180513      93.52847369
H      87.06141663      60.46641839      94.53380809
H      87.77762290      57.38427478      93.48689972
C      84.09265659      57.94741322      95.32182397
C      83.61077638      59.09825654      97.75012228
H      84.77862724      60.71775199      98.16775179
C      82.04419327      58.06457625      99.59638489
H      81.87222817      59.22675793     101.26501322
C      80.67036224      55.91595743      98.98222383
H      79.33054628      55.09014703     100.28424526
C      81.20137533      54.61771545      96.67675773
H      80.19604093      52.89050560      96.26290767
C      83.02496122      55.48132038      94.98545268
H      83.31786880      54.65550998      93.14296953
C      88.28406955      60.60058896      89.63752722
O      88.56752850      62.94762904      89.44477513
N      90.09442736      58.95841680      88.85329080
H      89.86388075      57.08191857      89.10462440
C      92.33564277      59.61982100      87.50969539
H      93.17657098      61.12215342      88.63786200
C      94.18190538      57.46553301      87.02592545
H      95.67478916      58.05134816      85.73335265
H      93.30885182      55.79879440      86.19066642
C      95.58597203      56.50744177      89.43154705
H      96.86153729      55.04101415      88.75313530
H      94.27639169      55.47187175      90.63719244
C      96.95980306      58.57480235      90.82049589
O      98.52449644      59.91272858      89.77736696
O      96.19068445      59.01321886      93.02391677
C      91.65156184      60.74420816      84.79226895
O      93.14633536      62.13882618      83.74725030
N      89.62199578      59.95619229      83.53749068
H      88.45036547      58.63905305      84.26881476
C      88.54674151      61.02010820      81.18667114
H      90.03017667      60.92940134      79.75992778
C      86.16946581      59.39116412      80.38164774
H      84.68036147      59.80312446      81.74603013
H      86.42457886      57.36915697      80.66321696
C      85.00917385      59.82958063      77.68500829
H      86.27906993      58.98109351      76.30172863
H      84.77295806      61.84780833      77.34674728
S      81.87033845      58.64283250      77.28816576
C      81.89868434      57.66584400      73.93957073
H      80.17903340      56.58114109      73.60886863
H      83.68258598      56.75310619      73.45958025
H      81.63979184      59.40061275      72.86242674
C      87.75305646      63.88682302      81.49280681
O      88.78106757      65.59135615      80.22102100
N      86.14867882      64.49909434      83.30883379
H      85.43247255      63.06668180      84.34818327
C      85.18113895      66.98408445      83.90598731
H      84.65390531      67.92138870      82.14854184
C      82.82653996      66.87825977      85.81461089
H      82.83598859      68.46374015      87.12797067
H      83.01173314      65.20396226      87.00135901
C      80.29808615      66.70629468      84.55794289
H      78.94693184      65.90505072      85.89019994
C      79.17558872      69.27443274      83.88331059
H      79.29464148      70.47062949      85.55571838
H      77.21216309      69.05900394      83.29560571
H      80.23761491      69.97741093      82.26570487
C      80.20737929      64.75420740      82.44522887
H      81.08799175      62.99298247      83.04616184
H      81.41869386      65.45718559      80.93722727
H      78.19671049      64.45563064      82.10318841
C      87.31463995      68.60735935      85.02659501
O      87.08409334      70.96762751      84.94722651
N      89.28940395      67.45462630      85.94122255
H      89.37633136      65.55167190      86.05838558
C      91.54762690      68.87381076      86.62908293
H      90.96559119      70.29488495      88.00102423
C      93.54695733      67.27132285      87.80071324
H      94.49559994      66.06000828      86.43066166
H      92.64366816      66.02977266      89.17454427
C      95.61998710      68.82467788      88.96100520
H      95.16645278      69.35380124      90.89986439
H      95.84486453      70.53488019      87.83472831
C      98.42623067      67.71918798      89.17076482
H      99.73581101      69.17049779      89.82272040
H      98.72291771      67.14282146      87.21678781
N      98.67756427      65.49686984      90.89230549
H      98.24292722      63.73942437      90.29326225
C      99.45235206      65.49686984      93.34705997
N     100.38398714      67.43761876      94.61317660
H     101.07373724      67.04455569      96.34794535
H     101.00570709      69.04577585      93.79114565
N      99.37487328      63.33124348      94.56026426
H      99.83596650      63.13093249      96.40085769
H      98.40544369      61.95174327      93.66453399
C      92.67012433      70.42716579      84.36141135
O      93.14633536      72.70239627      84.87541691
N      92.91200929      69.45584646      81.99736373
H      92.01627902      67.79477703      81.71390479
C      93.98348411      70.79755215      79.68244900
H      95.29684390      72.22807497      80.37408883
C      95.79195219      69.05333476      78.10830698
H      97.00893594      70.44228360      77.19745890
C      97.55884630      67.39604478      79.99614357
H      98.35253135      68.64326415      81.43044584
H      99.09330406      66.43795354      79.01159616
H      96.41556188      65.78977742      80.58951763
C      94.54851228      67.41305232      76.07118202
H      93.15200454      68.32012095      74.85608800
H      93.49026555      65.94284525      77.04439107
C      96.33241392      66.05622883      74.33452353
H      95.35164596      65.48931093      72.61487259
H      97.18845994      64.37815186      75.17356202
H      97.68545796      67.41116259      73.57485356
C      92.02194820      72.21295715      78.10452753
O      92.67012433      74.02331496      76.78738829
N      89.61632660      71.45895636      78.39932483
H      89.19491764      70.01331573      79.57473460
C      87.53762766      72.84412574      77.31084248
H      88.11588391      73.56600119      75.47024905
C      85.51751023      70.81455968      76.81951364
H      83.70337297      71.71595913      76.44156837
H      85.38144994      69.65993691      78.51837759
C      86.08631785      69.07034230      74.55373179
O      85.35877322      66.88014950      74.62176193
O      87.44125162      70.00953627      72.77360960
C      86.50961654      75.00219319      78.84152079
O      85.92569111      76.98262637      77.75870761
N      86.73449398      75.01920073      81.37753350
H      87.37889065      73.39781555      82.14854184
C      85.66490888      76.97317774      83.05750019
H      85.21893347      78.67960060      81.99358428
C      83.04007903      76.14925706      83.99291472
H      83.14779343      74.48440818      85.20233956
H      81.74372678      75.52375765      82.52081792
C      81.65679937      78.14480805      85.51603413
H      82.76417899      78.93093420      87.06560970
H      80.20359984      77.19427572      86.62341375
C      80.75162047      80.31988304      83.78693455
O      82.07820834      82.30976484      83.55638794
O      78.77496675      79.93815832      82.56050217
C      87.48471532      77.82355458      85.16832449
O      88.07053048      79.94949668      85.57083619
N      88.66201482      76.06799883      86.54215552
H      88.18013461      74.27275884      86.09806983
C      90.26828218      76.23996393      88.72856886
H      91.47770702      77.87457719      88.40731539
H      91.55707553      74.64314519      88.90431341
C      89.08531351      76.83900717      91.18899252
O      86.69858918      77.00530308      91.36095761
N      90.65000690      76.78042565      93.17131542
H      92.55674075      76.75396948      93.25635311
C      89.65601086      76.77664620      95.67331306
H      87.59998863      76.81066127      95.56370893
C      90.40056302      74.18961088      96.94698860
H      92.41123182      74.32378145      97.36839756
H      90.03962530      72.77231614      95.49756851
C      89.01539364      73.48096351      99.37906636
H      86.97826867      73.57544983      99.08615878
C      89.66923894      70.89203846     100.54880695
H      88.80563402      70.54243909     102.38751065
H      91.71770226      70.68416857     100.59227065
H      89.03996008      69.33868343      99.34694101
C      89.59931907      75.41415353     101.56736943
H      88.71303743      77.22262161     101.13840156
H      91.64589266      75.62958233     101.64862766
H      88.95870185      74.54676915     103.32292518
C      90.54229250      79.14258354      97.21532973
O      92.56996883      79.28431302      98.43420320
N      88.87744362      81.07577356      97.58949554
H      87.04629882      80.97939752      97.05470300
C      89.35365465      83.40013693      99.14096084
H      91.34353645      83.87445823      99.39607390
C      88.31430517      85.76229482      97.72933529
H      88.32375381      87.39690808      98.98411356
H      86.36977680      85.38245983      97.16430712
C      90.09064791      86.44826547      95.47678152
H      90.19647258      84.75696042      94.30326148
H      92.00683039      86.78463675      96.14952409
C      89.14200530      88.74617267      94.25979778
H      90.71803704      90.00473039      93.84027854
H      87.85510168      89.86111119      95.42008973
N      87.85888113      88.23783629      91.97700839
H      87.12377760      86.48417027      91.80882275
C      87.72660029      89.71749199      89.92098616
N      88.63933810      91.98894302      90.12318688
H      88.34265107      93.10010209      88.60006747
H      89.35743410      92.67869312      91.75402069
N      86.76283987      88.99561654      87.76480844
H      87.06708581      90.19937220      86.31349863
H      86.20537061      87.19848682      87.44355497
C      88.41257094      83.09211154     101.90940989
O      86.34332063      82.19638127     102.37806202
N      90.13978079      83.65713971     103.60827385
H      91.86132146      84.13335074     102.93742101
C      89.75994580      83.72139040     106.36160509
H      88.41824012      82.17559428     106.59026197
C      92.47926197      82.94282316     107.36693949
H      92.33942222      82.76896834     109.41540281
H      93.96269712      84.35066926     107.10993671
C      93.60175940      80.32366249     106.49955511
H      93.88332862      80.13657958     104.46620959
C      96.21903034      80.15169740     107.62205254
H      96.16044883      80.10823369     109.67996449
H      97.32640996      81.79009011     107.04190656
H      97.17523186      78.39047247     107.14773123
C      91.88210845      78.11457243     107.38016757
H      91.50416319      78.43771563     109.37760828
H      92.96492163      76.36279614     107.33859359
H      90.03206639      78.16181559     106.47876812
C      88.77539839      86.28007983     107.31969633
O      87.50172286      86.39913259     109.26800416
N      89.39522862      88.39090412     105.99877763
H      90.27584109      88.07343010     104.33392875
C      88.57319768      90.90046066     106.62427704
H      87.63589343      90.95904218     108.45920129
C      90.61599182      92.81475342     106.92663325
H      92.00116121      92.75995136     105.40351385
H      91.73093035      92.10988550     108.50833418
C      89.56152454      95.60776891     107.61071418
H      88.22170858      95.55674630     109.17351784
H      88.78484703      96.63955948     106.00444681
C      91.78006323      97.39356028     108.14172727
H      92.92334765      97.18946983     106.44097359
H      92.96114218      96.81530402     109.72909738
C      90.87110488     100.11287644     108.59337186
H      89.33664711     100.40956347     107.25166618
H      92.47170306     101.31096292     108.10582247
N      89.85065267     100.56830048     111.28812158
H      89.41979507     102.41267336     111.51866819
H      91.37188235     100.25460591     112.39550120
H      88.30485654      99.47414895     111.53756546
C      86.37355625      91.68658681     104.87439048
O      86.43402749      91.26139839     102.62561617
N      84.45170459      92.78640752     106.03279271
H      84.44981486      92.99616714     107.92818820
C      82.30875495      93.69725561     104.40006917
H      81.60577676      91.89445670     103.69520126
C      80.36422658      95.23738255     106.13294820
H      80.11667243      94.01095018     107.76945119
C      81.25428767      97.74504937     107.19875384
H      81.83254392      99.02628381     105.69264197
H      83.06653520      97.24049244     108.04157178
H      79.97494295      98.28362137     108.71809380
C      77.86411866      95.38478120     104.71187402
H      77.51829875      93.63300491     103.68386290
H      77.93214881      96.88711362     103.30213819
C      75.54731420      96.11610529     106.40506879
H      73.86734751      96.00272171     105.22021039
H      75.89124439      97.98504461     107.20442302
H      75.07110317      94.78006878     107.89984231
C      82.99283588      95.25061064     101.90940989
O      84.51406556      97.04963009     102.05302909
N      81.81931584      94.36621872      99.84015958
H      80.58910401      92.91301919      99.96677124
C      82.25773234      95.60965864      97.40997154
H      83.22527221      97.40300891      97.71799693
C      84.02462644      93.99961182      96.00023571
H      85.68002669      93.32120007      97.02068792
H      84.95815124      95.18258049      94.59616906
C      82.95693108      91.66957927      94.51869028
C      82.11600287      91.79430121      91.98078784
H      82.19915083      93.59143093      91.01891715
C      81.23161095      89.63623376      90.82049589
H      80.95571091      89.78741187      88.80415791
C      81.40546577      87.29486286      91.93921387
O      80.67981087      85.18781802      90.62774380
H      80.33210123      85.74150783      88.93454903
C      82.08198779      87.06998543      94.54325673
H      82.05175217      85.23128172      95.42575891
C      82.77929680      89.31498029      95.86228569
H      83.11755781      89.22616315      97.87106476
C      79.83699293      96.14823064      96.03991996
O      77.83955222      96.02539842      97.24556535
N      79.86155938      97.16679312      93.77791757
H      81.55853360      97.49371577      92.96911471
C      77.69593302      97.60520962      92.21889336
H      75.96494372      96.89845198      93.08060856
C      77.48239395     100.53806486      91.94110359
H      76.24273349     100.86687724      90.33105677
H      79.34944355     101.31285265      91.53481243
C      76.44115475     102.01772056      94.21255462
H      78.02852485     102.14433223      95.51646578
H      74.87457164     100.88388478      94.92120199
C      75.60589572     104.74459563      93.26202228
H      74.70260654     104.57829972      91.41764940
H      77.24239871     105.97480746      93.04470376
C      73.83144271     105.87276224      95.17631504
H      74.84433601     106.07118350      96.96021668
H      72.22517535     104.63688123      95.54292194
N      72.54642882     108.25759685      94.23334161
H      71.34834234     107.93445365      92.78014208
H      73.93348793     109.40277099      93.59461412
H      71.70172116     109.22702645      95.64307744
C      77.79986797      96.14634091      89.64508612
O      79.67447647      95.83264634      88.41109484
N      75.54920393      95.40367847      88.66620789
H      73.98829000      95.62099699      89.74335189
C      75.09000044      94.27551186      86.09240065
H      76.47516982      92.76373081      85.89019994
C      72.35556646      93.50450352      86.19444587
H      71.20472314      95.20525720      86.35507261
H      72.02864381      92.26106361      87.80071324
C      71.79998692      91.99083275      83.82283935
O      70.42426617      92.96026234      82.24680761
O      72.32344111      89.73072008      83.84173661
C      75.57754982      96.31074710      84.11007775
O      76.04620195      98.52928579      84.70156209
N      75.43015117      95.55107712      81.75736849
H      75.14102305      93.68969670      81.44367392
C      75.77786081      97.01561501      79.47646883
H      77.50507066      98.05685421      79.89220862
C      76.18604170      95.39422984      77.04439107
H      74.46261130      94.43046942      76.46235536
C      77.04019799      96.84553964      74.70679962
H      78.59355302      98.13244326      75.12442913
H      75.52463749      97.91512474      73.81484880
H      77.75640426      95.69280659      73.15722404
O      77.97372279      93.52340079      77.47335894
H      78.15513652      92.57286845      75.93890117
C      73.37223922      98.60487484      79.12686946
O      73.61601391     100.77806010      78.38231730
N      71.22928958      97.64489387      79.76748668
H      71.02897859      95.88177922      80.47046487
C      69.01642007      99.39100099      80.10385797
H      69.00508171     100.74593475      78.55617212
C      66.72040260      97.58064318      80.10574769
H      66.54843750      96.87010609      82.03137881
H      67.35724036      95.96114773      79.00403725
C      64.20139742      98.39133577      78.99647835
H      63.41149182      99.79351269      80.28338197
H      62.74630816      96.93435678      78.98325026
C      64.90815506      99.47603867      76.41889166
O      65.40893253     101.77772532      76.08063065
O      65.49774967      97.81874870      74.88443389
C      68.89358786     101.09742385      82.49625148
O      67.34968146     102.80573644      82.60774533
N      70.76441691     100.74404503      84.19133598
H      72.18738082      99.58753252      83.65654344
C      71.18393615     102.34653294      86.38341851
H      70.41103808     104.20413391      85.94311227
H      73.18893576     102.80006726      86.49302263
C      70.17671202     101.60764995      88.90998259
O      70.35623602     102.98148098      90.87907740
N      69.31688655      99.27572768      89.10273467
H      69.36412971      98.28929055      87.47001114
C      68.16604322      98.16456861      91.26080212
H      67.44038832      99.74249008      92.36629201
C      65.94750453      96.65656701      90.44821980
H      65.10846605      96.14445118      92.25857761
H      66.41804639      94.97093114      89.36162717
C      63.88203367      98.01150078      88.79470928
C      63.18283494      97.12332941      86.42688221
H      64.17116180      95.59832028      85.50280604
C      61.14570997      98.13055354      85.13997859
H      60.69028593      97.22537463      83.36741531
C      59.85124745     100.26972372      86.14153354
O      57.93695469     101.22025606      84.68266482
H      57.25287377     102.75282410      85.37052520
C      60.70918319     101.37332389      88.44322019
H      60.12903722     103.26871938      88.93265930
C      62.67449856     100.17901686      89.79059505
H      63.31322605     101.05396014      91.51969462
C      69.96317295      96.85309855      93.05415239
O      71.55432250      95.43013464      92.20377555
N      69.79498731      97.53340002      95.47300207
H      68.53076040      98.89967215      95.89441104
C      71.55243278      96.52239644      97.40997154
H      73.39680566      97.29529451      96.92431188
C      71.01197105      97.68835758      99.97810960
H      71.90203215      96.52428617     101.42563996
H      69.01453034      97.94536036     100.42030556
C      72.10045341     100.41901210     100.43164392
C      70.46961960     102.48826242     100.71699259
H      68.45706108     102.20291374     100.51668160
C      71.43149029     104.95813471     101.34060227
H      70.15592503     106.51337946     101.68264274
C      74.04309206     105.20001967     101.67130438
O      74.95394014     107.46580152     102.30247297
H      73.67648515     108.31239891     103.27757174
C      75.68148477     102.97770153     101.42941941
H      77.67514603     103.26116048     101.76201124
C      74.69126818     100.63444090     100.77935356
H      75.89691357      98.99037901     100.68108779
C      71.45605674      93.61410765      97.68776131
O      69.30365847      92.55208146      97.94854354
N      73.59144747      92.30452731      97.39674346
H      75.08811071      93.46103982      97.64996678
C      74.08088658      89.54552690      96.92620161
H      72.36690482      88.53074387      97.45532497
C      74.80843121      89.22805288      94.06137652
H      76.67170136      90.01606875      93.67398262
C      75.05598536      86.52574425      93.32816271
H      73.23995838      85.59221945      93.60595247
H      76.53186161      85.64324206      94.46010877
H      75.54542448      86.39535313      91.33072199
O      73.15870014      90.40913182      92.25479816
H      73.13602343      92.16846702      92.68943521
C      76.22383622      88.75373157      98.67230872
O      77.97561252      90.10677561      99.38284581
N      76.33344035      86.40480177      99.58882598
H      74.98984494      85.22183309      98.92175259
C      78.65402426      85.31631941     100.79825082
H      80.16202586      86.54653124     100.12361853
C      78.31576325      85.59599890     103.74622387
H      77.13468431      87.26840669     103.98054993
C      76.86823290      83.32076842     104.83281650
H      76.29186637      83.51918969     106.80002159
H      78.04175294      81.62946337     104.84415486
H      75.16747921      82.97305878     103.72543688
C      80.77807664      86.04197431     105.20698231
H      82.17647411      86.95849157     104.00511637
H      81.49050346      84.21838842     105.84570980
C      80.46816152      87.68414648     107.47276416
H      79.38912780      89.40568715     107.14395178
H      82.35599811      87.99973077     108.23243414
H      79.62912304      86.66747372     109.06013426
C      79.03196952      82.54976009      99.96488152
O      77.24995761      81.51041061      98.83671491
N      81.07854312      81.34978388     100.69809533
H      82.23316590      82.03386480     102.05680855
C      81.43381167      78.68715950     100.48455625
H      79.59510797      77.87835664     100.94942893
H      82.98905642      78.02953475     101.66374547
C      82.04041381      77.92937925      97.77468872
O      83.33109689      79.39202742      96.46888784
N      80.97838763      75.85823921      96.80147967
H      79.86911828      74.86046372      97.99200725
C      80.91791638      74.99652401      94.28058477
H      82.59977280      75.66170768      93.29414763
C      81.07854312      72.26775922      94.12373748
H      79.43448123      71.31722688      94.92498144
C      81.32042809      71.28132208      91.27403020
H      79.81242649      72.05610987      90.10428962
H      81.02374106      69.27065329      91.61040149
H      83.15346261      71.72729749      90.45010953
C      83.48605444      71.31155770      95.69410005
H      83.39345785      71.88225505      97.67264350
H      85.01106358      72.44917294      94.90608418
C      84.26840114      68.54121893      95.64496717
H      84.96571015      68.00642638      93.78169702
H      82.87567285      67.22030024      96.38762961
H      85.97860345      68.18784011      96.74100843
C      78.56520713      76.22862557      93.04470376
O      76.73595205      74.95872949      92.65164069
N      78.50095643      78.74007184      92.62140506
H      79.92581007      79.86445900      93.20910995
C      76.52052325      80.06099053      91.18899252
H      76.11612182      78.88558077      89.54682035
H      77.12334595      81.93370931      90.58239037
C      73.92592903      80.22728645      92.78959071
O      71.97951092      80.97939752      91.74079260
N      73.88624477      79.63580211      95.29347807
H      75.57943955      79.37313015      96.13251655
C      71.61101429      79.96083504      96.91108380
H      70.13891750      78.90447803      95.93220557
C      71.87368625      78.74574102      99.50945748
H      73.00941176      79.83044392     100.84171453
H      72.96405833      77.00908254      99.30347731
C      69.36979889      78.32055260     101.00045154
N      67.90904045      76.17571323     101.15918855
H      68.21139666      74.56566641     100.17842059
C      65.94372508      76.80499210     102.68230796
H      64.33367826      75.55588300     102.81458880
N      65.99285796      79.33722535     103.09237857
H      64.79288176      80.48239950     104.03346227
C      68.23407337      80.33122140     102.20609692
H      68.72162276      82.30787512     102.34593667
C      70.53576002      82.52330392      96.92242215
O      71.62991156      84.25429322      98.04114013
N      68.31722133      82.95416152      95.91897748
H      67.57833834      81.53119760      94.88151774
C      67.02842798      85.42214408      95.85850624
H      68.46650971      86.73550387      95.19143285
C      64.85524272      85.46371806      93.79114565
H      63.64203843      83.80831781      93.96122102
H      65.72073738      85.45426943      91.92220633
C      62.90315544      87.77107389      93.81193264
H      62.16994163      87.72572046      95.73756375
C      64.08801384      90.37322702      93.36217778
H      65.12925304      90.52629485      91.59150422
H      65.37491746      90.83432024      94.90419445
H      62.57623279      91.76595532      93.22233803
C      60.79422088      87.32509848      91.95433168
H      60.02888172      85.41647490      91.87685290
H      61.50853742      87.86933966      90.10051016
H      59.52243507      88.84254871      92.52313930
C      65.93805590      86.13646063      98.43987238
O      64.81177902      84.53964189      99.68331230
N      66.12324908      88.48350071      99.44520678
H      66.86780125      89.76662488      98.24523057
C      65.24641607      89.17325081     101.87161537
H      64.65682146      87.49895330     102.91474429
C      67.38369653      90.22204892     103.47410328
H      66.65804163      90.68503186     105.34304260
H      68.08478499      91.97949439     102.65774151
C      69.59089686      88.37200686     103.67819372
H      70.17293257      87.44226151     101.93397634
C      71.93226777      89.94803860     104.31503149
H      72.56343636      90.92124765     102.61238808
H      73.31176798      88.52885414     104.88572884
H      71.56377114      91.11777919     105.97043174
C      68.89736731      86.51440589     105.95909338
H      67.17960609      85.59221945     105.29957890
H      68.31722133      87.45171014     107.69953132
H      70.41670726      85.17647966     106.34459755
C      62.87480955      90.76817982     101.56925916
O      60.89626610      90.03874547     102.68041823
N      62.82000749      92.84687877     100.10094181
H      64.37525224      93.44403228      99.16930674
C      60.33123793      94.08653923      99.65118695
H      59.10858501      92.58987599      98.94064986
C      59.32779326      95.48115725     102.10972088