 %block lattice_cart
   139.898   0.000   0.000
   0.000 144.87   0.000
   0.000   0.000   168.12
 %endblock lattice_cart

 %block positions_abs
N      94.06757693      43.03841748      84.28204285
H      93.60837343      42.76629689      86.11507736
H      95.93651625      42.78897360      83.98346609
H      93.13594186      41.77985974      83.19356049
C      93.02822746      45.54797401      83.39576121
H      93.82002278      47.26573523      84.20834351
C      93.64238851      45.82387405      80.69345258
H      92.90161579      44.14390737      79.75803805
H      95.66628539      45.57443018      80.39487582
C      92.67295891      48.06697920      79.18923043
H      90.61693668      47.94036752      79.11553111
H      93.32113503      47.96115452      77.23714315
S      93.60837343      51.13211528      80.53093612
C      91.49754914      53.39600739      79.31017292
H      89.62294064      53.27884436      80.14921140
H      91.09692716      53.10687927      77.31273221
H      92.28367529      55.26116726      79.69567708
C      90.23332224      45.73694665      83.81339071
O      88.86705011      43.75651347      83.71701468
N      89.23554675      47.85910929      84.49369219
H      90.36938253      49.39356706      84.51825863
C      86.55213538      48.28618744      85.18155257
H      85.40129206      47.06542425      83.98535581
C      86.24788945      47.58320925      87.99724478
H      86.87149913      45.66324733      88.40353594
H      84.26367682      47.46793596      88.53770650
C      87.70864788      49.20459444      89.90397863
O      88.52689938      51.22660158      89.34084018
N      87.65762527      48.31642306      92.19999609
H      88.57981172      49.16679990      93.63807782
H      86.95086763      46.58354404      92.58172081
C      85.52223454      51.04140840      84.69400318
O      86.99055189      52.74027236      84.15354146
N      83.09204650      51.63667220      85.20989847
H      81.93742373      50.11733225      85.20989847
C      81.84104768      54.10843422      84.84140183
H      82.22844158      54.55629935      82.86852756
C      79.00456849      53.80607801      85.39131219
H      78.52835746      52.04674280      84.42755177
C      78.47166567      53.25994710      88.16543042
H      79.17653358      54.76794870      89.38052444
H      79.56392748      51.58564958      88.66242844
H      76.46855578      52.90089910      88.48479417
C      77.52869224      56.04351395      84.26314558
H      78.14852247      56.22114824      82.30727885
H      78.21277316      57.83497450      85.01714638
C      74.57505001      55.79784953      84.35385245
H      73.85317456      57.00727437      82.84774057
H      73.97789649      56.64066748      86.13775409
H      73.85317456      53.86843898      84.30849901
C      83.12606158      56.22870713      86.47601510
O      83.28668831      58.39622321      85.71634511
N      84.15029324      55.36132276      88.68699488
H      84.21265421      53.48671425      89.04037369
C      85.21987833      57.13955522      90.61262600
H      83.87628292      58.67590271      90.89230549
C      85.69042018      56.04162424      93.29225791
H      86.48788469      57.53828748      94.46199849
H      87.05102313      54.49960756      93.25068393
C      83.30936503      54.91156789      94.49034439
C      81.95821071      56.16445644      96.38951933
H      82.68764507      57.95213753      97.05281326
C      79.96832891      55.16290149      97.63673869
H      79.06503973      55.96603518      99.28269031
C      79.02913493      52.74972100      96.90352488
H      77.41530866      51.93902841      97.85405722
C      80.41619404      51.35132352      94.97411432
H      79.63006790      49.49750201      94.64152250
C      82.54024642      52.44736478      94.01224362
H      83.70620755      51.42502285      92.68565575
C      87.59337458      58.25449374      89.52792308
O      87.91462805      60.57129820      89.62618886
N      89.16373715      56.58964486      88.49802225
H      88.70075420      54.73960281      88.51125033
C      91.34448131      57.54395666      87.16198575
H      92.24021158      58.97636920      88.33739551
C      93.23798708      55.40856591      86.31349862
H      94.66095099      56.21736878      85.06438954
H      92.17785062      53.74938622      85.70500675
C      94.87260034      54.42401850      88.66053870
H      96.41650674      53.22215257      88.01992148
H      93.58569672      53.49427316      89.97200878
C      96.22375465      56.65011610      90.07783345
O      97.43506922      58.45480473      89.00824836
O      95.98753886      56.66145446      92.40219680
C      90.68496683      59.11809867      84.64487030
O      91.76400055      61.05317841      84.04582705
N      88.89350628      58.12410263      83.28804680
H      88.13005685      56.45169484      83.81150099
C      87.96943012      59.25226923      80.88620466
H      89.47365226      58.98392811      79.50481472
C      85.73199416      57.71592175      79.99614357
H      84.11249871      58.24693484      81.15454579
H      86.23844081      55.71848103      80.00748193
C      85.16129682      58.29228828      77.34674728
H      86.47276688      57.44191143      76.00504159
H      85.12917147      60.34075160      77.13509792
S      82.19253678      57.02806136      76.60975401
C      82.12261690      57.57041282      73.30840215
H      83.82903976      56.66334419      72.59219588
H      82.31725871      59.55840491      72.80573495
H      80.51823926      56.68224145      72.37109789
C      87.09826629      62.05851282      81.20934786
O      87.93730477      63.67611854      79.78071476
N      85.67152292      62.68212250      83.18600159
H      84.92697075      61.24215104      84.19322571
C      85.14050983      65.21435575      84.07417295
H      85.07625913      66.54094362      82.50003093
C      82.64607109      65.26537837      85.61429989
H      82.79724920      66.82818203      86.94655694
H      82.55914368      63.56840413      86.78026103
C      80.34060499      65.78127365      84.07606268
H      78.85339038      65.46568935      85.46501152
C      80.31414882      68.38531651      82.72868782
H      78.36773072      69.05994880      82.80238714
H      80.90374343      68.40232405      80.75392382
H      81.19854074      69.95000989      83.73402222
C      79.87762204      63.69123634      82.05594525
H      78.12017657      64.00115146      81.02604440
H      79.50723569      61.84119429      82.88364538
H      81.57459627      63.88398843      80.90510192
C      87.36282797      66.45401621      85.45556289
O      87.32692317      68.84452000      85.52926221
N      89.54924131      65.23703247      86.26625548
H      89.59837420      63.40021850      85.75224991
C      91.92084784      66.53149500      87.31316384
H      91.28967925      67.77871436      88.82683463
C      93.70097002      64.78727761      88.54526541
H      94.80268046      63.79517130      87.11474259
H      92.64461301      63.48525618      89.74146217
C      95.65116758      66.14788056      90.14397386
H      94.50599343      67.10408207      91.56315832
H      96.69807596      67.38943074      88.87785723
C      97.66183638      64.56428990      91.40631104
H      98.73898037      65.81339900      92.63841260
H      98.71063448      63.78005348      89.81516149
N      96.78311364      62.34764094      92.99935032
H      96.97586572      60.54295231      92.40408654
C      95.16550792      62.42700944      94.93254035
N      94.17718105      64.52649537      95.77535828
H      93.07358089      64.39988372      97.32682358
H      95.30345794      66.03449697      95.45788426
N      94.59859002      60.24437555      95.90385966
H      93.67262413      60.04973374      97.56114965
H      95.24865587      58.75905067      94.89852526
C      93.18696447      68.23035895      85.31005396
O      94.29623381      70.09362909      85.98846571
N      93.12082405      67.39132046      82.97813168
H      92.30446228      65.67166952      82.83262276
C      94.10915091      68.91255015      80.77849026
H      95.23920724      70.37330859      81.68933835
C      95.87226556      67.48202733      79.02671396
H      96.49398551      68.82373302      77.59241170
C      98.20418783      66.50314910      80.40999362
H      97.86592682      64.88932284      81.64587464
H      99.15472016      68.03949660      81.39832048
H      99.83502164      65.98158464      79.26481949
C      94.64583318      65.39387976      77.41288769
H      93.24176653      66.09307850      76.08063065
H      93.69530084      64.05784325      78.66010707
C      96.41650674      63.89532680      75.74425937
H      95.53778400      62.18323476      75.01104556
H      98.27410770      63.69312607      76.61353346
H      96.64894307      65.05939819      74.06240295
C      92.14005609      70.24858665      79.12120029
O      92.75610687      72.05705473      77.76437678
N      89.74577285      69.45301188      79.17600235
H      89.54546186      67.81083972      80.12653468
C      87.74077323      70.87786551      77.81350968
H      88.47209732      71.64320467      76.04472584
C      85.51089618      69.08262552      77.20879726
H      83.80258360      70.23346884      77.22580479
H      85.27845985      67.70879449      78.72624749
C      85.92663597      67.63320543      74.72002769
O      84.66240907      65.71513323      74.61042357
O      87.19275260      68.50058981      72.93801579
C      86.65607033      73.23435422      79.28938593
O      85.74144279      74.93132845      78.02704875
N      86.91307311      73.27781793      81.77626575
H      87.41385058      71.64131494      82.62286313
C      86.11749833      75.30738399      83.40520983
H      85.90584898      77.07238837      82.36397064
C      83.53991164      74.66487704      84.50881001
H      83.67786166      72.98302062      85.68799921
H      82.20954431      74.22268109      82.99891867
C      82.13017581      76.70956091      85.97523761
H      83.34338010      77.63930626      87.35851729
H      80.48422419      75.72123405      86.72545897
C      81.05492154      78.86384891      84.37652916
O      82.42308339      80.56460259      83.65087425
O      78.81559586      78.81849548      83.69433796
C      87.97509930      75.92343477      85.52170330
O      88.71965146      78.09662003      85.83539788
N      89.07869946      74.06016462      86.80104801
H      88.39839799      72.31783696      86.42310276
C      90.82102712      74.36630029      88.98935109
H      92.27422666      75.79115393      88.68510516
H      91.90006085      72.64664935      89.34084018
C      89.44341664      74.99746887      91.38363433
O      87.10960464      74.94644626      91.51780490
N      90.79079150      75.19211068      93.41509011
H      92.68240754      75.23746412      93.16186679
C      89.91773794      75.25069220      95.92464666
H      87.88061298      74.94833599      95.98511790
C      90.87393946      73.18333162      97.65941542
H      92.92240278      73.29482547      97.83327024
H      90.20686607      71.60729987      96.51235155
C      89.71364750      73.02837406     100.35416513
H      90.36560308      74.57039073     101.55792080
C      86.94708818      73.42899603     100.35038568
H      86.01167366      72.19311503      98.99734165
H      86.45386961      75.40187031     100.01023495
H      86.12694696      72.98302062     102.18719966
C      90.44308186      70.47535381     101.56358998
H      89.30546662      70.23157912     103.26434366
H      92.49532464      70.44322846     101.71665781
H      90.04057016      69.10341250     100.08015482
C      90.55079626      77.70922613      96.98478311
O      92.73343015      78.48968310      97.23989618
N      88.70453365      79.31738323      97.75201201
H      86.88094776      78.75802424      97.81248325
C      89.09003782      81.77213771      99.17119647
H      91.00244085      82.05181720      99.88362328
C      88.42107470      84.02847092      97.24556534
H      88.40028772      85.80670338      98.28302509
H      86.60693744      83.65619484      96.34416590
C      90.49599420      84.26657644      95.14985886
H      91.02700729      82.34094534      94.64152250
H      92.15517390      84.90719366      96.18920834
C      89.66829407      85.87662326      92.95210717
H      91.36526830      86.58716035      92.02236182
H      88.26422742      87.24478511      93.58516549
N      88.39083908      84.37429084      90.94899728
H      87.71053761      82.66030908      91.44221584
C      87.88061298      84.87506831      88.56605240
N      88.82547614      86.63251379      87.11096313
H      89.22798784      86.02024246      85.34973820
H      90.06702632      87.83815917      87.91598655
N      86.53890730      83.18943244      87.31127413
H      86.35182439      83.27635985      85.41209918
H      85.83592911      81.75324044      88.35440304
C      87.58770540      81.80048360     101.57492834
O      85.98521749      80.14886280     102.04358046
N      88.19619727      83.34061055     103.44953684
H      89.57947693      84.61617581     103.13017308
C      86.93763955      83.28013930     105.94397556
H      85.35215917      81.97433842     106.11594067
C      88.99744123      82.42409328     107.86204778
H      88.35871374      82.58094057     109.81602478
H      90.57914215      83.74123252     107.82614298
C      89.95931192      79.70477712     107.26678398
H      90.86638055      79.61973944     105.41674192
C      91.98509853      79.24746335     109.41540281
H      91.16495731      79.66509287     111.25788597
H      93.46475423      80.52680807     108.76722668
H      92.76933495      77.34261924     109.43052062
C      87.88250271      77.73379258     107.62016281
H      86.80157925      78.19110634     109.30957814
H      88.52123020      75.77603612     107.51055869
H      86.73732856      77.98134672     105.92885775
C      86.01545311      85.88796162     106.95119970
O      84.45075972      85.83504928     108.53290061
N      86.99622106      88.00445509     106.02145434
H      88.21131508      87.82682081     104.56069590
C      85.96065105      90.56503424     106.55624690
H      84.83059471      90.51779108     108.27778757
C      87.95620203      92.41885575     107.27434289
H      89.48688035      92.57381331     105.90429131
H      88.77445353      91.45698506     108.90328698
C      86.80346898      95.09470821     108.01511561
H      85.34460027      95.03423697     109.46831514
H      85.86427500      95.89973162     106.36727426
C      88.88594738      97.03734686     108.71620406
H      89.83081053      96.15295495     110.31869199
H      87.83714927      98.75699781     109.14706166
C      90.69063601      97.42474076     106.45420168
H      89.50766733      97.95008467     104.85171375
H      91.68652177      95.68997200     105.96854201
N      92.77500413      99.15950951     107.09103945
H      93.63293988      98.68140877     108.72754242
H      92.13816636     100.83002757     107.75811283
H      93.94663444      99.23698829     105.58492757
C      84.15029324      91.20943091     104.45298150
O      84.59059947      90.77668359     102.30058324
N      82.13395526      92.69853525     105.07470147
H      81.90529838      93.18041546     106.90773598
C      80.33682554      93.71520800     103.18497515
H      79.46566171      91.99744679     102.44987162
C      78.08805123      95.20809179     104.38306163
H      78.84205202      97.06191330     104.88005965
C      76.11139750      95.41218223     102.23066336
H      74.89819321      96.95986808     102.84671414
H      74.98134117      93.69442102     102.08137498
H      76.97122297      95.97721040     100.44676173
C      77.00901750      93.92307790     106.83214693
H      78.33560537      94.23488274     108.37605333
H      76.70855102      91.90296048     106.56758526
C      74.30481915      94.88305887     107.59937582
H      73.06893814      94.44653209     106.01011598
H      74.21222256      96.93152219     107.81669435
H      73.59428205      93.98165941     109.30768840
C      81.72577438      95.17407672     100.96076729
O      82.96732457      97.08459002     101.26690294
N      81.29680650      94.37661221      98.65719090
H      80.22533169      92.79869074      98.71010324
C      82.29080255      95.29312948      96.23834122
H      83.16763555      97.12805373      96.57282278
C      84.33359669      93.56402990      95.30670616
H      85.74144279      93.18041546      96.75801596
H      85.57703660      94.37472250      93.87429360
C      83.38117463      90.94297950      94.48467521
C      83.26968078      90.57259315      91.78614604
H      83.95376170      92.09004338      90.60317736
C      82.77268276      88.38429008      90.58050065
H      82.92764031      88.25011951      88.54904486
C      82.13962444      86.29236305      92.14141457
O      81.24578389      84.27035589      90.91876165
H      80.81114684      84.75223610      89.22178743
C      82.46654709      86.43220279      94.76813416
H      82.24544911      84.84483269      96.03047134
C      83.13362048      88.74522780      95.96055146
H      83.01645745      88.81325795      97.99767643
C      80.19698579      95.62761103      94.31648957
O      77.98789573      95.09470821      94.64152250
N      81.10594415      96.75955709      92.12440704
H      82.98433210      96.63861461      91.81071248
C      79.60739118      97.22254004      89.84161765
H      77.58916348      97.32269554      90.24601909
C      80.29714129      99.74721440      88.71345104
H      79.61117063      99.77178084      86.77081240
H      82.33615598      99.98343018      88.53959622
C      79.20676920     102.12826955      90.15531222
H      79.23511510     101.96764281      92.20755500
H      77.18287232     102.22653533      89.77925669
C      80.56737215     104.58302403      89.28792785
H      80.35383307     104.80412201      87.25269260
H      82.57993067     104.59247266      89.73201353
C      79.30881442     106.94140247      90.37641021
H      77.25846137     106.73542231      90.46144789
H      79.79636381     108.54200066      89.17643399
N      80.22533169     107.78988958      92.90486401
H      78.91764108     108.90860756      93.73067441
H      81.70120794     108.99175552      92.78581125
H      80.52390844     106.32724142      94.09539159
C      80.27824402      95.20809179      87.82527967
O      82.41741421      95.00400135      86.95222613
N      78.32615674      93.71709773      87.25458234
H      76.75390445      94.02134367      88.28826263
C      78.45465813      91.94075500      85.10596352
H      80.15352209      90.77857331      85.08895598
C      75.95455022      90.30992119      85.26470052
H      74.29726024      91.48344124      85.59540263
H      75.98289611      89.33293268      87.07694806
C      75.36873506      88.42019489      83.13497897
O      73.92498416      89.26868199      81.46446091
O      76.54792428      86.35472402      83.09151526
C      78.84583148      93.35049083      82.62664259
O      78.73433762      95.71831790      82.47546449
N      79.23133564      91.81792279      80.58384845
H      79.21999729      89.90740948      80.57628955
C      79.52424322      92.87050034      77.99492340
H      80.86405918      94.42385537      78.16688849
C      80.59193859      91.10738569      76.06740256
H      79.59038364      91.47210287      74.30428790
C      83.47566094      91.25100489      75.61386824
H      84.40729602      91.01478910      77.43556442
H      83.90273909      93.04624489      74.69924070
H      84.09738090      89.86016633      74.22680913
O      79.81715080      88.64129285      76.73636568
H      81.38562364      87.73233450      76.78549856
C      77.27735864      94.31236153      77.07084724
O      77.57404567      95.74288434      75.24348188
N      75.05315077      94.15173478      78.22924947
H      75.01346651      92.94042022      79.70323598
C      72.78547919      95.62950076      77.64343430
H      72.96878264      96.18319057      75.66678058
C      70.41954185      93.77567926      77.73792063
H      70.00569178      93.46198468      79.73158188
H      70.97134193      92.03524131      76.78738828
C      67.88163941      94.56558485      76.53605469
H      67.46589962      96.42696526      77.31840138
H      66.48135221      93.23332779      77.24659178
C      68.00825107      94.57314375      73.55406656
O      68.86429709      96.49310568      72.45991503
O      66.83851048      92.90262569      72.31062665
C      72.46989490      97.84614972      79.51426335
O      70.51591789      98.98565469      79.64465448
N      74.30292942      98.09559360      81.20556841
H      75.79770293      96.97876535      80.80494642
C      74.47678424     100.04390143      83.17466322
H      73.78136496     101.87693595      82.54349464
H      76.45532769     100.51444328      83.50158587
C      73.19554980      99.47698353      85.70689649
O      73.73601153     100.77900496      87.60418171
N      71.34172829      97.64772847      85.74658074
H      71.07905633      96.79357217      84.05905513
C      69.80538080      97.06191330      87.89519956
H      69.09673343      98.86282248      88.60384692
C      67.59251128      95.35926990      87.34717893
H      66.45489604      95.00400135      89.02525589
H      68.14053191      93.43174906      86.86151925
C      65.67443908      96.47231870      85.52170330
C      65.30783217      95.29312948      83.11608170
H      66.05805352      93.45442577      82.64742958
C      63.58062232      96.10949124      81.37375404
H      63.32172982      95.15706918      79.58607295
C      62.29938788      98.36393473      81.90476714
O      60.57973694      99.34470269      80.24180799
H      59.77282380     100.78845359      80.98636015
C      62.74536329      99.76422193      84.21968187
H      61.82884603     101.52544686      84.69211345
C      64.27226215      98.71731356      86.03381914
H      64.44611697      99.54501369      87.89142011
C      71.34172829      96.16618303      90.28192388
O      73.33538955      94.99266299      89.85484573
N      70.31938635      96.44586253      92.58738999
H      68.56005116      97.18663524      92.55148518
C      71.65731258      95.77878914      94.90419445
H      73.65097384      96.05846863      94.46955740
C      71.20944745      97.71764835      96.91108379
H      71.83116740      96.81246943      98.65341145
H      69.20255810      98.19007991      96.92242215
C      72.29226062     100.31035284      96.66730910
C      70.71055970     102.47031001      96.33660700
H      68.67910391     102.29078601      96.40274741
C      71.91998454     104.78333502      96.04936860
H      70.89764260     106.48408870      95.57126784
C      74.53914521     105.10080904      96.10039120
O      75.53692070     107.46296693      95.63740825
H      74.40875409     108.84435687      95.30292669
C      76.06793380     103.06935325      96.81281803
H      78.08427177     103.25832589      97.08115917
C      74.88685485     100.72042345      96.91486324
H      76.12840504      99.11037663      97.11139479
C      71.37574336      92.92152296      95.59016510
O      69.23279372      91.92752691      95.71299731
N      73.62262795      91.72910565      95.99645625
H      75.24023367      92.73632977      95.88307267
C      73.95899923      89.01356894      95.45032535
H      72.31115789      87.78524683      95.59583428
C      74.85283978      88.73199972      92.70644275
H      76.68587430      89.65796561      92.54770573
C      75.09850420      86.08071370      91.69921863
H      76.54036538      85.06593067      92.76502426
H      75.48778782      86.31126031      89.68854982
H      73.16720391      85.36639715      91.76157958
O      73.09350458      89.88851222      90.96411509
H      73.55270807      91.53257411      90.34806431
C      76.08116188      87.93264549      97.07360026
O      77.78002584      89.42363955      97.69909967
N      75.89785843      85.60639240      97.84271886
H      74.23300955      84.85050187      97.29847768
C      77.57404567      84.37051139      99.64173831
H      79.30692470      85.46844237      99.45276569
C      76.31926740      84.55948402     102.34971613
H      74.95866445      86.09583152     102.18342021
C      74.66575687      82.38440903     103.11316555
H      72.86673742      82.19165695     102.12672842
H      74.24434790      82.57338166     105.12005490
H      75.54258988      80.52113889     103.13773199
C      78.43198141      85.45332456     104.07692597
H      79.52802268      87.07848919     103.43819848
H      79.80770217      83.93398461     104.26400888
C      77.69498815      86.15252330     106.78112433
H      79.40141101      86.76290490     107.75622311
H      77.17531342      84.39507783     107.72220803
H      76.22289135      87.59438448     106.74332979
C      78.30914920      81.62662878      98.86884026
O      77.19799013      80.53058752      97.08304889
N      80.10816865      80.54759506     100.30503226
H      81.01901674      81.81938086     101.39918378
C      80.96988385      77.90197822      99.87606437
H      79.27668908      76.79081915     100.25589937
H      82.57804095      77.55048912     101.11383512
C      81.62750861      77.39364184      97.07171053
O      82.61205602      78.93754824      95.76401993
N      80.96043522      75.26769974      95.98889736
H      80.03635905      74.14142285      97.22288864
C      80.76957286      74.66487704      93.26580173
H      82.43820120      75.40187031      92.30960022
C      80.88106672      71.77926496      92.67053795
H      79.21810756      70.85140934      93.45855382
C      81.17775375      71.01770526      89.83405876
H      80.83193383      68.99758783      89.63374777
H      83.09204650      71.52226218      89.26336141
H      79.73589257      72.15721023      88.90431341
C      83.39440271      70.80227646      94.05003816
H      83.16007665      71.21234707      96.05692749
H      85.12161256      71.69233755      93.36406751
C      83.85927539      67.94312055      93.96689019
H      84.53012823      67.39132046      92.09984059
H      82.29836145      66.76015188      94.60372796
H      85.40696124      67.59730063      95.28402944
C      78.42631224      75.92910395      92.34928447
O      76.42131262      74.73479692      92.31526940
N      78.61717459      78.32716664      91.52725352
H      80.30092074      79.22100718      91.62551930
C      76.61028525      79.47989970      89.98712658
H      76.52146811      78.36496116      88.25802701
H      77.39830112      81.32994175      89.52603336
C      73.99868348      80.04303813      91.03214524
O      72.23934829      80.75546495      89.64508611
N      73.50546492      79.38352365      93.43965655
H      74.93598774      79.01691674      94.64719167
C      70.88252479      79.10762361      94.50735192
H      69.78648353      78.15520154      93.04659348
C      70.98834947      77.56182748      96.99612147
H      72.05415511      78.60306668      98.41908539
H      71.98045578      75.81572037      96.54258717
C      68.39753469      77.05349110      97.98255861
N      67.20700712      74.69133322      98.09972164
H      67.85896269      73.01892542      97.45154551
C      65.16988215      74.81794487      99.58882597
H      63.62786548      73.48001865      99.62851023
N      65.28704518      77.10640344     100.72077204
H      64.08895870      77.70922613     102.08137498
C      67.15220505      78.53881598      99.71543765
H      67.56038594      80.46255737     100.25967882
C      70.03970686      81.77024798      94.87395882
O      71.14330703      83.28580848      96.44432140
N      68.09328876      82.51668987      93.50012779
H      67.74368939      81.23923489      92.12440704
C      66.95000434      84.81459707      93.46422300
H      68.53926417      85.99567602      92.89352565
C      65.09051364      84.89207585      91.19466170
H      63.89242716      83.24234479      91.47812064
H      65.94844939      84.51413059      89.36162717
C      63.34062708      87.14651934      90.92065139
H      62.86630577      87.71154751      92.84250305
C      64.69745057      89.35182995      89.89641972
H      65.34751642      89.13640115      87.95567080
H      66.48513166      89.69953959      90.85829041
H      63.51826135      91.03935556      89.97956767
C      60.97846919      86.73455900      89.40509088
H      60.12431289      84.98278271      90.07216426
H      61.58318161      86.54558637      87.44355497
H      59.37220182      88.02335236      89.45989295
C      65.69900552      85.46844237      95.95677201
O      64.35163066      83.81304212      96.90163517
N      66.36229945      87.64162763      97.11706396
H      67.61329827      88.83782439      96.30826110
C      64.88264375      88.54869626      99.33749238
H      63.89809634      87.02179740     100.31259116
C      66.58528716      89.78079782     101.31792555
H      65.46845891      90.58960068     102.84671414
H      67.65676198      91.19053365     100.26534800
C      68.34084290      87.79847492     102.36294420
H      69.02114438      86.29992195     101.12517347
C      70.60851448      89.20821075     103.70087044
H      69.89797738      90.75967605     104.85927266
H      71.84061603      89.87339441     102.19286884
H      71.69699683      87.74178313     104.64951304
C      67.09929272      86.18275892     104.43786370
H      65.60073975      84.93931901     103.76512113
H      66.13931175      87.47533172     105.72287758
H      68.47312374      85.05270259     105.47721316
C      62.73591466      90.46298902      98.77057448
O      60.81406300      90.34771571     100.20109730
N      62.59229546      91.81036388      96.62762485
H      64.25525461      92.32436944      95.84527815
C      60.45123555      93.45064632      95.95677201
H      58.71079761      92.35271533      95.89819049
C      60.16399715      95.54068362      98.02413259