 %block lattice_cart
   139.898   0.000   0.000
   0.000 144.87   0.000
   0.000   0.000   168.12
 %endblock lattice_cart

 %block positions_abs
N      92.62193630      46.23016522      87.37835940
H      94.42851466      46.18481179      86.75852918
H      91.65250671      44.67869992      86.83600796
H      92.68051783      46.37378442      89.27942408
C      91.42951901      48.54507995      86.44483461
H      92.71642263      49.86599865      87.36135187
C      91.65061698      48.78696492      83.57434034
H      90.19552771      47.55675309      82.78443474
H      93.61404261      48.32020252      83.16804919
C      91.03456621      51.38155915      82.63325664
H      88.97665424      51.48549410      82.59735184
H      91.79045672      51.73304824      80.75108923
S      92.14005610      53.92891022      84.51920349
C      90.21820443      56.23437632      83.18694645
H      90.89283672      58.01449851      83.97118287
H      88.20753563      56.04351396      83.59701706
H      90.73221000      55.83753379      81.23296944
C      88.77445353      48.88523069      87.43883066
O      87.56502869      46.93125368      87.76008412
N      87.74833215      51.12077692      87.94149785
H      88.63083434      52.70436757      87.35001352
C      84.98933172      51.50061191      88.58778424
H      83.97076924      49.97938222      87.64292109
C      84.60760701      51.06975431      91.47717579
H      85.16885572      49.16113073      92.00629915
H      82.68764508      51.29652146      92.18771288
C      86.28568397      52.68924976      93.09667124
O      87.60660268      54.43535687      92.21605877
N      86.65607034      52.13933940      95.52119010
H      87.89573079      53.09176146      96.61912108
H      85.68475101      50.61810972      96.13724086
C      84.03879939      54.11977258      87.59945738
O      85.46554276      55.90934339      87.06277511
N      81.55947846      54.44291578      87.56733205
H      80.44076050      52.90467856      87.72606906
C      80.26690568      56.82775038      86.81144152
H      81.11539278      57.46080870      85.04454742
C      77.34538879      56.42712840      86.36357638
H      77.09027574      55.16857068      84.75541929
C      75.64085565      55.35754331      88.53298219
H      76.22856053      53.45647864      89.06021583
H      73.66231221      55.17423986      87.99818964
H      75.97344749      56.48193047      90.22617697
C      76.39485645      58.98581783      85.20328442
H      77.85939434      59.97603442      84.14314796
H      75.74101115      60.28972899      86.65837369
C      74.23111983      58.72692533      83.44583895
H      74.34639313      57.51183131      81.78665925
H      73.96277869      60.62610027      82.69750734
H      72.63808055      57.99182179      84.52676240
C      80.89051535      58.92912604      88.72573428
O      80.67130710      61.14577501      88.00952800
N      81.80514289      58.23937594      91.05387709
H      81.91852646      56.41767977      91.61512580
C      82.32859708      60.05918238      93.01919245
H      80.99067084      61.61442713      93.21005482
C      82.51567998      58.58330613      95.49662364
H      82.41741422      59.95524743      97.03108142
H      84.20509530      57.41545527      95.64591203
C      80.28391321      56.81830175      95.90102509
C      77.83104846      57.56852310      95.27741539
H      77.39074222      59.46391859      94.66514408
C      75.79014403      56.14177973      96.00307030
H      73.91175607      56.82208120      95.57221270
C      76.08872080      53.80985746      97.10856019
H      74.48623287      52.62877852      97.55831506
C      78.55859308      52.78373607      97.50540273
H      78.90252327      50.84865633      98.05909253
C      80.66941737      54.41456988      97.07454513
H      82.55725397      53.76261430      97.50540273
C      84.85327144      61.44435177      92.28408892
O      85.07058996      63.74225896      92.66203419
N      86.62961416      60.13666116      91.01419284
H      86.48599497      58.26016293      90.69860855
C      88.84437340      61.35931408      89.74429675
H      89.21098030      63.16211298      90.67404210
C      91.14228060      59.68879602      89.93515912
H      90.73976889      58.61543148      88.22684653
H      91.19897239      58.71936642      91.75307582
C      93.77088990      60.91900785      89.51941933
H      93.64805770      62.75204237      88.58967398
H      94.84614418      59.78517206      88.17960336
C      95.20141272      61.01538389      92.02708613
O      95.71352856      58.94802331      93.11556849
O      95.62660114      63.09786229      93.17981919
C      88.59115008      62.39299437      87.04576758
O      89.69475024      64.32429467      86.27286951
N      86.93008065      61.23837160      85.57178106
H      86.10804970      59.68123712      86.30499486
C      86.40284700      62.14166078      83.07734233
H      88.03368081      61.75426688      81.88114556
C      84.25422819      60.57885711      82.06255929
H      82.64985056      61.15711337      83.21718207
H      84.71910087      58.63621846      82.55955732
C      83.71565620      60.78672701      79.23552872
H      84.93075021      59.38643981      78.33601900
H      84.14462406      62.70479922      78.62325741
S      80.44265021      60.10642554      78.53821971
C      80.96232495      59.29951240      75.13671236
H      82.64040191      58.11276428      74.99687260
H      81.26279143      61.09475240      74.17295194
H      79.26535072      58.36220815      74.43751362
C      85.68853046      64.96113243      82.89970805
O      86.88472721      66.25748468      81.39170645
N      84.22588229      65.96835656      84.60802064
H      83.34526984      64.74192418      85.77587150
C      83.41707944      68.63287066      84.64770488
H      83.08637733      69.20167828      82.69561760
C      80.96043522      69.02593373      86.20672910
H      81.09838525      70.97802101      86.84923604
H      80.78469068      67.90154658      87.92449032
C      78.49056293      68.57806860      84.76864738
H      76.94476682      68.92388851      86.08578662
C      78.04647725      70.26937365      82.61435937
H      79.45999253      69.80828043      81.18761600
H      78.16175055      72.21957120      83.27387386
H      76.32115712      69.98591470      81.52776675
C      78.27324441      65.90977504      83.52142801
H      76.47989413      65.83796544      82.51042442
H      78.32426702      64.52082620      85.04265768
H      79.79447409      65.83229626      82.13436889
C      85.51467564      70.62275247      85.49430227
O      85.44664549      72.93577748      85.04643713
N      87.53101362      69.67033041      86.59601272
H      87.44219648      67.85241369      87.17048952
C      89.90828931      71.15943474      87.16859978
H      89.40562213      73.13230901      87.47851490
C      90.98354359      70.37897777      89.77264264
H      92.38194107      71.81516977      90.24696396
H      91.87549441      68.54972270      89.45138918
C      89.02200767      70.17866678      91.85512105
H      87.82392119      68.54783298      91.47339633
H      87.83525955      71.85485402      92.00629915
C      90.25032978      69.90654620      94.47617145
H      88.92941108      70.30149899      96.00684975
H      91.86604578      71.18400118      94.49506870
N      91.43329845      67.20045812      94.88624205
H      93.22475900      67.01904439      94.25318373
C      90.72087164      65.42600511      96.56242930
N      88.61571653      65.63576473      97.80775894
H      88.08092397      64.15988848      98.89246184
H      87.32314372      66.98691904      97.42981367
N      92.07013622      63.51171235      96.86478551
H      91.56179984      62.10386625      98.04964390
H      93.63671934      63.35864452      95.78764151
C      91.89439168      71.02337445      85.13903372
O      93.63482960      72.75058430      84.91226658
N      91.66006562      69.22813445      83.42127250
H      90.38450036      67.86942123      83.83134312
C      93.02633773      69.08640498      80.99486393
H      94.97842501      69.74025028      81.05155572
C      93.16995693      66.25748468      80.32779053
H      91.25566419      65.54316814      80.06322886
C      94.54756742      65.95134902      77.76532166
H      96.46186017      66.70723955      77.84846961
H      93.66506523      67.02660329      76.24409198
H      94.58347222      63.98225420      77.15871950
C      94.48898590      64.59452553      82.31767235
H      93.55168166      64.84585913      84.13369933
H      96.43729373      65.19734822      82.58601348
C      94.55890577      61.78261278      81.90949145
H      92.60114931      61.14955446      81.85657912
H      95.31668602      60.96436128      83.64237049
H      95.47542304      61.15711337      80.17283298
C      91.69219096      70.86085798      79.07679172
O      92.84870346      72.03059857      77.43272982
N      89.16940633      70.74180523      78.97852595
H      88.33414730      69.34151803      79.97252199
C      87.43463758      72.06461364      77.21541129
H      88.22454318      72.24980682      75.32001580
C      84.98366254      70.56606068      76.76565644
H      83.32070340      71.76603689      76.57668381
H      84.78713101      69.12419950      78.22452515
C      84.98555228      68.99758784      74.28444579
O      86.21954356      69.72513247      72.43062428
O      83.92919527      66.94534506      74.16161358
C      86.73543883      74.84062160      77.84091070
O      86.27056616      76.36752046      76.03244263
N      86.92063201      75.77414640      80.19361997
H      87.30235673      74.63464143      81.67705513
C      86.75622583      78.47645502      80.72085361
H      87.07369984      79.53470176      78.98230541
C      83.96132062      79.02636538      81.31800713
H      83.38873354      77.59395284      82.68427924
H      82.96165540      78.58983860      79.57001028
C      83.45298424      81.78347607      82.18728122
H      85.04413378      82.84928171      81.42572153
H      83.65140550      82.03291995      84.22062673
C      80.79791876      82.82660500      81.39359617
O      80.90374343      84.85806078      80.27298848
O      78.83827257      81.54915001      81.73563663
C      88.73476927      79.25691199      82.58412376
O      90.04245988      81.14474858      82.16271478
N      88.70075421      78.01725153      84.66849188
H      87.16251698      76.92687945      84.95762000
C      90.46575859      78.24023924      86.88325112
H      91.38794502      80.07894294      86.79632370
H      91.85470742      76.72845819      86.71695519
C      89.24310565      78.04937688      89.44760973
O      87.41196085      76.75302463      89.80854745
N      90.00844481      79.51013532      91.39024837
H      91.24999500      80.91042252      91.01797229
C      89.04090494      79.49501751      94.02452686
H      87.00566971      79.16431540      93.99996040
C      90.33725720      77.37474458      95.68748601
H      92.37438216      77.62607818      95.53063873
H      89.92340712      75.49446690      94.95238248
C      89.75333176      77.33883978      98.46727341
H      89.95553247      79.20399966      99.31953999
C      87.10393547      76.53381637      98.86978512
H      85.69042018      77.92465494      98.31042612
H      86.94519847      76.01792109     100.85777720
H      86.58426073      74.83306269      97.83043564
C      91.19141348      75.27336892      99.91291405
H      91.37093748      75.69099844     101.92358284
H      93.13783158      75.53037170      99.28363519
H      90.65851066      73.31750219      99.55764550
C      89.54357214      82.11795763      95.05442770
O      91.69786013      83.02124681      94.99584617
N      87.57825677      83.27824959      96.22038883
H      85.86616473      82.61684538      95.70071409
C      87.68030200      85.54970061      97.70949316
H      89.61916120      86.24323017      97.77752331
C      86.27812507      87.73800368      96.34322103
H      85.93230515      89.48222107      97.38446024
H      84.51123097      86.98400289      95.60055859
C      87.65762528      88.52601956      93.90925355
H      88.30580140      86.98400289      92.70927733
H      89.22798785      89.79213619      94.32688307
C      85.96065105      90.30047257      92.24629440
H      87.07181012      91.52690494      91.01797229
H      84.95720637      91.49100014      93.59555898
N      83.90651854      89.06081210      90.72506470
H      83.31314449      87.29391800      91.13702505
C      82.64418137      90.18141981      88.87880211
N      82.71221152      92.57759277      88.46684176
H      82.17552925      93.33726275      86.80010316
H      83.91029800      93.46009496      89.66303852
N      80.91319207      88.85861139      87.69394371
H      80.19131662      89.67308343      86.12736058
H      80.83193384      87.14085017      88.52353356
C      86.68252650      85.16797590     100.46660386
O      84.46398781      84.99034163     100.73872445
N      88.38328018      85.48167047     102.36199935
H      90.18796882      85.88418217     101.88767805
C      87.77667804      85.01301834     104.88478398
H      86.21576411      83.67131266     104.95092440
C      89.98765782      83.63351813     106.13578280
H      89.91206877      83.72800445     108.19180503
H      91.61660191      84.83727379     105.76350670
C      90.62638531      80.94443759     105.60854915
H      90.79646068      80.75924441     103.56575500
C      93.22664872      80.29626146     106.90679113
H      94.67606880      81.59639317     106.22837939
H      93.69908030      78.36496117     106.37010886
H      93.31357614      80.39830669     108.96281336
C      88.71965146      79.03392429     106.28318144
H      88.96720561      78.56905161     108.27495297
H      89.08814810      77.25758155     105.30430322
H      86.82992515      79.80493262     105.99594305
C      86.93386011      87.30903581     106.51372806
O      86.24788946      86.92920082     108.70392086
N      87.03401559      89.58993547     105.44036350
H      87.63116912      89.47466217     103.63000571
C      86.39717782      91.95209336     106.62522191
H      85.99466613      91.83304061     108.64155988
C      88.57225281      93.87205530     106.03184785
H      88.30958086      95.77689942     106.76695138
H      88.49477404      94.38039167     104.03818659
C      91.40306283      92.91018460     106.43058010
H      91.57880739      90.90896444     105.96759715
H      91.90761975      93.12372368     108.41668246
C      93.21720010      94.62227664     104.94336549
H      92.99232266      96.51956186     105.71059437
H      92.72398152      94.69597597     102.94592478
C      96.14438616      93.92874709     105.03029290
H      96.53366977      92.78546267     106.69892124
H      97.35192126      95.59737542     104.95848330
N      96.85870270      92.36027425     102.83443092
H      98.63882488      91.71020839     103.06308781
H      97.03255752      93.34482166     101.20926629
H      95.64927786      90.90140553     102.60199458
C      83.93108499      92.84593391     105.42146625
O      83.64195686      92.33381808     103.15190495
N      82.08293266      94.11205054     106.71214932
H      82.35505324      94.43519374     108.57541947
C      79.73211312      94.84526435     105.51028339
H      79.01401713      92.98955311     104.97549084
C      77.81782036      95.96587205     107.47937821
H      78.60961570      97.67229491     108.31841669
C      75.48967755      96.86727150     106.34554242
H      74.24623763      98.02000455     107.51528301
H      74.53347604      95.13628220     105.76350670
H      75.99801393      97.93307714     104.65801681
C      76.97122298      94.17252178     109.63933538
H      78.64174105      93.08403942     110.15712039
H      75.51235426      92.82136747     109.10265311
C      75.86195363      95.63516995     111.83519735
H      74.22356092      96.76333656     111.30229454
H      77.25657165      96.95041946     112.58541870
H      75.38007343      94.48810607     113.47736951
C      80.39540705      96.59515091     103.27473715
O      81.70120794      98.48487723     103.67346940
N      79.48266925      96.05846864     100.98060940
H      78.33938484      94.53912869     100.81053404
C      79.95132137      97.46253529      98.66569467
H      81.26090171      99.03478758      98.91702828
C      81.42152845      95.86949601      96.69093068
H      83.10338487      95.13817193      97.63012466
H      82.21521350      97.19797361      95.33032773
C      80.01557207      93.59048608      95.59110997
C      78.46599649      94.00244641      93.48028568
H      78.16930946      95.90729054      92.81321228
C      77.26224084      91.96154199      92.21794850
H      76.14163312      92.37539206      90.56443798
C      77.74790050      89.44253682      93.14580412
O      76.74445582      87.46210364      91.88346694
H      76.34761330      87.88918179      90.16570573
C      79.18220276      88.99845114      95.33788664
H      79.49967678      87.09927619      96.01440866
C      80.24800841      91.14140077      96.63423890
H      81.26846062      90.86739046      98.38034601
C      77.33782988      98.66818068      97.59044041
O      75.21944669      97.93307714      98.32932340
N      77.54947924     100.31224257      95.64402230
H      79.25590210     101.00199268      95.13946538
C      75.29692546     101.43096055      94.47239199
H      73.63207658     100.91128581      95.57032298
C      75.33849944     104.32413153      94.38735431
H      73.55270809     104.86459326      93.51241103
H      76.95043599     104.97986656      93.28942331
C      75.55392825     105.28411250      97.09155266
H      77.23578466     104.49231718      97.97972402
H      73.84939511     104.65294391      98.06287199
C      75.89785843     108.20373965      97.00462524
H      74.82449389     108.89348976      95.38701952
H      77.83860735     108.65727397      96.48117106
C      75.24590285     109.65315974      99.45182082
H      76.26635506     109.02010142     101.12422861
H      73.25224159     109.31867818      99.85055307
N      75.60495085     112.49530811      99.19670777
H      77.50223607     112.69939855      99.14190570
H      74.79803773     113.22663219     100.76518061
H      74.47867397     113.22285274      97.83988428
C      74.87740622     100.60326042      91.84567241
O      76.65941814     100.59570152      90.38113452
N      72.54548396      99.96453293      91.17104012
H      71.06771797      99.93240758      92.37668551
C      71.73479137      99.31635680      88.60857123
H      73.01602580      97.88016481      87.87346770
C      69.14208686      97.93496687      88.51408492
H      67.64542363      99.16517870      89.20761448
H      69.05704918      96.23232346      89.66870771
C      68.29926893      96.92963247      85.96484413
O      66.00136173      97.03356742      85.41493377
O      69.85262395      95.93185698      84.46251170
C      71.68565849     101.61237427      86.83033878
O      71.66865094     103.76666227      87.62591356
N      71.64975369     101.28923108      84.33967950
H      71.77069617      99.50154998      83.68016502
C      71.26613925     103.36793002      82.47451962
H      72.81004563     104.72097406      82.64648472
C      70.89386315     102.33236000      79.71929866
H      68.91342998     102.64794429      79.24875682
C      72.52280723     104.01988560      78.12059021
H      74.48245342     103.39249646      78.14326691
H      72.63430109     105.98142151      78.73664098
H      71.85573385     104.21074796      76.18173101
O      71.84439549      99.87004661      79.34702258
H      71.58550299      99.57524931      77.57445929
C      68.90587107     104.98742547      82.96962792
O      69.05893890     107.35336281      82.48963743
N      66.80260569     103.78744926      83.88992463
H      67.02937284     101.89772295      84.04677191
C      64.50658823     104.87971107      85.06155495
H      63.97746485     106.57479557      84.02031576
C      62.39387420     102.87660118      84.74219121
H      60.68745134     103.66650678      85.58689886
H      62.98157908     101.27600299      85.90059343
C      61.64932203     102.41928741      81.99263942
H      63.08929348     101.56513112      80.79455294
H      61.23169251     104.30145482      81.26887423
C      59.19645728     100.91506527      81.90949145
O      59.36086346      98.63416561      82.24964220
O      57.06484599     102.02433461      81.55989210
C      64.64642796     105.59591734      87.90748278
O      62.90787975     106.39716130      89.17926859
N      66.95189407     105.22742071      88.92226580
H      68.25580522     104.45830210      87.76008412
C      67.92321340     106.36881540      91.25040863
H      67.32794960     108.33979995      91.28442370
H      69.92254383     106.78077574      90.96694967
C      67.42243593     104.97041793      93.70327338
O      67.41109757     106.13826879      95.77630315
N      66.84795912     102.44385385      93.50863157
H      66.81205432     101.73142703      91.73795802
C      65.74246922     101.07947145      95.54386680
H      65.12452873     102.41361823      96.98761771
C      63.48046683      99.42407120      94.68782079
H      62.91543866      98.55101765      96.46416353
H      64.03415664      97.95008468      93.36123292
C      61.22035416     100.87538101      93.59555898
C      60.06006220     100.19885899      91.32410796
H      60.80083492      98.48298750      90.50774619
C      58.19112288     101.79378800      90.19027217
H      57.33696658     101.57080030      88.34967873
C      57.39932755     103.94618627      91.46772716
O      55.69857387     105.56757145      90.42270849
H      55.25826764     107.05667578      91.36190247
C      58.59363458     104.49987608      93.74673709
H      58.01726806     106.17795305      94.75396120
C      60.40777184     103.13549368      94.85222698
H      61.07106578     103.67973486      96.70604848
C      67.81360926      99.45241710      96.91580812
O      69.26113962      98.17874156      95.60622778
N      67.96478737      99.48454245      99.44615165
H      66.85362831     100.73932072     100.35888945
C      69.57861364      98.04079154     101.03541148
H      71.42676597      98.57558409     100.29652849
C      69.38397183      98.96297798     103.77551462
H      70.93921658      98.22409500     104.90935042
H      67.48857634      98.44330325     104.39912431
C      69.56727528     101.78622910     104.02873795
C      67.45645099     103.05612518     104.89990178
H      65.60640893     102.19818943     105.00572646
C      67.41487702     105.62615296     105.14745594
H      65.74435895     106.67117161     105.68035876
C      69.66932051     107.06990387     104.80919493
O      69.75813765     109.61347548     105.25894978
H      68.12163465     110.15771666     105.81830877
C      71.92565372     105.75087490     104.14590098
H      73.69065810     106.77510656     104.11944482
C      71.80282152     103.12793478     103.71126394
H      73.31082312     101.92039966     103.04985973
C      69.21389647      95.30446784     100.71037854
O      67.20889684      94.36338414     101.29241426
N      71.25480089      94.04024094      99.94503940
H      72.87807578      95.03045753      99.78063321
C      71.42109679      91.37005766      98.98316870
H      69.81671915      90.27401640      99.66535989
C      71.51369339      91.54769193      96.08432853
H      73.22956489      92.35838452      95.27930513
C      71.26991870      88.95120798      94.80120437
H      71.71022493      89.12884225      92.79620475
H      69.38397183      88.14618457      94.98072837
H      72.67209561      87.60005366      95.47205720
O      69.32728004      92.80058048      95.12623730
H      69.62018762      94.57314376      95.38324008
C      73.90419718      90.35149518     100.13590175
O      75.59172277      91.78012827     100.82376213
N      74.25568627      87.87784343     100.27196205
H      73.18232173      86.63251379      99.30253244
C      76.69910239      86.64763160     101.31320125
H      78.42064307      87.63595846     100.75951144
C      76.53658592      86.56826310     104.34243252
H      75.56526661      88.33326747     104.76762095
C      74.64119043      84.51035114     105.10210249
H      74.21033284      84.64641144     107.11088156
H      75.41597823      82.60361729     104.98871891
H      72.91209087      84.51413059     103.98149480
C      79.05937055      85.99189657     105.67468958
H      80.57304133      86.98211316     104.69392161
H      79.61495009      84.01902230     105.45737105
C      79.12929044      86.77424327     108.41857218
H      78.42442252      88.64129286     108.92879828
H      81.05114209      86.82337615     109.15934490
H      77.99167518      85.42308895     109.48059836
C      76.98445107      83.96988942     100.37778672
O      75.13251927      82.73400841      99.71638251
N      79.35416786      83.19321190     100.14912983
H      80.81681603      84.37618057     100.47983193
C      79.88896041      80.59672795      99.90724486
H      78.56426226      79.47800997     101.01840394
H      81.69931822      80.38507860     100.87100528
C      79.87762205      79.80115317      97.17848007
O      80.60138722      81.27513969      95.52119010
N      78.86661847      77.58639393      96.63990807
H      78.19009646      76.58105953      98.11578432
C      77.91986558      77.05727056      94.08877754
H      79.21810756      78.05504606      92.83777872
C      77.83104846      74.08851053      93.54264664
H      76.24367835      73.26647958      94.56498858
C      77.43042647      73.46490084      90.79120514
H      79.02157604      73.89953789      89.55721385
H      75.69187826      74.29260097      90.05799133
H      76.94098736      71.46557040      90.71561608
C      80.27446457      72.77704046      94.67081326
H      79.83037889      70.77582030      94.46861254
H      80.39162760      73.38175288      96.63801835
C      82.94653758      73.22301587      93.41603498
H      84.40162685      72.15343078      94.40436185
H      83.36794656      75.23368467      93.56910282
H      82.88606634      72.56161167      91.46583743
C      75.21755696      78.23645978      93.69949393
O      73.25791077      77.14608770      94.47050226
N      74.99645899      80.56271287      92.59400404
H      76.61784417      81.48489932      92.19527179
C      72.53225588      81.67387195      91.69071486
H      71.72156329      80.57972041      90.14302901
H      72.92909839      83.54470100      90.92726543
C      70.45544666      82.14063435      93.53886719
O      68.37296825      82.73022896      92.65825473
N      70.81449466      81.60395207      95.97472441
H      72.59461683      81.34505957      96.60967245
C      68.84917928      81.63607742      97.82287675
H      67.08795437      80.88774580      97.05753759
C      69.48979650      79.82005043     100.03007708
H      70.89008370      80.56649233     101.34154714
H      70.08128084      78.05693578      99.14757489
C      67.14464616      78.96211469     101.42658482
N      65.71223360      76.80782669     100.97305051
H      66.37552754      75.37352442      99.89968595
C      63.70534426      76.80026779     102.53207471
H      62.40521256      75.23368467     102.66624529
N      63.81494838      78.92054071     103.92480301
H      62.73780439      79.54037094     105.37422309
C      65.95222884      80.34161490     103.28607551
H      66.46056522      82.08394256     104.22149004
C      67.99880244      84.22878192      98.67136386
O      69.36507457      85.68387118      99.72961059
N      65.72357196      84.99223135      97.96649594
H      64.68233276      83.72800445      96.98761771
C      64.67855331      87.46966255      98.64868714
H      66.12230421      88.91908263      98.40113300
C      62.56017011      88.09138251      96.86100605
H      61.06728633      86.70999257      96.55109093
H      63.29905310      88.04602907      94.93726467
C      60.82540136      90.55369589      96.85344715
H      59.87297930      90.53290890      95.02797152
C      58.58229622      90.30614174      98.72616591
H      59.18511892      90.32125955     100.69715046
H      57.44468098      88.62239560      98.38790490
H      57.55617484      92.05602831      98.37278710
C      62.08206936      93.17852574      97.24084104
H      62.94756401      93.16529766      99.10978037
H      60.94067466      94.88305887      97.04053004
H      63.74124906      93.38450591      96.03897510
C      63.92455251      87.49611872     101.43414373
O      63.19322843      85.49111910     102.55853089
N      64.52548548      89.59560465     102.54908224
H      65.22090477      91.09604734     101.59477047
C      63.96612649      89.92252730     105.23249362
H      63.67699836      87.96666057     105.80886014
C      66.25836451      90.96943568     106.80285618
H      65.71223360      91.78768717     108.60943453
H      67.12196943      92.56058524     105.82019849
C      68.18399562      88.86617029     107.21481651
H      68.55060252      87.72288587     105.54051900
C      70.81827411      89.97543964     107.73638098
H      71.69888657      90.35338490     105.91468482
H      72.05604485      88.75089699     108.83620169
H      70.85606863      91.78768717     108.71336949
C      67.60762909      86.87628849     109.06296886
H      67.42810510      87.77012903     110.91112119
H      69.30082387      85.70465817     109.07241749
H      65.93144186      85.79158558     108.55085302
C      61.65688094      91.75367210     105.77862452
O      60.01659850      91.20376174     107.35465627
N      61.53593845      93.86260667     104.54085378
H      62.91732839      93.99110805     103.22749400
C      59.54983610      95.72398708     104.90746069
H      57.79239063      94.64873281     104.93013741
C      59.62353543      97.03167769     107.64756385