 %block lattice_cart
   139.898   0.000   0.000
   0.000 144.87   0.000
   0.000   0.000   168.12
 %endblock lattice_cart

 %block positions_abs
N      94.75354759      43.93603748      88.42526779
H      96.63760472      44.24595259      88.46306231
H      94.54189823      42.30520367      87.45583819
H      94.43607356      43.79808746      90.30365574
C      93.37782682      46.12812000      87.10623882
H      94.24143176      47.77407162      87.99252046
C      94.16395298      46.40213032      84.28487743
H      93.33247339      45.02829929      82.99608409
H      96.18407040      46.01473642      84.27920826
C      93.60270426      48.87767179      82.97907655
H      91.55046148      49.06097524      82.97907655
H      94.40772767      48.72649368      81.08935024
S      94.80268047      51.55163452      84.56266720
C      93.76144128      53.89867460      82.20428876
H      91.71486767      54.13300066      82.15515588
H      94.22820368      53.43002247      80.25409121
H      94.55890577      55.76005502      82.57089567
C      90.60937778      46.21315768      87.60701629
O      89.29034881      44.35177727      87.71473069
N      89.53790297      48.49405734      87.98874101
H      90.60937778      50.05308155      87.72984850
C      86.82803542      48.82475945      88.48195958
H      85.82081131      47.34321402      87.46906627
C      86.24599972      48.53374160      91.36001275
H      87.11716355      46.76873722      91.96472517
H      84.19753640      48.61122038      91.55654429
C      87.43841703      50.43291654      93.11556850
O      88.13572604      52.51917439      92.25196357
N      88.09037260      49.73749726      95.32654828
H      88.88405765      50.91668648      96.60022382
H      87.84848763      47.96871343      95.99929085
C      85.85671611      51.35510298      87.45772791
O      87.46865264      52.88578130      86.73018328
N      83.40196163      51.96359485      87.64292109
H      82.18308816      50.59732273      88.18338282
C      82.30403064      54.39378289      86.84734631
H      82.92008141      54.39756235      84.88392068
C      79.36928567      54.25961233      87.19316623
H      78.91764109      52.37177574      86.49774695
C      78.17686836      54.34842946      89.85957006
H      78.34883347      56.20225097      90.74018252
H      79.15763632      52.99916487      91.07277435
H      76.12273587      54.19725136      89.78965018
C      78.50568075      56.34020100      85.41115432
H      79.38818294      56.31563455      83.54977390
H      78.76268352      58.20536087      86.24641335
C      75.63707620      56.37421607      84.85935423
H      75.13251927      58.10142592      83.85968901
H      74.65063907      56.24571468      86.66215314
H      75.06448912      54.81141241      83.64426021
C      83.37928490      56.80318394      88.18338282
O      83.42841780      58.73637396      87.05143676
N      84.59437893      56.58019624      90.38302425
H      84.92886049      54.73204390      90.73262361
C      85.46554276      58.43968693      92.11023410
H      84.35816314      60.15555842      91.85134159
C      85.26712149      57.61387653      94.93159548
H      85.56191879      59.28628432      96.09566689
H      86.56914292      56.09831603      95.43237295
C      82.76701359      56.61799076      95.85000247
C      80.76390369      58.16756634      96.41881009
H      81.09838525      60.16689678      96.18826348
C      78.50568075      57.14144495      97.08966293
H      76.93342846      58.26772184      97.73972878
C      78.19576563      54.52228428      97.16903144
H      76.34194411      53.85143144      97.69059590
C      80.18564743      52.96137035      96.52841422
H      80.06659469      50.94881182      96.84021906
C      82.48544437      54.07252942      95.90480453
H      83.98021787      52.78751553      95.36812226
C      88.12060823      59.25415897      91.37702029
O      88.66295967      61.56529425      91.26930589
N      89.77978792      57.57986146      90.65892429
H      89.26956183      55.76005502      90.93293460
C      92.10982047      58.12221291      89.22273229
H      93.39294463      59.57919190      89.91248239
C      93.69908030      55.77706255      89.06210555
H      95.31101685      56.01705780      87.80165810
H      92.62193630      54.37488563      88.00574854
C      94.48142699      54.50338702      91.43938126
H      94.94818939      52.56263810      90.92915515
H      93.02822746      54.63755759      92.89447052
C      96.91917394      55.84887215      92.52975334
O      98.86748177      54.56763771      92.20472041
O      96.75854721      58.06363139      93.59366925
C      91.65628616      59.28061514      86.55821819
O      93.21342064      60.89633114      85.66248792
N      89.48499062      58.71180752      85.53776598
H      88.32280894      57.40789636      86.30499486
C      88.66106995      59.86076112      83.08112177
H      90.28812430      59.90233510      81.81878460
C      86.54835593      58.20158141      81.85468940
H      84.82303581      58.50015817      82.93939230
H      87.11716355      56.23815577      82.11358190
C      85.92474626      58.45102529      79.12970405
H      87.28723892      57.28506415      78.11492102
H      85.84726747      60.42956874      78.56089643
S      82.75378549      57.19813674      78.25476077
C      83.02779581      56.93357506      74.84191505
H      81.40641063      55.82241599      74.22586427
H      84.38650903      55.65989952      73.96130259
H      82.91252250      58.80440411      73.98964848
C      87.54424170      62.50070878      83.27576358
O      88.31147058      64.30539741      81.99830860
N      85.52034481      62.91833829      84.66471242
H      84.73988786      61.41600587      85.54532489
C      84.41296521      65.46002018      85.28265293
H      84.06903501      66.61842241      83.61402459
C      81.73522302      65.08396465      86.38436337
H      81.28924760      66.81873340      87.40292585
H      81.64640587      63.57407332      87.78465057
C      79.57148638      64.57184882      84.46062198
H      77.97844710      63.99359256      85.63225230
C      78.93275890      67.06061837      83.07734232
H      77.17153397      66.68267311      82.07767710
H      80.39351734      67.48580679      81.68839348
H      78.71544037      68.63287066      84.38881238
C      80.08549195      62.43645808      82.46696072
H      80.48800364      60.60720301      83.32300674
H      81.75412027      62.84841842      81.32934548
H      78.34127456      62.24559572      81.38603727
C      85.96443050      67.06439782      87.08167238
O      85.39184343      69.41332763      87.01931141
N      88.09604179      66.19890317      88.14747802
H      88.34359593      64.30728713      88.18338282
C      90.20875581      67.72391231      89.17737886
H      89.60026393      69.27348788      90.38869343
C      92.20430678      66.18945454      90.65325511
H      94.11482009      66.94912452      90.78364622
H      92.27233693      64.19579328      90.14302900
C      91.48999025      66.14977029      93.53886719
H      89.73821395      65.10475164      93.81287750
H      91.57691765      68.04705550      94.33633169
C      93.48176177      64.80428515      95.20938525
H      93.87104540      65.71513323      97.01407388
H      95.30912713      64.98191943      94.27397073
N      93.03389664      62.10953543      95.37568117
H      94.06190775      61.06451678      94.15302824
C      91.88494304      60.70924823      97.05564786
N      90.55268599      61.67867783      98.90380019
H      89.58136666      60.52405505     100.07165105
H      90.61126751      63.51738153      99.41780575
N      92.19863760      58.24315539      96.97249990
H      91.32936351      57.18679838      98.30286722
H      93.14728021      57.53261830      95.47583666
C      91.69974987      69.01648510      87.05521621
O      92.59170069      71.15943474      87.55032450
N      91.99832663      67.98658426      84.81400080
H      91.55235121      66.13654220      84.68927887
C      92.91484389      69.29994405      82.51042443
H      94.58914140      70.47535382      82.75797857
C      94.09214338      67.11731016      80.87203171
H      93.02444801      65.36553387      81.04399681
C      93.74632346      67.73903012      77.96563264
H      94.94440994      69.38876119      77.68028397
H      91.87171495      68.38153706      77.40627366
H      94.47008863      66.05339424      77.02832839
C      96.82657736      66.55228199      81.38981672
H      97.91694943      68.29649938      81.51453866
H      97.55601171      65.49781471      79.77788018
C      97.49931992      64.87231530      83.71606981
H      96.65839171      65.71513323      85.39792623
H      99.52888598      64.61153307      83.95795478
H      96.82657736      62.97503008      83.28143276
C      91.00433058      71.09329432      81.37658864
O      91.69219096      73.17766244      80.49975563
N      88.63272406      70.32606544      81.21218245
H      88.31525003      68.54405353      81.81311542
C      86.70898267      71.66399167      79.74197538
H      87.73321434      72.41232329      78.11870048
C      84.77390292      69.84229550      78.64026494
H      82.89173551      70.67188535      78.56278616
H      84.81736664      68.29649938      80.00464734
C      85.41263041      68.84074056      75.98330974
O      87.28912865      69.79883180      74.72664174
O      84.05580693      67.04550056      75.04789522
C      85.35215917      73.72001390      81.09123997
O      84.91563239      75.66832173      79.95173500
N      84.76256456      73.59340223      83.47985403
H      85.02145708      71.93800198      84.39637129
C      83.78746580      75.66265255      84.95573028
H      83.02023690      77.25947128      83.90504245
C      81.82592987      74.45700716      86.77553672
H      81.36105721      75.80627175      88.26086160
H      82.42497312      72.81672472      87.86590880
C      79.41463910      73.80505158      85.37902897
H      78.23922934      72.62775209      86.59034354
H      79.94565220      72.69200278      83.73118762
C      77.66475253      75.82516901      84.43416581
O      77.66097308      78.05882551      85.41493377
O      76.16242012      75.26958947      82.68049979
C      85.76978869      76.80782669      86.81333124
O      85.33137218      78.72400917      87.95472593
N      87.83336983      75.51714362      87.02876004
H      88.05824725      74.21134274      85.65492901
C      90.13883592      76.11996631      88.60290206
H      90.24466061      78.17598854      88.53676164
H      91.90950949      75.63997583      87.66559781
C      90.06135714      75.15242644      91.33166686
O      88.30958086      73.77103651      91.99307107
N      91.75833138      76.09351015      93.04942807
H      93.23042817      77.12341099      92.40125195
C      91.33503268      76.02170055      95.79897986
H      89.32247416      76.28815196      96.15046895
C      92.21753488      73.51592345      96.99139716
H      94.21308586      73.29860493      96.53030394
H      91.29345871      71.95311979      96.02007784
C      91.91517867      73.49513647      99.93748049
H      92.24210132      75.39431141     100.66691484
C      89.16373716      72.55594249     100.44770659
H      88.70264393      72.28382190     102.43758840
H      88.79524052      70.84574017      99.36489341
H      87.93919450      74.03559819      99.70504415
C      93.97309061      71.66777112     100.85021829
H      93.86915568      69.87631058      99.84110444
H      93.88994267      71.24447243     102.86466654
H      95.85147857      72.40476438     100.43258878
C      92.45941985      78.50480092      97.01785333
O      94.62693592      78.67487629      97.74161851
N      90.72276135      80.27358475      97.56965341
H      89.05980221      80.39830669      96.63801834
C      91.30668679      82.43921110      99.32142971
H      93.36459874      82.51291043      99.30253244
C      90.40339761      84.93176011      98.27452133
H      89.80813382      86.17142057      99.80897910
H      88.73476927      84.49901279      97.14446499
C      92.39327943      85.78969586      96.30920596
H      93.48932068      84.21366411      95.56087434
H      93.84647896      87.00101042      97.12556773
C      91.23298747      87.31848444      94.10956454
H      92.69941508      88.01390373      92.83966845
H      90.06324688      88.78869152      94.95427220
N      89.63616873      85.76134996      92.39558277
H      88.94452889      84.17586959      93.20438563
C      89.08625837      85.98433767      90.02397625
N      90.04623933      87.82871055      88.53676164
H      89.41507075      87.94776331      86.73963192
H      90.71898190      89.32537379      89.51186042
N      87.72754516      84.26279700      89.01108294
H      87.45542456      84.21933329      87.12135663
H      87.08881766      82.71889060      89.93515911
C      90.45253049      81.93843363     102.00484107
O      88.26422743      81.68521031     102.45648566
N      92.14005610      81.74001237     103.73205092
H      93.88994267      81.35828765     103.07064671
C      91.71108822      81.23167599     106.36254995
H      89.79868519      80.48523410     106.54585340
C      93.51577686      79.29092707     107.52851108
H      93.25121516      79.21722774     109.56941550
H      95.43573879      79.92209566     107.13355829
C      93.13594187      76.69444311     106.34176296
H      93.55357137      77.03837330     104.35377088
C      95.09936751      74.67432568     107.28473639
H      94.82535719      72.85073979     106.36821913
H      94.58158249      74.35307221     109.25194148
H      97.03444724      75.38108333     107.26583913
C      90.51111202      75.36785524     106.32097597
H      89.15995770      76.53948556     105.29863404
H      89.65506600      74.96534354     108.15023104
H      90.90228536      73.66710156     105.22493471
C      91.37282722      83.57493662     107.93858169
O      90.60748806      83.24234479     110.10231832
N      91.72809575      85.95032259     106.93513702
H      92.59736986      86.00323493     105.23438334
C      90.75488670      88.31625994     107.83842620
H      89.89506123      87.93075577     109.66957100
C      92.91295415      90.20787598     108.35054203
H      93.41751109      91.03179665     106.53073559
H      94.42473520      89.14584979     109.26139011
C      92.19863760      92.32625917     110.16656902
H      91.41440120      91.69320086     111.96369874
H      90.63016477      93.41852098     109.39934013
C      94.30946191      94.10638136     110.75994308
H      94.91984350      95.07959041     109.05163049
H      95.86281694      93.09537778     111.65756308
C      93.37404738      96.26066936     112.45502758
H      91.77344919      95.28746031     113.30540442
H      92.55957534      97.66284628     111.18513150
N      95.34125246      97.03356742     114.25215731
H      94.47764754      97.86504700     115.73937191
H      96.31635124      98.42062653     113.37532430
H      96.28044644      95.57847816     115.04962181
C      88.80468916      89.36694777     106.04696566
O      89.15050906      89.23277720     103.72071256
N      86.88850668      90.67652810     107.12410965
H      86.97921354      90.98833294     109.00438733
C      84.71343168      91.78957690     105.74838890
H      83.52857328      90.20976570     105.16446347
C      83.12795131      93.22009972     107.71748372
H      84.12005762      94.90951504     108.34865230
C      80.83949275      94.42763483     106.39278557
H      79.70943640      92.98955311     105.44225323
H      81.48955860      95.61060351     104.83565109
H      79.73778230      95.77878915     107.48693711
C      82.25489776      91.70831867     110.03428818
H      83.85927539      91.59871454     111.31930207
H      81.64640587      89.87528415     109.31430245
C      80.07604331      92.77601404     111.80118228
H      78.42631224      93.20120246     110.64278005
H      80.62217422      94.58448212     112.62699268
H      79.66975215      91.45887480     113.33186059
C      85.49010920      93.41096208     103.35221593
O      87.20409097      94.90006641     103.56197555
N      84.11816789      92.94608940     101.23950191
H      82.76134440      91.61005290     101.09966217
C      84.63406317      94.06102793      98.85277758
H      85.70364828      95.77878915      99.23639202
C      86.16852095      92.27712629      97.31831982
H      87.86549518      91.98232899      98.45026588
H      86.97732380      93.17474629      95.64969148
C      84.96665501      89.83182044      96.45471489
C      84.11627817      89.53891286      93.90547409
H      84.18619804      91.23777682      92.77352803
C      83.06181088      87.34116116      92.88880134
H      82.42875258      87.32415362      90.94805241
C      82.90685332      85.23978550      94.52908378
O      81.93742374      82.90408378      93.88090765
H      81.21365855      82.98723174      92.21983822
C      83.62872878      85.49867801      97.08777321
H      83.78557606      83.71666609      98.07232061
C      84.63217345      87.77579821      98.08365897
H      85.77923732      87.81359274      99.77118457
C      82.27568475      94.74699858      97.32965817
O      80.33304609      93.57914772      97.66980891
N      82.50056217      96.58948174      95.65347093
H      84.10682954      97.62127230      95.61189695
C      80.41430432      97.35671062      93.77697270
H      78.63418214      96.79546190      94.64624681
C      80.30281046     100.23287407      93.44060142
H      78.85339039     100.71664400      92.05543203
H      82.19820596     100.92640362      93.03619999
C      79.32771170     101.71819895      95.82165658
H      80.45965775     101.25710573      97.47894655
H      77.46066210     101.12482489      96.46038407
C      79.56392748     104.52255280      95.36434281
H      79.08960618     104.89860833      93.39335826
H      81.52168395     105.13671385      95.55142571
C      77.83671764     105.99842905      97.22194377
H      78.12206631     105.43340088      99.18158996
H      75.87707145     105.56001254      96.77029918
N      78.07104369     108.70451713      97.09155266
H      76.70855102     109.57946041      98.10066651
H      77.77435666     109.37725970      95.33221746
H      79.76801793     109.22797132      97.79075139
C      80.48989338      96.07925563      91.24095999
O      82.50623136      95.54068363      90.22239751
N      78.32426702      95.25344523      90.40948042
H      76.80303733      95.69186174      91.47528606
C      77.85750462      93.98543888      88.07188897
H      79.14818769      92.41129686      87.75441495
C      75.27424876      92.64562292      88.18716227
H      73.85128484      94.13472726      88.18716227
H      74.95299528      91.49477960      89.86712896
C      74.92464939      90.94486924      85.96484413
O      76.63674142      89.30080735      85.38658788
O      73.01602580      91.06581172      84.78943436
C      78.13718411      95.72965626      85.84957082
O      78.27324441      98.02000456      86.10657360
N      78.08994096      94.81313900      83.48363348
H      78.15797111      92.91207433      83.30599920
C      77.47011073      96.30035361      81.21596190
H      78.92142054      97.74032506      80.95517967
C      77.39830112      94.61093829      78.76876633
H      76.40619481      95.67485420      77.30989761
C      80.05147687      94.65629172      77.82012372
H      81.00389893      93.17663602      78.89348826
H      80.95854550      96.50255433      77.92216894
H      79.96454945      94.10071218      75.83780082
O      76.47422496      92.15051463      79.31867668
H      75.01913569      91.84437896      78.27743749
C      74.93598775      97.65528738      81.38603727
O      74.78480963      99.66784590      80.29188574
N      73.00657717      96.56869475      82.69183815
H      73.22578542      94.78290338      83.33056565
C      70.68599327      97.85748809      82.99986354
H      70.03214795      98.94974990      81.38036809
C      68.80949503      95.79012751      83.67260611
H      67.17110232      96.75955710      84.45495280
H      69.42554581      94.70920405      85.31477828
C      68.09328876      94.06102793      81.40304481
H      66.76481116      92.62861538      82.05877984
H      69.64664380      92.78357294      80.95140022
C      67.44133318      95.53123500      79.00876157
O      69.14208687      95.47643294      77.37603803
O      65.40798768      96.71987285      78.59302178
C      70.77292067      99.87193634      85.17493853
O      68.92854780     101.29678998      85.44327966
N      72.70422096      99.97776102      86.67727095
H      74.07994172      98.73054165      86.22940581
C      73.39208135     101.86181815      88.64825549
H      72.27903255     103.52855676      88.17771364
H      75.39330151     102.32669082      88.49896711
C      72.72311823     101.06624337      91.34489494
O      73.46011150     102.32858055      93.10045068
N      71.71589410      98.82691769      91.66803814
H      71.36818447      97.69497163      90.17137490
C      70.56127133      97.88394426      94.00373986
H      69.83750614      99.49021163      95.07332496
C      68.39186552      96.16051386      93.31587948
H      67.34684687      95.55202199      94.98261809
H      69.25547045      94.63172528      92.23873549
C      66.25269533      97.41529214      91.88535667
C      65.02626295      96.08114536      89.90492349
H      65.40987739      94.10260191      89.58744947
C      63.15354418      97.12427428      88.46873149
H      62.66032561      96.06413782      86.79443398
C      62.49213996      99.62249247      88.88447128
O      60.56272940     100.46153095      87.47095600
H      60.41344102     102.23409423      87.81677591
C      63.61463740     101.00010295      90.76285924
H      62.97402017     102.85392446      91.32788740
C      65.70467471     100.05523979      92.16503616
H      66.67977347     101.29490026      93.45760896
C      72.57949902      96.51389268      95.74417780
O      74.35395203      95.34415210      94.67837216
N      72.42643119      96.92396329      98.29341859
H      70.91276042      97.92929769      98.87923375
C      74.01947047      95.52367610      99.98472364
H      76.02069065      95.82414258      99.61055783
C      73.83238758      96.65940161     102.69270145
H      74.59772674      95.29123976     104.02684823
H      71.81415988      96.56869475     103.09521315
C      75.03236379      99.23509857     102.99127821
C      73.52436219     101.45741672     103.26339880
H      71.50046531     101.37993794     103.52418103
C      74.56749110     103.90650202     103.45615088
H      73.54703890     105.64127078     103.79630162
C      77.29625591     104.10492328     103.45237143
O      78.17119919     106.54644968     103.30875223
H      77.08838601     107.90705262     103.82653724
C      78.74000681     102.04701133     102.88356381
H      80.71288108     102.40416960     102.50372882
C      77.64396554      99.56580068     102.62089185
H      78.77402188      97.91040043     102.23916713
C      73.83805675      92.58893113      99.79953046
O      71.82738796      91.58548646      99.77118457
N      76.06793380      91.36249875      99.70504415
H      77.69309843      92.36216397      99.62567564
C      76.50446059      88.74522781      99.09466255
H      74.70166167      87.83815918      99.50284343
C      77.08271684      88.16130238      96.26763199
H      78.93464861      88.82081686      95.64969148
C      76.75201473      85.37962525      95.63835312
H      77.58349430      85.24545468      93.75807544
H      74.81882470      84.69365460      95.83299493
H      77.96899848      84.30815043      96.90824921
O      75.15519600      89.22143884      94.77852765
H      75.53125152      90.96376650      95.12812702
C      78.78158078      87.74367287     100.66124566
O      80.29336184      89.18364432     101.60799855
N      78.65874858      85.30970537     101.31698069
H      77.22255657      84.14563397     100.84076966
C      80.54469543      83.96233051     102.91946861
H      82.25489776      85.07348958     102.60766377
C      79.56392748      84.12862643     105.76728616
H      79.27857880      86.09394179     106.31341707
C      77.06759902      82.81148719     106.29263008
H      75.56337687      83.62595923     105.14745593
H      76.45343797      82.96644475     108.25227626
H      77.12996000      80.80648757     105.83153686
C      81.57081683      82.97589338     107.55307753
H      81.96010044      81.01435746     107.05985896
H      80.82059548      83.06471051     109.46926001
C      84.19942613      84.32893742     107.50205492
H      84.85516115      84.08327300     105.56508545
H      85.42585851      83.62217978     108.99682843
H      84.01045350      86.34905485     107.85921319
C      80.91697153      81.22033763     101.76862528
O      79.25779181      80.19232652     100.54597236
N      83.22621707      80.11862719     102.08420958
H      84.83059471      81.12963077     102.30341783
C      83.62872878      77.42009802     101.66846979
H      82.08293266      76.54704446     102.71159871
H      85.41829960      76.70578147     102.39790414
C      83.55691918      76.71711983      98.79797552
O      84.51501043      78.13819402      97.20871569
N      82.16986006      74.75369419      98.13090213
H      81.39885173      73.70867554      99.52929960
C      81.47444079      73.90331735      95.54764626
H      82.81047728      74.56850101      94.12657207
C      81.63506753      70.99313883      95.37568117
H      80.26690566      70.15410034      96.66636424
C      81.24956335      69.93867154      92.67715199
H      82.66118890      70.66432645      91.36379220
H      79.44109528      70.67566481      92.02141696
H      81.10216469      67.88642877      92.71494652
C      84.06525555      69.97457634      96.49628887
H      83.97454870      70.24291748      98.53719329
H      85.77545788      70.79093811      95.68937573
C      84.47532617      67.05305946      96.13346142
H      84.65296044      66.62787104      94.12657207
H      82.93708894      66.02882780      97.04430950
H      86.11371888      66.35008128      97.16525198
C      79.04236302      75.14108808      94.76152011
O      76.96177435      74.11874615      94.82955026
N      79.15574660      77.62985764      94.03964466
H      80.82437494      78.55015435      94.14735906
C      77.12996000      79.00557839      92.99273628
H      76.69154349      78.04370770      91.22584218
H      77.88018134      80.86884854      92.53731224
C      74.65441853      79.46667161      94.44593582
O      72.83272235      80.45121902      93.24406988
N      74.48434316      78.72589890      96.85722659
H      76.14919203      78.12496593      97.56965341
C      72.27525310      79.26069145      98.55609055
H      70.62174257      78.47267557      97.61689657
C      72.54548396      77.79237410     101.03163202
H      73.89474854      78.65597903     102.32420482
H      73.29381557      75.92532450     100.57809771
C      70.00002262      77.38419322     102.39790414
N      68.40131415      75.44155457     101.83098625
H      68.71122927      74.00536257     100.61211278
C      66.35852001      75.39998059     103.43725362
H      64.83729032      74.04315710     103.48071732
N      66.58339743      77.57127612     104.76195176
H      65.43066439      78.21189334     106.14145197
C      68.72067789      78.92054071     104.05519412
H      69.23279372      80.73845742     104.82431273
C      71.86518248      82.02725077      99.07576529
O      73.46956012      83.33494138     100.11133531
N      69.68443831      82.83794336      98.21405009
H      68.41454223      81.55670892      97.59233013
C      68.80004641      85.43442731      98.49183986
H      70.16631853      86.91408301      98.05342335
C      66.48324195      85.62717939      96.61723135
H      65.18311024      84.06437573      96.95927182
H      67.21078658      85.65930474      94.68971051
C      64.83729032      87.92508659      96.98194853
H      64.14565049      87.79658520      98.91702828
C      66.11663504      90.39873833      96.26385253
H      64.70878894      91.89729130      96.39991283
H      66.89331255      90.44598149      94.35711868
H      67.77014557      90.71621236      97.44682120
C      62.32584405      87.96288112      95.51174146
H      60.84807807      88.89640592      96.59644436
H      61.75703644      85.99378630      95.31332020
H      62.62820026      88.60916752      93.57666172
C      68.10840658      85.91063834     101.31509097
O      67.39786947      84.21177439     102.55475143
N      68.26903330      88.21232499     102.15601918
H      69.16287386      89.50300806     101.06942655
C      67.55849621      88.93231072     104.60699420
H      67.02181394      87.31092554     105.75405808
C      69.88285957      90.27212667     105.88444919
H      69.11185124      91.10927543     107.60032068
H      70.64063984      91.72910566     104.64289900
C      71.96155852      88.28980377     106.59498629
H      72.47556409      87.07848920     105.00950591
C      74.18765612      89.73544440     107.49827546
H      75.56337687      88.28035514     107.97637622
H      73.76057797      90.92786170     109.12344009
H      74.90575212      90.78802196     105.87878001
C      71.33605912      86.53424802     108.78706881
H      70.55371242      87.79280575     110.21759163
H      72.84784017      85.28135948     109.41634767
H      69.72790202      85.45899375     108.08409062
C      65.25869929      90.63684385     104.56730995
O      63.31417091      89.81292318     105.48382721
N      65.50436371      92.81569829     103.42591526
H      67.06149819      93.30513740     102.43758840
C      63.19700788      94.30669235     103.11222069
H      61.71546246      92.90451543     102.84010010
C      62.61875164      95.71453845     105.45359159