 %block lattice_cart
   139.898   0.000   0.000
   0.000 144.87   0.000
   0.000   0.000   168.12
 %endblock lattice_cart

 %block positions_abs
N      92.33847736      47.14290302      86.79159939
H      91.73187521      46.96715848      88.59250857
H      94.22064477      46.84054681      86.76325349
H      91.41440119      45.96371380      85.60674098
C      91.78478755      49.70159245      86.08106230
H      92.65595138      51.05652622      87.36418646
C      92.78634250      50.03985347      83.35040778
H      91.97753964      48.54507995      82.18444664
H      94.78756266      49.59387805      83.17655294
C      92.30824174      52.65334496      82.24680760
H      90.34481610      53.24104984      82.44522886
H      92.79201168      52.56452782      80.24747716
S      94.21497559      54.94747270      83.72835303
C      94.10915092      57.34742512      81.50225543
H      94.53433934      56.47059211      79.68622845
H      95.54345319      58.75338149      81.95956921
H      92.22320406      58.11654372      81.19045059
C      88.91051383      49.95103632      86.29649109
O      87.48377046      48.19359085      86.21334314
N      87.90895888      52.18280310      86.80293775
H      89.12216318      53.64545127      86.62530348
C      85.29546739      52.57208672      87.24324398
H      84.07848365      51.15290227      86.38152877
C      84.87027897      52.31886340      90.20066565
H      85.27090095      50.36866584      90.72789929
H      82.92386087      52.68924975      90.76002464
C      86.30080179      54.21614862      91.92976523
O      87.27023139      56.23815577      91.33072200
N      86.86394023      53.58686975      94.13318612
H      88.02612192      54.50905619      95.33316232
H      86.12127779      52.04485308      94.97789378
C      84.26367683      55.20258576      86.47223564
O      85.64317703      56.76916886      85.45556289
N      81.66908260      55.29896179      86.90498296
H      80.61839477      53.90434378      87.67221184
C      80.24800841      57.56285391      86.29460137
H      80.91886125      57.94268890      84.38408806
C      77.50790526      57.27372579      86.36830069
H      77.01657642      55.65989953      85.18911148
C      76.56304210      56.73515379      88.95344629
H      77.48144909      55.08920217      89.78681560
H      74.53725549      56.36287770      88.94399766
H      76.92020037      58.36976705      90.15531222
C      76.06415435      59.50171312      85.35351766
H      76.79547844      61.22136406      86.21901231
H      74.04781638      59.46769804      85.77681635
C      76.42131263      59.92501180      82.64742958
H      75.34227890      58.53228351      81.58351366
H      78.41308416      59.91745290      82.12586512
H      75.44621385      61.66922919      82.14476239
C      81.07192908      59.80784877      87.76669817
O      81.37617502      61.85064292      86.67632608
N      81.77679700      59.55273572      90.13452524
H      81.26090171      58.01260878      91.13796991
C      82.82937455      61.70324427      91.56693777
H      81.22499691      62.99014788      91.49323846
C      83.27346024      61.15144418      94.25034915
H      83.72888428      62.96369172      95.11773353
H      85.03279544      60.08752827      94.12562721
C      81.51790449      59.42423434      95.81315280
C      78.91386163      60.03839539      95.83205007
H      78.16364029      61.49348464      94.61506632
C      77.32649153      58.62865955      97.43642770
H      75.34605835      58.97447947      97.78413735
C      78.24300879      56.64066748      98.82726627
H      76.96744353      55.41423510      99.84393904
C      80.85272083      56.08130849      98.71955188
H      81.56892710      54.45047468      99.71543765
C      82.46465738      57.51750048      97.28524960
H      84.48855426      57.25671825      97.35705921
C      85.16507628      62.89566157      90.35751293
O      85.68097156      65.13876670      90.65419997
N      86.78268200      61.41411615      89.20855934
H      86.40851619      59.56218435      89.49579775
C      89.20153168      62.27205189      88.07094410
H      89.89506124      63.94068023      89.06116069
C      90.95897715      60.01760839      88.11251807
H      90.26166814      58.80629383      86.60073703
H      91.04212511      59.26549732      90.02870057
C      93.72742620      60.73759413      87.60796115
H      94.04867967      61.82040730      85.88453075
H      94.67984826      58.91589795      87.49268785
C      94.96519694      62.30039779      89.75657997
O      95.18629492      64.60019471      89.76980805
O      95.69652102      60.97947909      91.68976998
C      88.86138095      63.05250885      85.24013408
O      89.92529686      65.04617011      84.54282507
N      86.93574983      61.91489361      83.97023800
H      86.02301202      60.38421530      84.65242919
C      85.95120242      62.95802254      81.54949859
H      87.22865741      62.64243825      79.96590794
C      83.48699931      61.63899358      80.63676079
H      81.93175456      62.59141563      81.59674176
H      83.73077401      59.64722204      81.10352319
C      82.79913893      61.96024704      77.82106857
H      84.51312070      61.59930933      76.74014512
H      82.21521350      63.89532679      77.42044660
S      80.43887077      59.72281109      76.63243073
C      81.46688188      59.21636444      73.52194121
H      80.38973788      57.76505463      72.53550408
H      83.41329999      58.56629859      73.69579604
H      81.40074146      60.98514828      72.46558420
C      85.53546263      65.83229626      81.58540339
O      86.36505249      67.33084924      80.08118125
N      84.18241859      66.55039226      83.54882904
H      83.90462883      65.27482700      84.94155732
C      83.33960066      69.09774334      84.17810790
H      83.02401636      70.08040101      82.39609598
C      80.91886125      69.08451524      85.83539788
H      81.05492155      70.86274771      86.86340899
H      80.83949275      67.55194721      87.20733917
C      78.39796635      69.33206940      84.51069972
H      76.99956888      70.00670168      85.86374377
C      78.48111431      71.49202657      82.33184528
H      79.60550146      73.12475011      82.89120428
H      76.59327772      72.28193217      82.09751922
H      79.20487949      70.79660728      80.53282584
C      77.42097785      66.97180124      83.10663307
H      77.38885250      65.45246128      84.49936136
H      78.73055818      66.46535457      81.59863147
H      75.67487073      67.26659853      82.05405551
C      85.62050032      70.68700316      85.17966284
O      85.83592912      72.92443911      84.47101548
N      87.26645194      69.58718244      86.65742882
H      87.12472246      67.70501504      86.93899803
C      89.53790297      70.81928401      87.52103375
H      89.19019332      72.77137129      88.07472355
C      90.83236549      69.58907217      89.89264027
H      92.62382603      70.54149424      90.24979853
H      91.37660667      67.67477942      89.35973745
C      89.34704061      69.83473659      92.31904886
H      87.55369034      68.92766796      91.86740427
H      89.03712549      71.83784649      92.67809686
C      90.92307235      68.61019394      94.50168275
H      89.98387838      69.18278102      96.24401041
H      92.66728974      69.68733794      94.70388346
N      91.46542380      65.88898805      94.15208337
H      92.62382603      65.52049143      92.67809686
C      90.52056065      63.82162746      95.31426505
N      88.68941585      63.94823914      96.90919407
H      87.85982600      62.41189163      97.67831268
H      88.06769589      65.69623596      97.36083866
N      91.48054162      61.66922919      94.62073550
H      91.13094225      60.15744814      95.73189458
H      93.03767610      61.38765997      93.55304014
C      91.52400532      71.15754501      85.45934234
O      93.15105968      72.75436374      85.77870609
N      91.20086212      70.01237086      83.12930980
H      89.85915644      68.65554737      83.14820706
C      92.28367530      71.10274295      80.79738753
H      93.94663445      72.26681437      81.13753826
C      93.21531037      68.79916658      79.28560648
H      91.67140397      67.43667390      79.35174689
C      93.55357138      69.50970367      76.49826015
H      94.40583795      71.38053272      76.33952314
H      91.73376494      69.06372826      75.64410387
H      94.52489071      67.94878973      75.57229427
C      95.51510729      67.80139108      80.56117173
H      95.06157298      67.65588216      82.56617135
H      97.07413150      69.13742758      80.39865527
C      96.38249167      65.17278178      79.78638395
H      97.06657260      64.87420502      77.86831173
H      94.72331197      63.98792338      80.07551206
H      97.66372611      64.36964810      81.18667114
C      90.46008941      72.83562199      79.33851881
O      91.37849639      74.75936336      78.42011182
N      88.11493905      72.34051369      79.02671396
H      87.51967526      70.61141410      79.56906542
C      86.43497236      73.68977827      77.17856163
H      87.44219648      73.91654544      75.39654971
C      84.18808777      71.94367116      76.64565881
H      82.62717384      73.11341174      75.98236488
H      83.45676369      71.21801625      78.42956046
C      84.73421868      69.81205988      74.72569688
O      86.58804019      70.06528321      73.21580556
O      83.27157051      67.92422330      74.82396264
C      85.47688112      76.30515949      78.06295354
O      84.99689064      77.97945701      76.48125262
N      85.46365303      76.60373624      80.56306145
H      85.54680099      75.06738875      81.69122806
C      85.08759750      79.08683663      81.72524315
H      85.30113657      80.62885329      80.37597855
C      82.55158479      79.18699211      83.25970090
H      82.64418138      80.85562045      84.46534629
H      82.40796559      77.59584256      84.55983262
C      80.08549195      79.30226543      81.69689725
H      78.58882871      78.59739751      82.92521934
H      80.21399334      77.99457481      80.10952714
C      79.64140626      81.98756651      81.03360331
O      80.55036462      82.91164269      79.02482424
O      78.23544989      83.31226465      82.40932406
C      87.05291286      79.91264702      83.69433796
O      87.57825678      82.15575216      84.04393733
N      88.27745551      78.15331183      85.01336692
H      87.85793627      76.37696909      84.46345657
C      90.13694621      78.58794887      86.97490283
H      90.91551345      80.43799094      86.51380961
H      91.61660191      77.16498497      87.11663232
C      88.78390217      78.97156331      89.55437925
O      86.45764908      79.39486202      89.57138679
N      90.48654557      78.99612976      91.42520831
H      92.32146982      78.98479140      90.89608494
C      89.84403863      79.25124281      94.05570733
H      87.79746503      79.15864622      94.28058476
C      91.23109774      76.97601233      95.49189933
H      93.24932544      77.38986239      95.49378906
H      90.90039564      75.13919836      94.61506632
C      90.16907155      76.87963629      98.18097987
H      90.77378397      78.46511666      99.34883074
C      87.33070263      76.55271364      98.55325595
H      86.43875181      75.03148395      97.48556060
H      86.24599973      78.25535704      98.14507507
H      87.13984027      76.35807182     100.59416038
C      91.43896764      74.65920787      99.56614927
H      93.46286452      75.00313807      99.73811435
H      91.20086212      72.92821856      98.47577717
H      90.76811480      74.47779415     101.50500845
C      90.49410448      81.91575692      95.09127735
O      92.54634726      82.95321666      94.70955263
N      88.91429328      82.80581800      96.96966531
H      87.15495808      82.09339119      97.16997629
C      89.30546663      84.99979025      98.73466969
H      91.30290734      85.35316907      99.09749713
C      88.27367606      87.58682557      97.70476884
H      87.48377046      88.74900727      99.21088072
H      86.86394023      87.03502549      96.30826110
C      90.31647021      89.14584978      96.17031108
H      90.96086688      87.97799892      94.59994851
H      92.12871774      89.06837101      97.14918930
C      89.61160229      91.90107075      95.26891162
H      91.22542856      92.97632502      94.57916152
H      88.64973160      92.91018460      96.78447213
N      87.72565543      91.66296524      93.15430789
H      87.25133413      89.94709375      92.46644750
C      86.89039640      93.60938334      91.89952962
N      87.41763004      95.91106998      92.26991596
H      86.89417585      97.27545238      91.04537332
H      88.35871375      96.28523579      93.88941142
N      85.23310642      93.20687163      90.07027454
H      84.56792276      94.83392598      89.32761210
H      84.49800289      91.45698506      89.86429437
C      88.30202196      84.28547371     101.30469748
O      86.38206002      83.07226941     101.38973516
N      89.41129130      85.20577042     103.45331628
H      90.82669631      86.47188705     103.24733611
C      89.11271455      84.28736344     106.06302833
H      87.48754992      83.02124681     106.05735914
C      91.60904300      83.17998381     106.73388116
H      91.50888751      83.04392352     108.78612394
H      93.10948570      84.56515321     106.47498867
C      92.04745951      80.67987591     105.59059674
H      92.18540953      80.93687868     103.55158206
C      94.56457496      79.66320314     106.45042223
H      96.05745875      80.96333485     105.88728377
H      95.05968325      77.86040424     105.58681730
H      94.42284548      79.59706273     108.50455472
C      90.13127703      78.67865575     106.27656740
H      89.83081054      78.80715713     108.31180263
H      90.73409972      76.82672395     105.60571455
H      88.23021236      79.07360853     105.58681730
C      88.31525004      86.42086444     107.76567174
O      86.99433135      85.72733489     109.45319733
N      88.78957135      88.73010999     107.19875384
H      89.67774271      88.86050112     105.51311796
C      87.54802116      91.09037817     108.14739644
H      87.15117863      90.65574111     110.12216044
C      89.49254953      93.25411479     107.62772172
H      88.51367130      95.00589109     108.09637384
H      90.03112153      93.33537302     105.64161935
C      91.92651703      93.13506204     109.36249047
H      93.08491926      91.55336112     108.73321161
H      91.51455669      93.42985934     111.35993118
C      93.57435837      95.56147062     108.82769792
H      92.74665824      97.24899621     109.66862614
H      93.75766182      95.82981175     106.79435241
C      96.15950397      95.30824730     110.02389468
H      97.20074316      93.67741349     109.31524731
H      96.07257656      94.91518423     112.04212238
N      97.65616721      97.59481614     109.73476655
H      97.95663369      97.99543811     107.89417313
H      99.31534691      96.95419891     110.43207556
H      97.07602123      99.19541433     110.59648175
C      85.17830436      91.67052415     106.53923936
O      85.10271531      90.80313976     104.40006917
N      83.48699931      93.14073122     107.73921556
H      83.75345072      93.52434566     109.59114736
C      81.26468117      94.35582523     106.53923936
H      80.22533170      92.74955786     105.77578992
C      79.57526584      95.78067887     108.58392323
H      80.89240508      97.17718661     109.33036512
C      77.41152921      97.40017432     107.42552099
H      77.97655738      98.46409024     105.75500293
H      76.45910715      98.69085739     108.71809379
H      76.12462560      95.98287958     106.66207156
C      78.55103418      94.15173479     110.75710849
H      80.16486045      93.01411955     111.34670310
H      76.99012025      93.03868599     109.99932824
C      77.43231620      95.52556583     113.03989788
H      75.75234951      96.51578240     112.37849367
H      78.68331502      96.96175781     113.82035484
H      76.55359347      94.23488274     114.38349328
C      82.04324841      96.13594742     104.38684108
O      83.57581645      97.83859082     104.80258087
N      81.09082635      95.65784666     102.15129486
H      80.10249948      94.07614573     101.74122425
C      81.42152845      97.37938734      99.98377877
H      82.74622660      98.84959441     100.55825558
C      82.94653759      95.94319533      98.05436822
H      84.83815363      95.58981651      98.78947174
H      83.06370062      97.16395853      96.39896796
C      81.93175456      93.46954360      97.00557011
C      81.00011948      93.29568878      94.50924165
H      80.71855026      94.99833218      93.42264901
C      80.17997826      90.97699458      93.42453875
H      79.19354113      91.11683433      91.64252684
C      80.27824403      88.78491207      94.86828965
O      79.23511511      86.61928570      94.12184776
H      78.83260340      86.71377202      92.35495366
C      81.33838049      88.90396481      97.29847768
H      81.52168395      87.15785770      98.33971689
C      82.14718336      91.22832818      98.37373196
H      82.75000605      91.39651382     100.31637061
C      78.85528012      98.49243613      99.01623890
O      76.85594968      97.66095655      99.88362328
N      78.91575136     100.42373643      97.33627222
H      80.59949751     101.00577212      96.65219128
C      76.62540307     101.39505574      95.92275693
H      75.01535625     100.65239331      96.96966531
C      76.60083663     104.19940959      96.00401516
H      75.02858433     104.52822197      94.71333209
H      78.42820197     104.86081380      95.32749315
C      76.27391397     105.26710497      98.62317584
H      78.12017658     104.99498438      99.49622938
H      75.13062956     104.00287807      99.78157806
C      75.39897069     108.01098758      98.55892514
H      73.34861764     108.02988484      98.74600804
H      76.07549271     108.91049729      96.83549473
C      76.46288661     109.84213236     100.69242615
H      78.50379102     109.62292412     100.85494260
H      75.66731183     109.34324462     102.52546066
N      75.80904130     112.54255127     100.18786922
H      73.96466842     112.92994516     100.49211515
H      76.17753793     113.18883766      98.43231348
H      76.69910239     113.64426171     101.46721393
C      76.44020989     100.48987684      93.22044830
O      78.36962046     100.58436316      91.92409606
N      74.31804724      99.42407121      92.49479339
H      72.95366484      99.21053213      93.81193264
C      73.64908413      98.58125327      89.86429437
H      74.89819322      97.14884072      89.07060932
C      70.87307617      97.62316202      90.23468073
H      69.65231297      99.27100337      90.44444035
H      70.67465491      96.71420367      92.07149470
C      69.90175685      96.03201248      88.17109959
O      68.70178064      96.98443453      86.42877193
O      70.02080960      93.68686211      88.34684415
C      73.42987587     100.76010770      87.94433244
O      73.43932451     102.95596968      88.65486953
N      73.10295322     100.13649802      85.48957795
H      73.31082312      98.39039091      84.74880524
C      72.51146889     102.17551271      83.78504482
H      73.93821225     103.62304307      84.12519556
C      72.74957440     101.36670985      81.12053073
H      71.37196392      99.85492881      80.88431493
C      72.75524358     103.55312319      79.16844344
H      70.87496590     104.37515414      79.33095990
H      73.03681280     102.86904227      77.24470206
H      74.14608215     104.99498438      79.64843393
O      74.99078981     100.06657816      80.72746764
H      74.50135069      99.12549445      79.25537084
C      70.06616304     103.55690266      84.43511068
O      69.91309520     105.83591259      83.87764141
N      68.22745933     102.33424972      85.57839509
H      68.54871281     100.49365629      85.96200953
C      65.82372746     103.41139372      86.63097264
H      65.32294999     104.92317477      85.32517176
C      63.69211618     101.40261465      86.47412536
H      61.96490633     101.65205853      87.57016663
H      64.46879370      99.72831714      87.38686318
C      62.89465168     101.00577212      83.80583182
H      64.61808208     100.60326043      82.74947481
H      62.06695155     102.82557857      83.31450298
C      60.96335139      98.93463209      83.68677905
O      61.53215901      96.71987285      83.88520031
O      58.69379008      99.57902877      83.32395160
C      65.96734666     104.71908434      89.30682511
O      64.04549500     105.47308514      90.48412461
N      68.26714359     104.85892408      90.40286638
H      69.83939588     104.29200618      89.48445939
C      68.83784093     106.11937153      92.83305441
H      67.77581474     107.87870673      92.98612224
H      70.84662000     106.57290584      92.88218729
C      68.29548948     104.44696375      95.17253558
O      68.69611146     105.32001730      97.29658796
N      67.43755373     102.10559285      94.70766291
H      67.17677150     101.52355714      92.91053318
C      66.55505155     100.40672888      96.82415639
H      65.67821854     101.52166741      98.31892989
C      64.26281353      98.75132863      96.08905284
H      63.32172983      97.74221479      97.61973116
H      65.10185201      97.37182843      94.80970813
C      62.02537757      99.93618704      94.79081086
C      60.77248903      98.84392522      92.80092906
H      61.40176789      96.99955234      92.18487828
C      58.52938390      99.91351031      91.75968987
H      57.60719745      98.89872728      90.24979853
C      57.83396461     102.31724218      92.49857285
O      55.96880474     103.65327869      91.24757403
H      55.81762664     105.40883444      91.68410081
C      59.15677303     103.63249170      94.56593344
H      58.83740928     105.60536597      94.97978351
C      61.15988292     102.26244012      95.71866648
H      62.28049063     102.99565393      97.25879344
C      68.79248750      99.20675268      98.12050863
O      70.61418367      98.53023065      96.82982556
N      68.61485323      99.07447183     100.63195490
H      67.00858586      99.31257736     101.63728930
C      70.63497066      97.81024494     101.79413658
H      72.30548872      98.55101765     100.84549398
C      70.69544190      98.45086215     104.56258564
H      71.93132291      97.07514140     105.47343371
H      68.80382586      98.16362376     105.32225561
C      71.33416939     101.18529612     105.17863641
C      69.49546569     102.82368884     106.24255232
H      67.57172430     102.14338736     106.26144959
C      70.03025824     105.24631797     107.01922985
H      68.50902855     106.40283048     107.73921556
C      72.52469697     106.26110101     106.75466815
O      73.13696829     108.54389039     107.57102993
H      71.68565849     109.51520971     108.06424849
C      74.37095958     104.66617199     105.67752415
H      76.29281124     105.33702483     105.54902276
C      73.84939511     102.16606409     104.88383910
H      75.34416863     101.08703035     104.01078556
C      70.60095558      94.90762532     101.10627621
O      68.57327925      93.84559912     100.93998029
N      72.76658194      94.02701285     100.32392952
H      74.14986160      95.32147537     100.55258639
C      73.22200598      91.46265424      99.58693626
H      71.49668586      90.44976094     100.06503700
C      73.92309444      91.02801720      96.88084818
H      75.77124678      91.83682006      96.47077756
C      73.53570055      88.34838528      95.79614527
H      74.09128008      88.24634006      93.81571210
H      71.56660573      87.86272562      96.15897272
H      74.76969183      87.00101043      96.74856733
O      72.27714282      92.54735716      95.54859113
H      73.07082787      94.17441150      95.44087673
C      75.27424875      90.28724449     101.21399060
O      76.89374421      91.73477483     102.08515443
N      75.41597823      87.69453997     101.35572009
H      73.92309444      86.64952132     100.78691247
C      77.71010597      86.39251855     102.44420243
H      79.26346100      87.56225914     101.76390097
C      77.58916349      86.32637813     105.31280698
H      76.54036538      87.99689618     105.90051186
C      76.15108176      83.98878668     106.17452217
H      74.19521503      84.07193464     105.52823578
H      75.97344749      84.02847094     108.22676495
H      77.11862164      82.19921586     105.86838651
C      80.37650980      86.57393228     106.40695851
H      81.41774900      88.13862566     105.56603030
H      81.46688188      84.85239160     106.11972012
C      80.40674542      87.14085017     109.16973838
H      79.09716509      88.66207986     109.61760352
H      82.36450188      87.65863518     109.54390420
H      79.86628370      85.54781089     110.35837624
C      77.96710875      83.67131265     101.32548446
O      76.13974341      82.40330631     100.64140353
N      80.22533170      82.45243919     101.48422146
H      81.77679700      83.36517699     102.12105923
C      80.65807902      79.83705796     100.70565422
H      79.27101991      78.72211945     101.73933453
H      82.66496837      79.54037093     101.06659196
C      80.45587831      79.37029558      97.79358598
O      81.64829561      80.57216150      96.27991521
N      78.98189178      77.49568706      97.04147491
H      77.98978547      76.77003217      98.50034362
C      78.18442728      77.04971165      94.43554233
H      79.62439873      78.10606866      93.40564148
C      78.45087869      74.21701192      93.70043878
H      77.44554429      72.86396788      94.88529719
C      77.75356968      73.78237486      90.87340822
H      78.29781086      71.87564101      90.31971842
H      78.59449789      75.33195043      89.80760259
H      75.73723170      74.02992901      90.53514721
C      81.24767363      73.33828917      93.99145663
H      81.28735788      71.36352519      93.40753120
H      81.87317304      73.34962753      95.95488227
C      83.35093902      74.81983460      92.62329479
H      83.37550546      76.85884930      92.92187154
H      82.91630196      74.65920787      90.61640544
H      85.19342217      74.01670092      93.08627774
C      75.59361250      78.22323169      94.11806831
O      73.63207659      76.94766644      94.37129162
N      75.45566248      80.73467797      93.70421823
H      77.01279696      81.77969661      94.05192788
C      73.19932926      82.11039872      93.12596199
H      72.61162438      81.19388147      91.37796514
H      73.89474855      84.01146339      92.74801672
C      71.08472552      82.40708575      95.11773353
O      69.10996152      83.33116193      94.38640943
N      71.50046531      81.53970137      97.46477361
H      73.17854227      80.98034239      98.18286961
C      69.29704443      81.50757603      99.20521153
H      67.65676199      80.69688344      98.25845865
C      69.95088973      79.91075729     101.42186051
H      71.57794409      80.62507385     102.46309970
H      70.16631853      77.91142686     100.97021592
C      67.75313803      79.82382988     103.36827861
N      65.98057475      77.88686042     103.14718063
H      65.96734666      76.66042803     101.68453246
C      64.12675323      78.36496118     104.62494660
H      62.34852077      77.40686994     104.32825958
N      64.73902456      80.41909367     105.97043174
H      63.56739425      81.29970613     107.19308466
C      67.12007971      81.32994175     105.19942341
H      68.04037643      82.93998858     106.05168997
C      68.57327925      84.23634082      99.93842535
O      70.09828838      85.69520954     100.86439123
N      66.21301108      84.96010601      99.50756774
H      64.90532048      83.66753320      98.99923136
C      65.20200751      87.57170776     100.04425001
H      66.71189883      88.75278671      99.28835950
C      62.64142835      87.79658520      98.62506555
H      61.29972267      86.78747135      99.81748286
H      62.78315783      86.67975694      96.90163516
C      61.65310149      90.53668835      97.96177163
H      59.62731488      90.59338014      97.59705444
C      61.74191863      92.39239960     100.21999457
H      60.49469926      91.67052415     101.69020163
H      61.05594798      94.27834646      99.75134245
H      63.64487302      92.43019411     101.00990017
C      63.01937362      91.97477007      95.97566926
H      62.01781867      93.75678199      95.71677676
H      62.86441606      90.99211239      94.17098064
H      64.99224789      92.48499618      96.27424602
C      64.86185677      87.90240988     102.87317031
O      63.47290793      86.55314528     104.20731708
N      66.12419395      89.76568002     104.03157254
H      67.46400990      90.30425202     102.78246344
C      66.08073024      90.65574111     106.71687364
H      65.56861441      88.96632578     107.77701010
C      68.68099365      91.48533097     107.63717034
H      68.43910868      92.24689066     109.53634529
H      69.24035264      92.93286131     106.28412631
C      70.50268981      89.28002036     107.71464912
H      70.50835899      88.28791404     105.90807076
C      72.97445183      90.17386090     108.77100613
H      74.06293419      91.36816794     107.49355114
H      73.98923486      88.50145312     109.41918226
H      72.85350935      91.32281450     110.47742899
C      69.53137049      87.23344676     109.61193435
H      70.60473504      85.49111910     109.84626041
H      67.78715310      86.33582676     108.98832465
H      69.50302460      87.93831468     111.54701409
C      63.93778060      92.53979825     107.42363127
O      62.23702692      91.79335636     108.85793355
N      64.05116418      94.78479310     106.45420168
H      65.43066439      95.02289862     105.15406996
C      61.80238987      96.41562692     106.45798113
H      60.07518002      95.31769592     106.23310370
C      61.65121176      97.81780383     108.92218424