 %block lattice_cart
   139.898   0.000   0.000
   0.000 144.87   0.000
   0.000   0.000   168.12
 %endblock lattice_cart

 %block positions_abs
N      89.59270503      42.29858963      87.07033402
H      91.42762926      41.77324571      87.14214362
H      88.59115007      41.28758605      85.79854821
H      88.84626312      42.33449443      88.82588976
C      89.52656459      44.92908866      86.10279415
H      90.41284623      46.12339569      87.52575806
C      90.77567369      44.98767017      83.50253074
H      90.25788868      43.52124255      82.15515588
H      92.79201166      44.67775506      83.77843078
C      90.44119213      47.46510137      81.96996270
H      88.45508977      47.92052541      81.66193731
H      91.18196484      47.17597324      80.06889803
S      91.74132383      50.39417715      83.41371360
C      89.29412826      52.53523707      82.51042443
H      87.50833689      51.90595820      83.32300674
H      89.13728097      52.63161311      80.46007138
H      89.81947217      54.38338940      83.25308687
C      86.71843129      45.56214697      86.04043318
O      85.38995369      43.76501725      85.40548514
N      85.84348801      47.67675071      86.87947166
H      87.01889778      49.17719341      86.97773743
C      83.27723968      48.31736793      87.49174299
H      82.21143404      47.07959720      86.23696471
C      82.55914368      47.37628423      90.07310913
H      83.67597193      45.71521480      90.56065852
H      80.53335707      47.00967733      90.10712420
C      83.00322936      49.12806052      92.29353755
O      81.28735787      50.48110456      93.08533287
N      85.38428452      49.33782014      93.14202466
H      85.58648523      50.15418191      94.85411670
H      86.71843129      48.23610970      92.33322180
C      82.72354987      51.27478961      87.05899566
O      84.32603778      52.89428506      86.76419836
N      80.40485568      52.02123151      87.37457996
H      79.02535547      50.70787172      87.22907103
C      79.54503021      54.69708397      87.58811903
H      79.91163711      55.58336561      85.76642286
C      76.70477156      54.78779083      88.02464581
H      75.86195362      53.46309269      86.69238876
C      75.80715156      53.92418591      90.60601195
H      76.82760378      54.86526961      92.12913136
H      75.84305636      51.86438422      90.64002702
H      73.80782112      54.24354965      90.98584694
C      75.44054466      57.32380354      87.32922652
H      76.50635030      58.71464211      88.41203970
H      73.44499367      57.24821449      87.83000400
C      75.80526184      58.17984956      84.49274733
H      75.20432887      60.13382657      84.24519318
H      74.94921582      56.74743702      83.28521221
H      77.78947446      58.04756872      83.95795478
C      80.84894136      56.41484519      89.58178029
O      81.29113732      58.63338388      88.98651650
N      81.79569426      55.47565121      91.73795801
H      81.35160856      53.70119820      92.27464028
C      82.95031702      57.10459529      93.58800007
H      81.68797985      58.68251676      93.98484260
C      83.50967601      55.84981702      96.26952171
H      84.89295567      57.08380830      97.16714171
H      84.39784738      54.01489277      95.96905523
C      81.50278667      55.40006216      98.11389459
C      81.99222578      55.97264923     100.63478949
H      83.75534043      56.84192333     101.17714095
C      80.11194810      55.35092927     102.35066099
H      80.43698103      55.68541083     104.33676334
C      77.87640187      54.30024144     101.63823417
H      76.58193935      53.95064207     103.17836111
C      77.49278743      53.57836599      99.14379543
H      75.69754744      52.79035012      98.57687754
C      79.30125551      54.10559963      97.31454036
H      78.91386162      53.54813037      95.39079897
C      85.61672085      57.89261116      92.55243005
O      86.64851142      59.98642792      92.89636024
N      86.90551420      56.05390746      91.27308534
H      86.07403462      54.37016132      90.93860378
C      89.29979744      56.49421369      90.04854269
H      90.75110725      57.43151794      91.16726067
C      90.55835516      53.91662700      89.38902820
H      91.83958961      54.06402565      87.78276084
H      89.09003782      52.69208435      88.62368905
C      91.84714852      52.45775829      91.57166210
H      90.92496207      52.73932751      93.39146854
H      93.79923579      53.09648578      91.73228883
C      91.71864712      49.64206608      90.75719006
O      89.69852969      48.43642069      90.70049827
O      93.62916042      48.44020015      90.01641734
C      88.83114532      57.91528788      87.71095124
O      90.40528733      59.46108400      87.11190800
N      86.94708818      57.41451041      86.11224278
H      85.94175378      55.91217799      86.73396273
C      86.52378948      58.76944417      83.63670131
H      87.87305407      58.45008043      82.11358190
C      83.92730553      57.82458102      82.64459499
H      82.44198065      58.51622085      83.89370409
H      83.84415757      55.77044851      82.73341213
C      83.51912465      58.62204552      79.93850691
H      84.74555702      57.43340767      78.78577386
H      83.81959113      60.64405267      79.69284249
S      80.41052486      57.93040569      78.69317727
C      81.16830511      57.55812961      75.34458225
H      79.45621307      57.29356792      74.22964372
H      82.48733409      55.99154649      75.12537399
H      81.83726823      59.31935453      74.51121294
C      86.29324287      61.72875558      83.94850615
O      87.79179584      63.29344897      83.04521697
N      84.70398304      62.63393448      85.69461326
H      83.42652806      61.45096581      86.47507023
C      84.09927062      65.35136092      86.09712497
H      83.81392195      66.24142201      84.26220072
C      81.67286204      65.47419313      87.52764779
H      81.90718810      67.24675641      88.55376917
H      81.26846061      63.95296345      88.85423566
C      79.24078427      65.80678496      85.86279890
H      77.65719362      65.54600273      87.15159225
C      79.03102465      68.43539426      84.53432131
H      79.02157602      67.94784487      82.53499087
H      80.60138722      69.73552597      84.82344943
H      77.35105796      69.50308963      85.06344467
C      79.14440824      63.63926888      83.99008013
H      80.72799888      63.62037162      82.67105116
H      77.48144908      63.64871751      82.77309638
H      79.16141577      61.78166791      84.88014122
C      86.31969904      66.69306660      87.60323684
O      86.55591483      69.00042243      87.37835941
N      88.02234246      65.30222804      89.02809048
H      87.65195609      63.43139899      89.09423090
C      90.39394898      66.28110627      90.14680846
H      89.98576809      67.86091746      91.40725591
C      91.66573478      64.14193608      91.80598816
H      92.44241230      62.83991465      90.41137014
H      90.29757293      63.13849141      92.97383902
C      93.73309537      64.89593688      93.64469186
H      92.89405688      66.40771793      94.76718929
H      95.35637027      65.83513086      92.79242529
C      94.45497082      62.68684682      95.33977636
H      92.74665823      62.11803920      96.33755186
H      95.57935797      63.32557431      96.94415400
N      95.79100732      60.63838350      94.08688782
H      95.72864635      60.48342594      92.18204370
C      97.06657258      58.71086266      94.98450782
N      97.42940004      58.44441125      97.38068078
H      98.21363645      56.84570279      98.06476171
H      96.32013069      59.63493882      98.38034600
N      98.00954601      57.06491104      93.43871169
H      99.43628938      55.88572182      93.90925355
H      97.55601170      57.31057546      91.60189772
C      92.21564514      67.06912214      88.15125747
O      94.04490021      68.38815111      88.62368905
N      91.89817112      66.16772269      85.82500438
H      90.44686131      64.99609237      85.41871322
C      93.60459398      66.71763304      83.67638556
H      95.39605452      67.52643591      84.29054661
C      93.93907554      64.33846762      82.10791272
H      92.14572526      63.37281747      81.79610788
C      95.28834012      64.94506976      79.53410548
H      97.07413149      65.93528635      79.81189525
H      93.91450909      65.79922606      78.25665049
H      95.99509776      63.36714829      78.41727723
C      95.30723739      62.54700707      83.90882190
H      94.40961739      62.38071116      85.75508450
H      97.21775069      63.25565444      84.20928838
C      95.84958884      60.02611217      82.67672034
H      94.23954202      58.77700308      82.36869495
H      97.10436711      58.86015104      83.82189449
H      96.83980543      60.40783689      80.90982624
C      92.37249242      68.88136967      82.02476476
O      93.64616796      70.73330146      81.32745575
N      89.84970780      68.91160529      81.69217293
H      88.86327066      67.51320782      82.53499087
C      88.42674388      71.03565767      80.42794603
H      89.22042893      71.48730226      78.57979369
C      85.70364826      70.23441371      79.83268224
H      84.50556178      71.81611464      80.38070287
H      84.89862485      68.79255254      81.06289407
C      85.43530713      68.97585599      77.26265445
O      86.30080178      70.08512533      75.32379526
O      84.20131584      66.99542281      77.05289483
C      88.45320005      73.42427173      82.06822847
O      89.10515563      75.51430903      81.27076396
N      87.47999100      73.23718882      84.31133360
H      86.67874704      71.62525228      84.94439192
C      87.00566969      75.57100082      85.95350577
H      87.06614093      77.32088739      84.86691314
C      84.36194258      75.50675013      87.21584294
H      84.44698026      76.89569897      88.73329317
H      83.91785690      73.63592108      87.95850539
C      82.18875732      76.09067556      85.35446253
H      80.46532692      75.50108095      86.31633322
H      82.26434637      74.89447880      83.68016501
C      82.08104292      78.83077871      84.32456169
O      81.07003934      80.41058991      85.65681874
O      82.95220675      79.45438839      82.23830384
C      89.13917070      75.77509126      87.87535743
O      89.97254000      77.89536419      88.33267120
N      90.14450510      73.74174575      88.71628564
H      89.34704059      72.11847085      88.10401431
C      91.79612590      73.87213687      90.84600719
H      93.44585697      74.85479455      90.10145502
H      92.29501364      71.89170369      91.12757641
C      90.61126751      74.71684453      93.30832058
O      88.33414729      75.45761724      93.31398976
N      92.00210606      74.50519518      95.38135034
H      93.76900017      73.78898891      95.40024761
C      91.23676691      75.46517615      97.90791442
H      89.20342139      75.13447404      97.89090689
C      92.42162532      73.74363548      99.80708937
H      94.40583793      74.26897939      99.64079345
H      92.14005608      71.77832011      99.25528928
C      91.36526831      73.90237249     102.49805964
H      91.62038135      75.83367278     103.16135357
C      88.75177681      72.96128878     102.98182957
H      88.35871373      73.14837169     104.99438810
H      88.12249794      71.07345220     102.44325757
H      87.55369032      74.34267872     102.03129724
C      93.37215764      72.26020032     104.00417151
H      93.76333099      70.51976239     102.97616040
H      92.83358564      72.07878659     105.98460469
H      95.26377368      73.05010592     103.81897833
C      91.65817588      78.23173547      98.27830078
O      93.70663920      79.27486439      97.89090689
N      89.58514612      79.48651374      99.08143446
H      87.93730476      78.53031223      99.22316394
C      89.77789819      82.12079222     100.09054832
H      91.67707314      82.78030671     100.54408263
C      88.57603226      83.91036304      98.12523295
H      88.29635276      85.80197908      98.89057211
H      86.77890254      83.06754510      97.56776369
C      90.11237975      84.17114527      95.62701476
H      90.60559832      82.25118334      95.07332495
H      91.97376017      85.01396321      95.89346617
C      88.62516514      85.43348245      93.48406512
H      90.06324687      85.99851062      92.12346218
H      87.61038211      87.09077242      94.17381523
N      86.80346898      83.56643285      92.31999372
H      86.28190451      81.94882713      93.19115755
C      85.45042494      83.70627260      90.22239751
N      85.53735235      85.63946262      88.59912261
H      85.14617900      85.18970775      86.78498535
H      86.54646620      87.16636148      89.14147406
N      84.26367681      81.66725791      89.52886795
H      83.60227260      81.47261610      87.74874577
H      84.13139597      80.29909606      90.85356610
C      88.37194182      82.24173471     102.69459117
O      85.98521748      82.18504292     102.65868637
N      89.77222901      82.47984022     104.75817231
H      91.66573478      82.37968473     104.52951542
C      89.05980219      82.38157445     107.42835559
H      87.66329445      80.90569820     107.76661660
C      91.44463680      81.80898738     108.97226199
H      91.06480181      82.07921824     110.97726160
H      92.92429250      83.12612662     108.40156464
C      92.24399103      79.04620751     108.67368523
H      93.07169116      78.89502941     106.79340755
C      94.12804817      78.43393619     110.81474514
H      92.97153566      78.14858751     112.49849129
H      95.45463605      79.95138641     111.24182329
H      95.34503191      76.84089690     110.34420329
C      90.17474072      76.99396473     108.74738456
H      88.87460902      76.93160377     107.15245555
H      89.17507550      77.05443598     110.54640401
H      91.10448607      75.15715076     108.69069277
C      87.65951500      84.73617344     108.40534409
O      86.54835592      84.76073988     110.45380742
N      87.37416632      86.64101756     106.73482603
H      87.73888350      86.14401954     104.92824768
C      85.80947294      88.86333571     107.25450077
H      84.38083984      88.64223773     108.72281811
C      87.48188072      91.12911756     108.18613584
H      88.83870423      90.39401402     109.54862851
H      86.30269150      92.48405132     109.19147024
C      88.94263916      92.41413145     105.98649441
H      87.59526431      93.08687402     104.58053803
H      90.09537221      90.90612985     105.18902991
C      90.46197912      94.59109616     106.92946784
H      91.84525878      93.97315566     108.32786531
H      89.28467963      96.03484706     107.81008030
C      92.12682800      96.04807515     104.95281412
H      92.86949044      94.74605372     103.53740911
H      93.88427348      96.59420605     105.87500056
N      90.67929765      98.02850832     103.71315366
H      89.85348725      99.29462495     104.87911479
H      89.23932619      97.29529452     102.69837063
H      91.82825124      98.84298037     102.42247059
C      84.16352132      89.74016872     104.96982166
O      84.48288506      88.72916514     102.89679189
N      82.29269227      91.45415048     105.60099024
H      82.29836145      92.28751979     107.31686174
C      80.38406869      92.27051225     103.72260229
H      79.19543084      90.67558324     103.18969947
C      78.74945543      94.43424888     104.91124014
H      80.04202823      95.78351346     105.77862452
C      77.29814562      95.83642580     102.75317269
H      78.72488900      96.79451704     101.61933690
H      76.13596395      97.29907397     103.61866734
H      76.33816466      94.47393313     101.54185812
C      76.84083185      93.32120008     106.80474591
H      77.99167518      92.47271296     108.29007079
H      75.72778306      91.87933890     105.84287521
C      75.17976244      95.18069077     108.09353925
H      73.77758550      94.28685022     109.31052300
H      74.13285405      96.29373957     106.70836986
H      76.43265097      96.45436631     109.11399146
C      81.62750861      93.19269869     101.25084027
O      83.07881842      95.06541747     101.20737657
N      81.06437016      91.91146425      99.11922899
H      79.63951652      90.64723735      99.24395093
C      81.91096755      92.85065823      96.63801834
H      83.17897392      94.45125641      96.91769784
C      83.55691917      90.85888669      95.48150584
H      85.12917146      90.53385377      96.77407864
H      84.28635353      91.60343886      93.70705283
C      82.50434161      88.26807192      94.99584618
C      81.04736263      87.85611158      92.67526226
H      80.82626465      89.36600291      91.31843877
C      80.18375770      85.33899613      92.24062521
H      79.20298975      84.95916114      90.48884892
C      80.41241459      83.40202666      94.03775493
O      79.67731105      81.06632494      93.49729321
H      78.60583623      80.96050027      92.03653477
C      81.72766410      83.91603222      96.26952171
H      82.04891757      82.38346418      97.58099177
C      82.68764507      86.35188944      96.84399851
H      83.72132536      86.88668198      98.51829602
C      79.63573707      93.92780223      95.02419207
O      77.46066209      93.90323578      95.87267918
N      80.21588305      94.54007355      92.59400403
H      82.03191004      94.72715646      92.04031422
C      78.29025194      95.27139763      90.77608732
H      76.42887152      94.89534210      91.57355182
C      78.24300879      98.14378163      90.16381599
H      76.92964899      98.50471936      88.61613014
H      80.19131661      98.46881456      89.57611111
C      77.39074221      99.82185860      92.42014921
H      78.61906432      99.64611405      94.06232138
H      75.44621384      99.24360234      92.77919721
C      77.33216070     102.56763093      91.68315595
H      76.66319758     103.68256945      93.27997468
H      76.01313173     102.86242823      90.12980092
C      79.87006313     103.53895025      91.01230311
H      79.75667956     105.59119303      90.91781679
H      80.26501593     102.81707480      89.12257679
N      81.82404014     103.13265910      92.94171367
H      81.40641064     103.68823863      94.71994613
H      83.22432734     104.32507640      92.42770812
H      82.59504848     101.40166979      93.16848083
C      78.65118966      93.73693987      88.47629040
O      80.76768313      93.28529528      87.72228960
N      76.46288660      92.88845275      87.44449983
H      74.95866445      92.97726989      88.61424042
C      76.53847564      90.99683671      85.29588101
H      77.67420116      89.34521592      85.77020232
C      74.04403691      89.70993309      84.97462754
H      72.66831616      91.21793469      84.70250695
H      73.58294369      88.67247335      86.69238876
C      74.08750062      87.84477322      82.71640459
O      73.09161485      88.50806716      80.68494881
O      75.17220353      85.83221470      82.93561285
C      77.48711825      92.37633692      82.86947242
O      77.56648676      94.70636947      82.80333200
N      78.00679299      91.06864631      80.85313445
H      77.99356491      89.16002274      80.80400156
C      78.10883821      92.33476294      78.37570325
H      79.36928566      93.92969195      78.71585399
C      78.86661846      90.54708185      76.32535020
H      77.23956411      89.95370779      75.21041168
C      80.78091122      91.90768480      74.71152393
H      82.29269227      92.63144997      75.90961041
H      79.74723092      93.33253844      73.64193884
H      81.61617026      90.53007431      73.42462031
O      80.09494057      88.39846303      77.29100035
H      78.73433762      87.19848682      77.35147159
C      75.68053990      93.89756660      77.56690039
O      75.89785842      95.67012989      76.05700907
N      73.41853750      93.26639802      78.64782384
H      73.40908887      91.76784505      79.82890279
C      71.09039468      94.78384825      78.32090119
H      70.93921658      95.58320248      76.42739542
C      68.84351010      92.92624728      78.62892658
H      67.11441052      94.04307553      78.70829508
H      68.95500395      91.78485259      80.33723917
C      68.66020665      91.27840593      76.24031252
H      67.73424076      89.56820362      76.91305509
H      70.45544664      90.83243052      75.33135416
C      66.84040022      92.71648766      74.41483690
O      67.52826058      94.74416399      73.28289084
O      64.70689920      91.91335398      73.93295669
C      70.72000833      96.99104858      80.15204599
O      68.87185600      98.52361662      80.05944940
N      72.46233599      97.23293355      81.95862434
H      73.74168070      95.82508744      82.12869971
C      72.39430584      99.18502083      83.94850615
H      71.21511662     100.73270668      83.27387386
H      74.29348079      99.96925725      84.10913289
C      71.41542761      98.43479948      86.51097503
O      71.77258588      99.75382845      88.40637052
N      70.12285481      96.30129847      86.62813806
H      70.01891987      95.36777368      84.96706863
C      68.90209162      95.56430521      88.97139869
H      68.02903806      97.25561026      89.75374538
C      66.69678101      93.68213780      88.54243082
H      65.62530619      93.87488989      90.29042766
H      67.45456126      91.77540395      88.37613490
C      64.95823280      94.32464475      86.35223802
C      64.06250253      92.34799103      84.70250695
H      64.85429785      90.49416951      85.02942960
C      62.26348309      92.93380618      82.87325188
H      61.44145213      91.41635596      81.77910034
C      61.36208363      95.43769355      82.69939706
O      59.52149020      96.12177447      80.97974611
H      58.95079286      97.83575624      81.15738039
C      62.25970363      97.26883835      84.35479731
H      61.51515147      99.16801329      84.29621579
C      64.00203129      96.66412593      86.25019280
H      64.59918480      98.18913506      87.46717654
C      70.59906584      94.52495574      91.04631818
O      72.36407022      93.06608703      90.55498934
N      69.76947599      94.91423936      93.37824045
H      68.24824632      96.00839090      93.73728845
C      70.86929671      94.04685498      95.72717026
H      72.88941413      94.45125641      95.73283944
C      69.87341095      95.54162850      98.07987952
H      70.57260967      94.54763246      99.74472840
H      67.83439626      95.53029014      98.37089737
C      70.72756723      98.32519536      98.33310284
C      68.89264298     100.31507716      98.37656655
H      66.95945296      99.68390857      98.54853164
C      69.51625268     102.88699468      98.30664668
H      68.18021617     104.42145244      98.48995013
C      72.18643595     103.44635366      98.45593505
O      73.00279771     105.89543897      98.87356457
H      71.64408449     107.02360557      99.28741463
C      74.01002184     101.55851708      98.46727341
H      75.95077076     102.11409661      98.78096798
C      73.20499843      98.90534133      98.27452133
H      74.55237329      97.39545001      98.01184937
C      70.75402340      91.27840593      96.12212306
O      68.68855254      90.23716674      96.15046895
N      72.89130386      90.02929684      96.60778272
H      74.59016782      90.89101204      96.71360739
C      73.10484293      87.28541424      96.41125118
H      71.42865569      86.33110245      97.13312664
C      73.57916424      86.47661137      93.64280214
H      75.43676521      86.99817584      92.92092668
C      73.27302858      83.54375614      93.28564386
H      71.26991868      83.05809647      93.32721784
H      74.29726024      82.46283268      94.70860778
H      73.90230744      83.07699374      91.38079974
O      71.71400437      87.61233689      92.01952723
H      72.24690719      89.32253920      91.72472993
C      75.33471998      86.54653125      98.17247611
O      77.01846613      88.16413697      98.59199535
N      75.55203851      84.18437336      99.27229682
H      74.34261367      82.74629163      98.93403581
C      77.59861211      83.42092393     101.08643408
H      79.31448360      84.27885967     100.33621274
C      76.82382432      84.14090965     103.83409614
H      75.45944192      85.68292632     103.80575025
C      75.03803295      82.14346894     105.16257374
H      74.49757123      82.85589576     107.01828498
H      75.97344748      80.35389812     105.56697517
H      73.32783064      81.67292709     104.11377564
C      78.93086916      84.97616868     105.62366696
H      80.28769266      86.08165857     104.53707433
H      80.16863989      83.43793146     106.21137184
C      78.23356015      86.59188468     107.90834607
H      79.98344671      87.33076767     108.69825167
H      77.33405043      85.47127697     109.38611205
H      77.15830588      88.27563082     107.40567887
C      78.30348002      80.59578309     101.06942655
O      77.16964423      79.01219244      99.74850785
N      80.35383307      80.06476999     102.40357332
H      81.29302705      81.52363871     103.19725837
C      81.67475176      77.57789017     102.63600966
H      80.30092073      76.34200916     103.54874747
H      83.39629243      77.59489770     103.76417627
C      82.44764983      76.64436537     100.02629762
O      84.40729602      77.40403534      99.04741939
N      80.96799412      74.92282470      98.93025636
H      79.56203775      74.33511981     100.08109968
C      81.03035509      73.88347522      96.40558200
H      82.18686759      75.21762200      95.34355582
C      82.25300802      71.25108647      96.21849910
H      81.02090646      69.77898967      96.96305127
C      82.45898818      70.67094049      93.30643085
H      83.12795130      68.74719910      92.99651574
H      83.87061374      71.95973384      92.54109169
H      80.69965299      71.04888575      92.30298618
C      84.88917622      70.86369258      97.56209451
H      84.70398304      70.59535144      99.59544002
H      85.94553323      72.56444626      97.07454512
C      86.49544359      68.66405115      96.73061493
H      86.82425597      68.78310390      94.69915914
H      85.38995369      66.96518719      97.10289101
H      88.25288906      68.44106344      97.77941303
C      78.24489851      73.76820192      95.45504967
O      76.75201472      72.15815510      95.93881961
N      77.62695800      75.90737210      94.30798580
H      78.85528010      77.36624082      94.21160976
C      75.43109603      76.09634474      92.78108694
H      75.41219876      74.33323009      91.71717102
H      75.41597821      77.57789017      91.35056412
C      72.91398058      76.25130229      94.15302824
O      71.01480563      75.78076044      93.08533287
N      72.80059701      76.82577909      96.63045944
H      74.46544588      77.53064701      97.24273076
C      70.47245418      77.18293737      98.11011514
H      69.13641768      75.79965770      97.36934242
C      70.87307617      76.67649071     100.92202789
H      72.37729830      77.84245185     101.71004377
H      71.20566799      74.67149110     101.26406836
C      68.48257238      77.04309762     102.52073635
N      66.53993372      75.32344667     102.49994936
H      66.74024472      73.52631695     101.89145749
C      64.54627247      76.42893657     103.57709336
H      62.68111260      75.63147206     103.79252216
N      65.16610269      78.75707938     104.37833732
H      63.79416140      79.89091517     105.06619770
C      67.57172429      79.23518014     103.59788035
H      68.53359498      81.03042014     103.48638650
C      69.46711978      79.91548161      97.67736781
O      70.73701586      81.60867639      98.53530356
N      67.39031056      80.51452486      96.33377240
H      66.36040972      79.04431778      95.68181683
C      66.46434467      83.05242729      95.85189220
H      67.93833120      84.44515559      95.50229283
C      64.93555609      83.13935470      93.43115279
H      63.66943946      81.51419008      93.45571923
H      66.27726177      83.02408140      91.87212858
C      63.43511340      85.63001399      92.90391915
H      64.67099441      87.20037655      93.40469662
C      62.99480716      86.35944834      90.04665296
H      64.76548071      85.98150308      89.06399528
H      62.29938789      88.27941028      89.78209128
H      61.60396859      85.09711116      89.20383503
C      60.88209314      85.66402906      94.14168988
H      59.60841761      84.31665420      93.24029043
H      60.17344577      87.56320400      93.78264188
H      61.03138153      85.25395845      96.15424841
C      65.06783692      84.03886443      98.21027063
O      63.50692299      82.73495327      99.43670301
N      65.53081987      86.43314767      98.79986524
H      66.94244543      87.37045192      97.91925278
C      64.54816220      87.74650746     101.09399299
H      64.16076829      86.20449078     102.40357332
C      66.73268581      89.30742139     102.20704179
H      65.88041924      90.59243528     103.57142418
H      67.42810509      90.67180379     100.83132103
C      68.92665806      87.77863280     103.51284267
H      69.87530067      86.70526826     102.03129724
C      70.87307617      89.56064472     104.68258326
H      71.72345300      90.74928257     103.23127345
H      72.35462159      88.56853840     105.71437382
H      70.12096509      90.90046067     106.05452456
C      68.09706820      85.98339281     105.63689504
H      66.42088098      84.87790291     105.17580182
H      67.87219077      87.33454712     107.17702199
H      69.60129036      84.65869466     106.10743690
C      62.19923239      89.39245907     100.74061417
O      60.54761158      89.21293507     102.27129248
N      62.04616456      90.79085655      98.63545905
H      63.45401065      90.61511200      97.35989379
C      60.00903960      92.27996088      97.78886167
H      58.43300784      91.01762370      97.38446024
C      59.43267307      94.26606324      99.85622225