 %block lattice_cart
   139.898   0.000   0.000
   0.000 144.87   0.000
   0.000   0.000   168.12
 %endblock lattice_cart

 %block positions_abs
N      96.00738100      44.06359400      84.97179295
H      95.67100971      42.37039922      84.15732091
H      95.22692403      43.96532824      86.70845142
H      97.84797443      44.54547421      85.10596351
C      94.74504382      45.98733539      83.46757081
H      95.50660352      47.81281101      84.04015788
C      95.47636790      46.00245320      80.70479094
H      94.84330959      44.35461186      79.64087502
H      97.53239013      46.06103471      80.61786352
C      94.28206087      48.31925766      79.30639346
H      92.32241469      48.34571382      79.93567232
H      94.44268761      47.88840005      77.29761439
S      95.76738576      51.37683484      79.87520108
C      93.11043056      53.23065634      79.24592222
H      92.09375780      52.52200897      77.60186032
H      93.82663683      55.14494911      78.98136053
H      91.88021873      53.31758376      80.89565329
C      91.84242420      45.90040798      83.70756604
O      90.64622745      44.28280226      82.68333438
N      90.98826791      47.75233977      85.26281080
H      92.23926673      49.07514819      85.84106705
C      88.33509217      48.35516245      85.94878145
H      87.09543171      47.16085543      84.82061484
C      88.06864076      47.56903631      88.68132569
H      88.52406480      45.56214697      88.76258394
H      86.08631785      47.73722196      89.21233879
C      89.62577524      48.94097762      90.57672120
O      90.82764117      50.78157104      89.97578823
N      89.10232105      48.59137825      92.97856333
H      90.14544997      49.66285307      94.16342173
H      87.82108661      47.29880544      93.55115040
C      87.47715642      51.12928068      85.41209918
O      88.94736349      52.74499669      85.08706625
N      85.10177045      51.79257463      85.62752797
H      83.86399971      50.33937509      85.62374852
C      83.91880177      54.27378528      85.48579850
H      84.14556893      54.91629221      83.54127012
C      81.03885887      54.11315854      86.16421024
H      80.16769504      52.75444531      84.88675527
C      80.61933963      52.88294671      88.73801749
H      81.49050346      51.01967656      88.84573188
H      78.66914208      52.42752266      89.22367715
H      81.44137058      54.15851197      90.12885605
C      79.72549908      56.69263496      85.88642049
H      80.58910401      57.66773372      84.29149147
H      79.99006077      57.90205979      87.53237211
C      76.82287947      56.77956237      85.31383340
H      76.12746018      58.69385511      85.01903610
H      75.95738482      55.94997251      86.99002064
H      76.52052326      55.55690944      83.68299960
C      85.32853760      56.32035887      87.09962477
O      85.48727461      58.40283727      86.26058629
N      86.63055903      55.62871904      89.22934632
H      86.43591722      53.79757424      89.72256490
C      88.00627979      57.56568850      90.57294174
H      86.90645907      59.29478809      90.76569382
C      88.65067646      56.59814864      93.27902982
H      89.91868282      57.98898721      94.11995802
H      89.71648210      54.83692371      93.28658873
C      86.28284939      56.23910063      94.72089099
C      85.43436228      58.32535849      96.21944396
H      86.48882956      60.03367108      96.59927895
C      83.02496123      58.10426050      97.34761056
H      82.04608300      59.57257785      98.37562168
C      81.60388704      56.00477457      97.10761532
H      79.75384498      56.03312047      97.97122025
C      82.52796321      53.85426603      95.90763911
H      81.42058359      52.14406372      95.80937335
C      84.93547453      53.90906810      94.79081086
H      85.69325478      52.34248497      93.72689496
C      90.38166576      58.51055167      89.23501551
O      91.16023300      60.66861911      89.59595323
N      91.74793789      56.81357743      87.94811189
H      91.16968164      54.99566073      87.93866325
C      93.84175464      57.40695150      86.17365889
H      95.08708428      58.79590033      87.05049189
C      95.32141035      54.95030730      85.73713211
H      96.83886058      55.28667858      84.38786751
H      94.06474235      53.59348379      84.83195319
C      96.50626874      53.86371467      88.16732014
H      97.71191413      52.26689593      87.68732965
H      94.95858289      53.37238582      89.43343677
C      98.19379434      55.89139100      89.47879020
O      97.61742782      56.65106098      91.55937887
O     100.21769122      56.39594793      88.47534554
C      93.12743810      58.60692771      83.64142562
O      94.76961026      59.66328472      82.39420626
N      90.70102951      58.39716809      82.84396111
H      89.47648686      57.45986384      83.96645854
C      89.63333414      59.86926488      80.68589367
H      90.96181174      59.54801141      79.14387699
C      87.18991802      58.52377974      80.00370247
H      86.04096442      58.83747432      81.68366916
H      87.40912627      56.50366233      79.67111063
C      85.93325002      59.33258261      77.59052196
H      86.80630358      58.28567424      76.04661556
H      86.14111992      61.36214868      77.29194521
S      82.47316114      58.84314349      77.29761439
C      81.99883984      59.19841204      73.84697414
H      82.58465500      61.05412329      73.17234185
H      79.98628132      59.29856754      73.42178573
H      83.18369824      57.81891184      72.87943426
C      89.55963482      62.62070639      81.42099720
O      90.52150551      64.28555528      80.15110112
N      88.27084147      63.57501818      83.41087902
H      87.50172286      62.35236526      84.65809838
C      87.80407907      66.29244463      83.89275922
H      87.22582282      67.18439545      82.12964457
C      85.45514927      66.64393372      85.54438002
H      85.86521988      68.42594562      86.49869180
H      85.49483352      65.30222803      87.10529396
C      82.71504611      66.67605907      84.16865927
H      81.51129045      66.40204875      85.81650060
C      81.97427340      69.28388137      82.94411661
H      82.35032893      70.72007337      84.37274970
H      80.06376009      69.19128478      82.18066719
H      83.16669070      69.71851843      81.32273144
C      82.23505563      64.46318955      82.24491787
H      80.25462245      64.35358543      81.69500751
H      82.48449950      62.67550845      83.23702420
H      83.62400447      64.64838273      80.73880600
C      90.13411162      67.68139346      84.89998335
O      90.17379587      70.03599245      84.55416343
N      92.09942698      66.20551722      85.72201430
H      91.69124610      64.37437242      86.07539311
C      94.71102875      66.98786390      85.91854582
H      95.02472331      68.19539901      87.55882826
C      96.33619338      64.50476353      86.06027531
H      96.69146192      63.56745927      84.26314558
H      95.64455355      63.16683731      87.46812141
C      98.95346432      65.29655886      87.12419121
H      98.70968963      66.36425422      88.86840860
H      99.77360554      66.55322685      85.71256566
C     101.11342150      63.34825103      87.68921939
H     102.85007998      64.38760050      88.06716464
H     101.55750718      62.09914193      86.10940819
N     100.43689948      61.96686109      89.92476561
H      99.79061308      60.20563617      89.57327652
C     100.49170154      62.58480160      92.31904886
N     101.25137152      64.90160606      93.01257840
H     101.40443935      65.39293489      94.85128212
H     101.90332709      66.17339186      91.74835150
N     100.12131518      60.76310542      93.98389773
H     100.71657897      61.01065957      95.78102745
H      99.42022672      59.07746956      93.41886956
C      95.68234807      68.46562988      83.76803728
O      96.86342702      70.41015825      84.13275447
N      95.30062336      67.57367906      81.49091707
H      94.83953014      65.72174727      81.43233556
C      96.20013308      68.88325940      79.08907493
H      97.67789906      70.17394247      79.71268462
C      97.69868605      67.25242558      77.22202533
H      98.84008074      68.59791072      76.15621970
C      99.71313430      65.56867945      78.52026731
H      98.67000537      64.24965048      79.70890517
H     100.90177215      66.72141250      79.74480997
H     100.90177215      64.51988135      77.20312807
C      95.99982209      65.55923082      75.59497099
H      94.68079313      66.65716181      74.45735575
H      94.70346984      64.35925461      76.65321771
C      97.51916205      63.74509356      73.77516454
H      96.20580226      62.90038588      72.43345885
H      98.30339847      62.20874605      74.90333115
H      98.80795539      64.80711974      72.57140888
C      94.21214100      70.56889527      77.88531928
O      94.83386096      72.38681199      76.52660606
N      91.69313583      70.15693494      78.33696387
H      91.15078437      68.70373539      79.45379211
C      89.71081292      71.78776874      77.15777464
H      90.51583633      72.43027568      75.37576272
C      87.15401322      70.46118086      76.80061636
H      85.92191167      72.05044069      76.35086150
H      86.62300013      69.66938555      78.62798172
C      87.20314611      68.21051683      74.89388252
O      85.37956021      66.74408922      75.02994281
O      88.95681212      68.23697300      73.34808639
C      89.27995532      74.25008213      78.73947556
O      88.93413541      76.28342764      77.56217607
N      89.26672724      74.17827253      81.29060609
H      89.84498349      72.59090242      82.18066719
C      87.95525718      75.89603375      82.89120428
H      87.72093112      77.64403058      81.82161919
C      85.41168556      74.76597741      83.70567632
H      85.74616712      72.95372987      84.62786275
H      84.40635116      74.53543079      81.92177467
C      83.66368872      76.51208453      85.34784848
H      84.68225120      77.05254625      87.05616106
H      81.98939121      75.38391792      85.74469100
C      82.54119129      78.87991160      84.12897502
O      83.91880177      80.53153239      83.14820706
O      80.23761492      79.13502464      83.91732566
C      89.57853208      76.63869619      85.24202381
O      89.38955945      78.74385130      86.26625548
N      91.15078437      74.98707538      86.17743834
H      91.27739604      73.40537446      85.11919159
C      92.99137780      75.24029871      88.35062360
H      93.94379986      77.06010516      88.21834276
H      94.45213624      73.78898890      88.25991673
C      91.80840913      75.15715076      91.07749867
O      89.86010130      74.00063826      91.45544392
N      92.98192917      76.37602423      92.85762085
H      94.74315409      76.99585445      92.45888859
C      91.92746189      76.97128801      95.32560341
H      89.90734446      77.10167914      94.94954788
C      92.18446467      74.69794727      97.07171052
H      94.22536908      74.43149586      97.08682834
H      91.23771178      73.06900319      96.24023095
C      91.25282959      75.08156171      99.89874109
H      92.40178319      76.64814481     100.57904257
C      88.42957848      75.59556726     100.36550349
H      87.45070025      73.83623206      99.92519727
H      87.75683592      76.91459622      98.93309095
H      88.14045036      76.29854545     102.27790652
C      91.93880025      72.81766959     101.59382559
H      91.47203785      73.41482310     103.50811835
H      93.94568959      72.36980444     101.47666256
H      90.99015764      71.02053986     101.26501322
C      92.79484627      79.47706511      96.38573987
O      95.02850277      79.94193778      96.60683786
N      90.80496446      80.86223449      97.27391124
H      89.10232105      80.09500561      96.87895844
C      91.03740079      83.33021705      98.71199297
H      93.01972370      83.69115479      99.13907112
C      90.44024728      85.70371331      97.14352013
H      90.75961103      87.25328888      98.46065936
H      88.41446067      85.59221945      96.77502349
C      91.98226395      85.90024485      94.70010400
H      91.26794740      84.34500009      93.55492985
H      93.97403548      85.57332220      95.11962324
C      91.39644879      88.28318972      93.31115517
H      92.46981334      89.83465502      94.13507584
H      89.39144918      88.68948088      93.55870931
N      92.06163246      88.16980614      90.72978903
H      92.22981810      86.36889698      90.12507661
C      92.47548252      89.82709612      88.91187231
N      92.71736749      92.22704855      89.40131142
H      93.00838534      93.53662887      88.04448794
H      92.55863048      92.68247258      91.24757403
N      92.69847022      89.02774189      86.57995003
H      92.53784349      90.25039481      85.12486078
H      92.37910648      87.19470736      86.15098216
C      89.23649162      83.12234717     101.13084265
O      87.06330636      82.49306831     100.82848644
N      90.29284863      83.67414725     103.33993270
H      92.02761738      84.46783231     103.40229368
C      89.05507789      83.20549512     105.77767965
H      87.67557768      81.67292708     105.75311321
C      91.21692479      82.43637652     107.55969157
H      90.79362610      82.69715874     109.55713227
H      92.88555313      83.59288901     107.21387165
C      92.50382841      79.83611311     107.12883396
H      93.14444563      79.93626861     105.17296723
C      94.65055750      79.38257880     108.94297123
H      95.79951110      77.76497306     108.40061977
H      93.98159439      78.98006709     110.84781535
H      95.80707001      81.08522220     109.06202398
C      90.80685418      77.65536894     107.48410251
H      91.90100572      75.90926182     107.45953607
H      89.39900808      77.75174498     105.98365982
H      89.75616635      77.72150937     109.25666580
C      87.50361259      85.36545230     106.88127981
O      85.95403701      84.87601319     108.49132664
N      87.94769827      87.72949991     105.97610091
H      89.22515326      87.89579584     104.56636509
C      86.45292476      90.01417903     106.53168045
H      85.27184581      89.87055982     108.21353687
C      88.37288669      92.02862727     106.96253806
H      89.41223617      92.06831153     105.18430559
H      89.60309852      91.40123815     108.48943691
C      87.37889065      94.75928181     107.38583675
H      86.01072880      94.57597835     108.91462533
H      86.49827819      95.46603945     105.66051662
C      89.54073755      96.65656702     108.07936631
H      90.74638294      96.84364992     106.42018659
H      90.48749044      95.60398947     109.57602954
C      88.94736349      99.15667494     109.17162812
H      90.38355549      99.94280108     110.42073720
H      87.04062964      99.08486533     109.94641590
N      88.64878673     101.14655673     107.25922508
H      87.40156737     100.44168882     105.99688790
H      90.29473835     101.31285266     106.30680301
H      88.06486130     102.69424259     108.21164715
C      84.68603066      90.96093192     104.38306163
O      85.30019171      90.45826472     102.04547018
N      82.69614885      92.22893827     104.93675144
H      82.64134679      92.91301920     106.71687363
C      80.82720953      93.22860349     103.08481965
H      79.94470734      91.76973477     101.92830715
C      78.67292153      94.62700095     104.57770344
H      79.57999016      96.03106761     105.77767965
C      76.89468907      95.69658606     102.58782163
H      75.38668747      96.82853212     103.41930121
H      75.93848755      94.18480500     101.57114888
H      77.70349193      97.11199107     101.33115363
C      77.23483980      92.99427743     106.41640714
H      78.65213454      92.03240673     107.55780183
H      76.07643757      91.62233613     105.40540357
C      75.58699846      94.57975781     108.26078003
H      76.81910002      95.57564357     109.57602954
H      74.70071682      93.16813225     109.47398433
H      74.21883661      95.90823539     107.48032306
C      82.12923095      94.98793868     101.26690294
O      83.14401399      96.94758487     101.96421195
N      82.04419327      94.30574749      98.83860463
H      80.89334995      92.85632741      98.36428333
C      82.94559272      95.58131274      96.51802072
H      83.67313735      97.45970070      96.95643723
C      85.37578076      94.36054954      95.25379381
H      86.82142139      94.08464950      96.69376526
H      85.99750072      95.73060112      93.84594771
C      84.99216632      91.82831628      93.99145663
C      84.96571015      91.76784505      91.38363433
H      85.35310404      93.47993708      90.34050540
C      84.66713339      89.42647415      90.23468073
H      84.74839162      89.26962686      88.20133522
C      84.29485731      87.16825120      91.55748915
O      83.71660106      84.94026387      90.50680131
H      83.74683668      85.02530157      88.69644350
C      84.29863676      87.17581011      94.23712105
H      83.99628055      85.46938725      95.31615479
C      84.51028611      89.57009335      95.38040548
H      84.17202510      89.84977284      97.37406673
C      80.91791639      96.07264159      94.43365259
O      78.76929757      95.21470584      94.75301634
N      81.32420755      97.51828221      92.46833722
H      82.77362763      98.75983240      92.43432215
C      79.57243125      97.56552537      90.28381361
H      77.57499054      97.22915410      90.65231024
C      79.32487711     100.21870111      89.30871483
H      78.03230431     100.43790938      87.71945500
H      81.22216232     100.77239092      88.72856885
C      78.33277079     101.98937467      91.29481718
H      79.77652170     102.40889391      92.70455301
H      76.95138086     100.96136356      92.42676325
C      77.04775690     104.45924697      90.50491160
H      76.90791715     105.48158890      92.28692351
H      75.21661210     104.05862498      89.65453475
C      78.81276128     105.88221087      88.69833324
H      78.77307702     104.86553813      86.90876241
H      80.77051774     106.22425134      89.24446413
N      77.90947210     108.45601812      88.04637765
H      78.32143243     109.79583407      89.34461963
H      76.00273825     108.46546675      87.98212696
H      78.36489614     108.97002367      86.26625548
C      80.67036224      95.95169910      88.15976123
O      82.84165777      96.32208546      87.45867277
N      79.02441062      94.21504063      87.14308847
H      77.17814801      94.04496525      87.60040224
C      79.96738405      92.73349519      84.97935186
H      81.70782199      91.76406560      85.50469577
C      77.94159745      90.57731748      84.51447917
H      76.07643757      91.31809018      84.05338596
H      77.82254469      89.32820838      86.14909244
C      78.74851058      88.82932063      82.33373502
O      77.62790288      89.10144121      80.29472032
O      80.65902388      87.45359988      82.73624671
C      80.60800127      94.40023380      82.58695833
O      80.03163475      96.69814099      82.61152479
N      81.66057883      93.39489940      80.55172311
H      81.95726586      91.52407035      80.32306621
C      81.74939597      94.88400373      78.18578575
H      82.55819883      96.75861223      78.45790634
C      83.28763318      93.57442341      76.09574846
H      82.78118653      94.24905570      74.21736050
C      86.14300964      93.80685973      76.50203962
H      86.42457886      95.48871615      77.65666239
H      86.83275975      94.21693035      74.60475439
H      87.06708581      92.39901363      77.68689800
O      82.74339201      90.92691684      75.90299637
H      83.96982438      90.44881609      74.65199756
C      79.13968393      95.41312711      77.01982462
O      78.61434001      97.35009658      75.87654020
N      77.29531105      93.82575701      77.64532403
H      77.66569740      92.19303347      78.56373102
C      74.52686200      94.71014891      77.32973974
H      74.30198457      95.57564357      75.47402849
C      72.78453434      92.30452733      77.73225145
H      73.19082549      91.50139363      79.58418323
H      73.27964263      90.72849558      76.50203962
C      69.92726815      92.76940000      77.45257194
H      69.39247561      94.11488513      78.91522011
H      69.10712693      91.08376412      78.30294878
C      68.82933716      93.25316993      74.79183729
O      69.01642007      95.26005928      73.65422205
O      67.51219792      91.58832104      73.77894399
C      73.74073585      96.89278280      78.85852833
O      71.79620748      98.13244327      78.37097893
N      75.14480250      97.61276853      80.73124709
H      76.72650343      96.63578003      81.15454579
C      74.64591476      99.87855039      82.39987543
H      73.61412419     101.30718347      81.33218006
H      76.46383147     100.60231556      83.03860292
C      73.15303097      99.27005851      84.70345180
O      73.08122137     100.80640601      86.45333837
N      71.86990680      97.07041709      84.71290045
H      71.73384651      95.95736829      83.16710431
C      70.17293257      96.26539368      86.95411584
H      69.14681118      97.97937544      87.45678305
C      68.15848432      94.44747696      86.41743357
H      67.35724037      93.93914058      88.24668865
H      69.08256049      92.70136984      85.83539787
C      66.03065249      95.30541271      84.51447917
C      65.51853666      93.73505013      82.40554461
H      66.52576079      91.98327385      82.12019593
C      63.54566239      94.50038929      80.69534229
H      62.96173696      93.27773637      79.16844344
C      62.14915465      96.70569990      81.26226020
O      60.44084206      97.34631713      79.48591745
H      59.35424943      98.78250912      79.70890517
C      62.69717528      98.32330562      83.13875842
H      61.67105389     100.08453056      83.25781119
C      64.64926256      97.53528976      84.87163745
H      65.11224551      98.61243376      86.54026579
C      71.82077392      95.56997438      89.28792784
O      73.83900162      94.27551186      88.99313054
N      71.09133956      96.40901288      91.50646653
H      69.29798929      97.05151982      91.64441655
C      72.24596234      95.92524293      94.03492034
H      74.23962360      96.43924849      93.97633882
C      70.75685800      97.70725484      95.80559389
H      70.97039708      96.94569515      97.70665856
H      68.83689607      98.10220764      95.17253558
C      72.07777670     100.26405456      96.06826585
C      70.80410116     102.37865830      95.17442532
H      68.96161801     102.34842267      94.29570258
C      71.89258352     104.72947783      95.66953360
H      70.85890322     106.44345960      95.26702189
C      74.30009484     104.92034019      96.84683309
O      75.35834158     107.19179121      97.27769069
H      74.40591951     108.64499075      96.74856733
C      75.54542448     102.83030289      97.71421747
H      77.16114048     103.02116524      98.94820875
C      74.32088183     100.47192445      97.23989617
H      75.24117854      98.74282486      97.81437296
C      72.08344588      93.10199182      94.58483071
O      70.09167434      91.94547933      94.47144712
N      74.30576402      92.09287797      95.00246021
H      75.75707383      93.33064870      94.92876089
C      75.12779497      89.46048921      94.75679579
H      73.62168309      88.08476846      95.03269583
C      76.59989176      89.20159671      92.20944472
H      78.07576801      90.59243528      91.83905836
C      77.45782751      86.51818535      91.88819126
H      79.22094216      86.39535313      92.94832772
H      77.88301593      86.12701201      89.91153752
H      76.02163551      85.21994338      92.59305916
O      74.80276204      89.59654951      90.26113689
H      74.67048120      91.39556896      90.06082591
C      77.09500006      88.71215760      96.80336940
O      78.56709685      90.40346264      97.71043803
N      77.27641378      86.31409490      97.60461334
H      75.99517934      85.04230910      96.98289339
C      79.27952367      85.11789816      99.37339718
H      81.14279382      85.98717225      99.23544716
C      78.44237492      85.26151735     102.12483868
H      77.62790288      87.14368476     102.30436269
C      76.34477871      83.39068830     102.92041346
H      77.18570692      81.52741815     103.16796762
H      74.79709286      83.43037255     101.56170024
H      75.48495324      83.97272401     104.70053566
C      80.45871289      85.37868038     104.22621434
H      81.79285967      86.86589499     103.72354716
H      81.44892948      83.57777121     104.35282602
C      79.34755382      86.08354830     106.66396130
H      78.33466052      84.54342135     107.58425801
H      78.27229955      87.75973554     106.13483792
H      80.91035748      86.46338328     107.94897518
C      79.75195525      82.28519840      98.75734639
O      78.24962283      80.86790368      97.78791681
N      81.98372203      81.35545307      99.21466016
H      83.29897154      82.51385530      99.97433015
C      82.57898582      78.58322456      99.22032935
H      80.95193146      77.53820591      99.92519727
H      84.08131824      78.28842725     100.59982955
C      83.32164826      77.63836141      96.57849196
O      84.62744914      78.87046297      95.06482118
N      82.53174266      75.34612338      95.77346855
H      81.51129045      74.32378145      97.02068791
C      82.59221390      74.31244309      93.29414762
H      84.34776965      74.89069935      92.38707899
C      82.82465024      71.37958786      93.36028805
H      80.96515955      70.60668979      93.79114565
C      83.40101676      70.37425346      90.86018014
H      85.13578552      71.26620428      90.19877593
H      81.69459390      70.57267473      89.72256490
H      83.50495171      68.31823123      90.92443084
C      84.64256695      70.26464934      95.39363356
H      84.26651141      70.99597342      97.28147014
H      86.37733571      71.12447481      94.69065538
C      85.12444716      67.49620029      96.01913297
H      85.87466851      66.48519670      94.39018889
H      83.38967841      66.67983852      96.77124405
H      86.48316038      67.43572905      97.56681882
C      80.19037176      75.39714599      91.77669739
O      78.41591875      74.10268347      90.87907741
N      80.17525395      77.89725391      91.54237133
H      81.58310005      78.95172120      92.28503377
C      78.22694612      79.24840822      89.98523685
H      78.17214406      78.50196633      88.06716464
H      78.83543799      81.21561332      90.07027454
C      75.61912381      79.21061370      91.16442607
O      73.83333244      79.01030270      89.70366763
N      75.29409088      79.14636301      93.61351138
H      76.87390208      79.64336102      94.56215399
C      72.76374735      79.26163630      94.79648005
H      71.61479375      77.98040187      93.66642372
C      72.81665968      78.13346970      97.48745031
H      74.04309206      79.17659862      98.76868476
H      73.52908650      76.20027968      97.42697907
C      70.23718327      78.15614641      98.64018336
N      68.27375763      76.61412975      97.86728530
H      68.36635422      75.16093020      96.63518375
C      66.25364020      77.15459147      99.41686089
H      64.39414951      76.41003930      99.02568754
N      66.82811700      79.15392191     101.04958441
H      65.61302298      80.03075491     102.22877364
C      69.32255573      79.68493500     100.64518298
H      70.31277232      81.26663593     101.47099338
C      71.71305952      81.92237095      94.71711154
O      72.85823366      83.68737534      95.70921785
N      69.68160373      82.43637652      93.14296952
H      68.78020428      81.09845029      92.12440704
C      68.28320626      84.94782278      93.18454350
H      69.69861127      86.43503739      93.32438325
C      66.66182108      85.27663516      90.75624519
H      65.00831056      84.04831305      90.79970890
H      67.78242879      84.43381723      89.24635387
C      65.52987502      87.91658283      89.97956767
H      66.97740538      89.18458918      90.71089176
C      65.13492222      88.09421710      87.16198575
H      63.84990833      86.63156893      86.48924317
H      66.91315468      87.63312387      86.23035067
H      64.67004955      89.98961259      86.51003016
C      62.94850888      88.51562606      91.25135349
H      62.56111498      90.52440513      91.02080688
H      62.57056362      87.78052253      93.13919007
H      61.42727920      87.64257251      90.17043004
C      66.55977586      85.35033448      95.42953836
O      64.99508248      83.77052330      96.21944396
N      67.02842799      87.66335950      96.42164468
H      68.11691034      88.83121035      95.37473629
C      65.93049700      88.48728016      98.89718615
H      65.30877704      86.84888746      99.97621987
C      67.83912058      89.66268994     100.64140353
H      66.88291906      90.69070104     102.14940513
H      68.75752756      91.27840593      99.74945271
C      69.94616542      87.91658283     101.68264274
H      70.88157994      86.71282716     100.29558361
C      71.92470886      89.53229881     103.17552652
H      70.96850735      90.53574349     104.69864592
H      72.79776242      90.81164354     101.81870302
H      73.33633442      88.27752054     103.99755746
C      68.70272550      85.98150308     103.51945671
H      67.30243830      84.77018852     102.61238807
H      67.68983220      86.94526350     105.03312748
H      70.14647640      84.89302073     104.50022466
C      63.49086033      89.80441941      98.39451894
O      61.32712370      88.98616792      99.03702589
N      63.83101107      92.04563481      97.16997629
H      65.44672706      92.61255271      96.32715837
C      61.67672307      93.55930560      96.76368514
H      60.00053583      92.37633693      96.93376051
C      61.37814631      95.70603468      98.73844913