 %block lattice_cart
   139.898   0.000   0.000
   0.000 144.87   0.000
   0.000   0.000   168.12
 %endblock lattice_cart

 %block positions_abs
N      94.42095575      47.19581537      86.99757956
H      96.20674711      47.46604623      86.38152877
H      93.82191251      45.40813427      86.70089253
H      94.42851466      47.51706884      88.87785723
C      92.86949044      49.21026362      85.92988419
H      93.60837344      50.95448100      86.73679732
C      93.12460350      49.34443418      83.08206664
H      92.44052258      47.57376063      82.28649185
H      95.09180860      49.40679515      82.47168503
C      91.55424093      51.48738382      81.65721299
H      89.54546187      51.12833582      81.93878222
H      91.65817587      51.33998517      79.60497023
S      92.09659239      54.72259527      82.68522411
C      95.57557852      54.47126167      82.75325426
H      96.05934846      53.94213830      80.82384369
H      96.15005532      53.03884913      84.11574694
H      96.56012594      56.22492769      83.20489885
C      90.02734208      48.86822315      86.60073703
O      89.08625837      46.70826598      86.44955893
N      88.67240831      50.81653098      87.41142962
H      89.48877008      52.53996138      87.36985565
C      85.96065105      50.63322753      88.18432768
H      85.12161257      49.11010812      87.07694806
C      85.69042019      50.14000896      91.03403497
H      86.32536823      48.23138539      91.47434119
H      83.72321510      50.25150282      91.63496792
C      87.01322861      52.09020652      92.75368590
O      87.43463757      54.17835409      91.99590566
N      87.75400131      51.35132353      95.06104174
H      88.51934048      52.71570593      96.15519328
H      87.03023613      49.90001372      96.06826585
C      84.55469466      53.02751077      87.24702344
O      85.66585375      54.70369801      86.12452600
N      81.99033607      53.10876900      87.51158512
H      81.02468592      51.50628109      87.89142010
C      80.52579816      55.36132277      86.66876717
H      81.02090646      55.58620020      84.68266483
C      77.68742925      54.79062542      86.65931855
H      77.52302305      53.07664365      85.52737249
C      76.48367359      54.37866508      89.30493538
H      76.98823051      56.00005026      90.47278624
H      77.40019084      52.69113949      90.04759782
H      74.54292467      53.76639376      88.97990246
C      76.08116189      56.94680314      85.38942246
H      77.05248121      57.61009708      83.70000715
H      75.93376323      58.59842394      86.61207538
C      73.52058272      56.18902289      84.41243397
H      72.13352362      56.82019148      85.79760334
H      73.42609642      54.13111094      84.45400795
H      73.25035186      57.07908398      82.57561999
C      81.16830511      57.81229779      88.30149071
O      81.04925236      59.91745291      87.33584056
N      82.12828608      57.49860323      90.59183900
H      82.10938882      55.75627556      91.37229598
C      82.93897868      59.63210423      92.17920910
H      81.37239555      60.96814074      92.17731939
C      83.28479859      58.62110066      94.85884101
H      83.81392195      60.07807964      96.21377478
H      85.01389817      57.50238268      94.91931227
C      81.11917224      57.18112920      95.91708775
C      79.21621784      58.42645885      97.25312426
H      79.38251376      60.40878175      97.70854829
C      77.21499766      56.94680314      98.16208262
H      75.79203376      57.94646836      99.23355743
C      77.16964424      54.34842946      98.02224286
H      75.81848993      53.11443818      98.92364231
C      79.13873906      53.07286420      96.73722897
H      78.79291914      51.07731321      96.48022620
C      81.15696675      54.52984319      95.69410004
H      82.64607109      53.55852386      94.69065538
C      85.33893108      60.83963935      91.24568430
O      85.49010920      63.14321572      90.81293698
N      87.11716354      59.29195350      90.38774856
H      87.05291286      57.41356554      90.70900203
C      89.51333652      60.09130773      89.06305042
H      90.11804894      61.69568537      90.20444511
C      91.39928337      57.94457864      89.08194769
H      91.02322784      56.38933388      87.78559542
H      91.60715327      56.99971548      90.89986439
C      94.06946665      58.96881030      88.49046334
H      94.14316598      59.78895152      86.60262676
H      95.26188396      57.30774087      88.24479892
C      95.34314219      60.69035097      90.57105201
O      94.21308586      61.09097295      92.59872834
O      97.40861306      61.65222166      90.04948755
C      88.94452890      60.90200032      86.39853632
O      90.08592359      62.61409235      85.46312180
N      87.11905327      59.79462070      85.11919160
H      86.56158402      58.15433826      85.92421502
C      86.55213538      60.43523792      82.52648711
H      88.19052810      60.15933787      81.31139309
C      84.32036860      58.80440411      81.55705751
H      82.56103341      59.28628432      82.51514875
H      84.72477004      56.81074285      81.88020070
C      83.74589180      59.29951240      78.73191666
H      85.12161257      58.40567186      77.48469730
H      83.70431783      61.32718874      78.37286866
S      80.69587354      57.62899434      78.33696387
C      80.70910163      56.97703876      74.94301540
H      81.90340866      55.37644058      74.43656875
H      81.38373392      58.68724108      74.01327007
H      78.85905956      56.51972500      74.16066871
C      85.68853046      63.20557669      82.37719872
O      86.69953403      64.59263580      80.88998412
N      83.91974663      64.00682065      84.16299009
H      83.53046301      62.69535059      85.49335742
C      83.02212662      66.67133475      84.21779215
H      82.55536423      67.11919988      82.26192541
C      80.36706116      66.83007176      85.52359304
H      80.11950701      68.67633437      86.40420549
H      80.24044950      65.43545374      87.03537409
C      78.10694849      66.31228675      83.93244347
H      76.51957839      66.25181551      85.24391354
C      77.48144908      68.28516102      82.05216579
H      75.52936179      67.93745138      81.49469654
H      78.63985131      67.78249382      80.42511144
H      77.72522378      70.21079213      82.73813644
C      78.17875808      63.71769252      82.55861244
H      78.46410676      62.21158065      83.93622294
H      79.84549670      63.51360208      81.36619515
H      76.40808454      63.25470957      81.61752875
C      85.04035434      68.37964734      85.26847998
O      85.03468516      70.69456207      85.14942722
N      86.86960941      67.44801226      86.77081239
H      86.80157926      65.56206540      87.05427135
C      89.01633849      68.97680085      87.75347009
H      88.17541028      70.80416620      88.19755577
C      90.09159277      67.68989723      90.12318688
H      91.89439167      68.67255491      90.29893143
H      90.25221950      65.63954418      89.99846494
C      88.83114532      68.11130620      92.71022220
H      87.11905327      66.96613205      92.74045782
H      88.35682402      70.09740855      92.98423252
C      90.31080101      67.15699441      94.94954789
H      89.28090017      67.79194245      96.61628649
H      92.05123896      68.25681513      94.87395883
N      90.64906203      64.48870086      94.83805403
H      91.96053208      63.71202334      93.68910044
C      90.15206400      62.81251362      96.64463238
N      88.86893984      63.39076987      98.60427857
H      88.61004734      61.99426212      99.87984384
H      87.87872325      65.02538313      98.60049912
N      91.00055113      60.58263657      96.53502826
H      90.41851542      59.21636444      97.73689420
H      92.18918898      60.27083173      95.07804927
C      90.86260110      69.52104203      85.61052045
O      92.38761023      71.41265807      85.64831496
N      90.83614494      67.94878974      83.60174138
H      89.84214890      66.31984565      83.60741056
C      92.15895336      68.60641449      81.16777389
H      93.72931592      69.77804481      81.79894248
C      93.07547062      66.17811618      79.84307573
H      91.49565942      64.87609475      79.64087502
C      93.83325086      66.63920940      77.09163422
H      95.11070586      65.21624549      76.32440535
H      94.85937225      68.42500077      77.15588492
H      92.41217667      66.69212174      75.60064017
C      95.41306207      64.76460090      81.06950812
H      95.00110172      64.68334267      83.08584609
H      97.05712396      65.97591547      80.79171834
C      96.13493752      62.19646284      80.14354223
H      94.86504144      60.67712288      80.71612930
H      97.89805216      61.82985593      81.14320743
H      96.30312316      62.09630734      78.09318918
C      90.48654557      70.29960927      79.35552635
O      91.25377445      72.37830821      78.52215705
N      88.00911437      69.63064615      79.10986193
H      87.42707866      68.03193769      79.97535658
C      86.27812506      71.18022173      77.56028636
H      87.23054713      71.70934510      75.81228952
C      83.82715004      69.77237563      76.74203485
H      82.26812584      71.09707377      76.49637044
H      83.53991163      68.44578776      78.28783098
C      84.28257409      68.15099045      74.38176669
O      86.19686684      68.44200830      72.96258223
O      82.77646221      66.35008128      73.88098921
C      85.58459550      73.72379335      78.58073855
O      86.04757846      75.68910871      77.39210071
N      84.42052410      73.95245023      80.72368819
H      84.37328095      72.33673424      81.73847122
C      83.17141501      76.25224716      81.57595477
H      82.87850742      77.21978703      79.78071476
C      80.51823927      75.61918884      82.60585561
H      80.93964824      74.39275646      84.20645380
H      79.42408773      74.76692227      81.08084648
C      79.00078903      77.89819877      83.53560095
H      80.22155224      79.17754349      84.59384769
H      77.59483266      77.21600758      84.87919636
C      77.69498816      79.48178942      81.28493692
O      78.88740546      81.22033763      80.23046964
O      75.57660496      78.83928248      80.46857515
C      84.90807349      77.69410833      83.41654820
O      85.08948722      80.00902307      83.44867355
N      86.26300726      76.27303415      85.09462516
H      85.69042019      74.45889688      85.25525190
C      88.18674865      77.47490008      86.78215076
H      88.85193231      79.24557364      85.96389926
H      89.65695571      76.08784097      86.39286714
C      87.39495331      77.37474459      89.64319640
O      85.37483588      76.62263351      90.23468073
N      89.10137617      78.01347208      91.33261171
H      90.77756342      78.68810437      90.72034039
C      88.87460902      78.10228922      94.07082515
H      86.91874229      77.80938164      94.64530194
C      90.50544283      76.07083343      95.30292671
H      92.42918422      76.53759583      94.72467045
H      90.12560783      74.18488657      94.56971289
C      90.44119214      75.99524438      98.26412783
H      90.77756342      77.80371246      99.19009372
C      87.86549516      75.12219082      99.21088072
H      87.98265821      74.56472156     101.18942417
H      87.55180060      73.27214876      98.36050388
H      86.49166415      76.64342050      98.99356219
C      92.27233693      74.05071600      99.40552252
H      91.99454717      74.10362834     101.44642694
H      94.19229886      74.25480644      98.68742652
H      91.61849163      72.18177668      98.83104572
C      89.57002831      80.71956016      95.25001436
O      91.58825601      81.61529043      94.99112186
N      87.83148010      81.93465418      96.56715361
H      86.03812982      81.28458833      96.61628649
C      88.08281369      84.38562921      97.58193664
H      89.96876056      85.17364508      97.32682358
C      86.38583947      85.91630752      95.93409530
H      85.97387914      87.65863518      96.95076805
H      84.58304057      84.92987038      95.76401992
C      87.20598069      86.49645350      93.08816746
H      87.78423693      84.69932377      92.26046734
H      88.81602751      87.76068040      93.32249352
C      85.19909134      87.78335712      91.49323845
H      84.73610840      89.66552453      92.18865773
H      83.45109451      86.70432339      91.63874739
N      85.98143803      87.94020440      88.74368668
H      86.48788468      89.69009097      88.17109960
C      85.94553323      86.28102470      86.96167476
N      85.17830436      84.08327300      87.38686318
H      84.87405842      82.94943721      85.88264104
H      84.56981248      83.71855582      89.15753673
N      86.54079703      86.65330078      84.61463468
H      86.17985929      85.36450744      83.25403173
H      87.31558482      88.34271611      84.18188736
C      87.52723416      84.11917780     100.36172405
O      85.31814410      83.68076129     101.03635633
N      89.31680497      84.12106752     102.07192636
H      91.03456619      84.76357447     101.54280298
C      89.05035357      83.79414487     104.74210964
H      87.61038212      82.36740150     105.12005489
C      91.61660190      83.09872559     105.86649680
H      91.37093748      83.01179818     107.90929094
H      92.80712947      84.77113337     105.70587006
C      92.68996644      80.66097864     104.96509735
H      92.43863285      80.49846218     102.92608264
C      95.41117234      80.24523885     105.72854677
H      95.74754363      80.45310875     107.74866420
H      96.85492325      81.29781641     104.70431511
H      95.91572926      78.28748239     105.33926315
C      91.06858127      78.41031461     105.75311321
H      90.88338810      78.10417894     107.77889982
H      91.83203071      76.64531023     105.01611995
H      89.22420838      78.39708652     104.83659595
C      87.82203147      85.98433767     106.37483318
O      86.96220600      85.52324445     108.35715608
N      87.97509930      88.21610444     105.19564395
H      88.90295491      88.25389897     103.52890534
C      86.72976965      90.50645273     106.23688316
H      86.04379900      89.97543964     108.10393274
C      88.88216793      92.35838452     106.64695375
H      89.64750709      92.88561816     104.80636033
H      90.32024965      91.60816318     107.91684985
C      88.21131508      94.88116915     107.83559161
H      87.63683828      94.62794582     109.79901725
H      86.58992991      95.72587681     106.88694901
C      90.48276612      96.87105096     108.08692521
H      89.64750709      98.67573959     108.62927667
H      91.28589980      97.00900098     106.19530918
C      92.27044720      96.29468443     110.29412554
H      94.10348173      97.05246468     109.74232546
H      92.43296367      94.27645673     110.66829135
N      91.56746902      97.58914696     112.65439371
H      92.27422666      96.74821875     114.21530764
H      89.65884544      97.59859559     112.71486495
H      92.15706363      99.35604106     113.06824377
C      84.45831863      91.36060903     104.60793906
O      84.24855901      90.72566099     102.40073874
N      82.63095329      92.80058048     105.59626592
H      82.89929441      93.07837025     107.46520526
C      80.22344195      93.74733336     104.41140753
H      79.30692470      92.07870503     103.62150193
C      78.23356016      95.09659795     106.27467767
H      79.23511509      96.75199820     106.97954560
C      75.76179814      95.78256860     104.62683633
H      74.97189254      94.31425126     103.41930122
H      76.08494133      97.41718186     103.41552176
H      74.14041296      96.37027348     105.75122348
C      77.49845662      93.29001959     108.43463485
H      79.11795206      92.51901126     109.44752816
H      76.38540782      91.68942141     107.76756146
C      75.65786318      94.56369513     110.30168444
H      75.18921107      93.40151345     111.93440798
H      73.83616703      95.34793155     109.75366381
H      76.82571404      96.03390220     111.14828184
C      80.78847013      95.38194662     101.95854277
O      82.66118891      96.75955710     101.91129962
N      79.33149115      95.04557534      99.98566850
H      77.98033683      93.69631075      99.97433014
C      79.73778230      96.46098035      97.54981129
H      80.57682078      98.31669159      97.85027777
C      81.59916272      95.08148014      95.98889736
H      83.38306436      94.61849719      96.91108379
H      81.94498264      96.43074473      94.46955739
C      80.69398381      92.57003387      94.90230472
C      79.49211788      92.24500094      92.65164069
H      79.09905481      93.87016557      91.48190010
C      78.59638761      89.80347455      91.84283783
H      77.80270255      89.74111358      89.96444987
C      79.12173152      87.72477560      93.41886956
O      78.39985607      85.24545468      92.79903934
H      77.75167995      85.16041700      91.10584456
C      80.09305085      88.18019964      95.87551378
H      80.04958713      86.62117544      97.19265302
C      80.92264069      90.54613699      96.62573513
H      81.83348878      90.80502949      98.43609292
C      77.26035110      96.77656464      96.09094257
O      75.53125153      95.31580620      96.45943920
N      76.93153872      98.71164439      94.38451971
H      78.45654785      99.79256784      94.00279500
C      74.53725549      99.09336910      92.88785647
H      72.98390045      98.34881693      94.01413335
C      74.15931022     101.92228939      92.36440228
H      72.23178938     102.03000379      91.64441657
H      75.26480011     102.55345798      90.74490683
C      74.26702463     103.78555954      94.52058000
H      76.13407421     103.45485743      95.32371369
H      72.80437645     103.29989987      95.88874187
C      73.73979098     106.48030926      93.71555661
H      75.04748158     107.03777852      92.22645227
H      74.03080884     107.51587928      95.47300207
C      71.17543237     106.94140248      92.79148043
H      69.98868425     105.74520572      93.97822856
H      71.17543237     106.47652981      90.78459109
N      70.36096034     109.54355561      93.01824760
H      70.07372194     110.08968652      94.82482595
H      68.80193612     109.94228786      91.99401592
H      71.67620985     110.70762702      92.26613651
C      74.54670411      97.55324216      90.37829994
O      76.46477633      97.20364279      89.10840384
N      72.39430585      96.46475980      89.75846970
H      71.00157755      96.21153647      91.03781441
C      71.70833520      95.48777130      87.24135426
H      73.45633204      94.88494860      86.33239590
C      69.98868425      93.23143808      87.52670292
H      68.25391550      93.80024570      88.47723527
H      70.99968782      91.82737143      88.64542090
C      69.24413209      91.88217349      84.98313131
O      70.93732686      91.14329050      83.47701944
O      66.99346805      91.72532621      84.28960175
C      70.71244943      97.54379352      85.38186355
O      70.25702539      99.71697878      86.10751846
N      70.43465966      96.89561740      83.01781594
H      70.91087069      95.12116439      82.50947956
C      69.22901427      98.48298750      80.93722727
H      70.44221857     100.12704939      80.67833477
C      69.22334509      96.89372767      78.42956046
H      67.76447638      95.46320485      78.67333514
C      68.92476833      98.46975942      76.07118202
H      69.42743554      97.38694624      74.39310504
H      70.45355693      99.84925963      76.02015941
H      67.00102694      99.19163487      75.93890117
O      71.56849544      95.47076376      77.97602613
H      71.13574813      93.71142856      78.02704875
C      66.50402893      99.31824653      81.36997460
O      65.81049937     101.28167217      80.49881077
N      64.97901979      97.91040043      82.77593097
H      65.56294522      96.20964675      83.41276874
C      62.53938313      98.99132388      83.53182150
H      61.75136726     100.11949049      81.99925346
C      60.78571711      96.70097559      84.02126062
H      58.86953463      97.14506127      84.62975248
H      61.63609394      95.45942540      85.42910672
C      60.35863896      95.17785618      81.56839586
H      62.14820977      94.56747458      80.75203409
H      59.55550528      96.44586254      80.15866003
C      58.48025100      93.04057572      81.64209519
O      59.21346481      90.94108979      80.85407931
O      56.20313079      93.53379429      82.13720349
C      62.86630578     100.97553651      85.67099169
O      60.84429862     101.93929693      86.36830070
N      65.13208762     101.68040442      86.49113291
H      66.71567828     101.07002282      85.61618963
C      65.46845891     103.35848139      88.75124557
H      63.60140931     104.15027671      89.11218331
H      66.78181869     104.92884396      88.53203733
C      66.22245971     101.81268527      91.17576444
O      67.35440576     102.96541832      92.90297428
N      65.54404797      99.39194586      91.38363433
H      64.72390674      98.37527310      89.99279576
C      65.27759656      98.21653609      93.87429361
H      64.75792182      99.83981099      95.03080612
C      63.26125857      96.18319058      93.76468949
H      62.95701263      95.66918502      95.73567402
H      64.20045255      94.63739445      92.78203181
C      60.74036367      96.80491054      92.56471328
C      59.63676351      95.31769593      90.73167876
H      60.61564173      93.64528814      90.08539235
C      57.27649535      95.88650355      89.64886558
H      56.36375754      94.66574035      88.29204209
C      55.92345131      98.05024018      90.37074103
O      53.52349888      98.48487723      89.61296078
H      52.54840010      99.64327946      90.60695682
C      57.06673573      99.59792603      92.34550502
H      55.90455404     101.20419339      92.83116469
C      59.50826211      99.04801567      93.36784696
H      60.26604237     100.46908986      94.62262524
C      67.74179967      97.27923184      95.01190886
O      69.34617730      96.16429332      93.84972717
N      67.69077705      97.31513664      97.50823732
H      66.13931175      98.03134291      98.36050388
C      69.62018762      96.20964675      99.15796839
H      71.51180366      96.86538178      98.67419845
C      69.30460333      97.27734211     101.82248248
H      71.04882072      96.83514616     102.82214771
H      67.66810034      96.34759677     102.66341069
C      69.40286909     100.19318981     101.83571056
C      67.23535302     101.54056468     102.60293945
H      65.50625344     100.48231794     102.82781689
C      67.33550850     104.23909385     102.69364631
H      65.54782742     105.00254328     103.31158681
C      69.54270883     105.52221802     102.09082362
O      69.58050336     108.16783486     102.36483393
H      67.87974968     108.64782534     102.78057372
C      71.71211464     104.22019659     101.41808106
H      73.44499368     105.08947069     100.78313302
C      71.61762834     101.60103592     101.24800568
H      73.33349983     100.65428304     100.68108779
C      69.61073898      93.41663126      99.24867525
O      67.66432088      92.22232423      99.62851023
N      71.75935781      92.34137698      98.60616830
H      73.15586554      93.62072170      98.36428333
C      71.98612497      89.78646701      97.79358598
H      70.28159183      88.65830040      98.04491959
C      72.37918803      89.54647177      94.97600406
H      74.23111983      90.35716436      94.59049988
C      72.28659144      86.87628849      93.92720594
H      73.59428206      86.53802748      92.37574064
H      70.32883499      86.31881922      93.61918055
H      72.94421621      85.48167047      95.29347807
O      70.54426378      90.82392676      93.70421824
H      70.72567752      92.62861538      93.73823332
C      74.31237805      88.78491206      99.39229445
O      76.07171326      90.13795610      99.96677125
N      74.38607737      86.28480415      99.82693149
H      72.98956963      85.17364508      99.15040948
C      76.55926263      85.19254234     101.27635157
H      78.13718411      86.45487952     100.87761932
C      75.88652008      85.33994099     104.15629447
H      75.27802820      87.25990293     104.59660071
C      73.87963072      83.15541738     104.75533773
H      73.26735941      83.08360778     106.72065308
H      74.72244867      81.27891915     104.86494185
H      72.36029077      83.34061056     103.37583752
C      77.96710875      84.86184024     105.99877763
H      78.43198141      82.86439952     106.18963999
H      77.20365931      85.28702866     107.86204777
C      80.32548719      86.56826310     105.88161460
H      81.58593464      85.91819725     104.38873082
H      81.55947846      86.42086445     107.52567649
H      79.86439397      88.57137299     105.75689266
C      77.30003536      82.65275018     100.30692197
O      75.84683582      81.46789178      98.88773751
N      79.57904529      81.76457881     100.92297276
H      80.83760301      82.82471527     101.88862291
C      80.33304609      79.16620513     100.59038093
H      78.90630271      77.94922138     101.44264750
H      82.20009569      78.80904686     101.38595571
C      80.56548242      78.54637490      97.76901955
O      81.68231067      80.04681759      96.36306316
N      79.57148639      76.42799170      96.96588585
H      78.71166091      75.46990046      98.37373197
C      78.94220752      75.55682787      94.35617382
H      80.39351733      76.19744509      93.04092431
C      78.82504449      72.59751647      94.14641420
H      77.19421069      71.92288417      95.21033012
C      78.68142529      71.78871360      91.26836103
H      77.01657641      72.64853908      90.41042527
H      78.27513414      69.80450098      90.87907741
H      80.43131186      72.31216779      90.31404923
C      81.02657565      71.15754502      95.48623016
H      80.80358793      69.15254540      95.06293147
H      80.83382355      71.54115946      97.49878868
C      83.73833291      71.90776636      94.54325673
H      85.20098107      71.35407655      95.88307269
H      83.86305483      73.94111187      94.23712106
H      84.19753640      71.07250733      92.71778111
C      76.35139274      76.71711983      93.70043879
O      74.53158631      75.31116345      93.48500999
N      76.11328723      79.20022020      93.34517025
H      77.64396555      80.31515873      93.58894494
C      73.87963072      80.30382037      92.15653239
H      73.39397107      79.26636062      90.44444035
H      74.30481914      82.26724601      91.70299807
C      71.38519199      80.26791557      93.57193740
O      69.50302459      80.51546972      92.37763037
N      71.26235979      79.97500799      96.05692751
H      72.87429633      79.99579498      97.08304888
C      68.92287860      80.18098816      97.51957567
H      67.27314753      79.35895721      96.59549950
C      69.50869377      78.65786875      99.96488152
H      71.01291592      79.58572437     101.02312826
H      70.13797263      76.73979654      99.54158283
C      67.15409478      78.25724677     101.50311874
N      65.52137124      76.44121979     100.97210564
H      65.70845415      75.26958947      99.47733213
C      63.38598051      76.82672395     102.27790653
H      61.69089600      75.69288817     102.32703940
N      63.83573537      78.78070096     103.88606361
H      62.75292219      79.23045582     105.39028577
C      66.16009874      79.69721822     103.32481490
H      67.25425028      81.28836778     103.98621911
C      68.10462711      82.96266529      98.01090450
O      69.48601704      84.22311274      99.34883073
N      65.88797815      83.77335788      96.95076805
H      65.04893966      82.65652963      95.64874661
C      64.81083415      86.25267880      97.64618733
H      66.18466519      87.74556259      97.30225714
C      62.50158860      86.87817821      96.02102270
H      60.90476986      85.66308419      96.48022620
H      63.05905785      86.29992196      94.12373748
C      61.72680080      89.67875261      95.73378431
H      63.20456678      90.84093429      94.89285609
C      59.37409154      89.61450191      94.09161214
H      58.51993525      91.42108027      93.58894494
H      57.96624544      88.51657093      95.11395407
H      59.64243269      88.81136823      92.21322419
C      60.81595273      91.01667884      98.14129562
H      59.41755525      89.77134920      98.99923137
H      59.97124507      92.81002911      97.58382636
H      62.49213996      91.23399737      99.32048484
C      64.23824708      86.19598701     100.50345352
O      62.97779963      84.46688744     101.51445709
N      64.66532523      88.21988390     101.95665306
H      65.41554657      89.74300330     101.08359950
C      64.15887858      88.50712230     104.64951305
H      63.68833672      86.67408777     105.46587481
C      66.47001386      89.63717863     106.06113860
H      65.70278498      90.37228217     107.82614297
H      67.11441052      91.12439324     104.79124253
C      68.72256762      87.91563796     106.63561540
H      68.93043751      86.75156655     104.94808980
C      71.12440976      89.45765463     106.94175107
H      71.61006943      90.49511438     105.23343847
H      72.75524358      88.22744280     107.20064356
H      70.67276518      90.83715484     108.40439923
C      68.24446686      86.36228293     108.92407397
H      69.78081436      85.06782041     109.36815965
H      66.39442480      85.45710403     108.85793354
H      68.16131891      87.58493585     110.58136394
C      61.66821930      89.97166019     105.29390971
O      59.93156081      88.86617029     106.35971536
N      61.35263500      92.26200848     104.28479586
H      62.73969411      93.01034010     103.20765187
C      58.96024148      93.64717787     104.26211915
H      57.31617959      92.41885576     104.10716159
C      58.39899277      94.72054241     106.93419216