 %block lattice_cart
   139.898   0.000   0.000
   0.000 144.87   0.000
   0.000   0.000   168.12
 %endblock lattice_cart

 %block positions_abs
N      90.38166576      44.16658408      87.82433482
H      89.49160466      44.58043414      89.46272753
H      92.24682563      44.35177726      88.18527255
H      89.74293826      42.46205095      87.25174775
C      89.55963481      46.01662615      85.82878383
H      90.35143014      47.89690382      86.10657360
C      90.40056302      45.43081098      83.19261563
H      89.65601085      43.68092443      82.40271003
H      92.44146744      45.20593356      83.35513209
C      89.79018142      47.65123940      81.30666877
H      87.78329208      47.76840243      80.85313445
H      90.96559119      47.32053729      79.64937879
S      90.89945077      50.80708234      81.97752161
C      88.99460664      52.49271821      79.75709319
H      87.00094538      52.02784555      79.99141925
H      89.67868757      52.19792091      77.83524153
H      89.31963957      54.46559249      80.25409121
C      86.80252412      46.52874198      85.91004206
O      85.31719924      44.94704105      85.10312893
N      85.93325002      48.80586218      86.68671958
H      87.16157212      49.97182331      87.56733204
C      83.19503659      49.46159721      86.84545659
H      82.00072956      48.21437785      85.71728998
C      82.42402825      48.87578206      89.63658235
H      83.43503183      47.35833182      90.59467359
H      80.50784577      48.12745044      89.53075768
C      82.85488585      51.07920293      91.57166210
O      81.05208695      52.36421682      92.30109646
N      85.02429166      51.62911329      92.78675612
H      84.88256219      52.73082374      94.33822142
H      86.61166176      50.73716248      92.21038959
C      82.49394813      52.21303873      85.92704960
O      83.98683191      53.72481978      85.00675289
N      80.02218611      52.88389156      86.23318526
H      78.87512224      51.70281261      87.19505596
C      78.93559348      55.36510221      85.84012219
H      79.15480173      55.70147350      83.82000476
C      75.99139988      55.34431523      86.12547086
H      75.03141892      54.10654449      84.78754463
C      75.13913332      54.40701097      88.68416029
H      73.09066999      54.22181779      88.59345343
H      75.90069302      55.58997964      90.19027216
H      75.82132451      52.51350521      89.11879734
C      74.82732847      58.00127043      85.38091870
H      75.85722931      59.41856515      86.46184215
H      72.82043913      58.27150128      85.75886396
C      75.31487786      58.70235888      82.52176279
H      74.18860098      60.27650090      81.81500514
H      74.86890245      57.20380592      81.18005710
H      77.31231858      59.16156238      82.31767234
C      80.26974026      57.60631763      87.18749705
O      80.65146497      59.60942751      86.10468387
N      81.38656851      57.25860798      89.52319878
H      81.28641301      55.58620020      90.43971604
C      82.87945229      59.29951239      90.87057364
H      81.67380691      60.96058182      91.03875928
C      83.26873591      58.51527597      93.65036104
H      84.59910324      56.95814149      93.86767957
H      81.54908497      57.53450802      94.21349948
C      83.92447094      60.41256119      95.62701477
C      86.44725557      60.85853660      96.48495051
H      88.18391405      59.99682140      95.85000247
C      86.78362686      62.51393685      98.55609055
H      88.67146344      63.02038350      99.14190571
C      84.70870736      63.60997812      99.72394141
H      84.92791562      65.04617011     101.15635396
C      82.31820358      63.21880477      98.95860226
H      80.58154510      63.75548704      99.88267842
C      81.89679461      61.65411138      96.83832933
H      80.00706830      61.14199555      96.26574226
C      85.42302391      59.93068098      89.63658235
O      86.33765145      61.98481349      89.63280290
N      86.62677957      57.92946082      88.64069659
H      85.79529999      56.23437631      88.92604526
C      89.08153405      57.79340052      87.26875528
H      90.42323974      59.02739180      88.22495680
C      90.03584584      55.03817956      87.43316147
H      91.72148171      55.04384875      86.25019280
H      88.62233056      53.66434854      86.84167714
C      90.65000689      54.42779796      90.12413174
H      89.01350391      54.62810896      91.36001275
H      92.07675026      55.69958377      90.89514008
C      91.64778239      51.79351949      90.33578109
O      89.93758007      50.11733225      90.07877831
O      93.89655670      51.32297764      90.96505995
C      88.92468677      58.73826368      84.57967474
O      90.64244799      59.78517206      83.37969853
N      86.65512547      58.41134103      83.32489647
H      85.29641225      57.72726010      84.47951925
C      85.98616235      59.37699118      80.77943512
H      87.52439957      58.99337673      79.46796506
C      83.49928252      57.91245328      79.86858704
H      82.36544674      57.55529501      81.55044346
H      83.96226547      56.06430094      79.08813007
C      81.87978707      59.23148226      77.79555728
H      83.04007903      59.81540768      76.19873854
H      81.30908973      61.07963458      78.50420464
S      79.03385925      57.58364090      76.84880439
C      79.27952367      56.77483804      73.54934225
H      77.33121584      56.65011610      72.89360722
H      80.51918413      55.17612958      73.16005863
H      80.13934914      58.48126090      72.77455446
C      85.43247254      62.17189640      81.04021736
O      86.44536585      63.70257471      79.65504797
N      83.84510244      62.91833829      82.86002380
H      82.80008379      61.64277302      83.82000476
C      83.43314210      65.61497773      83.26631495
H      82.99661532      66.38031689      81.40493453
C      81.07854312      65.85686270      84.96517891
H      80.92547529      67.83918560      85.49430228
H      81.20704451      64.88554337      86.77553672
C      78.53875095      65.14443588      83.68394447
H      78.45560299      63.12053900      83.31544784
C      76.21627731      65.74536885      85.39603651
H      74.52308254      65.10097217      84.42093773
H      76.10100401      67.78438354      85.67004682
H      76.41658830      64.82318242      87.22718130
C      78.19482076      66.53338473      81.17627765
H      78.56520712      68.53271516      81.51075921
H      76.22005677      66.13276274      80.75486868
H      79.25873668      65.59230102      79.68528359
C      85.74427738      67.13620742      84.41148910
O      85.80096917      69.48513722      84.14125824
N      87.58109136      65.82095791      85.45272830
H      87.18802829      64.03516654      85.99696948
C      89.94135953      67.07195672      86.46184215
H      89.21003544      67.98658425      88.15692665
C      91.83486529      65.11042081      87.30654981
H      92.76083118      64.22413916      85.69650299
H      90.86543569      63.61564730      88.34023010
C      94.13277249      66.20457235      88.82400004
H      93.39011005      67.59730063      90.14869818
H      95.45747063      67.13998688      87.55410396
C      95.42156583      64.14477066      90.32633246
H      94.03072727      63.43801303      91.66992787
H      97.13554760      64.80050569      91.26363671
N      96.37776735      62.08307926      88.59723288
H      96.55729135      62.31173614      86.70939630
C      96.82563248      59.74170836      89.37580012
N      96.51949682      58.95747194      91.58300046
H      97.27538735      57.27939496      92.08566766
H      96.03194743      60.27839063      92.87179380
N      97.51538259      58.15055879      87.73362796
H      98.21080187      56.47248183      88.31944311
H      97.55506684      58.35275952      85.83634274
C      91.18290971      69.00136729      84.69494805
O      92.44335716      70.71912851      85.66059819
N      90.91834803      68.62342202      82.18161205
H      89.93758007      67.13620742      81.49375167
C      92.03706601      70.18811541      80.24464258
H      92.97437026      71.81139031      81.09501942
C      93.73592996      68.63665011      78.53444026
H      94.61843215      70.05016539      77.32501542
C      95.95257893      67.44801225      80.04622132
H      97.38310175      66.69590118      78.76876633
H      95.43290419      65.97402573      81.38603727
H      97.07885581      68.94278577      80.90793651
C      92.33186331      66.66377583      76.86581193
H      91.33030837      67.64832325      75.36158979
H      91.01472407      65.52805032      77.97130182
C      94.15166975      64.94412490      75.38237677
H      95.34219733      66.14788056      74.21452591
H      92.85342777      63.83863501      74.22397455
H      95.36487404      63.70824389      76.49542557
C      89.92057254      71.61296905      78.78199441
O      90.56307948      73.48001865      77.43084010
N      87.63967288      70.71345932      78.94640060
H      87.23527144      69.06561798      79.82323361
C      85.61388627      71.89264855      77.69162233
H      86.26017267      72.71467949      75.91527960
C      83.48794417      70.02937840      77.25887500
H      81.82498501      71.05172033      76.60313997
H      82.84732695      69.03727208      78.94829033
C      84.03974425      67.98469454      75.42206103
O      82.72071528      66.00426135      75.50898844
O      85.78963082      68.41366240      73.89327244
C      84.46871212      74.21134273      79.34135340
O      83.62211473      75.99902382      78.14515664
N      84.57075734      74.07906189      81.80555651
H      85.08665263      72.43311027      82.62191828
C      83.58243048      76.00280327      83.44205950
H      83.53896678      77.82638917      82.48774771
C      80.91035748      75.41320866      84.51920350
H      81.05586640      73.91843515      85.93082905
H      79.73116826      74.63842088      83.02065053
C      79.67636619      77.75457957      85.73807697
H      80.91035748      78.74479615      87.05710594
H      78.01907622      76.84184176      86.54876956
C      78.79008455      79.67643123      83.70095200
O      80.41146973      81.18632255      82.85624434
O      76.46194173      79.62918808      82.98285601
C      85.43058282      76.35429237      85.74941533
O      86.07497949      78.38196870      86.59412299
N      86.23938568      74.22835027      86.85301549
H      85.53829722      72.64098016      86.05177154
C      87.98549279      74.08284134      88.96950897
H      89.48026630      75.49635662      88.85990484
H      88.97004020      72.27626298      88.88258155
C      86.53418298      74.56472155      91.44127098
O      84.23249633      74.85762913      91.33355658
N      87.89478593      74.20000437      93.46894732
H      89.75049717      73.80127212      93.26485687
C      87.07464471      74.62519279      96.08054908
H      85.04885810      74.39842563      96.36967721
C      88.06108184      72.51814795      97.68870617
H      90.06041228      72.33862395      97.22761295
H      87.17102075      70.73991549      97.15391363
C      87.97982361      72.88286513     100.58376689
H      88.80374428      74.74046610     100.92202790
C      85.26806635      72.82050416     101.64012389
H      85.40223692      72.64664935     103.68669749
H      84.37989499      71.15376555     100.82187240
H      84.09265659      74.44377907     101.15824368
C      89.54262727      70.79471755     101.88956777
H      88.66768399      68.97113167     101.49461497
H      89.82041704      71.02715389     103.91535437
H      91.38700015      70.87597579     100.97871968
C      88.10265582      77.27836853      96.91769784
O      90.46103426      77.69599805      96.80431426
N      86.41135077      78.80904685      98.06287198
H      84.58776488      78.48212420      97.60177876
C      87.15023376      81.29403695      99.15135434
H      89.15334365      81.14474857      99.60488865
C      86.32631309      83.44832495      97.52241026
H      86.11844319      85.24734440      98.49750904
H      84.53674227      82.95321665      96.63234916
C      88.34643052      83.98689695      95.56843325
H      88.73004496      82.19354667      94.63112900
H      89.97726433      84.43098263      96.74573274
C      87.58487081      85.99378629      93.80153915
H      89.36121355      86.88573711      93.25918770
H      86.28284938      87.36950705      94.60656256
N      86.27718020      84.69554431      91.60189772
H      85.56475338      82.93431939      91.78142172
C      86.62677957      85.25868275      89.14903297
N      87.38455982      87.43186801      88.38180408
H      87.50928176      87.83815918      86.52042366
H      87.38644955      88.77924288      89.73295840
N      86.07120004      83.60895168      87.38402859
H      85.79529999      84.44421071      85.68894409
H      85.51751023      81.84016785      87.84701154
C      85.78018218      81.45088423     101.63823417
O      83.52384897      81.19199173     101.92547257
N      87.27117624      82.00457404     103.69614612
H      89.13633612      82.33338643     103.46182006
C      86.26962130      82.00835350     106.38333694
H      84.71248682      80.70066289     106.70459041
C      88.52217506      81.04270336     107.94803033
H      88.21981885      81.29025750     109.96814776
H      90.18702395      82.24645901     107.78173441
C      89.35176492      78.25913649     107.48693711
H      89.64278277      77.99079535     105.46492995
C      91.67423855      77.60718092     109.28973601
H      92.22603864      75.62296828     109.31241272
H      91.00716517      77.73379258     111.23426439
H      93.18035043      78.96778387     108.94202637
C      87.26361734      76.39586635     108.32219614
H      87.94769826      74.45889689     108.16723858
H      85.63278353      76.65853830     107.09198431
H      86.45481448      76.82294450     110.16656902
C      85.47215679      84.55003539     107.43969395
O      83.95659629      84.60672718     109.20658805
N      86.11844319      86.48133568     105.94681016
H      87.33353721      86.06181644     104.53518461
C      85.03751974      89.00789976     106.25483555
H      84.09643604      88.99845113     108.08787007
C      87.14267486      90.88250826     106.31152734
H      87.98927224      90.85038291     104.43502911
H      88.61666138      90.55936506     107.71559399
C      86.42457886      93.77001008     106.58742738
H      85.28318416      94.23866219     108.23337900
H      85.16980058      94.12149916     104.99249837
C      88.79240593      95.28746030     106.54207395
H      89.59553961      94.96053765     104.67502435
H      90.20781094      94.69975541     107.91968443
C      88.35776887      98.16362375     106.75561302
H      90.31174588      98.80802042     106.86899660
H      87.34865502      98.43007516     108.53006603
N      87.18613856      99.32202598     104.55030242
H      87.71337220     101.12860433     104.23471812
H      85.29263280      99.37115886     104.78840793
H      87.61510643      98.39228063     102.94025560
C      82.89457010      89.39151420     104.13456263
O      82.96448998      88.35405446     102.00484107
N      81.10121983      90.89762607     104.75061341
H      80.91413693      91.22265900     106.62333218
C      79.30220038      91.94075500     102.94214532
H      78.25529201      90.35527462     102.14279109
C      77.32554666      93.72276691     104.24227703
H      78.57087630      95.13817192     105.07186688
C      75.48117378      94.84337462     102.21460069
H      76.28619719      96.45342143     101.21493547
H      73.77853037      95.50288910     103.16702275
H      74.93882233      93.32781411     100.92958680
C      75.72494847      92.27523655     106.35877050
H      77.04775689      91.56280974     107.76850633
H      74.87835108      90.60093904     105.50650393
C      73.72561803      93.76812034     107.91779471
H      73.06799328      92.70420443     109.55429769
H      72.27997740      94.46920880     106.62711163
H      74.67237092      95.39517470     108.75494346
C      80.65146497      93.09348805     100.58943606
O      82.52229402      94.47865744     100.78407787
N      79.62345386      92.48877563      98.38223573
H      78.46316190      90.99211239      98.61278234
C      80.47572042      93.13884149      95.92370180
H      81.22594177      95.05313424      96.05976209
C      82.59032417      91.33604259      95.14135510
H      83.99817027      91.34738093      96.64557725
H      83.51062088      92.30925163      93.57666172
C      81.64924046      88.68853601      94.29097826
C      81.38278905      88.31814966      91.68126622
H      81.77963158      89.81670262      90.35467835
C      80.16013613      86.09205206      90.81577157
H      79.78597032      85.78591640      88.83533840
C      79.60455659      84.20610521      92.45983347
O      78.39891121      82.11795762      91.64914088
H      77.41436380      82.45999808      90.16570572
C      79.93336897      84.57271210      95.08655304
H      78.93370375      83.25935232      96.28463952
C      80.86878350      86.84983232      96.08999771
H      80.95382118      87.03880494      98.11956377
C      78.21560775      93.15962847      94.00373986
O      76.05754030      92.20909613      94.32310361
N      78.75984893      94.37850194      91.81165734
H      80.40202110      95.35171099      91.86456968
C      76.86445344      94.86416160      89.73484812
H      75.03330864      94.46920880      90.58711469
C      76.70004725      97.67418463      89.01297267
H      75.39235664      97.45119693      87.43883065
H      78.49150779      98.42629571      88.33078147
C      75.73439710      99.42785066      91.22773191
H      77.13279458      99.59981575      92.72817460
H      73.93726738      98.87794030      92.07621902
C      75.07677235     101.95441474      89.93137966
H      73.77853037     101.69363250      88.35534791
H      76.73217260     103.02777928      89.34367478
C      73.75207420     103.58146909      91.82110597
H      74.84811546     103.88949447      93.53697746
H      71.96439311     102.71219498      92.36345742
N      73.26263509     106.10425371      90.64947566
H      74.87457163     106.97541754      90.11657284
H      72.29698494     107.22297169      91.85701077
H      72.46328086     105.66583721      88.97328842
C      76.93248359      93.05191407      87.59000876
O      78.97338800      92.53412907      86.63947642
N      74.73473188      92.17319133      86.77931617
H      73.24940700      92.62294620      87.89236497
C      74.45316266      90.40629723      84.59101310
H      76.04053277      89.10238608      84.43605554
C      71.95305475      88.98333332      85.21840223
H      70.54142920      90.18330953      86.11602223
H      72.07588696      87.69265025      86.81900042
C      70.94016145      87.61895092      82.92049504
O      72.37257399      86.21488427      81.67705512
O      68.55532684      87.62839956      82.47640935
C      74.46450102      91.98610843      82.10224354
O      74.09978384      94.34448688      82.21373740
N      74.58355378      90.87494936      79.79677744
H      74.40402978      88.97577441      79.87047677
C      74.00529753      92.14106599      77.43084010
H      75.54731420      93.47332305      77.12848389
C      74.32655100      90.48188629      75.17261715
H      74.11490165      91.44564671      73.36414907
C      76.94382194      89.16852650      74.96474726
H      77.11200759      87.57926667      76.26865842
H      78.45560299      90.48188629      75.44095829
H      77.35956173      88.45232022      73.07880040
O      72.48217812      88.64696204      75.20474250
H      73.30987824      87.04447412      75.00065206
C      71.41070330      93.56402990      77.41194284
O      71.37479850      95.68619255      76.54644818
N      69.24696667      92.64184346      78.46829984
H      69.27342284      91.06203226      79.54166439
C      66.93961084      93.95331352      78.82923757
H      66.72040259      94.99833218      77.06612292
C      64.77965367      92.06736666      79.27710271
H      64.81744819      91.56280974      81.27265369
H      65.14626057      90.32692873      78.23964296
C      62.18316971      93.11616476      78.55144780
H      61.72207649      94.91329449      79.44339862
H      60.71296264      91.79902552      79.13537323
C      61.68617169      93.14829011      75.77921930
O      60.41627561      91.44186725      74.73609038
O      62.58001224      94.92085339      74.52066158
C      67.10590676      96.02445357      80.83423719
O      65.10657632      97.12049482      81.49564140
N      69.30554819      96.45909061      82.03610312
H      70.80599088      95.34793154      81.64304005
C      69.66837564      98.67384986      83.48174375
H      68.77642482     100.28578640      82.56144704
H      71.66581635      99.17651705      83.50253074
C      68.84445497      98.37905256      86.23129554
O      69.38491669     100.07035760      87.83567318
N      67.76542124      96.21342619      86.97773743
H      67.52353627      94.80935954      85.71162080
C      66.51631215      95.98665903      89.48540425
H      65.59412571      97.77056067      89.94649747
C      64.35068579      94.09693272      89.17548913
H      63.52676512      93.86449638      91.05009764
H      65.06311261      92.23933175      88.64825549
C      62.18505944      95.00022190      87.42749229
C      60.95673734      93.32970384      85.81177630
H      61.78821691      91.46454397      85.80232766
C      59.04622403      93.99110805      84.03354384
H      58.39615818      92.63617428      82.65215390
C      58.10514033      96.42696526      84.14314796
O      56.64816134      97.25844484      82.22696548
H      56.86925932      99.02722867      81.88681474
C      59.18606378      98.18063128      85.73996670
H      58.41694517     100.05335006      86.00074893
C      61.15704833      97.43418939      87.43316147
H      61.88459296      98.82124850      88.74085208
C      68.40414874      95.29879866      91.59244909
O      70.35056684      94.14606560      91.02364147
N      67.87502537      95.72209735      94.03775494
H      66.24041211      96.53467966      94.59900365
C      69.60601467      94.62038691      96.00307030
H      71.44471837      94.81502872      95.09222222
C      69.58333796      96.17374194      98.47861177
H      70.89669774      95.46887402      99.89968596
H      67.77486987      95.71075899      99.34599615
C      69.87813526      99.03289786      98.08743843
C      67.65203766     100.52956109      98.40491245
H      65.76231135      99.83981099      98.74695291
C      67.93738634     103.22997999      98.76396045
H      66.35001623     104.43751511      99.20048722
C      70.39025109     104.30523426      98.37845628
O      70.51875248     106.87904150      98.65435632
H      69.23751804     107.58579914      99.72583114
C      72.52753155     102.84825528      97.53752807
H      74.25852085     103.91973010      97.36934243
C      72.24029315     100.20830762      97.56965342
H      73.97695163      99.14061225      97.46382874
C      69.36601943      91.79713580      96.57754710
O      67.33456364      90.71432262      96.80998344
N      71.67904444      90.66707947      96.82888070
H      73.28531180      91.69509058      96.92147729
C      72.09667395      87.88540233      96.50951695
H      70.26174970      86.95565698      96.62479026
C      73.27208372      87.22588785      93.96594534
H      75.31865732      87.46966254      93.94704807
C      73.03586793      84.44421071      93.02108218
H      73.75207420      84.24767918      91.09923052
H      71.05354503      83.92264625      93.22139317
H      74.04498178      83.15919682      94.27586045
O      72.07777669      88.52035037      92.05165258
H      72.61445896      90.24756023      92.19905123
C      73.90703176      86.86683985      98.52018575
O      75.58321900      88.37484145      99.25339956
N      73.77286119      84.38751892      99.21371531
H      72.37257399      83.28391876      98.53152411
C      75.55487310      83.08927695     100.80486486
H      77.28019323      84.21555383     100.86155665
C      74.55898734      82.87006870     103.52418103
H      73.59333719      84.64641143     103.91535437
C      72.58611307      80.73278824     103.94559000
H      70.98173543      81.09939514     102.70592953
H      71.85856844      81.05782116     105.84476494
H      73.22106111      78.77692150     103.81330915
C      76.57154586      82.42409328     105.68791766
H      77.38034872      80.57594095     105.27028814
H      75.55109365      82.49968234     107.47559875
C      78.85811470      84.35161412     105.74460945
H      77.98884060      86.21677400     105.86555193
H      79.89935390      84.53302786     103.97960507
H      80.08076762      83.83760857     107.32064119
C      76.27107938      80.50413135      99.53685851
O      74.66670174      79.40431064      98.20460146
N      78.41591874      79.50257641     100.25684423
H      79.59321824      80.69310398     101.16958204
C      79.01874144      76.81727531      99.96582638
H      77.48995285      75.72312378     100.80864432
H      80.84988623      76.52058828     100.86344638
C      79.54030590      76.00469300      97.16336226
O      81.39601714      77.04593220      96.13724087
N      78.39135230      73.82394883      96.46983270
H      77.06476443      73.13797818      97.65847055
C      78.08710636      73.34017891      93.75429599
H      79.58376960      74.39086673      92.80943283
C      78.67103179      70.57550930      93.08533288
H      76.83988700      69.67410985      93.35556374
C      79.16047091      70.33929351      90.19783107
H      77.53341655      71.10841213      89.19249667
H      79.20393461      68.30594801      89.87846732
H      80.82531979      71.36541490      89.54965494
C      80.83476842      69.36230501      94.63301873
H      80.04486282      68.82751246      96.45849434
H      82.46560223      70.61330383      94.76907902
C      82.10844396      66.93589642      93.49162403
H      83.09299137      67.42722527      91.74929637
H      80.73461293      65.40710784      93.35178429
H      83.52762842      66.20457235      94.79364546
C      75.65313887      74.33039549      92.73951296
O      73.67081597      73.19655970      93.03997944
N      75.68148477      76.54893418      91.67748677
H      77.31420830      77.51836378      91.87023886
C      73.60278582      77.76591792      90.40192151
H      73.06232410      76.78703969      88.67093221
H      74.54575925      79.52714285      89.90303376
C      71.11212654      78.14008373      91.72284020
O      69.33578381      78.18354744      90.27530985
N      70.91559501      78.23834950      94.24184538
H      72.52375210      78.43677076      95.24906950
C      68.48540697      78.37252007      95.58544079
H      66.94716975      77.54670967      94.49128925
C      68.87469059      76.85695957      98.08743843
H      70.34111821      77.71111586      99.25150983
H      69.68160372      74.99368942      97.73972878
C      66.37080322      76.65475885      99.69559552
N      64.50375363      74.68188458      99.74661813
H      64.94783931      72.88853432      99.26284819
C      62.40048824      75.44533402     100.81620322
H      60.77343388      74.29827014     101.27162726
N      62.80866912      77.77158710     101.73649994
H      61.62192100      78.80904685     102.81364393
C      65.23129826      78.59172832     101.04674983
H      65.95317371      80.48145464     101.30942179
C      67.69550137      81.06160061      96.18826348
O      68.94461046      82.32771724      97.75295687
N      65.71128874      82.03669939      94.91836740
H      64.79288175      80.99734992      93.60689734
C      64.49052554      84.53869703      95.35678390
H      66.17427169      85.72355543      95.30954075
C      62.81811775      85.13018137      93.08533288
H      61.40271275      83.67509210      92.73762323
H      64.31667072      85.24167522      91.67559705
C      61.35924904      87.55470022      93.32910757
H      62.62725540      88.91341344      94.21160976
C      60.67138866      88.71688192      90.76852842
H      62.43639304      88.75845589      89.70650223
H      60.08557351      90.67085891      91.05198736
H      59.44117683      87.60194338      89.54776522
C      58.71363220      87.15218852      94.48939953
H      57.51365599      85.96921985      93.30643085
H      57.98986703      89.04191484      94.87301397
H      59.09346719      86.27346578      96.31487514
C      63.46251443      84.70688267      97.99673156
O      61.68806142      83.37462562      98.65057687
N      64.35446525      86.66841858      99.36111396
H      65.52987501      87.85138726      98.42947889
C      63.24519590      87.49611871     101.68736705
H      62.66504992      85.81615202     102.72860625
C      65.26153388      89.07215045     103.21426591
H      64.40737758      89.95654237     104.86777644
H      65.91915863      90.44409176     101.82909653
C      67.44227804      87.25612347     104.11188591
H      68.08289526      86.21110482     102.45648566
C      69.67593454      88.97388469     104.76573122
H      68.93138238      90.11716911     106.30774789
H      70.21450654      90.10394102     103.13111795
H      71.17637724      87.73611395     105.43658406
C      66.80355055      85.27191084     106.14334170
H      68.40036928      84.01524284     106.47215408
H      65.10657632      84.16642095     105.77295534
H      66.47095872      86.40385690     107.83086730
C      60.73185991      89.00601003     101.31509097
O      58.95740690      88.53357845     102.67002473
N      60.72241127      90.87872881      99.68236743
H      62.35891426      91.25289462      98.77340908
C      58.51143149      92.50011399      99.07387556
H      56.93351002      91.20376174      98.81687278
C      57.85758618      94.27456700     101.39256975