 %block lattice_cart
   139.898   0.000   0.000
   0.000 144.87   0.000
   0.000   0.000   168.12
 %endblock lattice_cart

 %block positions_abs
N      94.03167214      45.24372809      87.23190561
H      93.20019256      43.59777646      86.73679732
H      93.75766182      45.47238497      89.10651412
H      95.87415530      44.77885541      87.05238162
C      93.20019256      47.59454761      86.03381913
H      94.43607356      49.15735127      86.55727333
C      93.43073917      47.43770034      83.18789130
H      92.45753011      45.78796926      82.43200078
H      95.43384907      47.47360513      82.70412137
C      92.79201167      49.85655001      81.73847122
H      90.74732780      50.10410416      81.71390479
H      93.37971655      49.62033423      79.77882504
S      93.89372212      52.97459842      82.81561522
C      92.64083357      54.71692608      80.21913127
H      93.72931593      54.57897607      78.47491389
H      92.22320405      56.62932912      80.86163821
H      90.87771892      53.81930609      79.64654419
C      90.48465584      48.23327511      86.77459186
O      89.01444878      46.54574951      87.02592545
N      89.92718658      50.64267616      87.25647206
H      91.27267172      51.97493320      87.02214599
C      87.35148961      51.38911805      88.19944549
H      85.97576886      49.94536715      87.68543994
C      87.46298347      51.52895779      91.13796991
H      88.12249796      49.65245957      91.67276245
H      85.59026470      51.59131876      91.99590566
C      89.27145155      53.43947110      92.20566528
O      88.67996722      55.69391459      92.36818174
N      91.45030600      52.77806689      93.22044830
H      92.45753011      54.21803834      93.95933129
H      92.18540952      51.01684196      93.13919007
C      86.48410524      53.95914584      87.13175012
O      88.01856301      55.49927279      86.20578424
N      84.01045350      54.33142192      87.29048714
H      82.92764032      52.97081898      88.07472355
C      82.61772520      56.59531404      86.45711782
H      82.54591561      56.58208595      84.39731614
C      79.81337135      56.32886264      87.29237686
H      79.23889456      54.40323152      86.84073227
C      79.61872955      56.96759013      90.12129716
H      77.61939910      56.88633189      90.60506709
H      80.27635430      58.88944179      90.47656570
H      80.77146260      55.76005502      91.32505281
C      78.35639237      58.26205266      85.60863072
H      78.86094929      57.82741560      83.65843316
H      79.06315001      60.11776389      86.15287190
C      75.42920631      58.15244852      85.79760334
H      74.76591237      59.18612882      84.14409283
H      74.95866445      58.97825893      87.62496870
H      75.02102543      56.13422082      85.87886158
C      83.98021787      59.12565758      87.30749467
O      83.98588706      60.92845648      85.88075130
N      84.98933172      59.19368773      89.69610873
H      85.20476052      57.64978133      90.79592944
C      85.82837022      61.55584561      90.89797466
H      84.34871451      62.89755129      90.39719719
C      85.73955308      61.30640175      93.79870456
H      86.35182439      63.15266435      94.47711631
H      87.17196562      59.86643030      94.13318612
C      83.24322462      60.70924822      94.99868076
C      81.40074146      62.65377661      94.90041500
H      81.77868673      64.34886110      93.82894017
C      79.20110003      62.47047314      96.31959946
H      77.88396080      64.02193845      96.46888784
C      78.83260340      60.29728789      97.73878391
H      77.19610041      60.08374882      98.93876012
C      80.63918176      58.29795746      97.79547571
H      80.48233447      56.85609627      99.23355743
C      82.76134440      58.55873969      96.35928372
H      84.29580218      57.25482853      96.68620637
C      88.34359593      62.48937041      89.85862520
O      88.46831787      64.59641525      88.86840860
N      90.16340238      60.80940372      89.51469500
H      89.79490574      59.05573770      90.17609921
C      92.45753011      61.14010583      87.86307421
H      93.43451863      62.83896979      88.49802224
C      94.03545159      58.63810819      88.00858314
H      95.62660114      58.57952667      86.70089253
H      92.70319453      57.19435728      87.38686318
C      95.27133259      58.03150605      90.49735269
H      96.75287803      56.59909350      90.48790406
H      93.81624333      57.12065795      91.63496792
C      96.28800535      60.48437080      91.92220632
O      96.22375465      60.62421054      94.27491559
O      97.06846232      62.27772106      90.62207463
C      91.86226633      61.77316414      85.02092583
O      93.51388712      62.90511020      83.75102975
N      89.65884544      61.05884760      83.99480444
H      88.56658364      59.66611930      84.71101071
C      88.91807274      61.89410663      81.40965884
H      90.57725243      61.93568061      80.19078537
C      86.99244161      59.87587892      80.49692103
H      86.16663123      58.74960203      82.01059181
H      88.04501917      58.86865479      79.04183177
C      84.74744677      61.24404078      79.02671396
H      85.49955783      61.69001619      77.16155409
H      84.27690491      63.01471432      79.96779767
S      81.74845110      59.56785353      78.87553586
C      82.04135867      57.87843820      75.92000390
H      81.35349830      59.02172262      74.35153106
H      80.89807426      56.18335371      76.16944778
H      84.01234322      57.32285868      75.69323675
C      88.09226233      64.65877622      81.43044584
O      88.90106520      66.12331411      79.78071476
N      86.61638608      65.42978455      83.27103926
H      85.93608461      64.04839463      84.39542643
C      85.41829960      67.89398766      83.73213248
H      84.59248920      68.64231928      81.99925346
C      83.15062803      67.60674927      85.64453552
H      82.59126903      69.49269612      86.25680684
H      83.72699456      66.56362035      87.32450220
C      80.89429480      66.44267785      84.52014836
H      81.30247569      64.58129745      83.74158112
C      78.77591161      66.12142438      86.32483698
H      77.15452644      65.16522287      85.48768824
H      78.21466290      67.94690001      87.09395560
H      79.31070415      65.03105231      87.98968586
C      79.74912066      68.14154181      82.47546449
H      77.73278268      67.72580202      82.48680284
H      80.76201396      68.25303566      80.68589367
H      79.67164188      70.05394485      83.23513446
C      87.52156498      69.92733318      84.47101548
O      87.00566971      72.09484926      83.95512020
N      89.78923656      69.07506661      85.29115669
H      89.85348726      67.17022250      85.21556764
C      92.02667252      70.62086274      85.93366364
H      91.04968401      71.87753073      87.24135424
C      94.18473997      69.13364812      87.09017614
H      95.24487643      68.46090557      85.45934234
H      93.57057891      67.58974174      88.30715989
C      95.72108746      71.08762513      88.77959147
H      94.54378797      72.30271915      89.95689096
H      96.65083280      72.42366164      87.51725429
C      97.73742544      69.83473659      90.44066090
H      98.68228859      71.28793613      91.55181996
H      99.13771263      69.09774332      89.12163194
N      96.84547462      67.76737601      92.07527415
H      97.31790620      65.99481273      91.54048162
C      95.04456544      67.62186707      93.89886006
N      93.88994267      69.62686670      94.79648005
H      92.57658287      69.21490637      96.11928847
H      94.63638456      71.34651764      94.42798341
N      94.25654957      65.53560923      94.77380333
H      92.65406165      65.22758384      95.76213019
H      95.10314695      63.96335694      94.09917103
C      92.86382127      72.26114517      83.73213248
O      93.44207753      74.46267633      84.05716541
N      92.84681373      71.13864775      81.51548353
H      92.38194107      69.28860568      81.47013008
C      93.63293988      72.46523561      79.14954617
H      94.82346746      74.01859065      79.79394286
C      95.22408943      70.70023124      77.46202059
H      95.40550316      71.74713963      75.69701621
C      97.93395698      70.39787503      78.65065843
H      99.00921124      69.05805908      77.51493292
H      97.84325011      69.90843591      80.64998887
H      98.91850439      72.20256366      78.52404677
C      93.79167689      68.16799798      77.01604517
H      91.92651703      68.64231928      76.28472109
H      93.86159677      66.90188136      78.63743034
C      95.17873600      66.88109436      74.63687974
H      93.75010291      65.86631134      73.55784601
H      96.49587525      65.45246128      75.31907094
H      96.20485740      68.17744661      73.40855763
C      91.42573956      73.64442483      77.64532403
O      91.82069234      75.14108807      76.11086626
N      89.08814810      72.73168702      77.94768024
H      88.78957134      71.44856286      79.32907017
C      86.82614570      73.42521659      76.60219510
H      87.21164988      73.85985363      74.62554138
C      84.80413855      71.19156008      76.53416497
H      82.93708896      72.03815747      76.32818479
H      84.91185294      69.99536332      78.20657274
C      85.37105644      69.32451049      74.35342080
O      86.89417585      69.87064139      72.66967465
O      84.23722065      67.27793689      74.40633314
C      85.57892634      75.85351490      77.81539940
O      85.26145231      77.70922613      76.44345810
N      85.04602352      75.82138955      80.31361759
H      85.19153245      74.18866601      81.29060609
C      84.04824802      77.98512618      81.82539863
H      83.47377123      79.60651135      80.69345258
C      81.68609014      77.00624794      83.04238238
H      82.17174979      75.51714361      84.38030861
H      80.81114686      75.91965531      81.52682187
C      79.90596794      78.85440028      84.46912574
H      81.03602428      79.99390526      85.75980882
H      78.72866845      77.72245422      85.72390402
C      78.43576087      80.37751970      82.55861244
O      79.06503973      82.71889060      82.19956444
O      76.88807503      79.32116269      81.28682664
C      86.06458600      79.07360853      83.74725029
O      85.86427502      81.26191160      84.37085999
N      87.81636230      77.62985763      84.71856962
H      88.05257808      75.97256765      83.80772153
C      89.48499062      78.24968786      86.83506310
H      90.14261538      80.20177514      86.78593020
H      91.13850116      77.02892466      86.70278225
C      88.30202195      77.97000836      89.54493063
O      85.93986406      77.58072474      89.97389849
N      89.74010368      78.22701114      91.57260695
H      91.61282245      78.51235983      91.34395008
C      88.76689462      77.94166248      94.24279024
H      86.71276212      77.82827889      94.17287036
C      89.74010368      75.42076757      95.39552330
H      91.78289782      75.54171005      95.16308696
H      88.99177205      73.83339747      94.31648956
C      89.18074469      74.94455654      98.24712030
H      89.63427900      76.57728008      99.41686089
C      86.38394974      74.39275645      98.50790252
H      85.96443050      72.72223839      97.37595647
H      85.40318179      76.07650261      97.83515997
H      85.85293666      73.77481595     100.39951856
C      90.38450036      72.63342126      99.40741225
H      89.62860982      70.91188059      98.56648405
H      89.98576809      73.01136652     101.39162488
H      92.39516914      72.80538635      98.98789301
C      89.74766259      80.21311350      95.84905760
O      92.01911362      80.54948479      95.79047608
N      88.15084384      81.63418769      97.26257288
H      86.27056616      81.39419245      97.04525437
C      89.08436864      83.61273114      98.94064986
H      91.06480182      83.44643523      99.47922185
C      88.44564116      86.16008220      97.85783667
H      88.62138570      87.48289062      99.42630951
H      86.51245113      86.36795211      97.17753520
C      90.22009417      86.92731109      95.67331305
H      90.10482085      85.51190608      94.18042927
H      92.24777049      86.91030355      96.03047133
C      89.55491051      89.55969984      94.60372796
H      91.29534843      90.65763083      94.51869028
H      88.57981172      90.59715959      96.08905284
N      88.28690414      89.74489302      92.25290843
H      88.21509454      88.07059551      91.33639117
C      87.33826153      91.82548169      91.21733842
N      87.55558006      94.08370464      92.16976048
H      86.72410049      95.44808704      91.12663155
H      88.71020283      94.45976017      93.64374699
N      86.10238053      91.72721592      89.14808809
H      85.45987358      93.30135794      88.28259345
H      86.28190452      90.07937458      88.19944549
C      87.66518418      83.26691123     101.50689819
O      85.66585374      82.24645901     101.55225161
N      88.95208780      83.94532297     103.61016358
H      90.54134763      84.94498819     103.26434366
C      88.37194182      83.14596875     106.29168522
H      86.64851143      82.01969186     106.30302356
C      90.56402435      81.56426781     107.49166142
H      89.98576809      81.26758078     109.44563842
H      92.40083832      82.48078508     107.31780660
C      90.86827028      78.98479140     106.28034686
H      91.62227108      79.41186955     104.41329726
C      92.59170069      77.25380209     107.72031831
H      92.10982047      77.09695482     109.71586930
H      94.43418385      78.15520154     107.55213266
H      92.39705887      75.35273743     106.95308943
C      88.41162608      77.43143636     105.97988036
H      87.71431707      77.10262400     107.88850394
H      88.74799737      75.59084294     105.11816518
H      87.03212587      78.33661527     104.74966853
C      87.65006637      85.44765539     107.88661422
O      86.58615047      85.16797589     109.91807001
N      88.50422267      87.64162763     107.03434766
H      89.41318103      87.31848444     105.38839603
C      87.61794102      90.14362527     107.97732108
H      87.03779506      89.84882797     109.93129809
C      89.86482562      92.15240434     108.14928617
H      90.36371336      92.44531192     106.17263245
H      91.40684228      91.26045353     109.18296648
C      89.18263441      94.73377050     109.24343771
H      87.76156022      94.71676295     110.73632149
H      88.35871374      95.94697478     107.79779708
C      91.53912313      96.12082960     110.22231594
H      91.31991487      98.11071141     109.73665628
H      93.25688435      95.50099937     109.26800415
C      91.82069234      95.90540080     113.13438419
H      91.96620128      93.92118817     113.66161783
H      90.03301125      96.38539128     114.03956310
N      93.89750156      97.54379352     114.10003434
H      94.05623858      97.50032982     116.00109900
H      93.71986730      99.39194586     113.66539729
H      95.53022510      97.01844961     113.26288557
C      85.31058520      91.16029803     106.39373044
O      85.13484066      90.63117467     104.17708146
N      83.61550070      92.55302633     107.73921556
H      83.95565143      92.71176334     109.61004461
C      81.30625514      93.74733335     106.61482842
H      80.24611868      92.17886051     105.80035636
C      79.83793779      94.82258762     109.04879590
H      79.29558635      93.18419491     110.17507278
C      81.37995448      96.77845437     110.65884272
H      81.80514289      98.59448134     109.78389943
H      83.16196638      95.92618780     111.24654760
H      80.07037414      97.22631949     112.18574158
C      77.42664702      96.13216796     107.97354162
H      76.75579418      94.69030679     106.66396130
H      77.88396080      97.82536273     106.89261817
C      75.54636934      96.79735163     110.04657140
H      75.33094055      95.02289862     111.07458250
H      73.75490880      97.31324690     109.17162812
H      76.22289137      98.45086215     111.07269278
C      81.81459152      95.64083912     104.50400411
O      82.92953005      97.65339764     104.99155350
N      81.13806951      94.85849242     102.19475857
H      80.02691043      93.33726275     101.88673317
C      81.69553877      96.64050434     100.10472126
H      82.72921905      98.30157377     100.75289739
C      83.59093426      95.27801166      98.35861414
H      85.22365780      94.68085815      99.46410404
H      84.23722065      96.58570228      96.90352488
C      82.66874781      92.86483116      97.06604136
C      82.03757923      93.13506204      94.49979301
H      82.50812107      94.83770544      93.47367163
C      81.28546815      91.06392200      93.08627774
H      80.85839000      91.25100489      91.09828565
C      81.07570853      88.66585930      94.23523134
O      80.68642492      86.63818296      92.67998657
H      80.51445982      87.36005841      91.02458633
C      81.66152369      88.31814965      96.80714885
H      81.90907784      86.47755623      97.65185650
C      82.47788546      90.41574586      98.18097987
H      83.06936980      90.23055268     100.12550825
C      79.20110003      97.20553250      98.68931625
O      77.13373945      96.48743651      99.47355268
N      79.40708019      98.80424097      96.80147966
H      81.13051060      99.46186572      96.31015082
C      77.23200521      99.49399107      95.23867601
H      75.42731658      98.88927865      96.02291242
C      76.95799489     102.43251550      94.98923214
H      75.41597823     102.93140324      93.71933605
H      78.57560062     103.61359443      94.50546220
C      75.99990365     103.13738340      97.68398185
H      77.30192508     102.53267098      99.16174783
H      74.26702463     102.10748256      98.10350109
C      75.63140702     106.01354686      98.12617782
H      74.59205755     106.46897089      99.84582875
H      74.42954109     106.72030449      96.60872758
C      78.26001633     107.36092172      98.03925040
H      78.96677396     107.20974361      96.11172956
H      79.83982753     106.53133186      99.07104097
N      77.82348955     110.04811254      98.69687515
H      76.78414007     110.04433307     100.29747334
H      77.10161410     111.06289556      97.24934480
H      79.48455897     110.82667978      99.22410880
C      77.23389493      98.29401486      92.63274343
O      79.28046853      97.83481138      91.63685766
N      75.09283502      97.48899146      91.73134397
H      73.54136973      97.69119217      92.82360578
C      74.65063907      96.92585302      88.98179218
H      75.80148239      95.31958565      88.40353594
C      71.85762357      96.32114060      88.46400718
H      70.91465014      98.14094703      88.68132571
H      71.14330703      95.02478835      89.89452999
C      71.35684610      94.98132463      86.06216503
O      70.36662951      96.25688990      84.35574217
O      71.70455574      92.60404893      85.94878145
C      75.36684535      99.25966501      87.37363509
O      75.18165217     101.46497562      88.21267357
N      75.58605360      98.77211562      84.86596828
H      75.63329676      96.95608864      84.28393256
C      75.74479060     100.79223305      82.99702895
H      77.32838125     101.95252500      83.62441809
C      76.29092151      99.86248770      80.33251484
H      75.85817418     101.24387764      78.86797695
C      79.04614247      99.05557457      79.93756206
H      80.20832415     100.44830287      80.91266082
H      79.43164665      99.01211086      77.91366516
H      79.39007266      97.15828935      80.66510668
O      75.00590761      97.67985382      79.77126613
H      73.39208135      98.21464636      79.13631810
C      73.44121422     102.64227512      83.01025703
O      73.62640741     104.89671861      82.49058229
N      71.26802896     101.60481536      83.76803728
H      71.32283104      99.71886851      84.06094487
C      68.81516421     103.01266146      84.28960174
H      68.63941966     104.59814185      82.98569059
C      66.59662552     101.19852420      83.80394208
H      64.91476911     101.96953254      84.70912100
H      66.94811461      99.29934927      84.51825863
C      65.98435419     100.82246867      80.99202933
H      67.39409002      99.46753490      80.34196349
H      66.05994325     102.67629018      80.09629907
C      63.42188531      99.77745002      80.71423956
O      62.97402018      97.74599423      81.94823084
O      61.63231449     101.04545638      79.65410310
C      68.71689844     104.30901371      86.87852679
O      66.69111183     105.14238303      87.70622693
N      70.89386315     104.58113430      88.13141534
H      72.43776955     103.80256706      87.32639194
C      71.16409402     105.76977215      90.66364860
H      70.73890560     107.78422040      90.59561845
H      73.19743954     105.83591259      90.98679180
C      69.84884450     104.48475826      92.79337015
O      69.47089924     105.84725093      94.65286084
N      69.28570606     102.07913668      92.78959070
H      69.84695479     100.88671937      91.40820077
C      68.06494287     100.73365153      94.82482594
H      67.11063108     101.99976816      96.14007545
C      65.76325621      99.35226160      93.84027854
H      64.56894918      98.71731356      95.39363356
H      66.61930223      97.80457576      92.78581125
C      63.75825660     100.77711525      92.22267282
C      62.85874687      99.83225208      89.85106629
H      63.61841685      98.10126279      89.08572713
C      60.82162191     101.14939132      88.66053872
H      59.90699437     100.31413229      87.03726381
C      59.64054296     103.34525330      89.79248477
O      57.33129741     104.29200618      88.96289493
H      56.36942671     105.39560635      90.03625947
C      60.54005269     104.08224656      92.17731937
H      59.75392654     105.68662421      93.16942570
C      62.65465643     102.94652104      93.43776683
H      63.19889761     103.39816563      95.35205959
C      69.76947601      99.17462733      96.47833646
O      71.36062555      97.81213465      95.48245070
N      69.41231773      99.25777528      99.01812864
H      68.12541411     100.38216244      99.86661574
C      71.00724673      97.63072092     100.72455149
H      72.96689292      98.13338812     100.33904732
C      70.79559739      98.36204501     103.50622863
H      72.31493735      97.52678599     104.61549798
H      69.09484370      97.44363802     104.21487599
C      70.72756724     100.99821321     104.17141229
C      68.45044703     102.03000378     105.10115763
H      66.85362831     100.78845359     105.35438096
C      68.50902855     104.62648774     105.60571455
H      66.85362831     105.59402762     106.30302356
C      70.66898572     106.05701055     105.24477684
O      70.68221381     108.56845682     105.82681253
H      68.95311423     108.93128429     106.23877287
C      72.77036139     104.99309464     104.08637461
H      74.41253355     106.20629893     104.04669036
C      72.96311348     102.42495659     103.64417865
H      74.52402740     101.69552223     102.55380657
C      70.68032408      94.88305888     100.26912745
O      68.56005117      93.93630599     100.09716235
N      72.80437646      93.57725799     100.02157331
H      74.41631301      94.49944442     100.45998980
C      73.33349982      91.19242338      98.79325120
H      71.65542286      90.01890334      99.02190809
C      74.00057322      91.36816792      95.94543365
H      75.75801868      92.40373795      95.65441580
C      74.33127533      88.86806001      94.46766768
H      72.43776955      88.17075100      94.05759707
H      75.66542209      87.70965779      95.52591441
H      75.23456451      89.29513816      92.66675850
O      72.07305238      92.80058048      94.64152250
H      72.28281200      94.57503348      94.94954788
C      75.62384812      90.04535950     100.14251579
O      77.19043124      91.28313024     101.38406597
N      75.69187826      87.55092077     100.20298704
H      74.45221781      86.59471926      99.11450468
C      77.73656213      86.12984658     101.43130913
H      79.38440349      87.31848444     101.09304812
C      77.28680728      85.99189657     104.40762807
H      76.65941814      87.92886603     104.72132264
C      75.37629397      83.82815994     104.89706720
H      76.34950302      82.04803775     104.54746782
H      73.62829713      83.94154351     103.81425401
H      74.68843359      83.41430988     106.79246269
C      79.69809806      85.63851775     105.96854201
H      81.10405442      86.84605287     105.06714256
H      80.26501594      83.66186402     105.83248172
C      79.50912543      86.57960146     108.74266023
H      81.40830037      86.74400764     109.52689666
H      78.65685885      85.09805602     109.89161383
H      78.36962045      88.28602431     108.92974315
C      78.27324441      83.59005442     100.11039045
O      76.75579418      82.72455978      98.57971212
N      80.20454470      82.17275969     101.03257688
H      81.55191956      83.17242490     101.94342496
C      80.71477081      79.57249628     100.19731785
H      79.26346100      78.42732213     101.10249676
H      82.46654710      79.20966884     101.22154951
C      80.90941262      79.20588937      97.35516947
O      82.18497787      80.60050739      96.04180969
N      79.43920554      77.30860415      96.40085769
H      78.48300403      76.14075329      97.56870856
C      79.33149115      76.64908967      93.61351138
H      81.14751813      76.95900479      92.69321466
C      78.98000205      73.65387347      93.20722022
H      77.09216546      72.98491035      93.69665933
C      79.66030352      73.06238914      90.42554308
H      78.44331977      74.04315709      89.08572713
H      79.39574185      71.09329431      89.88319164
H      81.59727299      73.65765292      90.06271563
C      80.63162285      71.90776635      94.95899651
H      79.73967203      72.19122531      96.79392076
H      82.61205602      72.42933082      94.74545743
C      80.37650980      69.18467074      94.33727655
H      81.58971410      68.74814396      92.73289891
H      78.44331977      68.53838434      94.04247925
H      80.87539754      68.17177743      96.06070696
C      77.40774977      78.21567278      92.14897348
O      75.63140702      77.15742606      91.05860140
N      77.51546416      80.75168550      92.47211669
H      78.73622735      81.61906987      93.65319562
C      75.86195363      82.52802823      91.27025074
H      75.69943717      82.06315557      89.27092031
H      76.61217498      84.43854153      91.45733365
C      73.10484295      82.48456454      92.35684338
O      71.13952758      82.74345703      91.15119799
N      72.95555456      81.68332057      94.81348758
H      74.66575689      81.54915001      95.65252606
C      70.66898572      81.51324521      96.21377478
H      69.13263824      80.80459783      95.03647530
C      71.07338716      79.78603535      98.49089499
H      72.54359424      80.69499371      99.60961296
H      71.55526736      77.88875013      97.85216750
C      68.69422173      79.40620037      99.98755823
N      67.29960371      77.19900003      99.97810960
H      67.39031058      75.97823684      98.51546143
C      65.49869453      77.47867953     101.72043726
H      63.76959495      76.40342526     101.87917427
N      65.80105074      79.74635111     102.91852374
H      64.76359100      80.52680807     104.31503148
C      68.03092779      80.81215674     102.08326471
H      69.18933003      82.30504054     102.85427304
C      69.77703490      84.26846618      96.82793584
O      71.06771799      85.45332457      98.40018812
N      67.31472152      84.79569981      96.15141381
H      66.48513167      83.46155303      95.06482118
C      66.11852476      87.11439400      96.78825158
H      67.34306741      88.74333807      96.48211592
C      63.73935933      87.40541185      95.10261571
H      62.40899201      85.87284381      95.45599454
H      64.10596624      87.28824882      93.08060855
C      62.23891664      89.70898822      95.61473154
H      61.60207887      89.75623138      97.57437773
C      63.55227643      92.25255984      95.01946775
H      65.51192262      92.54924687      95.58071646
H      62.28238035      93.74733335      95.63929798
H      63.68266754      92.48877563      92.97667361
C      59.91077382      89.74300329      93.94988266
H      58.84685791      88.03658044      94.40719642
H      60.41533075      90.03024170      91.97511866
H      58.65977500      91.28313024      94.50735192
C      65.34562671      87.01234877      99.57559789
O      64.31761559      85.18876289     100.49022543
N      65.84640418      88.92286207     101.08926867
H      66.66276594      90.48944520     100.36550349
C      65.32483971      89.16285733     103.78023895
H      65.06972666      87.28068991     104.57581372
C      67.35629550      90.66518973     105.41485220
H      66.55505154      91.11872406     107.25544564
H      67.73990994      92.42641466     104.42085617
C      69.70144586      89.25734363     105.56980975
H      70.35718088      88.82270658     103.66685537
C      71.71022493      90.85416238     106.71876335
H      73.31460257      89.57292793     106.86427228
H      71.04315153      91.44375698     108.57447459
H      72.35651132      92.26011874     105.35627068
C      69.42554581      87.17297552     107.46709498
H      71.01291592      85.86339517     107.39528537
H      67.66810034      86.10150069     107.42930046
H      69.45956089      88.00445509     109.34926239
C      62.83040098      90.58771096     104.20542736
O      61.00681508      89.75434166     105.43941864
N      62.60930300      92.75711676     102.99978197
H      64.08517925      93.24277643     101.88862291
C      60.42477938      94.55424650     103.14529090
H      58.67678254      93.47521276     103.00356142
C      60.54761159      96.11327071     105.49800015