 %block lattice_cart
   137.793   0.000   0.000
   0.000 143.498   0.000
   0.000   0.000   162.326
 %endblock lattice_cart

 %block positions_abs
N      87.78714909      37.27094342      80.32490638
H      87.20511338      38.27627782      78.81123561
H      86.74590989      35.71191922      80.67828520
H      89.53514593      36.88543926      79.65783300
C      88.02714433      38.87910052      82.62092385
H      89.27436370      37.78683871      83.84168705
C      89.32160685      41.45857693      82.31478819
H      89.37640892      42.44123462      84.12514600
H      88.14619709      42.66989150      81.13370925
C      91.96911342      41.70991053      81.24709282
H      92.14107851      40.31529251      79.74287068
H      93.17097935      40.95024056      82.73619716
S      92.77791628      44.74103154      80.26065569
C      93.03302933      46.29249684      83.24075408
H      94.62039944      45.48747343      84.28010356
H      91.24912769      46.07139886      84.24230903
H      93.25601704      48.33718071      83.12170133
C      85.39097612      39.13799302      83.81145143
O      83.49747036      38.85642380      82.54344508
N      85.36074050      39.94112670      86.18305795
H      87.05015583      39.98459041      87.07311905
C      83.09873811      40.80662136      87.45106431
H      81.48680156      39.64632940      86.90493341
C      83.31605663      40.39088157      90.32155858
H      85.08295073      41.16944881      91.03587513
H      83.63731010      38.37454359      90.59745862
C      81.09940767      41.20724333      91.92971567
O      79.07362106      41.73258725      91.07744910
N      81.56617007      41.66266738      94.32399891
H      80.19422876      42.52060312      95.33500249
H      83.32739499      41.29983992      94.96650586
C      82.47890787      43.66199781      86.79721901
O      84.14186703      45.27015491      86.94272793
N      80.16021369      44.42166779      86.08479219
H      78.69756552      43.20279432      86.21707303
C      79.44400742      47.05405655      85.46496196
H      80.30761234      47.93844846      83.81712061
C      76.63776384      47.18255794      85.01142764
H      76.15021445      45.79171937      83.57334592
C      75.08440881      46.32840164      87.35846772
H      75.69856986      44.49536712      88.07089454
H      73.11531399      46.25659204      86.75753475
H      75.11653416      47.60585663      88.97418372
C      75.81573290      49.70534256      84.04955695
H      76.19367816      51.36074281      85.21740781
H      73.77482848      49.51259048      83.85680486
C      76.74736797      50.36485705      81.32268188
H      78.67866826      50.99791536      81.64393535
H      75.81195344      51.98435250      80.46096668
H      76.80972894      48.80961229      79.97152756
C      80.12619862      48.92866505      87.48696911
O      80.98602409      51.03382016      87.00697863
N      79.86163693      48.17088480      89.88881125
H      79.24558615      46.37564480      90.10235033
C      80.58540211      49.79793915      92.12624721
H      79.76148144      51.68010656      92.25663832
C      80.01281504      48.30127591      94.44494139
H      80.71768295      49.06472534      96.22317386
H      80.61185828      46.35674754      94.12746737
C      77.17066666      48.46379238      94.87957845
C      76.22202405      50.55193995      96.38758004
H      77.55239138      51.92199153      97.10756577
C      73.69923942      50.46501254      97.03197672
H      72.98870233      52.03537511      98.12612825
C      71.92100696      48.85874518      96.02853204
H      69.90655871      48.97968766      96.33844716
C      72.87909820      46.87075309      94.53753798
H      71.57518705      45.38731794      94.02353243
C      75.52471504      46.55894825      94.07077558
H      76.31840009      44.84685621      93.29787752
C      83.39542514      50.44611528      92.31144039
O      84.20233827      52.48890942      93.31677479
N      84.97523633      49.07228425      91.02831622
H      84.36863419      47.36208194      90.44061134
C      87.70778058      49.47857541      90.68249631
H      88.38430260      50.59162420      92.27931504
C      89.25357671      46.85374556      90.65981959
H      91.19243590      47.23169082      90.07967361
H      88.60540058      45.72557895      89.06300086
C      89.09861915      45.28338299      93.04087474
H      89.72033911      43.35208270      92.68938565
H      87.10873734      44.92244527      93.43393782
C      90.34394879      46.56083798      95.04587436
O      92.18643194      47.88175667      94.67359828
O      89.47278496      46.53438181      97.25496442
C      88.41264850      50.66343380      88.19939593
O      90.45922209      51.86529974      87.93294452
N      86.83094757      50.28737827      86.18494768
H      85.25302610      49.34062539      86.68572515
C      87.07094282      51.47601612      83.69806785
H      88.90964652      51.08673250      82.85336019
C      85.01681031      50.35351869      81.86503333
H      83.17810661      51.03948934      82.49242246
H      85.16609869      48.29938619      81.83290798
C      85.14909116      51.21145444      79.08713565
H      86.30182421      50.00958850      77.87393136
H      86.24135296      52.95000264      78.91895001
S      82.06883726      51.46845721      77.56212651
C      82.61874762      53.09362184      74.60281511
H      83.07795112      55.08161392      74.89761241
H      80.82728708      53.02937115      73.58614235
H      84.29682459      52.35851831      73.66362113
C      86.52670164      54.27092134      84.02121105
O      88.08572585      55.89608596      83.09524516
N      84.35162665      55.00035569      85.38181400
H      83.06283331      53.70022399      85.92794490
C      83.68077381      57.60817800      85.44606469
H      84.05116017      58.41887059      83.58657400
C      80.82161790      58.16375754      86.01676204
H      80.59674047      60.19521333      85.77109762
H      80.39265003      57.22834302      87.80255340
C      78.96779639      56.66520457      84.31600836
H      79.51203756      54.69044058      84.08357202
C      76.20123706      56.97889914      84.92072078
H      75.57384793      58.94043506      84.87914680
H      76.07273567      56.45544495      86.91060258
H      75.30550679      55.62585510      83.65271442
C      79.17755601      57.73856912      81.47385998
H      81.11074602      57.66675952      80.76710234
H      78.40087849      59.64341324      81.35669695
H      78.05505858      56.67843266      80.10947758
C      85.34184324      59.09539261      87.30366566
O      85.37018913      61.38007173      87.18272317
N      86.91598526      57.75179720      88.93638919
H      86.65331330      55.87340925      89.12725155
C      88.94555132      58.75713160      90.66926822
H      88.25391149      60.51835653      91.48185054
C      89.40475481      56.80315460      92.76875415
H      89.83939186      54.93610500      92.01664308
H      87.65108879      56.59717443      93.82889062
C      91.54014555      57.59117047      94.59800923
H      91.27936331      59.54703720      95.18760384
H      93.30703965      57.35495468      93.56243921
C      91.65541885      55.82805582      96.74851777
H      91.91431136      53.89864525      96.07010602
H      89.75813363      56.05293325      97.51196720
N      93.58104996      56.45544495      98.57588311
H      93.04625742      57.88596777      99.71916753
C      95.96588457      56.19277300      98.30187280
N      96.96177034      54.52603439      96.82410682
H      98.82504048      54.13675077      96.96583630
H      95.87517771      53.48668492      95.64680733
N      97.53813686      57.65731089      99.61334286
H      99.43920153      57.57416293      99.49429010
H      96.77468743      59.21633510     100.41269709
C      91.32849620      59.55648583      89.18583307
O      92.79114436      60.96244221      90.20628527
N      91.73856681      58.83083093      86.81800600
H      90.46300155      57.69321569      85.96951888
C      93.90419316      59.69254613      85.37614482
H      95.00023442      61.04936962      86.47218608
C      95.76746331      57.50613278      84.64482074
H      97.38695876      58.19399316      83.57523564
C      96.56114836      56.36473809      87.14114919
H      94.99645497      55.16665161      87.73641298
H      97.27357518      57.88029859      88.34490486
H      98.20521025      55.19499750      86.72540941
C      94.44087544      55.35751397      83.20484928
H      93.64152121      56.28725931      81.54944903
H      92.96121973      54.32761313      84.20073505
C      96.32871202      53.30905064      82.13337447
H      97.03924912      52.28103953      83.76987745
H      97.85183143      54.26525216      81.12992979
H      95.33093653      51.87852782      81.03355375
C      92.91019712      61.07015661      82.97619240
O      94.40875009      61.33849775      81.19229076
N      90.59906184      61.81848823      82.88926499
H      89.46900551      61.44243269      84.38214878
C      89.58616854      62.88240414      80.55734272
H      90.82771873      62.41186229      78.98320070
C      86.76291743      61.81281905      80.17561801
H      85.63097136      62.45910545      81.76865729
H      87.22212092      59.81159889      80.01310154
C      85.47223435      62.44587737      77.67551009
O      83.76392177      64.03891665      77.61503885
O      86.42276669      61.49345530      75.71586391
C      89.54270483      65.86061281      80.61970369
O      89.82427405      67.06436847      78.64871914
N      89.31782740      66.97555134      82.84580129
H      88.98712530      65.80392102      84.31222890
C      89.35751165      69.53802022      83.37303493
H      90.43087620      70.59437723      81.96707855
C      86.53048109      70.34493335      83.47508015
H      86.48701738      72.29135146      84.14404326
H      85.37585831      69.05614001      84.59379812
C      85.17554732      70.42997104      80.82946331
H      83.14220181      70.56036215      81.12804007
H      85.27570282      68.52890637      80.04333716
C      85.94844539      72.37827887      78.72808765
O      85.73301659      74.65539907      79.16650415
O      86.80449141      71.79246371      76.53789485
C      90.66142281      70.08226140      85.86558393
O      91.29826058      68.32670565      87.37736498
N      91.07716260      72.46709600      86.39281757
H      90.81638037      73.68596948      84.94528722
C      91.68943392      73.18519200      88.93260974
H      92.39430184      75.11838202      89.02898578
H      93.18798689      72.01734114      89.72440506
C      89.48412332      72.90362278      90.92249155
O      87.47723397      74.16784969      90.47462641
N      89.84695077      71.53168148      92.96906514
H      91.52502774      70.66807655      93.25630354
C      88.21800669      71.47121024      95.21783946
H      86.26213995      71.81891988      94.67359828
C      88.66776155      68.80858586      96.45938964
H      90.46300155      68.86338792      97.46472404
H      88.75279923      67.45743155      94.90792434
C      86.51725301      67.65396308      98.13557688
H      84.70311575      67.39507058      97.19827263
C      87.57549974      65.11606065      99.24484623
H      89.33672466      65.46377029     100.25396008
H      88.23879368      64.22599955      97.50818775
H      86.09206459      63.95765842     100.08388471
C      85.86718715      69.42463664     100.31821078
H      84.71823356      71.10649306     100.00640593
H      87.51502850      70.31469773     101.17614652
H      84.87697057      68.29835976     101.72794660
C      88.69799717      73.69919756      97.07921987
O      90.40064058      73.43652560      98.60044956
N      87.17298804      75.74955061      97.13024249
H      85.47034463      75.50955537      96.30254236
C      87.53014631      78.18351810      98.33588787
H      89.53514593      78.64083187      98.48517625
C      86.19599953      80.37371090      96.96961575
H      85.93143785      82.03855978      98.15447415
H      84.41020817      79.68018134      96.21372522
C      87.68510387      81.12960142      94.58856059
H      89.66931650      81.22219801      95.13469150
H      87.04070719      83.06468117      94.29376329
C      87.56605111      79.56679776      92.23018216
H      85.67632480      78.75988463      92.08089378
H      88.93988214      78.04745781      92.43805205
N      88.02903406      81.08613772      89.94361332
H      88.91342597      82.76421468      90.14203458
C      87.28448189      80.35481363      87.64759585
N      86.33017010      78.15139275      87.26209168
H      85.43632955      77.68274063      85.64448595
H      86.21867625      76.75299528      88.55655420
N      87.39030656      81.81179262      85.72574419
H      87.21834147      81.06346100      83.97774735
H      88.06115940      83.58246618      85.96384970
C      86.62496741      78.20430509     101.03441705
O      84.64075478      77.13472000     101.72605688
N      87.89675321      79.64805599     102.61233852
H      89.13830340      80.94062879     101.96416239
C      87.36951957      79.94474302     105.47716361
H      85.61774328      78.94885726     105.89857258
C      89.36696029      78.41784416     106.93414260
H      89.28381233      76.39016783     106.57887405
H      88.96633831      78.81657642     108.91457577
C      92.18265249      79.18318332     106.28218702
H      92.52091350      78.78823052     104.28852576
C      92.61162037      81.92895565     106.69225763
H      91.80281750      82.98342294     105.12000534
H      94.60906108      82.41083586     106.82075902
H      91.91998053      82.53555780     108.53663051
C      93.95521577      77.84714682     108.10199346
H      93.40719514      78.19485646     110.05597047
H      95.91864141      78.44619006     107.91680028
H      93.78703013      75.83458829     107.69381257
C      86.94244143      82.61870576     106.25951030
O      86.16198446      82.83035510     108.46104146
N      87.43754972      84.55378550     104.63812513
H      88.36540534      84.19851695     103.01107077
C      86.50780437      87.18995371     104.70993473
H      85.71789878      87.38270579     106.60344049
C      88.66776155      89.08912865     104.46427031
H      89.46522605      88.86614095     102.57832345
H      89.85639940      88.69417585     106.09888357
C      88.08194639      91.99174827     104.41513742
H      86.72701263      92.38481134     105.91746984
H      87.22779010      92.48874629     102.60855907
C      90.41764812      93.67738414     104.83654639
H      91.85006066      93.67738414     103.35311123
H      91.40408525      93.01786966     106.52029253
C      89.85828913      96.49874553     105.01984984
H      87.93832719      96.59134212     105.75306365
H      89.77514117      97.35668127     103.14902079
N      91.69510310      97.75163407     106.60910967
H      91.88407573      96.89936750     108.30797363
H      91.21133317      99.54309462     107.04941590
H      93.43554104      97.74974435     105.82865270
C      84.32139103      87.87214491     102.85044403
O      84.27603760      86.90649476     100.77363482
N      82.60929899      89.48408145     103.57231949
H      82.98346480      90.32311994     105.24661700
C      80.51926169      90.37603227     101.82621237
H      79.59896497      88.74519846     100.97205608
C      78.38198123      91.96151265     103.31153726
H      79.36085946      93.53943412     104.20348807
C      76.34674599      93.17849639     101.48039246
H      75.09574717      91.82734208     100.55631629
H      77.48058178      94.36335479     100.23317309
H      75.45668490      94.84145555     102.30809258
C      76.94578923      90.32500966     105.33354441
H      78.33851752      89.73541505     106.73383161
H      76.05383841      88.76220600     104.33198946
C      74.96724578      91.72340713     106.77351586
H      74.31529020      90.58579189     108.36088596
H      73.37042705      91.71962768     105.47338416
H      75.65132671      93.54888275     107.44436870
C      81.88931327      91.88781332      99.70027027
O      82.90220657      93.85690814     100.11789979
N      81.64175912      90.88814810      97.43259870
H      80.46068017      89.40282322      97.22283907
C      82.54315857      91.98796882      95.12524287
H      83.46912446      93.79076772      95.48429087
C      84.42343625      90.32878911      93.72873512
H      85.88608442      89.84501918      95.09689697
H      85.34562269      91.50986806      92.31710957
C      83.28582101      87.89293190      92.48529521
C      83.51258817      87.82490175      89.76975850
H      84.46312050      89.30644718      88.73796793
C      82.38442156      85.83879939      88.48663433
H      82.40709827      85.70840828      86.44950936
C      81.63042076      83.62026070      89.76408932
O      81.13909192      81.53778231      88.29388225
H      81.21090152      82.11225911      86.57612103
C      81.63797967      83.60514289      92.46072877
H      81.41877141      81.90060976      93.56432893
C      82.46001061      85.81045350      93.80621390
H      82.76425655      85.82179186      95.82633133
C      80.34351714      92.62291686      93.37346658
O      78.26859765      91.82734208      93.97062009
N      80.71390350      94.23674313      91.35712860
H      82.47323870      94.85279391      90.95839635
C      78.72780114      94.46917947      89.38236460
H      77.02893719      94.03076296      90.46139833
C      78.16088325      97.24518742      88.46395761
H      76.74736797      97.07322233      86.97674301
H      79.98824859      97.99540877      87.88192191
C      77.03649609      99.01775070      90.52564902
H      78.28938464      99.12357537      92.15648283
H      75.23747664      98.14847660      91.02642649
C      76.46390902     101.64636000      89.39559269
H      75.43589791     102.72539373      90.81855660
H      75.20157184     101.33266543      87.79877395
C      78.84118472     103.01263213      88.66804806
H      79.62731087     101.81265592      87.19028208
H      80.14887533     103.04097802      90.25730788
N      78.45190110     105.59210854      87.55310953
H      78.31584081     106.85066627      88.98174262
H      76.89854607     105.57321128      86.44384019
H      80.05627874     105.95115654      86.58745939
C      79.13409230      92.58134288      87.19973071
O      81.25436522      92.61346823      86.09802027
N      77.08940843      91.23774747      86.40604566
H      75.55684039      91.09223854      87.53232254
C      76.72091180      90.43272406      83.66594251
H      77.61853180      88.65449160      83.13303968
C      73.81640246      89.93005686      83.46752124
H      72.73736873      91.65159753      83.13492941
H      73.00759959      89.49353008      85.31189412
C      72.86775985      87.94395451      81.55889767
O      71.21802878      86.39437893      82.05967514
O      73.80317437      88.10269152      79.31579253
C      77.21790982      92.46984903      81.88204087
O      77.26515298      94.72429252      82.32801628
N      77.73758456      91.61380301      79.55767750
H      77.27082216      89.80344520      79.17217333
C      78.14765517      93.36368957      77.40716896
H      79.36274918      94.89058843      78.05723481
C      79.44022796      92.04466061      75.02422408
H      79.85218830      93.60746427      73.74676909
C      81.76648105      90.53476928      75.50610429
H      82.88141958      91.81222427      76.67206542
H      82.79638190      90.14737539      73.76377663
H      81.32428510      88.94550945      76.73631612
O      77.79049689      90.27587678      73.87527048
H      78.82228746      88.90204575      73.28945532
C      75.58140683      94.61846784      76.64371953
O      75.46235407      96.64047500      75.52122210
N      73.45924418      93.58856700      77.69818681
H      73.56506886      91.90671059      78.59580681
C      70.79661981      94.50130481      77.51110390
H      70.46780743      95.30065904      75.64216458
C      68.89366541      92.34512709      77.73220188
H      66.93968840      92.99141349      77.78889367
H      69.26027232      91.23585774      79.43106584
C      69.09964558      90.65382204      75.51555292
H      67.98470705      88.97385535      75.93885161
H      70.98748217      89.87336507      75.24721178
C      68.18879750      91.66671534      73.03434227
O      69.64955594      92.95361896      71.64161398
O      65.84553687      91.60624410      72.48632164
C      70.33741631      96.51386334      79.34980761
O      68.18690777      97.48329294      79.32902062
N      71.94557341      97.07889150      81.17150377
H      73.68790107      96.30410372      81.23764419
C      71.38054524      98.95538973      83.19540065
H      70.55662457     100.66559205      82.39226697
H      73.10775509      99.74340561      83.99475488
C      69.76104979      97.88013546      85.20040027
O      68.42123383      99.32010691      86.59123884
N      69.81585185      95.41971180      85.45551332
H      70.18056903      94.47673837      83.83601787
C      68.56863248      94.18383079      87.54366090
H      67.16456583      95.34979193      88.49608296
C      67.25149324      91.79710646      86.67438680
H      66.56741232      90.98263442      88.43939117
H      68.75193594      90.53854873      86.02999012
C      65.28617788      91.92938730      84.54466524
C      64.45658803      89.76376095      83.28988697
H      65.04240318      87.92694697      83.95696036
C      62.76717270      89.98485893      81.22063666
H      61.91490614      88.25197990      80.55167354
C      61.90167805      92.34323736      80.37403927
O      60.21226273      92.70417509      78.38226773
H      60.15557094      94.48240755      78.03077864
C      62.87110765      94.51075344      81.68928878
H      62.21915207      96.37213386      81.16394487
C      64.43202159      94.35012671      83.80389253
H      64.99704975      96.15670506      84.56734196
C      70.55662457      93.53376494      89.50708654
O      72.52193993      92.45662094      89.04221387
N      70.21836356      94.35579589      91.83900881
H      68.49493316      95.13058368      92.10546022
C      71.65455555      93.52809576      93.93093584
H      73.62365037      93.90226157      93.45661453
C      71.03283560      94.83956582      96.34600607
H      71.46747265      93.47707315      97.82755149
H      69.01271817      95.19105492      96.54631705
C      72.61264679      97.24707715      96.39702868
C      71.37865551      99.61490422      96.69938489
H      69.37176617      99.82655356      97.01496918
C      72.88854684     101.78053057      97.01496918
H      71.98525766     103.57766029      97.35889937
C      75.61164245     101.77486139      97.12457331
O      77.15176940     103.80820690      97.21528017
H      76.12186856     105.09700025      96.45938964
C      76.77949331      99.37868843      96.63702392
H      78.81283883      99.35790144      96.46505882
C      75.28660953      97.16581891      96.41025676
H      76.31084119      95.40459399      96.50474308
C      71.55628979      90.66327067      94.25596876
O      69.46625248      89.63903901      94.44683112
N      73.69168052      89.45573556      94.56021470
H      75.29983761      90.48374667      94.49029483
C      73.99403673      86.65327144      94.23518177
H      72.31029058      85.56667881      94.71895171
C      74.88787728      85.85958638      91.62546974
H      75.67589315      83.96986007      91.86357525
C      72.76193517      85.50998702      89.72062561
H      71.84919736      87.33546263      89.45984338
H      71.29361783      84.40449712      90.64848123
H      73.53105378      84.61614647      88.03121029
O      76.59241041      87.59057569      90.45572915
H      77.59585508      88.27843606      91.80121428
C      76.02360279      85.65738567      96.13813617
O      77.52215576      87.01420916      97.10567604
N      75.86486578      83.24609489      96.87890889
H      74.47780667      82.27666529      95.99451697
C      77.96435171      81.72486521      98.09967208
H      79.78037870      82.58280096      97.64613777
C      77.73002565      82.06501595     101.03819650
H      77.14610022      84.02466213     101.27819174
C      75.52093559      80.54756572     102.07187679
H      75.29605816      80.89338563     104.08821477
H      75.50014860      78.54067637     101.60700412
H      73.91277850      81.40550146     101.11567528
C      80.02037394      81.53022340     102.78619334
H      81.64931802      82.27099612     101.76763086
H      80.20934657      79.52711351     103.22460984
C      80.02793285      82.80389894     105.38645675
H      78.56906413      82.14060500     106.68091927
H      79.78226843      84.81834719     105.03685738
H      81.86285710      82.62437494     106.30864319
C      78.06072776      79.08302783      96.99418219
O      76.91933306      78.27233524      95.24807508
N      79.71423828      77.51644471      98.10345154
H      80.75925693      78.20241536      99.54531271
C      79.75014308      74.83870253      97.55921036
H      77.82640169      74.12627571      97.74251381
H      81.00681108      73.89761882      98.89146741
C      80.64398362      74.46075726      94.81721748
O      82.72268257      75.19586080      94.24652013
N      79.14921011      73.24377352      93.33567205
H      77.58829618      72.42363230      94.06510641
C      79.68400266      72.84315154      90.54832574
H      81.42444059      73.75399962      89.93038523
C      80.27359727      70.08037167      89.88503180
H      78.70701415      68.80669614      90.28565378
C      80.85752270      69.77423601      87.06178069
H      82.58662227      70.80224712      86.62714364
H      79.45723550      70.76067314      85.91093736
H      80.96712682      67.79569256      86.50431143
C      82.52993049      69.11472152      91.54043205
H      82.16710303      69.26023045      93.56243921
H      84.19099991      70.27312375      91.17193542
C      83.41621213      66.36139029      90.97540388
H      81.74380434      65.18975997      90.70895247
H      84.46878968      65.75667787      92.63836304
H      84.53115065      66.28769096      89.24630431
C      77.52215576      74.08281200      89.13858991
O      75.81573290      72.99810910      88.10868907
N      77.54861192      76.61693499      89.30488582
H      79.23424780      77.39550223      89.75086123
C      75.74959247      78.38382909      88.15215277
H      75.53416367      77.71864543      86.21140385
H      76.54138780      80.27166568      88.37891993
C      73.15121879      78.56524282      89.46173311
O      71.21991850      79.17940387      88.24096991
N      72.77516326      77.86037490      91.92593622
H      74.42489433      77.61848993      92.85757129
C      70.36009303      77.68085090      93.18638367
H      69.05051269      76.43552126      92.19805681
C      70.83252461      76.59047882      95.91703819
H      72.19690701      77.71864543      96.96583630
H      71.66967336      74.73098813      95.62035116
C      68.47414617      76.57725073      97.53653364
N      67.41023026      74.45508808      98.55698585
H      67.76360908      72.59370767      98.33210842
C      65.82474988      75.27900876     100.33710804
H      64.51894900      73.95997979     101.18937461
N      65.97781771      77.77722694     100.47127861
H      64.87043809      78.82980450     101.61645275
C      67.60298234      78.64461132      98.80454000
H      68.49871261      80.46819721      98.60989819
C      69.28483876      80.33591637      93.38858439
O      70.39788756      81.85525633      94.77564350
N      67.31952339      81.01432812      91.93538485
H      66.89433497      79.78222656      90.53887711
C      65.86443413      83.36703738      92.25663832
H      67.03984390      84.90716432      91.56121904
C      63.48526870      83.43884698      90.46139833
H      62.18324727      81.87037414      90.76375454
H      64.12210647      83.20074146      88.51875968
C      61.62010883      85.79344596      90.84123332
H      61.27428892      86.18083986      92.83300485
C      62.83331312      88.12158878      89.78865576
H      62.76906243      87.85324764      87.74775134
H      64.76461342      88.41071691      90.45005997
H      61.56908622      89.69573080      90.18927774
C      59.06519886      85.48542057      89.45228448
H      57.92758362      87.19184343      89.64881601
H      57.88789936      84.14938407      90.48596477
H      59.38645233      85.06968079      87.45862322
C      65.17279430      83.88293266      95.04965381
O      64.01250234      82.30312146      96.22317386
N      65.72081493      86.07879464      96.19104851
H      67.08330760      87.03499615      95.25941344
C      64.60020723      87.17672562      98.44171255
H      63.73849203      85.57045826      99.40358324
C      66.80551783      88.17828057     100.21049638
H      66.12521636      89.35935952     101.75440277
H      67.85620566      89.45195610      98.98028455
C      68.35509341      86.15816314     101.33677326
H      69.14499901      84.94495885      99.87223537
C      70.72481021      87.32601400     102.48572686
H      70.57174238      88.31245114     104.28852576
H      71.31440482      88.51276213     100.90969511
H      72.11753850      85.86147611     102.88256938
C      66.99449047      84.62181565     103.22649957
H      65.30696487      83.79033607     102.39313027
H      66.21970268      86.03722066     104.50395456
H      68.14722352      83.36325792     104.38112235
C      62.60843569      89.11936427      97.87479465
O      60.35210248      88.84157451      98.63446463
N      63.10165426      90.95428852      96.31010127
H      64.74760588      90.90893509      95.33878194
C      61.47082045      92.95550869      95.65814569
H      59.51117427      92.53787917      95.17059630
C      61.26484029      94.73185142      98.08644400