 %block lattice_cart
   140.777   0.000   0.000
   0.000 144.511   0.000
   0.000   0.000   162.462
 %endblock lattice_cart

 %block positions_abs
N      86.81211138      40.52038117      82.45176320
H      88.56577740      40.01015506      81.89996312
H      85.94094755      40.30495237      80.76612733
H      86.02976469      39.23347755      83.62528324
C      86.65526411      43.08662950      83.29080169
H      87.32422721      43.01293017      85.23721979
C      88.18405269      44.92344347      81.63351171
H      87.20139500      45.70579017      80.00078818
H      90.02275640      44.03716183      81.36895003
C      88.75286031      47.45945619      83.02624000
H      89.41048507      46.95300953      84.91029714
H      87.24296899      48.85785366      82.97521739
S      91.27375521      49.45500717      81.67697541
C      90.96384009      48.91265572      78.26601942
H      92.53231293      49.72523804      77.20966241
H      89.33678575      49.83673189      77.40430422
H      90.67471197      46.90198692      77.93153786
C      83.89059450      43.66299602      83.64795996
O      82.47329978      43.84818920      81.90374257
N      83.10824781      44.11464061      86.02712539
H      84.48963774      44.22235501      87.34237490
C      80.69128786      45.08218049      86.83403852
H      79.16816845      44.23747282      85.73610754
C      80.44751317      44.37920230      89.55335469
H      82.04622163      45.23524832      90.53223292
H      80.67805977      42.33073897      89.53067797
C      77.84158059      45.03871678      90.70230829
O      77.36725927      47.07206229      91.69630433
N      76.04256113      43.28316104      90.54924045
H      74.40416842      43.76315152      91.40150702
H      76.37893241      41.72035737      89.50422180
C      80.62325771      47.94322612      86.78490564
O      82.51865320      49.28871126      87.06458513
N      78.30456352      49.12997425      86.68286042
H      76.62837629      48.21912616      86.62616863
C      78.06834774      51.84362123      86.37672476
H      79.39682534      52.20644869      84.84415672
C      75.34714184      52.58061450      85.80413768
H      74.68573763      51.26536498      84.36416623
C      73.61804227      52.60329121      88.14928804
H      71.68296252      53.10406868      87.64851056
H      74.30590265      53.84106195      89.64406155
H      73.61615254      50.65120393      88.80502307
C      75.07880071      55.28292312      84.75533958
H      75.91594946      56.74746102      85.94019798
H      73.07191136      55.67031702      84.50589571
C      76.14460635      55.59850742      82.10216384
H      75.70052066      53.91854072      80.99856367
H      78.16661351      55.95944514      82.23066522
H      75.02777810      57.12918573      81.29336097
C      79.17005817      53.35729201      88.75022100
O      80.09035490      55.49835192      88.31747368
N      79.35525135      52.18377197      91.01978231
H      78.64660398      50.41120869      90.97820833
C      80.49286659      53.24390843      93.29879224
H      79.97130214      55.23756969      93.35170458
C      79.19651434      51.80960616      95.59858916
H      79.80122676      49.84240107      95.51733093
H      77.14616129      51.87763631      95.38505009
C      79.82957267      52.65431382      98.33680259
C      78.91116567      55.06749432      99.17206162
H      77.76599153      56.26747053      97.98153404
C      79.68028428      55.96511432     101.57768322
H      79.20029379      57.90208379     102.01232027
C      80.93506256      54.31160380     103.31812115
H      81.16560916      54.57994493     105.33067967
C      81.63237156      51.87385685     102.43561896
H      82.51298402      50.70978545     103.86425206
C      81.19584478      51.15009168     100.02054874
H      81.82134419      49.30004962      99.42717467
C      83.33879443      53.38941736      93.13249632
O      84.57278571      54.74813058      94.63671847
N      84.42349732      52.19322060      91.39205839
H      83.30288962      50.96678822      90.45475414
C      87.11635732      52.16865416      90.54735073
H      88.24452394      52.87352207      92.11960302
C      88.18216297      49.51547842      89.66106909
H      90.21361875      49.73090722      89.40973549
H      87.33367585      48.69533720      87.97165376
C      87.73996700      47.59740621      91.72465022
H      85.71984957      47.34607261      92.04401397
H      88.50152671      48.33250974      93.49154432
C      88.80577265      45.07273185      90.83458913
O      87.40359573      43.89921181      89.29446218
O      90.71061677      44.05416937      91.95141738
C      87.36769093      54.09050582      88.36660656
O      88.92860486      55.78936977      88.54991002
N      85.95795510      53.72200919      86.40885010
H      84.71262545      52.28014801      86.28790762
C      86.57400587      55.06749432      84.09771482
H      88.52042397      54.68954906      83.54213529
C      84.98852550      53.91665100      82.01901588
H      83.05533547      54.58750384      82.27223920
H      84.70128709      51.87952603      82.11161247
C      85.85968933      54.80104291      79.43764973
H      87.91193210      54.74813058      79.27324354
H      85.40804474      56.77391718      79.04836611
S      84.84679603      52.89619879      76.79203290
C      82.17472301      54.58939357      75.61284368
H      81.50198045      53.59917698      73.93476671
H      82.72085393      56.46967125      74.97222646
H      80.93317282      54.65931344      77.25690557
C      85.94850646      58.01168792      84.18275251
O      87.20706418      59.53669705      82.97710712
N      84.10980276      58.75246063      85.72476918
H      83.02509985      57.60539676      86.79246454
C      83.42005265      61.50201242      85.98744113
H      82.84179640      62.21443924      84.14306825
C      80.90482694      61.98767208      87.46142766
H      80.84246597      63.97188471      88.01322774
H      81.08813038      60.96721987      89.24154985
C      78.25354092      61.74578711      86.14617815
H      78.27432790      59.99968000      85.05202661
C      76.25043102      61.64752134      88.18519284
H      76.07846593      63.52024012      89.02801077
H      76.80790029      60.19810126      89.54012660
H      74.58936159      61.16753086      87.06458513
C      77.68284357      63.89251620      84.19598059
H      78.65605263      63.40874627      82.44609402
H      78.33668887      65.71988155      84.88195124
H      75.64571860      64.10605528      83.99000042
C      85.69528313      63.21032501      87.02679061
O      85.72173930      65.48366576      86.61672000
N      87.33367585      62.03869469      88.53101275
H      87.07289361      60.17164509      88.82769978
C      89.56166317      63.12150787      89.69508416
H      88.90403842      64.87328416      90.55868909
C      90.62368937      61.12028770      91.60748719
H      92.30365606      61.83271452      92.56368870
H      91.01675244      59.42898265      90.49821784
C      88.85868498      60.57037735      93.76366491
H      87.02376073      60.01290808      93.01155384
H      88.76986784      62.32971254      94.83136028
C      89.79598923      58.46144278      95.45496996
H      91.26241685      59.26835592      96.65305645
H      90.56510784      56.87596240      94.38727460
N      87.79476908      57.59405840      97.27477640
H      86.46251202      56.50557605      96.44896600
C      87.61146562      57.65641937      99.72386170
N      89.28387340      58.91308737     101.02210368
H      88.90781786      59.04536821     102.88726355
H      90.71817567      59.92031149     100.26810288
N      85.68772424      56.51691441     100.78777762
H      85.64803998      56.19188148     102.66805530
H      84.65026448      55.39063752      99.65205210
C      91.58178060      63.78291208      87.84882155
O      93.12190754      65.42886370      88.29857642
N      91.75563542      62.36939680      85.76445343
H      90.63502771      60.84816711      85.49044311
C      93.51119116      62.87962290      83.70843120
H      94.89825029      64.15518816      84.54180051
C      94.95116262      60.45888349      82.76167832
H      95.83366480      61.09194181      81.01179175
C      97.26985681      59.70488270      84.37361486
H      96.91269854      58.75812981      86.16696513
H      98.62479057      61.25634800      84.39818131
H      98.35078026      58.24223453      83.40607499
C      93.19938632      58.14207903      82.37806388
H      91.63847239      58.61262089      81.12139588
H      92.47373142      57.87184817      84.28668745
C      94.52030501      55.79881841      81.27446371
H      95.83555453      55.02969980      82.65963310
H      95.46705791      56.38085411      79.53780523
H      92.97828834      54.46845108      80.97210750
C      92.07310945      64.31014572      81.43886990
O      93.45638910      65.54980618      80.01023681
N      89.62591387      64.28368955      81.24989727
H      88.49207809      63.02891128      82.13428918
C      88.21050886      65.74066854      79.53402578
H      89.05143707      65.84271376      77.65752755
C      85.77465164      64.36305806      79.14474216
H      84.75230971      64.51990534      80.92675407
H      86.20550925      62.37506598      78.81970923
C      84.19484044      65.53468837      77.01124115
O      85.12836524      65.85405212      74.81348945
O      82.05755998      66.18853367      77.54792342
C      87.83634304      68.62817035      80.45999167
O      87.67193686      70.34782129      78.94443117
N      88.13114035      69.15162453      82.92041533
H      87.92138073      67.62850513      84.04858194
C      87.96295471      71.69708588      84.16196552
H      88.62057946      73.19563884      82.91096670
C      85.10190907      72.44163804      85.01612181
H      85.28143307      73.99499307      86.35971722
H      83.99263973      70.89395219      85.79657878
C      83.58445885      73.15406486      82.61238994
H      81.59268731      72.83848057      83.03379891
H      84.10980276      71.99944209      80.99100476
C      83.92460958      75.85637349      82.02279533
O      85.97307290      76.56502086      81.07793217
O      82.19551001      77.35303673      82.45554266
C      89.45961795      72.12416402      86.70931659
O      90.88447159      74.07625131      86.97765772
N      89.56733236      70.15317948      88.34015039
H      88.46751163      68.63383952      87.98677157
C      90.87313323      70.43663843      90.75900008
H      92.74018283      71.30024335      90.67963157
H      91.28698329      68.54124293      91.45063991
C      89.31410902      71.83692562      92.62415995
O      87.98563142      73.63972453      92.00621944
N      89.55410426      70.97332070      95.01655346
H      90.68982979      69.48043691      95.36804255
C      88.12169172      72.08070032      97.21619489
H      86.24897294      72.64950794      96.57179821
C      88.17271433      69.90940479      99.16828217
H      90.15692696      69.53145952      99.56890415
H      87.45272861      68.24833536      98.18562449
C      86.54377025      70.25522470     101.60413939
H      86.92927441      71.97298592     102.67372448
C      83.72618832      69.84704382     101.32823934
H      82.91549573      71.08481455      99.89582680
H      82.78321488      70.26278361     103.11025126
H      83.47863417      67.86094146     100.83880023
C      87.27887379      68.30313742     103.66205134
H      87.20517446      66.38884466     102.90616082
H      86.08267704      68.65084706     105.30233378
H      89.20261517      68.84926832     104.15338018
C      89.17426928      74.65261783      97.98720322
O      91.47595592      75.16662339      98.09680735
N      87.55099438      76.42329139      98.77143964
H      85.68016533      76.14928107      98.51632659
C      88.14247871      78.94796574      99.89393707
H      90.17204478      79.02733425     100.23030836
C      87.32800667      81.11926127      98.02310802
H      86.61935931      82.71041083      99.12670819
H      85.88425576      80.27266389      96.82502154
C      89.69016457      81.71830452      96.33747215
H      90.44983455      79.93440288      95.64583232
H      91.18115862      82.52332792      97.50910247
C      89.02498090      83.64771508      94.39483350
H      90.73329349      84.50565083      93.63327380
H      88.11602254      85.29177697      95.24143089
N      87.47162588      82.62915260      92.38794416
H      86.60613122      80.94918591      92.65439557
C      86.93683332      83.43795546      90.06547052
N      87.92138073      85.39193247      88.94108336
H      87.00108402      85.78877499      87.31402901
H      88.70939660      86.77143268      89.99744037
N      85.37780911      82.09436005      88.64817578
H      84.35168773      82.83702249      87.21765296
H      84.95073096      80.37470911      89.35682315
C      86.95573058      79.08780549     102.35625046
O      84.73341244      78.47742389     102.66238612
N      88.23696503      80.14605222     104.27432267
H      89.90370363      81.03233386     103.99464317
C      87.49997176      80.56368174     106.87269635
H      85.82945370      79.40527951     107.20717790
C      89.66370840      79.52433227     108.58100893
H      88.81711101      79.35236717     110.45183798
H      90.98462708      81.10225374     108.67738498
C      90.96384009      76.96564284     108.04810611
H      91.88224709      77.05257025     106.20562296
C      92.79687463      76.19652423     110.25530645
H      94.13858031      77.72153336     110.59734691
H      93.72661996      74.43151985     109.74130089
H      91.81043748      75.57858372     111.95417040
C      89.09490077      74.76411168     107.89881773
H      89.84323240      73.09548335     106.95395458
H      87.47540532      75.29134532     106.74041550
H      88.24263421      74.34081299     109.72618308
C      86.90848743      83.35669723     107.68527866
O      86.10157429      83.93873293     109.86413310
N      86.97084840      85.16516531     105.90137702
H      87.33745530      84.72863853     104.07968086
C      86.20739896      87.86369449     106.30388873
H      85.21529265      87.74464173     108.10479790
C      88.57522604      89.51342556     106.61191411
H      90.19661122      88.35880278     107.13725803
H      88.24074448      90.92316139     108.07834173
C      89.33678575      90.97796345     104.23463841
H      87.80610742      92.27998488     103.78488355
H      89.25930696      89.75342080     102.57923816
C      91.84445256      92.52375957     104.22896923
H      93.20127605      91.27276075     105.14359677
H      91.61957512      94.19238791     105.41571736
C      92.91025820      93.41004121     101.68539762
H      91.40792579      94.02420227     100.41550153
H      93.91181314      91.89826016     100.70651939
N      94.86423520      95.37913603     102.04444562
H      95.44627091      96.02731216     100.34369193
H      96.43270804      94.66481949     102.86458684
H      94.38991391      96.83989447     103.17828140
C      84.31767265      88.59690829     104.32534528
O      84.22318633      87.43283689     102.26176414
N      82.89659846      90.63403326     104.85257892
H      83.16682934      91.53732244     106.51175862
C      80.99742353      91.64125738     103.10269235
H      79.82201376      90.05199756     102.52254637
C      79.08691022      93.48940972     104.57289942
H      80.05067064      95.20906066     105.16816321
C      77.27277297      94.40403725     102.55656145
H      78.30267380      95.19394285     100.95785299
H      75.89894193      95.76652993     103.26709854
H      76.15216525      92.86768976     101.76287640
C      77.72252783      92.12502732     106.71962851
H      79.00376226      91.66960328     108.26920409
H      77.15372020      90.29010307     105.97696607
C      75.51343776      93.53287342     107.93094308
H      74.62148695      92.53509793     109.49563647
H      74.01110535      93.76908921     106.54010451
H      75.91783919      95.46606344     108.51675824
C      82.12936958      92.83556441     100.62904061
O      83.80555682      94.39080917     100.89738174
N      81.16371944      92.09479170      98.35758958
H      79.76343225      90.85135179      97.98153404
C      82.10858260      92.98296307      96.04645430
H      83.36714032      94.59300989      96.30534680
C      83.80366709      90.90615385      94.96742057
H      85.28899198      90.56222366      96.35258996
H      84.82789875      91.57322724      93.31202032
C      82.60180116      88.52131924      93.99799098
C      82.24464289      88.11880754      91.40150702
H      82.36747510      89.64192695      90.04846298
C      81.34324344      85.85869487      90.48498976
H      80.75553856      85.71885512      88.53479220
C      80.89726803      83.83668771      92.11015439
O      79.82390349      81.61247984      91.23521111
H      79.82579320      81.58980313      89.42107385
C      81.60969484      84.01810144      94.75199177
H      81.59835650      82.43262106      96.03700567
C      82.32590113      86.41805386      95.66661931
H      82.78699434      86.49553263      97.65272166
C      80.03555282      93.87491389      94.23042731
O      77.82457304      93.34956997      94.78033767
N      80.65727279      95.12780243      92.00999889
H      82.49786622      95.36023877      91.56024403
C      78.94707048      95.86290597      90.03334517
H      77.07813115      95.45661481      90.79490488
C      79.41005343      98.74851805      89.42485330
H      78.35558613      99.29842841      87.74110715
H      81.44906812      99.01307973      89.30013136
C      78.28377654     100.52864023      91.50166252
H      79.46863493     100.49273543      93.18729839
H      76.56034614      99.56299009      92.08369822
C      77.95685389     103.27063311      90.86671447
H      77.41828188     103.41614204      88.88250185
H      79.83146238     104.12100996      91.00088504
C      75.95563372     104.67847922      92.38605443
H      76.22586458     104.19848873      94.37215679
H      74.17740125     103.79597703      91.83614407
N      76.19373923     107.46393580      91.79645982
H      75.56446037     107.81920435      90.02956572
H      77.98519978     108.10266330      91.96464546
H      75.07124180     108.42580650      93.00399493
C      79.19840407      93.95995157      87.76567360
O      81.24686739      93.62358029      86.80191318
N      77.07813115      92.69194521      87.23655023
H      75.55501175      93.21728913      88.25889216
C      76.96096812      90.70962231      85.35816227
H      78.52566151      89.37736526      85.47910476
C      74.31157183      89.44539541      85.50934038
H      72.81868805      90.11813798      84.26023128
H      73.64071898      89.38303444      87.45575848
C      74.44763212      86.63348266      84.87061288
O      73.03978602      85.07256872      86.09704526
O      75.84036041      85.90404830      83.20009482
C      77.17450720      91.91337797      82.71443516
O      77.45229695      94.20183654      82.42530703
N      77.11781541      90.24852909      80.68675883
H      77.12726403      88.37203086      81.04013765
C      76.77955439      91.03654496      78.02791390
H      77.97008196      92.65037124      77.56493096
C      78.01354568      89.12981111      76.17409239
H      76.96663729      89.22051798      74.40530856
C      80.93695229      89.40004198      75.71299917
H      81.87047707      88.74997613      77.43076039
H      81.46985510      91.27654021      75.05348469
H      81.19773451      88.08290274      74.15019551
O      77.74898400      86.74308678      77.05848431
H      76.13137826      85.96074009      76.80715071
C      74.09992248      91.92282661      77.17753706
O      73.65016762      92.62769452      75.04214633
N      72.24799069      92.00786429      78.87262157
H      72.55790581      91.04977305      80.49211702
C      70.00866501      93.59523439      78.71955374
H      70.04456981      94.44939069      76.84494523
C      67.68430165      91.83589920      78.85939348
H      68.04334965      90.22585238      77.62918165
H      65.90417946      92.83745414      78.59483180
C      67.38194544      90.68316614      81.45776716
H      67.13817074      92.16660130      82.86561327
H      69.22820805      90.03687975      82.10027411
C      65.76433972      88.26998564      81.55981238
O      63.51178594      88.65548981      80.83415748
O      66.53345832      86.14404354      82.30247482
C      70.18818902      96.03865052      80.46188140
O      68.50255315      97.58066719      80.64707457
N      72.37271263      96.50352319      81.68453432
H      73.81457380      95.25441410      81.62028363
C      72.96797641      98.53497897      83.47410514
H      72.42562496     100.30754226      82.57270569
H      74.97486577      98.72017215      83.89551411
C      71.64894745      98.32899881      86.02334593
O      72.15161466      99.92770727      87.72787907
N      70.08425406      96.52242045      86.43530627
H      69.38694505      95.54354222      84.95187112
C      68.71420249      96.12179847      88.80691279
H      68.20775584      98.00207615      89.47587591
C      66.42196447      94.33222765      88.39306273
H      65.44497596      94.11679885      90.19208218
H      67.03612552      92.46895751      87.75622496
C      64.53034844      95.34134151      86.62994808
C      62.91274270      93.57822686      85.49611229
H      63.44942499      91.61480122      85.61516505
C      61.10805407      94.33789683      83.68953394
H      60.16697037      92.89414593      82.59538240
C      60.50523138      96.93249106      83.41363390
O      58.68542495      97.63924870      81.69776240
H      59.07659829      99.30976676      81.10627807
C      62.03779942      98.62946529      84.73077314
H      61.70520759     100.61178819      84.36983541
C      64.09193192      97.98317889      86.35971722
H      65.21631908      99.35323047      87.36883107
C      70.46597879      95.11646407      90.84403776
O      72.52011128      94.07900433      90.39995208
N      69.55891016      95.39047439      93.23643127
H      67.93941470      96.31455056      93.64272243
C      71.01021995      94.46639822      95.45496996
H      72.91695380      95.12024353      95.02600209
C      70.65306168      95.98195873      97.94751897
H      71.79823583      95.04087502      99.37615206
H      68.64995179      95.90636967      98.42939918
C      71.67729334      98.65970091      97.84925320
C      70.27700615     100.63446491      98.92828693
H      68.27956543     100.28108609      99.14938490
C      71.27667136     103.04764541      99.28355547
H      70.17307120     104.70304566      99.73897951
C      73.93173683     103.32732490      98.64104853
O      75.03911645     105.52507661      98.60703345
H      73.95252383     106.91402545      99.03222187
C      75.39249528     101.28075131      97.97019569
H      77.31623666     101.58310752      97.35414491
C      74.26432866      98.93938041      97.51855110
H      75.37359801      97.26508289      97.15950310
C      71.05557339      91.54299162      95.89338647
O      69.11293474      90.24285991      95.90661455
N      73.27411208      90.47340652      96.21841939
H      74.84825410      91.37291625      95.62126588
C      73.63316009      87.75975954      96.24487556
H      71.91161941      86.76387377      96.78533729
C      74.43818350      87.00764847      93.52933885
H      76.40349885      87.60480198      93.35926348
C      73.96386218      84.25809668      92.84336820
H      72.00421599      83.67417125      93.10604016
H      75.09769798      82.99386978      94.00554988
H      74.78589313      83.60992055      91.07080492
O      73.08702917      88.38525895      91.81913654
H      73.49898951      90.13325579      92.07991877
C      75.63626998      86.67127718      98.12326352
O      77.24631679      88.19061714      98.83569034
N      75.54934257      84.24486860      98.80923417
H      74.02811288      83.34346914      98.09302790
C      77.31623666      82.68962384     100.41928099
H      79.06234378      83.74220140     100.12070423
C      76.50176462      82.66694712     103.29733416
H      76.26932829      84.69084401     103.58646229
C      73.92795738      81.22319622     103.47307871
H      72.72609146      82.03577854     104.93572688
H      74.30968210      79.24465277     103.90204658
H      72.98876341      81.25910102     101.63815446
C      78.50298478      81.83168809     105.27209816
H      79.01132116      79.83613711     105.38359201
H      77.72063809      82.19640527     107.14103748
C      80.98797489      83.37181504     105.15871458
H      81.87236680      83.12804034     103.31056225
H      82.44873334      82.68773411     106.43994902
H      80.61002962      85.37870438     105.41571736
C      77.71307919      79.96841795      99.24009177
O      76.18807005      79.11426166      97.69996482
N      79.61603358      78.57757938     100.14716040
H      80.74042074      79.39772060     101.44918183
C      79.82957267      75.89227829      99.84102474
H      77.94929498      75.13071859     100.19062410
H      81.41127359      75.17229257     100.94651463
C      80.46641042      75.27622751      97.02533253
O      82.45629223      75.97353652      96.14660979
N      78.74675948      73.90050676      95.74031864
H      77.06868251      73.26177926      96.38849476
C      78.70707524      73.63783480      93.05312782
H      80.12625970      74.94552541      92.32936264
C      79.52532672      70.93741590      92.26889140
H      78.35747586      69.30658209      92.73565380
C      79.98830967      71.03946112      89.34737452
H      80.02421447      69.16485262      88.48943877
H      81.59268731      72.33014419      89.26422656
H      78.39904984      71.90684550      88.36660656
C      82.02543463      70.21743017      93.55579502
H      81.44906812      70.02278836      95.52488984
H      83.46162664      71.69141670      93.51989022
C      83.28777181      67.71543254      92.77722778
H      82.01787574      66.11861380      92.49376883
H      84.82411930      67.16174273      94.03200605
H      84.04933151      68.23510727      90.93663435
C      76.14838581      74.45041712      92.13094138
O      74.27566703      73.19374912      92.59959350
N      76.05767894      76.78422911      91.12560698
H      77.60158533      77.90483682      91.21631384
C      73.72386694      77.90483682      89.96909448
H      73.15316959      76.60659484      88.47621069
H      74.26432866      79.53378090      88.82958951
C      71.62438101      78.42640128      91.77945228
O      69.48710055      79.13315892      91.00277477
N      71.82469199      77.86137311      94.27389102
H      73.61804227      77.78767378      94.92773632
C      69.66284509      78.18073686      96.15227897
H      68.07547500      77.21886616      95.25465897
C      70.15039448      77.05823943      98.80356499
H      71.49587963      78.26577454      99.79189185
H      71.04612475      75.23276381      98.47853206
C      67.86004619      76.75399349     100.50431867
N      66.75833575      74.48254246     101.31501126
H      67.25344404      72.65706684     101.04855985
C      64.87427862      75.07969598     102.79277724
H      63.47399143      73.90995539     103.70551505
N      64.59459913      77.60437033     102.86458684
H      63.21698865      78.61348418     103.71874313
C      66.39739803      78.67206570     101.41327703
H      66.52023023      80.67706532     101.05989821
C      68.79546071      80.94729618      96.32046461
O      70.15984312      82.54978409      97.55067644
N      66.69597479      81.57846477      95.19796718
H      65.68497120      80.28589197      94.22664786
C      65.71709655      84.18817681      95.25276925
H      67.23076733      85.53555167      94.88049316
C      63.50044759      84.23164051      93.19296757
H      62.37039126      82.51009984      93.21564428
H      64.45097992      83.88960005      91.39772757
C      61.74678157      86.55222442      93.19296757
H      61.03435475      86.97741284      95.07891443
C      63.00911874      88.93516930      92.34259073
H      65.02356699      88.75942476      92.72620517
H      62.28157411      90.60001819      93.31391005
H      62.56881251      89.16571591      90.34326029
C      59.31848326      86.07790312      91.60559746
H      58.34338449      84.40360561      92.30857565
H      59.92130596      85.52232358      89.71587115
H      58.28291324      87.85613558      91.58481047
C      64.81569710      85.02910502      97.83224566
O      63.57603664      83.62125891      99.22119450
N      65.49977803      87.34024030      98.61837181
H      66.71109259      88.30589044      97.50343329
C      64.92530124      88.28132400     101.12603863
H      64.48499501      86.76576350     102.44695732
C      67.14006047      89.68539065     102.46018541
H      66.53723777      90.57356202     104.21763088
H      67.91862771      91.04410387     101.12414890
C      69.37182724      87.88070202     103.17450195
H      69.78378758      86.77521213     101.48319690
C      71.71697760      89.15815701     104.21007197
H      73.29678879      87.86180476     104.47274393
H      71.36737823      90.22774210     105.93350237
H      72.59759006      90.29766198     102.73797517
C      68.47231752      85.89837912     105.22674473
H      67.56524889      86.82245529     106.82923264
H      70.19952738      85.14437832     106.05633458
H      67.62572013      84.25620695     104.31211719
C      62.51401045      90.01231330     101.09202355
O      60.63373277      89.35846800     102.29011004
N      62.52534882      92.04376909      99.71252335
H      64.15240316      92.43116298      98.79033691
C      60.47310604      93.75586113      99.01710406
H      58.83849277      92.52942875      98.76954992
C      59.67753125      95.66637443     100.98052970