 %block lattice_cart
   140.777   0.000   0.000
   0.000 144.511   0.000
   0.000   0.000   162.462
 %endblock lattice_cart

 %block positions_abs
N      94.35211938      42.33357356      79.73717135
H      93.73606860      41.37737205      78.20649303
H      94.24818443      41.47941727      81.44170449
H      96.15680800      42.91182981      79.51040420
C      92.86868422      44.72596707      79.93937206
H      93.67559736      46.00909124      81.33399009
C      93.01419315      45.95428918      77.27296824
H      92.11279369      44.75242324      75.86323241
H      95.01352359      46.11491592      76.79864693
C      91.87090873      48.63203136      77.41280799
H      89.92638035      48.58856766      78.08933000
H      92.24885399      49.38225271      75.53442004
S      93.45071992      50.84301115      79.51418365
C      96.85033756      51.03576323      78.45593691
H      96.97694922      51.40803932      76.43392976
H      97.84622333      49.27264858      78.83766163
H      97.85189251      52.36046138      79.67481039
C      90.16259614      43.95306901      80.69526260
O      89.34056519      41.79878102      80.43448037
N      88.80010347      45.85035423      81.75539905
H      89.61079606      47.57000518      81.89901825
C      86.26787021      45.72563229      82.96860334
H      84.98663577      44.57478897      81.83665729
C      86.57778532      44.58801705      85.70303732
H      87.83634305      42.95907297      85.67658116
H      84.69750764      44.17983617      86.44192032
C      87.81177661      46.49664063      87.50394650
O      86.63636684      48.15015115      88.58675967
N      90.11724271      46.03554741      87.98393698
H      91.16793054      46.99174892      89.26139198
H      91.07533395      44.91304998      86.77640186
C      85.02632002      48.24085802      82.84766086
O      86.31133391      50.09845898      82.41302382
N      82.58290390      48.27676282      83.37300477
H      81.67205582      46.61380366      83.58654386
C      81.05033586      50.61435427      82.96482389
H      81.47363455      51.26253039      81.05809005
C      78.16850323      50.08901035      83.20859859
H      77.59402643      48.98729991      81.56642643
C      77.44473805      48.66226698      85.54807977
H      78.35369641      49.28587667      87.29040743
H      78.03622239      46.69128244      85.50461606
H      75.40950281      48.81533482      85.82586954
C      76.78144412      52.59478744      82.94970609
H      76.92128386      54.11412740      84.33298575
H      74.75187806      52.30376959      82.74750536
C      77.46363532      53.95916984      80.44203927
H      79.38170752      54.70561173      80.40235502
H      76.04823031      55.37268512      79.95260015
H      77.62804151      52.71384020      78.80742600
C      82.06322916      52.72139911      84.79407897
O      82.43739497      54.89458437      84.03818845
N      82.62258815      52.07700243      87.16757521
H      82.92116491      50.20995284      87.43213689
C      83.58634857      53.69460816      89.05730152
H      82.10669287      55.09300563      89.36532691
C      83.82634381      52.49085250      91.71992590
H      84.41593842      54.01775136      92.96714528
H      85.20584402      50.96773309      91.57063752
C      81.51331881      51.25686121      92.72148085
C      79.72185826      52.77998062      93.97058995
H      80.15838504      54.77364188      94.01594338
C      77.37859763      51.75763869      94.65845032
H      75.97831043      52.81210597      95.70535870
C      76.89104824      49.22351570      94.30318178
H      75.17517675      48.35235187      94.98537297
C      78.73353140      47.74197027      93.07485967
H      78.41227793      45.76342682      92.68557605
C      81.05789476      48.66415671      92.24904928
H      82.64148541      47.48685722      91.72937454
C      85.89559413      55.10056453      88.27117538
O      85.76142356      57.36634638      87.93102465
N      87.82122524      53.60957047      87.63622735
H      87.49619231      51.73307224      87.75716983
C      90.28920780      54.57711034      86.78585051
H      91.01864216      55.95661055      88.12944591
C      92.16570603      52.32833603      86.51561964
H      93.80409875      52.92737927      85.42335783
H      91.16415109      50.77876046      85.59910238
C      92.95183218      51.57811469      89.23115634
H      91.24540932      50.77120155      90.05696675
H      93.16537125      53.35256769      90.25349829
C      95.10800990      49.68271919      89.65445504
O      97.15458350      49.88869936      88.53384733
O      94.57321735      47.87236139      91.03206553
C      89.89614473      55.93582356      84.31597820
O      91.19816616      57.78019645      83.97582747
N      87.97618280      55.37079540      82.75506427
H      86.86691345      53.94594176      83.37489450
C      87.29777105      56.76163396      80.39479611
H      89.05521652      56.80887712      79.32332129
C      85.34001459      55.01174740      78.87356643
H      83.50886979      55.27063990      79.77685561
H      86.02976469      53.07288820      78.82065410
C      85.04332756      55.72606394      76.05787423
H      86.58723396      54.84734121      75.01852475
H      85.33812486      57.76507863      76.07866122
S      82.02921409      54.49207266      74.77852950
C      81.94984558      55.60512146      71.64725301
H      83.45784718      54.65647885      70.60979327
H      82.15393603      57.64980533      71.53008998
H      80.25098163      55.17615359      70.56632956
C      86.37747434      59.48472958      80.99572907
O      87.65681905      61.21382916      80.33243515
N      84.34412882      59.86456457      82.38278819
H      83.49186226      58.34144516      83.15568626
C      83.43706019      62.23995054      83.34276916
H      83.21785194      63.35488907      81.62500793
C      80.88970912      61.90357926      84.71471046
H      80.42483645      63.73094460      85.54052086
H      81.01632079      60.19715640      85.86177434
C      78.81667936      61.54075181      82.65112932
H      79.44973767      59.95716116      81.49272709
C      76.39971940      60.71683114      83.71882469
H      76.48475709      59.01040827      84.86966802
H      75.15250004      60.39557766      82.11066761
H      75.70052067      62.12845669      85.04730230
C      78.24031283      64.07487479      81.22438597
H      76.61514820      63.73283433      80.00740222
H      79.84091102      64.50006321      79.99795359
H      77.73953536      65.60933256      82.50184094
C      85.42127282      63.55708978      84.96982352
O      85.21718238      65.87200452      85.47627016
N      87.26186625      62.12467724      85.94303257
H      87.23918953      60.21605366      85.89578940
C      89.39347753      63.37378633      87.23938481
H      88.59223357      65.06698111      88.09732056
C      90.67282224      61.53508263      89.06108098
H      92.58144582      62.22105328      89.41634952
H      91.08667231      59.68882002      88.25038839
C      89.02120145      61.24973396      91.54040191
H      87.06722444      60.79997909      91.06986005
H      89.10245968      63.03174587      92.57030274
C      89.90937281      59.20505009      93.39233369
H      89.37835972      57.38713337      92.58164110
H      88.92104595      59.41291998      95.18757368
N      92.65892460      59.37134600      93.87043445
H      93.53197816      61.05887160      93.68335154
C      94.17259538      57.51563476      94.61876606
N      93.41670485      55.15914605      95.12899218
H      94.78864615      53.84578626      95.32930316
H      91.56477306      54.74151653      95.34064151
N      96.65947520      57.65736423      94.81340787
H      97.58733082      56.10400921      95.42189975
H      97.49473423      59.05576171      93.82130156
C      91.38335934      64.51896048      85.42146811
O      92.33389167      66.66946902      85.89578940
N      92.05799163      63.26985138      83.31631298
H      91.28509357      61.52752372      83.21993695
C      93.57922131      64.35455429      81.23194487
H      95.31776952      65.26540237      81.85366483
C      94.13102140      62.16247177      79.32143157
H      92.32633277      61.28185930      78.85844861
C      95.48595516      63.14512945      76.91392024
H      97.05820746      64.41124608      77.32588057
H      94.29164813      63.99172684      75.46261043
H      96.30420666      61.60311278      75.82165843
C      96.02641689      60.20093585      80.33243515
H      95.78831137      60.11778789      82.37900873
H      97.91425348      61.00029008      80.13401387
C      95.83555453      57.44949434      79.19859935
H      96.17003609      57.41925872      77.16525384
H      93.97606384      56.68604491      79.65213367
H      97.26796708      56.26841539      80.08866044
C      92.24507454      66.62978477      80.03763783
O      93.41670485      68.50439327      79.52930145
N      89.69016456      66.54096763      79.89779809
H      88.86246444      64.85722149      80.25495636
C      88.23696503      68.57998232      78.85088971
H      89.13836448      69.27351188      77.13312849
C      85.55166394      67.80708426      78.05531494
H      84.40271034      69.51161740      77.92303409
H      84.90915699      66.60143887      79.59544188
C      85.39481665      66.49750393      75.59300154
O      86.96517922      66.96237660      73.78264375
O      83.45028828      65.22004894      75.18293094
C      88.07255884      71.02339845      80.33621460
O      88.79821374      73.11343575      79.42347678
N      87.01431210      70.90245596      82.59443753
H      86.80644221      69.17524611      83.37678424
C      86.29432638      73.02083916      84.27818368
H      86.17149417      74.75371819      83.17458351
C      83.61658419      72.67123979      85.22493657
H      82.92872381      74.05640918      86.58364979
H      83.48619308      70.84954363      86.17924835
C      81.68150445      72.65423225      83.10844310
H      80.05633982      71.49016085      83.60544111
H      82.38259291      71.64889786      81.45304284
C      80.82356870      75.29606964      82.38278819
O      78.56345603      75.99526838      82.96482389
O      82.26165043      76.69635684      81.17147363
C      88.16137597      73.45169676      86.44758949
O      88.89836924      75.64755873      86.81608612
N      88.78687538      71.55819099      87.93102465
H      87.81933551      69.93302636      87.67591160
C      90.81455172      71.61866224      89.90389892
H      92.54743075      72.31408152      89.03084537
H      90.99974490      69.65523660      90.50294215
C      90.39314275      72.97170628      92.35109450
O      88.63191783      74.46836952      92.47203698
N      92.19405193      72.79407200      94.04995844
H      93.68693571      71.76039171      93.46414329
C      92.12980123      74.04507082      96.42534442
H      90.18905231      73.60854404      96.96202669
C      94.07055016      72.56352539      98.04861933
H      95.89224632      73.18713508      97.32296443
H      93.83244464      70.55663605      97.65177680
C      93.92882068      73.43846867     100.77738412
H      94.21983853      75.47748337     100.79250193
C      91.23974014      72.63344527     101.65043768
H      89.54087618      73.53295499     100.90588551
H      91.17170999      72.57108430     103.70834963
H      91.08856203      70.63033537     101.19312392
C      96.12846211      72.19502876     102.31373161
H      95.68437643      72.75627748     104.24503190
H      97.90669457      73.17201726     101.96035280
H      96.29475803      70.16924215     101.98113979
C      92.52097458      76.95713907      96.18156973
O      94.64313723      77.95491456      96.20991563
N      90.40637083      78.34986736      96.21369508
H      88.70372743      77.50704943      96.01527382
C      90.34589959      81.12776504      96.63321432
H      92.28286906      81.82885350      96.67478830
C      88.92293568      82.49781662      94.56207427
H      88.39759176      84.30250525      95.40300249
H      87.31099913      81.43956988      93.84019882
C      90.73329349      82.93056394      92.32085887
H      91.75185597      81.23169999      91.75583070
H      92.25263344      84.28171826      92.64778152
C      89.68260566      83.92267026      89.75838999
H      91.09612094      84.28927716      88.30708018
H      88.74908086      85.74436642      89.99838524
N      87.92516019      82.19546041      88.50928089
H      87.06722444      80.85942391      89.56941736
C      87.21273337      82.19923986      86.13389492
N      87.85901976      83.94345725      84.52195837
H      87.41304435      83.71102091      82.68136495
H      88.77364730      85.50248146      85.13045025
N      85.69528314      80.37376424      85.30052561
H      84.90159808      80.68745881      83.59410275
H      84.85057547      79.25126681      86.59309841
C      88.85868498      81.56618155      99.11253525
O      86.65715383      81.99703915      99.14277086
N      89.97740296      81.82318433     101.23280816
H      91.88413681      81.91011174     101.21202117
C      88.81900073      81.88365557     103.71023935
H      87.34879366      80.44179439     103.62331195
C      90.89958940      81.22792054     105.64720883
H      90.11346326      81.98003161     107.39709540
H      92.75719037      82.01593641     105.23713822
C      91.17548944      78.36687490     105.94200613
H      91.98051285      77.75838303     104.14676614
C      93.16726098      77.89255359     108.04905098
H      93.45449938      75.87432589     108.33817910
H      92.71183694      78.95646951     109.75547384
H      94.96817015      78.69001810     107.44055911
C      88.84356717      76.90233701     106.87553094
H      87.44516970      77.04028703     105.36941906
H      88.50152671      77.37287886     108.85218466
H      89.49174330      74.95024973     107.01726041
C      87.56044301      84.40644020     104.45101207
O      85.84835097      84.48580870     106.03082327
N      88.12925063      86.55883847     103.19812352
H      89.22718162      86.25081308     101.66744521
C      86.97084840      89.00792377     103.54961263
H      85.98630099      89.25358819     105.33918345
C      89.01931172      91.00158503     103.66299621
H      89.94905707      91.47212688     101.88476374
H      90.36479686      90.20412052     105.00092244
C      88.07444856      93.51114157     104.78171417
H      86.73841206      93.06138671     106.28215687
H      86.84045728      94.48246090     103.45134685
C      90.44038591      94.98323837     105.45634648
H      91.38713879      95.30827130     103.65543730
H      91.63280321      94.03081631     106.84340558
C      89.72984881      97.54381752     106.51837266
H      89.02120145      97.39452914     108.44589350
H      88.03476431      98.12018405     105.49792046
N      91.87279845      99.34661643     106.17066302
H      92.63435816      99.39385958     104.42266617
H      93.21828359      98.98000952     107.47457417
H      91.49296346     101.20421739     106.39931990
C      84.96773851      89.46145808     101.51815683
O      85.16427004      88.61108124      99.26938252
N      83.10257863      91.05260764     102.16255351
H      83.02887931      92.02770642     103.80094622
C      81.08057148      91.80282898     100.42211557
H      79.87492609      90.23057669      99.85897714
C      79.08313077      93.45822923     101.73169591
H      80.02232474      95.01725344     102.69545633
C      77.23308871      94.76403012      99.78905726
H      77.94929498      96.15864814      98.45302076
H      75.77044054      95.82605630     100.77927385
H      76.56034614      93.21634427      98.60797831
C      77.36536955      91.80282898     103.47591329
H      78.47085944      91.03937955     105.03682724
H      76.76632631      90.23057669     102.28916517
C      75.00132193      93.01036410     104.52282167
H      74.13015810      91.85007214     105.98546985
H      73.61237309      93.28248469     103.02426870
H      75.58713709      94.86229589     105.21257177
C      82.21629699      93.04626890      98.03161178
O      83.42572183      94.99835618      98.09208304
N      81.68906335      91.90676393      95.84141899
H      80.53633030      90.39120343      95.97936902
C      82.41282853      92.84973736      93.41123096
H      83.00053341      94.81505273      93.59831385
C      84.58034461      91.27370562      92.27928489
H      86.17338389      91.07906381      93.57185770
H      85.06978373      92.40754140      90.63144354
C      83.77532120      88.77359770      91.18513336
C      83.55800268      88.52415383      88.45258910
H      83.91138150      90.10207530      87.20536975
C      82.76620735      86.29994596      87.57575610
H      82.42416689      86.05428154      85.58020512
C      82.35235729      84.19857030      89.26706114
O      81.36592015      82.08207683      88.17479934
H      80.30389397      82.70946597      86.84632175
C      82.50731485      84.42911691      91.78984578
H      81.87992571      82.80773173      92.85943087
C      83.06478411      86.79505425      92.83864389
H      83.10446836      87.24102966      94.83041542
C      80.03177338      93.28059496      91.78228688
O      78.03622239      92.29037837      92.28873352
N      80.06011927      94.92465685      89.87366330
H      81.63615102      95.83550494      89.29351732
C      77.92472854      95.36685281      88.02362124
H      76.14460635      94.93788494      88.96848439
C      77.53355519      98.26002380      87.61544036
H      79.11336639      99.07449584      86.57609088
H      77.83213195      98.94410472      89.53351255
C      74.89549726      99.16709243      86.52884772
H      73.42906964      98.90253074      87.94803218
H      74.18496016      98.01246965      84.97738241
C      74.83124656     101.82215790      85.43847564
H      75.94429536     101.98278463      83.71315552
H      75.46052542     102.97678067      87.02395602
C      72.04578998     102.68009364      84.93202898
H      71.19163368     101.94876956      86.65734911
H      71.44107756     101.51602223      83.34465889
N      71.91917831     105.38996117      84.35566246
H      70.37716164     105.86428248      83.33709998
H      73.34403195     105.95498934      83.21804722
H      71.69619061     106.37450858      85.97515792
C      78.06645801      93.54704637      85.75405993
O      80.17161312      93.30894086      84.84510158
N      76.04445086      92.45478456      84.87344748
H      74.35692526      92.63997774      85.74839076
C      75.93106728      90.99402612      82.62278344
H      77.47497367      89.65043071      82.85521976
C      73.49332033      89.39531766      82.53396629
H      71.99287764      90.73891307      82.09554980
H      72.93207162      88.49391821      84.30086040
C      73.77866901      87.26748583      80.72360848
O      72.48798593      87.40543585      78.80175683
O      75.07313153      85.42122323      81.10344348
C      76.42239612      92.34707016      80.09621935
O      75.88004467      94.55427050      79.81465013
N      77.45796614      91.30016179      78.09499919
H      78.00031759      89.47279644      78.01752040
C      77.44851751      92.55682978      75.50985360
H      78.34802723      94.39553349      75.73473103
C      78.88659923      90.91654734      73.46705944
H      78.23842310      91.17355012      71.53008998
C      81.77788049      91.40031728      73.51241287
H      82.46196141      91.31338987      75.45316181
H      82.03866272      93.22768262      72.59967506
H      82.77187653      89.98491227      72.39747435
O      78.62770673      88.38998326      74.33822327
H      77.18017637      87.52826806      73.66737044
C      74.78400340      93.24280043      74.45349659
O      74.56101570      95.02670207      73.00785595
N      72.79979078      91.94644818      75.33977823
H      72.98687368      90.30616574      76.29786946
C      70.15984312      92.54927088      74.78986786
H      70.09181297      93.36941210      72.90203128
C      68.59892918      90.08695749      74.81254459
H      66.58448093      90.50836646      74.72750690
H      69.00333061      89.23280120      76.64179965
C      69.17151626      88.35974764      72.63746959
H      68.81057853      86.43222680      73.27241764
H      71.13683162      88.47502095      72.02519827
C      67.49721874      89.07028474      70.38869529
O      65.86449521      87.44512011      69.79910068
O      67.54446190      91.16032204      69.25863895
C      68.85593196      94.57505749      76.43770922
O      66.82825563      95.36874254      75.93504201
N      70.41684590      95.57472271      78.23294921
H      72.16484273      94.82261163      78.37089922
C      69.69497044      97.75357714      79.80898096
H      68.53845794      99.27858628      79.04742125
H      71.44485701      98.67576358      80.38156803
C      68.29657297      97.12996746      82.31664778
O      67.44997558      98.86095676      83.59599249
N      68.01878320      94.67899243      82.86277867
H      68.55357575      93.34673538      81.60422095
C      67.03990497      93.69066557      85.19659068
H      65.76056026      95.18165963      85.81642091
C      65.88717192      91.12630696      84.83376322
H      64.95364712      90.47246166      86.54963471
H      67.49532902      89.93766911      84.33298575
C      64.14106481      90.83339939      82.53207657
C      64.26011757      88.67911139      80.97872155
H      65.64717668      87.26370638      81.46438120
C      62.82203584      88.58084562      78.70916024
H      63.07903862      86.94623236      77.51485321
C      61.24789382      90.58017606      78.06476356
O      60.01201282      90.34773972      75.85189406
H      58.92919964      91.76881391      75.54386866
C      61.03246503      92.55871951      79.70693574
H      59.84004772      94.16876633      79.31009320
C      62.52723854      92.85918599      81.85744428
H      62.47810565      94.68088216      82.77396154
C      69.19419297      93.54137719      87.23749509
O      71.41273166      93.69066557      86.48538401
N      68.70097440      92.96879012      89.66768312
H      66.82825563      92.84973736      90.00783387
C      70.41306644      92.83461955      91.71047727
H      72.24421124      93.42232443      90.97348401
C      69.71197798      94.82261163      93.72870497
H      69.82914101      94.06483138      95.63921827
H      67.82603112      95.57661243      93.38855423
C      71.30312754      97.26413803      93.90822897
C      70.26944724      99.59228085      93.50571726
H      68.24932981      99.85873226      93.40178232
C      71.76800021     101.75034830      93.44146657
H      70.97998434     103.60228008      93.11076447
C      74.44952185     101.58405238      93.84019882
O      75.92728782     103.62117735      94.06885572
H      74.83313629     105.06681798      93.99515639
C      75.41706172      99.18221024      94.37499138
H      77.43717915      98.91197937      94.48459550
C      73.96008273      96.99390717      94.27294615
H      75.01266029      95.25724868      94.49782358
C      70.96486653      90.10585476      92.71392195
O      69.25655394      88.56194836      93.06919049
N      73.30812715      89.46334781      93.25249394
H      74.71030408      90.75781033      93.28839874
C      74.36826362      86.90087893      93.27328094
H      72.93585107      85.46279720      93.63043920
C      75.28100143      86.14498840      90.56908258
H      76.93640168      84.92044575      90.55585450
C      73.36859840      84.67478133      88.93257959
H      73.37993675      82.74726049      89.65823449
H      73.93551629      84.59919228      86.95214641
H      71.49398989      85.42122323      89.34453992
O      75.86303713      88.38620381      89.08942687
H      77.19340445      89.35941286      89.84720713
C      76.36570433      86.58340491      95.24615521
O      77.15560993      88.50525657      96.48203621
N      77.03844690      84.25904154      95.90944913
H      76.30712281      82.76804748      94.96836544
C      78.84502525      83.52393801      97.88799259
H      80.39838028      84.86753342      97.76138092
C      77.67717439      83.99070041     100.68100807
H      76.75876740      85.82373493     100.86242180
C      75.57579873      82.08774601     101.41422188
H      74.89171780      82.50915498     103.31150711
H      76.34680707      80.17723271     101.45012668
H      74.04889987      82.28049809     100.04417032
C      79.78421923      84.10219426     102.65388236
H      81.39048660      85.20579443     101.98869869
H      80.49097687      82.21246795     103.06773241
C      78.98864445      85.32673691     105.07840121
H      80.55333784      86.28104870     106.01948491
H      78.18173132      83.93211889     106.36152537
H      77.62048260      86.81395152     104.67966896
C      79.84280074      80.84241637      97.52894459
O      78.61258891      79.41945246      96.31385058
N      81.88559489      80.14132791      98.96702631
H      83.06478411      81.34130412      99.87031549
C      82.49597649      77.52216724      99.32229487
H      80.91238584      76.52817120     100.18212034
H      84.39137198      77.39555557     100.11975936
C      83.03076903      76.16534374      96.76738489
O      84.51987337      77.12343499      95.28394972
N      81.73819624      74.04507082      96.18534919
H      80.68750841      73.32319537      97.60453365
C      82.31834221      72.59187129      93.89500089
H      83.97374246      73.47059402      93.04462405
C      83.09690946      69.75728182      94.45624961
H      81.51709826      68.79163167      95.35764905
C      83.49186226      68.40990696      91.85220674
H      84.89214945      69.20926119      90.56908258
H      81.69095308      68.29841310      90.86010043
H      84.09090550      66.47293748      92.21503419
C      85.53276667      69.65145714      96.18345945
H      85.28521253      70.53773878      98.02783233
H      87.02754019      70.47159836      95.02883668
C      86.47762983      66.91891289      96.60297869
H      84.99797413      65.58476612      97.12643288
H      87.73429783      66.96048687      98.23192277
H      87.48296423      66.28774431      94.91923256
C      80.04311173      73.05674396      92.09787116
O      78.56345603      71.37299781      91.83708893
N      79.87303637      75.36221006      91.11899293
H      81.35836125      76.51494311      91.45347449
C      77.61481342      76.30140404      89.52595365
H      77.14238184      74.65923187      88.37511033
H      78.36881422      77.61476383      88.12944591
C      75.04289591      76.96658770      90.78640111
O      73.22686892      77.38232749      89.52595365
N      74.92195343      76.81163014      93.27706038
H      76.49987490      76.07652661      94.05940707
C      72.48798593      76.95335962      94.82096678
H      71.29367890      75.42835048      94.11609886
C      73.10403671      76.19746909      97.55540075
H      74.45897048      77.39744530      98.53805844
H      74.14149646      74.41923663      97.49492951
C      70.68329731      75.86865671      99.18245512
N      69.30946628      73.57074952      99.24481608
H      69.84614855      72.02117394      98.26593786
C      66.98510291      74.04318109      99.90622029
H      65.42229925      72.74682884      99.71535793
N      66.75077685      76.54328901     100.62053683
H      65.09726632      77.40500421     101.03438690
C      69.13561146      77.70358096     100.13109772
H      69.61560194      79.65944770     100.45046146
C      71.23887684      79.59897646      94.45247015
O      72.27066741      81.54161510      95.32930316
N      69.09025802      79.72747784      93.13722064
H      68.37972093      78.00026799      92.74415756
C      67.46320367      81.94223708      92.86887950
H      68.58948055      83.48047430      92.09031226
C      65.59237462      81.13343422      90.68057644
H      64.95364712      79.17567776      90.70703259
H      66.67707752      81.22981026      88.93446932
C      63.30391605      82.93245367      90.54262642
H      62.49322347      83.32173729      92.39644792
C      63.78390654      85.47602529      89.29351732
H      63.99366616      85.17177935      87.26773071
H      65.49032940      86.34529939      90.04940784
H      62.29480220      86.85174604      89.65634477
C      61.10994380      81.75704390      88.84943164
H      60.14240393      80.24526285      89.86232494
H      61.85827542      80.95013077      87.10899370
H      59.55280932      83.07796260      88.59053912
C      66.21976375      82.76804748      95.50126825
O      65.39962253      81.14099313      96.95824724
N      66.17441032      85.25303758      96.00393546
H      67.07014060      86.35285830      94.72837019
C      65.11049441      86.43411653      98.27916594
H      64.38672923      84.92422521      99.47536270
C      67.17029609      88.02715581      99.66622505
H      66.35393432      89.28193408     101.07596087
H      68.05279828      89.13075598      98.16767208
C      69.30946628      86.56450764     101.06084307
H      70.18063011      85.30972937      99.67945313
C      71.45619537      88.26715105     102.10397199
H      70.33936712      89.48602452     103.33418382
H      72.33302838      89.40098684     100.62242657
H      72.78656269      87.05961594     103.10930640
C      68.16429213      85.00359371     103.22835915
H      67.19486253      86.40955009     104.37731275
H      69.57402796      84.07384836     104.40754836
H      66.91329331      83.60519624     102.37798230
C      62.75778515      87.94211813      97.50437815
O      60.68475538      87.19567623      98.25082005
N      62.94675778      89.94333829      95.91700804
H      64.67963681      90.42521850      95.27828056
C      60.73577799      91.16977067      95.00238050
H      59.05203185      89.98491227      95.05340312
C      60.08760187      93.42988334      96.81840750