 %block lattice_cart
   140.777   0.000   0.000
   0.000 144.511   0.000
   0.000   0.000   162.462
 %endblock lattice_cart

 %block positions_abs
N      84.08901577      38.11853902      80.04992105
H      82.96273889      37.15288887      81.25178699
H      85.37213994      36.85242239      79.42253192
H      83.20840331      38.91600352      78.55703727
C      85.62914272      39.94212491      81.47477470
H      86.90848743      38.82340694      82.64073583
C      87.23352036      41.48981076      79.62662237
H      86.17338390      42.72380205      78.36428518
H      88.20294996      40.06873658      78.49467630
C      89.10623913      43.43055969      80.96454859
H      90.80888254      42.72758150      81.88862476
H      88.04988213      44.15999404      82.57648513
S      90.17960368      45.99491829      78.81781950
C      91.19627644      48.27392823      81.07226299
H      89.79032006      48.60463033      82.54058034
H      91.54965526      50.09562439      80.17464299
H      92.86679450      47.67299526      82.11539192
C      83.81311573      41.45957514      83.09615987
O      81.61347430      42.08885400      82.46499128
N      84.68805902      42.29483417      85.39217735
H      86.54377025      41.99625742      85.72098972
C      83.28966154      44.04850019      87.14017419
H      81.40938386      43.37953708      87.64284138
C      84.78821451      44.26959817      89.57792113
H      86.61369013      45.16721817      89.26800601
H      85.12269607      42.34207733      90.22420752
C      83.50886980      45.65665728      91.72842967
O      81.62859211      46.91899446      91.29379262
N      84.39893089      45.27493257      93.87515877
H      83.51075952      46.11586078      95.34158638
H      85.80299754      44.00314676      94.09436702
C      82.72463338      46.66388141      86.03279457
O      84.59735215      47.92810831      85.39973624
N      80.38326247      47.61441374      85.84571166
H      78.76754648      46.71301429      86.31625351
C      80.14704668      50.24869222      84.90273823
H      80.90293721      50.50569500      83.00356328
C      77.23686816      50.78726422      84.46810118
H      76.66428109      49.20745303      83.27757360
C      75.55690147      50.77781559      86.85293578
H      76.01988442      49.02603930      87.83181402
H      73.57268884      50.64742448      86.31625351
H      75.91594947      52.31038363      88.18519284
C      76.42617557      53.21745226      83.08671124
H      76.61892766      54.88986005      84.27156964
H      74.36826362      53.18343719      82.99033520
C      77.35403119      53.44043997      80.41463823
H      76.86648181      55.22245188      79.50190043
H      76.38838105      52.09306511      79.19009559
H      79.39871506      53.18532691      80.41841769
C      81.27332357      52.22912540      86.72065493
O      81.89315380      54.22656611      85.93641851
N      81.26765439      51.67921504      89.19619641
H      81.00498243      49.87263669      89.75555540
C      82.18984083      53.53681601      91.16718096
H      80.76876664      55.02592034      91.10859944
C      82.01409628      52.28203774      93.75232655
H      83.65248900      51.04237728      93.59547927
H      80.42861591      51.00269302      94.05090331
C      82.55644773      53.80137769      96.02566730
C      80.92750365      55.80259786      96.43762765
H      79.35525136      56.17865339      95.19418773
C      81.20340369      57.42965221      98.61837181
H      79.85035965      58.94899217      98.78655744
C      83.13281426      57.00257407     100.44006798
H      83.21407249      58.32349276     101.99342300
C      84.79010424      54.87285251     100.12070422
H      86.12425101      54.32861133     101.56634485
C      84.60869051      53.39508654      97.82279702
H      85.83323316      51.80582671      97.45619013
C      84.90159809      54.47789971      90.70230829
O      85.55922285      56.73801238      91.01033367
N      86.53432162      52.75068986      89.94074858
H      85.85402015      50.97056768      89.87838761
C      89.19883572      53.16642965      89.10548954
H      90.28164890      54.27569900      90.46042331
C      90.57455648      50.63041694      89.12438681
H      92.42270881      51.10851770      88.34959903
H      89.61835497      49.42666128      87.75055579
C      90.60668183      49.14131260      91.58481047
H      91.54587580      47.35552124      91.17473985
H      88.62435893      48.76714679      92.00243999
C      91.90870326      50.47734911      93.73153957
O      93.43371239      52.22723567      93.25532853
O      91.25485795      49.94255656      95.90472483
C      89.46150768      54.39664148      86.47688025
O      91.36824153      55.52102864      85.89106509
N      87.60201699      54.19255104      84.90273823
H      86.02409552      53.32705639      85.53390682
C      87.53776630      55.17331900      82.25334194
H      89.30277067      55.08261213      81.19887465
C      85.30977897      53.63697150      80.91919515
H      83.51453897      54.36829559      81.61461445
H      85.62536327      51.61307462      81.14407259
C      85.49497215      54.28325790      78.03358308
H      86.67605110      53.11540704      76.81659934
H      86.19417089      56.21455819      77.87484606
S      82.58290390      53.55571327      76.56526573
C      81.21852150      56.65108497      76.41975681
H      79.36092054      56.49234796      75.54670325
H      82.50920458      57.82649474      75.32749500
H      80.83679679      57.30493028      78.33593929
C      86.88392099      57.98712148      82.56514678
O      88.18216297      59.59905802      81.65429870
N      84.93183371      58.58805444      83.83882232
H      83.85846916      57.18209807      84.55880803
C      83.89815342      61.00123494      84.64762518
H      83.63359173      62.12562210      82.94309204
C      81.23552904      60.85383629      85.85327057
H      80.98797489      62.75301124      86.61294054
H      81.19962424      59.39874703      87.31024955
C      78.98297528      60.63840749      84.05236138
H      79.24375751      58.84505722      83.07726261
C      76.67184000      60.34738964      85.70209245
H      76.24287212      62.20877006      86.47499052
H      76.87215098      58.96410998      87.21765296
H      75.05423427      59.62740392      84.65329435
C      78.79400264      62.82671056      82.06436930
H      80.32846041      62.57348724      80.71132526
H      78.90927595      64.77123894      82.73144269
H      76.98742429      62.56781806      81.11005752
C      85.82756398      62.43175776      86.26901036
O      85.76709274      64.77123894      86.21798775
N      87.55855328      61.12784661      87.56725232
H      87.62658343      59.24945865      87.21765296
C      89.51819947      62.29191802      89.12438681
H      88.41648903      63.46165860      90.41318016
C      91.05643669      60.28691840      90.57758635
H      92.37735538      59.47433608      89.22076286
H      89.75441526      58.89985928      91.36938167
C      92.57010747      61.18264867      92.80935313
H      91.25296823      61.95176728      94.19263279
H      93.77197340      62.67931191      92.06291123
C      94.19149264      59.01702232      94.15861770
H      95.33855652      59.75590530      95.70252411
H      95.50674216      58.17420438      92.81502230
N      92.60034309      56.91186720      95.10348087
H      92.67026296      55.23379024      94.19641223
C      91.98051286      56.63785689      97.49587437
N      92.09200671      58.50868594      98.99064789
H      91.29832166      58.62395924     100.72163719
H      93.09356166      59.93542930      98.21586011
N      91.02053189      54.51947369      98.47853206
H      90.78242637      54.14530788     100.33613303
H      91.12257711      53.00958237      97.31635037
C      91.23407096      63.98322307      87.69197426
O      91.81421694      66.13373161      88.44408533
N      92.13736014      62.94198387      85.60760615
H      91.50430183      61.19398703      85.17863827
C      93.98551247      64.11739364      83.90118329
H      94.88313247      65.44587123      85.19564580
C      95.71272233      62.11050429      82.78624475
H      97.17348077      62.89096126      81.56170211
C      97.12245815      61.03902947      85.07659305
H      99.01407419      60.46266295      84.49644706
H      96.16247719      59.34583469      85.74933562
H      97.37946093      62.41475023      86.58648437
C      94.38424473      59.86550943      81.40296509
H      92.68349105      59.39685731      82.46688101
H      95.78075247      58.34994893      81.43509045
C      94.12157277      60.54392118      78.49278657
H      95.68815588      61.70610286      77.83327209
H      92.42648827      61.60972682      78.00712692
H      94.21794881      58.80726270      77.39107614
C      92.69671913      65.69153565      81.92830901
O      94.08188852      67.04646942      80.81903967
N      90.17771395      65.57059317      81.55981238
H      89.30843985      64.03046622      82.27412892
C      89.01364255      67.25055986      79.75134430
H      90.02275640      67.21465506      77.95799403
C      86.45306339      66.17530559      79.36206068
H      85.30977897      66.50033852      81.04391709
H      86.68549973      64.12873199      79.37528877
C      85.04521729      66.98788790      77.01880005
O      85.96929346      66.34538096      74.92120385
O      82.93061354      68.01211957      77.27580282
C      88.83600827      69.94153013      80.58093415
O      88.97584802      71.77645438      79.12773462
N      88.73585278      70.40262335      83.02435028
H      88.33901025      68.87572449      84.10149426
C      88.63569728      73.09926280      84.02968467
H      89.26686587      74.30679791      82.48388854
C      86.07133868      73.76822592      84.69675806
H      86.16960444      75.08914461      86.27656925
H      85.19072621      71.98621400      85.23533006
C      84.61624942      74.78300895      82.40640977
H      82.63392651      74.91151033      82.95254068
H      84.78065560      73.49232587      80.80959103
C      85.33434541      77.50988402      81.68264459
O      86.00708798      78.96119382      83.31536813
O      85.30599952      77.99743340      79.39229630
C      90.32511261      73.41295737      86.48821861
O      91.34745454      75.49165631      86.88317140
N      90.75030103      71.50433379      88.10015515
H      90.22306739      69.72043215      87.67685646
C      92.33578140      71.57614339      90.47743085
H      94.08566797      72.54935244      89.98799174
H      92.77797736      69.69397598      91.18796794
C      91.03187025      72.95564360      92.58636542
O      89.84701185      74.95119459      92.15739755
N      91.54398608      72.13928183      94.89939043
H      92.61357117      70.57458845      95.12993703
C      90.25519273      73.15595459      97.16328255
H      88.27853901      73.39217038      96.63982836
C      90.24385438      71.12638853      99.28733492
H      92.17326494      70.74844327      99.89771653
H      89.44450014      69.38217114      98.53522385
C      88.60546166      71.63850436     101.71752296
H      88.95695076      73.46209025     102.61136350
C      85.77654137      71.67629889     101.03155231
H      85.12458579      70.06814179      99.92228297
H      85.24174882      73.36193476      99.97330557
H      84.73152272      71.54401805     102.80222586
C      89.36513164      69.73743969     103.84535478
H      88.94750212      67.78913186     103.32001088
H      88.36735615      70.28735005     105.56311600
H      91.39091825      69.95853767     104.14204181
C      91.01675244      75.78267417      98.02877720
O      93.16159180      76.15117080      98.89994103
N      89.52953783      77.77444570      97.37871134
H      87.74374646      77.35870591      96.85147771
C      90.09267627      80.27455361      98.36325876
H      92.14113959      80.47108515      98.48987041
C      89.14025421      82.33813475      96.58502630
H      89.48040494      84.21085352      97.37682161
H      87.15037240      82.03010936      96.14283033
C      90.68227088      82.34947310      94.10192592
H      90.78242637      80.49187214      93.21564428
H      92.57577665      82.84458140      94.74065341
C      89.87535774      84.40171588      92.17440508
H      90.05110229      86.36514152      92.76777915
H      87.90437320      84.04455761      91.69441459
N      91.17548945      84.05022678      89.68941498
H      92.35467867      85.52043386      89.38138959
C      90.45172427      82.84269167      87.69197426
N      88.21050886      81.63893601      87.53512699
H      87.94783690      80.56179201      85.97988222
H      87.31477859      81.21941677      89.16785051
N      91.80476831      82.95985470      85.69264383
H      90.85045652      82.51009984      84.10338400
H      93.24096031      84.21841243      85.70587191
C      88.90025897      80.69974203     100.93706599
O      86.84423674      79.68117955     101.47374826
N      90.12858107      82.18317719     102.50364911
H      91.78209159      82.68206493     101.68917707
C      89.73362827      82.52332792     105.26264953
H      88.18594242      81.32713117     105.90515647
C      92.23562591      81.51988325     106.47396409
H      92.23184646      82.02821963     108.46951508
H      93.93448986      82.47419504     105.80122153
C      92.41892936      78.71930886     106.32278599
H      92.79687462      78.06924300     104.40660351
C      94.50896666      77.72153336     108.07645201
H      93.98740220      77.41728743     110.04365710
H      96.07366005      79.03867260     107.82889786
H      95.20060649      75.95274953     107.27709778
C      89.99818995      77.09225450     107.08623542
H      90.34778932      75.06457817     107.05411007
H      88.43160684      77.66484157     105.88059003
H      89.37080082      77.57791416     108.98918982
C      89.07600351      85.21618792     106.25664556
O      89.12513640      85.89648939     108.58667811
N      88.24452394      86.87536762     104.50297955
H      88.33901025      86.26687575     102.69640118
C      87.35635257      89.38870362     104.88092481
H      86.56833670      89.61169132     106.77254085
C      89.62969332      91.21417924     104.65226793
H      91.08100313      90.87402850     106.07334212
H      88.90025897      93.12280281     104.90738098
C      91.01297298      90.85135179     102.03121753
H      89.45583850      90.85891069     100.68006322
H      91.97862313      89.03343507     102.04066615
C      92.85923559      92.94516854     101.59658047
H      91.97484368      94.79710033     101.75720722
H      93.37891033      92.74485755      99.61236785
C      95.13257635      92.90170483     103.43528418
H      95.61445656      90.91371275     103.67149997
H      94.72628519      93.58578576     105.33445913
N      97.23584173      94.36246327     102.28822031
H      96.61979096      95.71928677     101.09580301
H      98.38857478      93.27965010     101.21674549
H      98.14668982      95.22039902     103.72819175
C      85.21340293      90.10302017     103.14237660
O      84.79010424      88.57990076     101.41516675
N      83.65059927      92.13069650     103.45040198
H      84.21184798      93.46862273     104.69006245
C      81.91583051      92.91871237     101.47185854
H      80.87837077      91.25953267     100.82746187
C      79.97886104      94.92749144     102.60380461
H      80.80278172      96.81343830     102.55845117
C      77.55056273      95.10512572     100.93706599
H      76.35247625      96.63580403     101.61169829
H      76.75876741      93.20595077     101.03911122
H      78.12881898      95.52842441      99.00576571
C      78.85636361      94.24152079     105.15682485
H      80.41160837      93.77286866     106.42105176
H      77.58457780      92.62013561     105.07178717
C      77.20852227      96.21817451     106.42672094
H      77.38237709      95.95172310     108.46195617
H      75.21675073      96.04620942     105.93350237
H      77.80756551      98.16081316     106.10168800
C      83.21029304      93.67460290      99.00009653
O      85.18883649      94.88591746      99.08891365
N      82.34290866      92.71840138      96.81746263
H      80.74231047      91.69227999      96.98186881
C      83.35580196      93.23240694      94.29656773
H      84.32712129      95.04465447      94.39294378
C      85.21340293      91.12347237      93.71642175
H      86.32078255      90.97040454      95.44552133
H      86.38881270      91.66771355      92.11771329
C      84.10791304      88.45706855      93.10792987
C      83.91894041      87.73141364      90.61727060
H      84.62380832      88.87469806      89.08092310
C      83.20462386      85.25965162      90.07302942
H      82.86825258      84.69840291      88.13983941
C      82.52621211      83.56078767      91.89850503
O      81.87047708      81.13059963      91.36560222
H      81.81378529      80.87926603      89.57036222
C      82.79266352      84.16927954      94.44963556
H      82.35802647      82.80111769      95.90094536
C      83.61091502      86.68261554      95.00710482
H      83.97185274      87.22496699      96.94218457
C      81.29411056      93.41004121      92.29345783
O      79.16060955      92.94138909      93.05123809
N      81.97630176      93.85223717      89.90862322
H      83.76776230      94.49096466      89.72531978
C      80.07712681      94.39269890      87.92441061
H      78.16850324      94.33978656      88.70297785
C      80.49286660      97.00241093      86.76033920
H      79.25320614      97.22161919      85.12950539
H      82.36180592      97.23106782      85.92508016
C      80.19995902      99.18126537      88.65951414
H      81.59457704      99.09622769      90.17318492
H      78.30834298      98.97150575      89.44753001
C      80.29444534     101.69082192      87.09671048
H      78.58235330     101.74184453      85.95531578
H      81.98952984     101.73428562      85.92508016
C      80.24720218     103.97928048      88.89761965
H      81.77977022     103.50117972      90.19208218
H      78.46141081     104.13045859      89.91240269
N      80.50798441     106.48883703      87.61638522
H      80.41727755     107.82676325      88.97509844
H      79.09446913     106.82331858      86.37861448
H      82.20306891     106.44726305      86.74144193
C      80.12059052      92.38958900      85.83626303
O      82.12747986      91.74519233      84.85549506
N      77.85102921      91.56944778      85.16163074
H      76.30712282      92.43305271      85.87216783
C      77.57701890      90.05010783      82.84104681
H      78.82045881      88.41360484      82.70309680
C      74.81045958      89.02020699      82.94687149
H      73.56701966      90.65482025      82.81081119
H      74.45519103      88.28132400      84.83659780
C      74.45897048      86.88670598      81.07604244
O      73.21553057      87.34213002      79.05403528
O      75.46052543      84.76832278      81.37839865
C      78.01921486      91.61102176      80.56014716
O      77.82835250      93.95239266      80.60361087
N      78.27432791      90.47529625      78.30570367
H      78.66550126      88.61580556      78.11484132
C      78.31779161      91.93794442      75.92464852
H      79.75398361      93.38358504      76.21566637
C      79.47808357      90.43939145      73.71177900
H      79.41383288      91.37291625      71.87685475
C      82.21062782      89.51531528      74.16720305
H      82.38448264      88.36825141      75.86984646
H      83.39548622      91.19528197      74.24279209
H      82.69817721      88.17171987      72.68187817
O      77.91905936      88.21896303      73.46800431
H      78.47085945      87.76542872      71.80126569
C      75.76288164      93.02831650      75.23489841
O      75.70430012      94.58923043      73.57382897
N      73.70685941      92.02487183      76.40841845
H      73.84669916      90.51120105      77.56304123
C      71.20486177      93.22862749      76.27046843
H      70.81746788      93.85979608      74.35050650
C      69.06002241      91.49196901      77.18131652
H      69.38316561      91.11969292      79.18064696
H      69.43418822      89.75720025      76.13251840
C      66.31425007      92.29510269      76.78825344
H      65.93252536      94.12624749      77.64618918
H      65.06325125      90.94772783      77.71799879
C      65.52812393      92.44061161      74.01413522
O      64.98199302      94.58734071      72.99935219
O      65.05191290      90.41860446      72.79904120
C      71.03289668      95.78920664      77.63107138
O      69.54946152      97.41815072      76.91864456
N      72.82624695      96.15014437      79.39985521
H      74.21141634      94.84623321      79.56426140
C      73.14372097      98.39702895      80.90407735
H      72.21586535     100.07699565      80.15952519
H      75.11659524      98.93371123      81.16108012
C      72.28578522      98.14569535      83.61016543
O      73.20986139      99.47228322      85.31280883
N      70.55668565      96.36557317      84.12606072
H      69.94630405      95.39992302      82.59727213
C      69.51733617      95.85156761      86.62994808
H      68.83514498      97.70160967      87.22521187
C      67.31013584      94.07711460      86.27090008
H      66.60526793      93.78987620      88.18519284
H      68.05657773      92.16660130      86.06114046
C      65.08781770      94.88402774      84.72888341
C      64.16563126      93.29287818      82.87884134
H      64.93097041      91.44850530      82.45932210
C      62.07370423      93.94294403      81.55036374
H      61.32915206      92.82800551      80.01023681
C      60.89829446      96.25785877      81.93586792
O      58.79124962      96.70005472      80.56392661
H      57.99756457      98.28553510      80.94565133
C      61.85827543      97.91325902      83.66307776
H      60.88506638      99.66881476      84.03346413
C      64.06925521      97.28398015      85.07659305
H      64.83270464      98.57277350      86.46365216
C      71.57335840      94.85946129      88.42329835
O      73.38371621      93.57255768      87.73732770
N      71.32769398      95.36023877      90.93474461
H      69.85559718      96.49974373      91.35237414
C      72.89049764      94.60245852      93.03423056
H      74.82935684      94.83489485      92.38038524
C      72.47664758      96.08400395      95.42851379
H      73.14939015      95.08433873      97.09714213
H      70.51700139      96.42793413      95.96141662
C      73.84858888      98.59167076      95.02978153
C      72.39538935     100.88768823      95.07135552
H      70.37716165     100.67792861      95.30190212
C      73.41017238     103.32543518      94.68207190
H      72.22153453     104.97705597      94.54412188
C      76.07279675     103.50117972      94.40806158
O      76.98364484     105.91624995      94.15861770
H      75.63438025     107.07276246      93.79012108
C      77.66205658     101.30531775      94.30790608
H      79.67461511     101.46972394      94.00932933
C      76.53577970      98.78442285      94.69152053
H      77.47497368      96.99296230      94.95986167
C      72.37460236      91.86235536      93.69563477
O      70.23354245      90.88914631      93.48587515
N      74.59881023      90.66048943      94.30790608
H      76.12570909      91.80566357      94.28333964
C      75.12037469      87.92416573      94.29278828
H      73.36481895      86.85080118      94.18129443
C      76.89104825      87.03410463      92.03456533
H      78.90927595      87.37047592      92.27078112
C      76.47908791      84.25998641      91.64528172
H      77.75654290      83.39638148      93.01155384
H      77.19718391      83.65716371      89.81035747
H      74.52133145      83.64771508      91.82480571
O      75.91783920      88.20573495      89.80090883
H      77.15560993      89.45295431      89.35115397
C      76.57924341      87.24197453      96.72675577
O      77.69040248      88.82556518      98.04956419
N      76.31846117      84.77588169      97.38249080
H      75.25265553      83.55133904      96.37715640
C      78.01921486      83.73464249      99.33457808
H      79.89571309      84.58312960      99.37804179
C      76.82112837      84.19384598     102.02743808
H      76.64160437      86.24230931     102.12759356
C      74.14716564      82.97875197     102.35625046
H      72.84325449      83.96140965     101.10336190
H      73.47442307      83.44362464     104.24408704
H      74.28889511      80.94162700     102.07846069
C      78.51243342      83.31890270     104.32723499
H      79.12659448      81.36681542     104.09479866
H      77.49576067      83.78566510     106.05633458
C      80.99364407      84.74564607     104.40471378
H      81.93850723      84.26187613     106.16971815
H      80.53444058      86.75442514     104.38770624
H      82.25787098      84.54911453     102.79088751
C      78.58046357      80.90194275      98.75254238
O      77.00065237      79.69818709      97.52233055
N      80.64215498      79.72464325      99.64071374
H      82.09724424      80.75076464     100.32857412
C      81.21285233      77.00343736      99.16072326
H      79.70485073      75.68818785      99.64827265
H      82.51865321      76.25132629     100.56290019
C      82.15204630      76.57824894      96.55101122
O      84.06633906      77.71397446      95.91795291
N      80.78199473      75.14205695      95.01466373
H      79.14171229      74.55624179      95.79512070
C      80.73286184      74.96631240      92.26889139
H      82.00653738      76.31368726      91.37505085
C      81.90260243      72.20920171      91.39772756
H      80.92939338      70.74844327      92.47487157
C      81.15238108      71.67629889      88.59715317
H      79.14360201      71.23977211      88.47054150
H      82.13125931      69.98499384      87.94897705
H      81.68906336      73.39406011      87.59559823
C      84.68994874      71.74432903      91.91551258
H      85.10757826      72.19975308      93.88082793
H      85.80866672      72.79312714      90.54168155
C      85.67449615      68.98343889      91.90795367
H      84.41026925      67.99700176      93.20052647
H      87.51508958      68.90218066      92.83014010
H      85.73685712      67.98377367      90.10893422
C      77.96630252      75.37260356      91.43930155
O      76.27688720      73.78334373      91.77189338
N      77.41450244      77.60437033      90.43774660
H      78.87337115      78.82891298      90.56057881
C      74.99754248      78.33191496      89.28879300
H      74.48542665      76.74076541      88.08692706
H      75.33769322      79.98542549      88.10771406
C      72.66373049      78.64183008      90.97442888
O      70.66817950      79.13315892      89.91429240
N      72.84892366      78.48876225      93.42729363
H      74.56857461      78.44151909      94.25688348
C      70.79290144      79.06890822      95.05434797
H      69.02600733      78.24309782      94.38727460
C      71.18974396      77.79334296      97.65083193
H      72.34625646      78.99898835      98.85647733
H      72.00043655      75.91306528      97.43162369
C      68.74254839      77.48531757      99.33079862
N      67.74288317      75.10426242      99.92795215
H      68.44586135      73.49232587      99.18717942
C      65.70008902      75.50488440     101.40193867
H      64.46798747      74.04223623     102.11247576
N      65.43174789      77.97664641     101.74208941
H      63.82548052      78.81190544     102.34869155
C      67.14195020      79.24465277     100.30400768
H      67.01155908      81.25910102     100.00354119
C      69.84425883      81.78633466      95.04489935
O      70.94974872      83.52110342      96.23731666
N      67.69375028      82.16805938      93.82602587
H      66.59959875      80.67706532      93.35359430
C      66.55235559      84.63982139      93.53878748
H      68.18129967      85.76231882      92.97375931
C      64.65129092      84.66627756      91.21064466
H      63.29824688      83.14504788      91.51867005
H      65.76244999      84.08613158      89.57603140
C      63.09793589      87.06434025      90.69474938
H      62.07370423      87.62180952      92.39361333
C      64.67018818      89.58145570      90.14294930
H      65.80780342      90.11435852      91.77378311
H      63.27934962      91.09323675      90.01444790
H      65.47710132      89.53799200      88.24755381
C      61.19876094      86.81867583      88.49888741
H      59.82492991      85.37303520      89.01289295
H      62.16819054      86.13837436      86.81514126
H      60.25389779      88.63470282      88.26834079
C      65.25222389      85.46941125      95.98976251
O      63.70075858      83.97841718      96.94785375
N      65.87772330      87.72763419      97.00265581
H      67.09470704      88.81422682      96.01054950
C      64.96498549      88.76887339      99.37804179
H      64.49066418      87.34590947     100.78966734
C      67.15706801      90.27687499     100.60636389
H      66.42763365      91.29354774     102.24286688
H      67.80335441      91.79243549      99.37048288
C      69.46253411      88.60446720     101.59847020
H      70.14283558      87.58212526      99.94306995
C      71.73776459      90.12758661     102.39593471
H      72.14594548      91.65259574     101.07501602
H      73.33836278      88.95028711     102.94017589
H      71.10092682      91.12725183     104.07968086
C      68.72365112      86.84891145     103.74708902
H      68.07358527      87.96762943     105.34957694
H      70.41684590      86.01176270     104.57100970
H      67.62194068      85.21807765     103.13859715
C      62.56881252      90.25797772      98.96041227
O      60.55247455      89.65704476      99.89393707
N      62.74077762      92.14581431      97.28044558
H      64.54735597      92.59367945      96.86848525
C      60.52412865      93.67082344      96.48865026
H      58.83093387      92.51431094      96.31668516
C      60.14618339      95.74763266      98.45018617