 %block lattice_cart
   140.777   0.000   0.000
   0.000 144.511   0.000
   0.000   0.000   162.462
 %endblock lattice_cart

 %block positions_abs
N      89.41898883      43.84629948      76.79392261
H      87.89586943      44.08818444      75.67142519
H      89.09584563      42.27215746      77.82193373
H      90.78148150      43.93511661      75.45977584
C      89.85551562      45.97980048      78.50979412
H      91.43721654      45.19367434      79.56993058
C      90.53581708      48.44778305      77.20210350
H      88.89742437      49.08084136      76.12306978
H      92.14964335      48.35518646      75.92464852
C      91.18399321      50.52081281      79.17308804
H      92.71467152      49.70823050      80.28424711
H      89.41331966      50.90253753      80.15574573
S      92.29137284      53.38941736      77.80681592
C      95.71555692      52.54281997      77.12840417
H      95.97822887      51.11985605      75.66197655
H      96.69065568      52.03070414      78.86884212
H      96.78703173      54.21711748      76.58605273
C      87.74469132      46.13286831      80.42786631
O      85.49591702      46.16310394      79.62851209
N      88.38341881      46.21034709      82.82970847
H      90.20889443      45.91554979      83.29836058
C      86.61463499      46.73758073      84.93486358
H      85.11797175      45.32784491      85.04446770
C      87.82783929      46.62041770      87.56158314
H      89.57394640      47.69378225      87.35749270
H      88.34562429      44.63242562      87.71276126
C      86.36897056      47.42922057      89.88405678
O      84.04460721      47.37819795      89.88027733
N      87.75036051      48.23613370      91.69819405
H      86.94344736      48.33062002      93.42351418
H      89.63252791      48.33250974      91.39205838
C      85.23702450      49.28304208      84.52668270
O      86.51825894      51.22757045      84.13172990
N      82.72935768      49.19422494      84.63628682
H      81.84118632      47.63331101      85.28257321
C      81.09096497      51.47701433      84.26590046
H      81.49158696      52.01747605      82.31759264
C      78.24314742      50.75324915      84.19220114
H      77.91244531      49.05249547      83.07915234
C      77.13387807      50.31483265      86.73955220
H      78.32251593      48.99769341      87.78268113
H      75.21580586      49.65909761      86.36727612
H      76.97703079      52.15164662      87.65795919
C      76.71246910      52.76958713      82.77679613
H      76.79750680      54.67065180      83.56670173
H      74.74526402      52.16298498      82.75789886
C      77.43434455      53.14753239      80.01212652
H      77.94646040      51.37118965      79.10505789
H      78.98014069      54.47034081      79.69843196
H      75.90366625      54.05082157      78.97088733
C      81.70890547      53.70689138      85.82114522
O      81.56150683      55.81393622      84.88762041
N      82.64998919      53.32705639      88.13228050
H      82.63865082      51.56772119      88.86927375
C      83.53060164      55.27914367      89.74610677
H      82.05283567      56.71344594      89.78201157
C      83.58729343      54.40986957      92.48809965
H      84.45656754      55.80448758      93.72964984
H      84.63231208      52.63730628      92.59959351
C      80.93600742      53.85240030      93.61059707
C      80.31428747      51.24835744      93.71831148
H      81.37442393      49.80271681      92.74132298
C      78.22236043      50.35829635      94.97308975
H      77.61386856      48.41187825      94.97497947
C      76.55751155      52.09495483      96.11259472
H      74.96258255      51.40898418      97.18595927
C      77.12253971      54.73679222      96.05401320
H      75.65611209      56.05771091      96.57179822
C      79.17289277      55.64575057      94.53467324
H      79.46391062      57.64697074      94.25499375
C      86.17432876      56.32605205      89.02612104
O      86.53715621      58.64474623      89.14328407
N      87.88453107      54.65931344      88.12094214
H      87.49335773      52.79793302      88.28534833
C      90.36574171      55.56449234      87.12127692
H      91.11596306      57.05737613      88.32503259
C      92.31593928      53.14564266      86.93230428
H      91.59595354      51.87952603      85.47721502
H      92.54459615      52.19133087      88.74266209
C      95.07493969      53.84295167      86.17830348
H      95.73634390      55.45110876      87.28568311
H      95.04659380      54.57049630      84.25267238
C      96.95143792      51.64708970      86.28034870
O      98.70888339      51.54882393      87.93952841
O      96.43176318      49.88775450      84.81392109
C      89.89331014      56.94588228      84.58337449
O      91.34839941      58.62017979      83.87850657
N      88.01492218      56.33550068      83.20954345
H      86.94911655      54.89741895      83.86905794
C      87.32328236      57.55815360      80.77746569
H      89.04671275      57.46177756      79.65307852
C      85.33340054      56.15597668      79.12962434
H      83.57406535      55.91976089      80.17086353
H      86.11763697      54.25302228      79.21655175
C      84.70979087      56.94210282      76.43865407
H      86.23857946      56.49801714      75.13096347
H      84.44522918      58.98678670      76.44999243
S      81.97724661      55.37551971      75.07616139
C      82.83896182      56.03692392      71.68410266
H      84.64931963      55.20544434      71.16064847
H      82.59896657      58.05326190      71.34206220
H      81.35741638      55.32449710      70.44444221
C      86.41432399      60.23778551      80.98911503
O      87.53115225      61.99901044      79.90252240
N      84.55105385      60.71021709      82.49144745
H      83.26603997      59.44599019      83.11505714
C      83.83673730      63.27835515      83.13962358
H      83.49847629      64.42730875      81.46343634
C      81.38765201      63.29347296      84.61927929
H      81.72402329      64.77690812      86.00822812
H      81.42733626      61.57571174      85.75500479
C      78.86675711      63.36717229      83.17741810
H      78.70046118      65.27957532      82.42908648
C      78.78360914      61.28658362      81.12328561
H      79.39965993      59.53291760      82.00956724
H      79.92122438      61.79303027      79.48111343
H      76.86931639      60.66297394      80.69242801
C      76.57640882      62.78135713      84.84415671
H      76.04539571      64.25156420      86.18775213
H      76.84663968      60.92186644      85.68697464
H      75.08163530      62.44309612      83.46654623
C      85.89464926      64.71076770      84.63061763
O      86.11196778      66.98977763      84.33393061
N      87.49146799      63.50512231      86.17074458
H      87.10407410      61.71744122      86.71498576
C      89.62496900      64.64651700      87.52189889
H      89.17710386      66.39262412      88.51778466
C      90.99124112      62.94954277      89.48154508
H      92.92632087      63.63173397      89.67618690
H      91.06116101      61.15997196      88.46487232
C      89.53048269      62.73789343      91.97976327
H      87.53682142      62.31081528      91.70197350
H      89.32639224      64.44242656      93.11548878
C      90.55282462      60.60439242      93.61248681
H      92.59561876      60.43998623      93.42162444
H      89.82150054      58.87718257      92.76210997
N      89.75536013      60.79903423      96.22408856
H      88.51947911      59.51591006      96.90439004
C      90.61707531      62.33727145      98.03444637
N      92.23657077      64.00778951      97.75098743
H      93.16820584      64.87706361      99.17395135
H      92.85262155      64.57659713      96.03511593
N      89.73835259      62.02357688     100.30022822
H      89.86307453      63.23111199     101.77421474
H      88.80482778      60.39085335     100.63848924
C      91.50713641      65.47610685      85.46587666
O      92.96600513      67.29969275      85.81169658
N      91.62618918      64.26290256      83.22088181
H      90.56605271      62.71521671      82.86183381
C      93.31371476      65.03958008      81.10438834
H      94.92754103      65.87483911      82.06814876
C      94.10173065      62.70954753      79.49434152
H      92.42743312      61.51146105      79.46788535
C      94.63274373      63.24434008      76.69943631
H      96.03114121      64.74289305      76.48400750
H      92.88852635      63.91519292      75.82827248
H      95.15052875      61.56059393      75.63363066
C      96.26924672      61.43965145      80.94943079
H      95.68343157      61.05036783      82.88640025
H      97.90952917      62.68309136      80.90407734
C      96.74734747      58.70710720      79.86661760
H      97.45599484      57.45232893      81.33871440
H      98.18164975      59.03025040      78.42475642
H      95.06360133      57.83216392      79.06537364
C      92.34050572      67.03891052      79.47544425
O      93.72945455      68.71698748      78.57971398
N      89.91787658      67.25433931      78.96143869
H      88.59884762      65.92019254      79.31670725
C      88.59317843      69.26689784      77.71610906
H      89.42654774      69.67129927      75.87551563
C      85.75480952      68.35793948      77.40808368
H      84.67199633      70.10404660      77.27202338
H      85.21056834      67.13528656      78.97466679
C      85.31261355      67.11260984      74.81726889
O      83.21690707      66.34916041      74.07271672
O      87.08517685      67.19008862      73.16753783
C      88.65931886      71.62716600      79.26568463
O      89.51536487      73.56224575      78.20365845
N      87.95823039      71.58559202      81.76579255
H      87.45367347      70.03601645      82.75600913
C      87.56138788      73.96286773      83.22655098
H      88.08295233      75.53134057      81.99822889
C      84.72490867      73.99310335      84.02212576
H      84.42066274      75.29701450      85.58681916
H      84.37719903      72.06936196      84.67597106
C      82.96179402      74.35026162      81.72610829
H      81.09096497      74.24254722      82.58026459
H      83.21312762      72.66840520      80.56203688
C      83.37186464      76.76722157      80.16708408
O      83.44934341      78.75899311      81.27635344
O      83.39643108      76.81824419      77.75957277
C      89.13364017      74.11215610      85.66240820
O      89.42843747      76.16817833      86.68663986
N      89.94055330      71.95597838      86.86238442
H      89.75724984      70.24955552      86.02901510
C      91.10651444      72.15439964      89.48721427
H      92.51813999      73.65484234      89.46831700
H      92.10617966      70.46687405      90.11460339
C      88.95978535      72.51344764      91.46197825
O      86.87730694      73.47531834      90.91773708
N      89.50969570      71.77267493      93.73531901
H      91.37107611      71.40417830      93.92240191
C      87.89397970      72.18463527      95.72898027
H      85.95889995      72.01267017      95.04489935
C      88.48924350      70.07570070      97.86437101
H      90.34117527      70.45931514      98.68451222
H      88.69900312      68.26723262      96.90250031
C      86.76014391      69.78090340     100.18117546
H      86.14787258      71.54212832     101.05611875
C      84.34696342      68.45242580      99.36292398
H      83.33973929      67.91007435     101.07501601
H      84.82128471      66.94442420      98.04389500
H      83.24714270      69.69586571      98.14594023
C      87.92232559      68.13117232     102.17105728
H      86.78282064      67.85716201     103.86425206
H      89.69488888      68.90029093     102.88348410
H      88.38908800      66.34160151     101.26209891
C      88.45711815      74.83781101      96.77021948
O      90.58683970      75.32158095      97.33146819
N      86.64487060      76.58769757      96.74943248
H      84.94411693      75.99432351      96.12015363
C      86.83573297      79.28433702      97.69996481
H      88.81805586      79.81157066      97.90405527
C      85.63008758      81.14760717      95.75732616
H      86.13653423      82.98820060      96.53778313
H      83.58918317      80.98698043      95.52300010
C      87.16265562      80.90572220      93.29123333
H      87.11352274      78.97631163      92.56935788
H      89.12608126      81.45563256      93.57847173
C      86.01559174      82.83513277      91.33158714
H      85.56772661      84.70974127      92.05913177
H      84.19011613      82.01121209      90.85537611
N      87.48957827      83.28677735      88.95242171
H      89.13741961      84.20707407      89.23210122
C      87.08139739      82.37781900      86.62994807
N      85.27670875      80.76021327      85.97988223
H      85.20489915      80.12715496      84.18086278
H      84.13342434      80.00999193      87.31024955
N      88.34562429      83.21496775      84.75533957
H      87.74469132      82.66316767      83.03190918
H      89.78370602      84.45651794      84.93864303
C      85.78693487      79.53945008     100.42872962
O      84.13531406      78.10325808     101.14115643
N      86.87730694      81.17973252     101.97452573
H      88.20389481      82.37403955     101.29989345
C      86.55227403      81.01721605     104.71651861
H      85.03104433      79.80401176     105.38737147
C      89.02781549      80.26321525     105.96751743
H      88.72923873      79.99487412     107.98763486
H      90.41676434      81.75231959     105.66705096
C      90.28448349      77.67806966     105.01320566
H      90.91943152      77.79712242     103.05922864
C      92.62585440      77.18863054     106.62136274
H      91.99846525      76.74832431     108.53187604
H      93.94677308      78.76655201     106.69128262
H      93.54048192      75.54456865     105.78043453
C      88.75191545      75.37827273     105.40059955
H      87.36863579      75.15906448     103.88692876
H      88.03192972      75.29323505     107.32812039
H      89.64197655      73.55468684     105.05477963
C      85.74158144      83.58913356     105.94295099
O      84.69089360      83.64960481     107.98007596
N      85.76992732      85.53366194     104.38203706
H      86.82439461      85.37303520     102.79844642
C      84.87230733      88.08101301     104.86958645
H      83.34351875      88.23219112     106.24341749
C      87.11163300      89.63436804     105.65193314
H      87.71634542      89.17138509     107.56622590
H      86.40109591      91.51653545     106.08845992
C      89.33773060      89.88003246     103.93984110
H      88.84073258      90.57923120     102.06712232
H      90.35440336      88.08668219     103.98141509
C      91.13675005      91.93605469     104.79021794
H      91.48256997      92.14770404     106.80844565
H      90.19944581      93.66704399     104.18550552
C      93.65764495      91.56377861     103.25387045
H      93.25702297      92.04943827     101.29422426
H      94.41731494      89.64948585     103.31245197
N      95.55493018      93.48185081     103.97763563
H      96.32404879      93.03209595     105.66516122
H      94.87840815      95.26764218     103.96251782
H      97.04592424      93.53287342     102.78710806
C      83.63264686      89.13548029     102.39971415
O      84.09374009      88.11124863     100.36825838
N      81.78260481      90.82111616     102.68506283
H      81.38009310      91.47118202     104.43305968
C      79.83807642      91.41637995     100.80100569
H      78.95179479      89.59468379     100.42306043
C      77.84630490      93.38736450     101.60602911
H      78.82707286      95.19205313     101.72130241
C      75.88476898      93.90325978      99.62937539
H      74.78494826      95.53409359     100.23975698
H      74.64510852      92.34612530      99.09647256
H      76.82207324      94.43427287      97.87381963
C      76.52160675      92.34423557     104.12881373
H      78.09007959      92.07211498     105.43650435
H      75.71091416      90.51120105     103.64693353
C      74.66022634      94.19238791     105.20973718
H      74.10086734      93.64436728     107.11458132
H      73.10687130      94.35868382     103.86614177
H      75.58997167      95.98951763     105.59902081
C      81.18545130      92.19872665      98.38593547
O      82.89943306      93.82578100      98.35947931
N      80.25948539      91.20851006      96.20897075
H      78.86108792      89.91404753      96.30156734
C      81.33284994      91.79054576      93.72209094
H      82.66510700      93.36279806      93.72964984
C      82.68211454      89.48507966      92.66384419
H      84.05405583      88.95028711      94.10192592
H      83.83295785      90.08790235      91.06702547
C      81.08529580      87.24953343      91.90606394
C      80.94167659      86.73741760      89.26233683
H      81.89787811      87.94117326      87.91874143
C      80.01949015      84.47352548      88.31369423
H      80.17066826      83.85180552      86.37672475
C      78.79872696      82.79922797      90.08247805
O      77.58741240      80.66572696      89.23021148
H      77.77260556      80.52210776      87.43119204
C      78.92344890      83.26032119      92.61282159
H      78.01071108      82.02444018      93.95641699
C      80.07807167      85.46752152      93.57469227
H      80.50892927      85.83979760      95.53433846
C      79.10297289      92.48218559      91.94007902
O      77.01671504      91.45795393      92.08369821
N      79.34863731      94.17160092      90.14294929
H      80.86041836      95.33756205      90.13350066
C      77.64221445      94.37758109      87.98677158
H      75.74870868      94.05065843      88.73132373
C      77.47969800      97.00241093      86.90773784
H      76.35342110      96.82666639      85.19375608
H      79.43745445      97.55988020      86.58837410
C      75.91311487      98.92237287      88.40818053
H      76.49326085      98.96583657      90.38294454
H      73.94590978      98.33655771      88.23810517
C      76.01516009     101.58310752      87.38961805
H      75.14399626     101.58877670      85.52445818
H      77.93323230     102.33332886      87.38961805
C      74.49770986     103.54086398      88.72187511
H      75.37265315     103.68637290      90.57758634
H      72.66278561     102.60544945      88.78612580
N      74.16700776     105.92569858      87.22521187
H      75.92256350     106.63056650      86.98143717
H      73.14277610     107.15213096      88.26834080
H      73.40922751     105.48539235      85.53012736
C      77.98047546      92.39714791      85.97421304
O      80.08941003      91.73007452      85.23533005
N      75.96035803      91.52031490      84.94242248
H      74.41645163      92.39147873      85.64918012
C      75.74870868      89.90081945      82.64073583
H      77.11120136      88.36447196      82.46877073
C      73.33174873      88.50620143      83.07348315
H      71.74437864      89.73263381      83.53646610
H      73.73237072      87.42905743      84.78179575
C      72.73081576      86.81111693      80.81337049
O      71.17368128      87.57456636      79.14852160
O      73.80040085      84.73619744      80.64140539
C      75.87909981      91.55999915      80.30125466
O      75.63910456      93.86168580      80.25968067
N      76.18523547      90.20506539      78.13562831
H      76.40633345      88.30778017      78.13940776
C      76.22491971      91.49007928      75.62229231
H      77.90866586      92.66926850      75.75457314
C      76.76727117      89.47752076      73.43398923
H      75.44446275      87.89959928      73.51713720
C      76.72569720      90.71718122      70.65231210
H      77.43245483      89.45862349      69.18399475
H      78.03716725      92.30266159      70.52570044
H      74.74715374      91.19528197      70.34428672
O      79.21446675      88.18305823      73.70799955
H      78.66077694      86.59001895      74.37696267
C      73.82118784      93.03398568      75.10261757
O      73.98748377      94.80465923      73.70233038
N      71.60075943      92.33478694      76.02480400
H      71.55351627      90.60001819      76.81848906
C      69.29529332      93.91459814      75.73000670
H      69.33119813      94.54198727      73.76847079
C      66.90101010      92.28187460      76.19109993
H      66.60054360      92.21951364      78.22633516
H      67.09565190      90.37136130      75.44843748
C      64.41601998      93.23429667      74.83616616
H      64.50105767      95.26386273      75.17820663
H      62.96093072      92.22707254      75.88874372
C      64.14767885      92.84312332      72.00535615
O      62.04630320      91.91715743      71.20600192
O      65.97504419      93.25319393      70.52570044
C      69.39355910      96.33155809      77.58571794
O      67.80240954      97.95294327      77.41564257
N      71.29651349      96.62068622      79.22977983
H      72.72136714      95.35456959      79.27891271
C      71.65934094      98.65025228      81.13840341
H      71.08486414     100.51163270      80.46755057
H      73.64355357      98.72017215      81.68831377
C      70.29117909      98.61434748      83.74244627
O      70.40078322     100.47761762      85.13517456
N      69.32174950      96.48084647      84.48699844
H      69.01939329      95.07111064      83.23599961
C      68.02350752      96.16337245      86.95309127
H      67.45281017      98.01341451      87.66173864
C      65.42324411      94.90859418      86.24822337
H      64.38389464      94.54765645      87.99244075
H      65.66323936      92.95461717      85.63784176
C      63.79052057      96.16148272      84.25078264
C      62.57353683      94.62702496      82.43475567
H      63.05163759      92.64281233      82.36861525
C      60.84821671      95.73629430      80.63951567
H      59.89390492      94.53442837      79.29592025
C      60.47783035      98.35923443      80.79825267
O      59.16258083      99.61212297      78.98789486
H      59.42147334     101.40736297      78.98222569
C      61.83465384      99.80676478      82.50089608
H      61.52095927     101.82310276      82.47066047
C      63.45603902      98.68426735      84.26212101
H      64.32909258      99.80298533      85.72665889
C      69.67701804      94.65726058      88.95242171
O      71.33808748      93.26264256      88.17574421
N      69.03262137      94.84623321      91.39772756
H      67.61154719      96.11423957      91.51867004
C      70.60298393      94.13569612      93.59358954
H      72.61365273      94.39458862      93.23832100
C      69.76205572      95.73440458      95.97086524
H      70.77683875      94.98418323      97.59791960
H      67.77217393      95.38669494      96.37337694
C      70.41590103      98.51797144      95.70441383
C      68.45247539     100.29809362      95.58347134
H      66.51172647      99.70660929      95.78567206
C      68.85687683     103.02685842      95.49843366
H      67.31863960     104.36667438      95.39638844
C      71.39099981     103.71093935      95.29434323
O      72.09775745     106.08821505      94.74065341
H      70.67479353     107.13890288      94.34381089
C      73.44513231     102.03286238      95.30946103
H      75.29328464     102.80576044      94.91828768
C      72.95758292      99.41370171      95.67039876
H      74.52983521      98.11168028      95.69307548
C      70.25527429      91.40693132      94.20775059
O      68.27862057      90.53387776      94.49498899
N      72.46058490      90.20317566      94.60459312
H      74.03661665      91.15937717      94.11137455
C      72.44168765      87.47819032      94.60081367
H      70.52361543      86.84135255      95.00332538
C      73.07474595      86.58057032      91.87015915
H      75.04762023      86.95095668      91.39772756
C      72.78939729      83.74409112      91.28245426
H      73.51883163      83.41905820      89.38327932
H      70.87132507      83.08646637      91.65662008
H      73.96480704      82.58757862      92.51455581
O      71.38533064      87.88448147      90.03712462
H      72.09208828      89.49074884      89.57981086
C      74.44668726      86.59190868      96.50376807
O      76.20413274      87.85235613      96.98186882
N      74.02905774      84.21463297      97.39193943
H      72.42090065      83.51732396      96.63604890
C      75.71280388      82.70852110      99.13993626
H      77.57040485      83.58724384      98.99820679
C      74.74526402      82.99953895     101.98019491
H      74.24259681      84.99320022     102.12381411
C      72.18468487      81.56901614     102.45451622
H      70.59920449      82.15672102     101.27154755
H      71.57241354      82.19640527     104.31589665
H      72.41523147      79.52622199     102.58679706
C      76.70679992      82.47608477     104.05889386
H      77.42678566      80.58068927     103.69039724
H      75.86776144      82.64804986     105.93161263
C      78.81006532      84.45840767     103.92472330
H      80.17066826      83.94062266     102.46963403
H      79.60752981      84.65682893     105.81444960
H      78.12409467      86.34435453     103.46740952
C      75.90744570      79.99676384      98.11570460
O      74.32952423      79.03867260      96.68896125
N      77.89354805      78.75710338      98.98686843
H      79.05572973      79.84180629     100.03944599
C      78.57195981      76.14361189      98.71474785
H      77.14332670      74.93985623      99.58213223
H      80.25570594      75.76944608      99.83913501
C      79.28627635      75.32347067      96.02188785
O      81.17600265      76.21920094      94.95230276
N      77.49292607      73.97042663      94.72364587
H      75.92067378      73.31280187      95.57780217
C      77.39655003      73.72854166      91.97031463
H      78.44723787      75.35370629      91.26733644
C      78.77793997      71.26055910      90.93663434
H      77.60819939      69.57303350      91.10481999
C      78.94234615      71.55913586      88.06047090
H      76.98269998      71.63850436      87.43119204
H      79.66800106      69.73932942      87.42174341
H      80.29161074      73.05768882      87.65229002
C      81.50292531      70.69553093      92.19141261
H      81.32718077      70.30246786      94.20586087
H      82.61975356      72.38116680      91.80212900
C      82.65376864      68.27668125      90.95742133
H      83.69500783      67.03513106      92.23109686
H      84.05216610      68.60927308      89.48154508
H      81.26104034      66.90285022      90.30924520
C      74.73959483      74.12349446      90.99143641
O      73.16923227      72.41518188      91.40717620
N      74.30873723      76.20975231      89.75177594
H      75.76949568      77.40972852      89.49477316
C      71.97114579      76.90706132      88.51400521
H      71.27950595      75.11560078      87.76567360
H      72.60798356      78.38104785      87.22521187
C      69.80362970      77.80090187      90.15428765
O      67.88366777      78.60403555      89.13761489
N      70.09842701      77.67617993      92.62793939
H      71.83697523      77.58925252      93.41028608
C      67.87988832      78.30356907      94.37782596
H      66.20181135      77.47964839      93.51611077
C      68.25594385      76.80312637      96.86848524
H      69.64867215      77.71208473      98.08168954
H      68.90411998      74.89450280      96.44518654
C      65.85977089      76.27400301      98.30845669
N      64.89601047      73.84381497      98.78277800
H      65.71237224      72.20353253      98.25176490
C      62.64345670      74.15561981     100.00921038
H      61.41135515      72.64572849     100.61581252
N      62.42991763      76.61982292     100.58935636
H      61.04663797      77.37382372     101.66272090
C      64.37066655      77.96908751      99.55567605
H      64.67491250      79.98164603      99.68606718
C      67.38666975      81.10414346      94.89183152
O      68.61121241      82.24553816      96.48865026
N      65.48182564      82.15105184      93.57280256
H      64.42357889      80.94918591      92.53156336
C      64.87711321      84.78722005      93.45563953
H      66.65912513      85.81523116      93.32902785
C      63.25194858      85.06689954      91.00655421
H      61.26017704      84.69462346      91.37316112
H      63.76784386      83.62503836      89.62894374
C      63.54674588      87.62558897      89.68941498
H      65.52717906      88.07345411      90.03901434
C      62.98927662      87.43283689      86.87561249
H      64.32909258      86.04766750      86.14806787
H      62.98549717      89.24319469      85.89484454
H      61.10332976      86.69962308      86.49199806
C      62.00283948      89.73830299      90.74577199
H      62.06142100      91.26898130      89.37005124
H      62.75117110      90.36191267      92.56179897
H      59.99972959      89.35279882      91.02734120
C      63.47682602      85.65460442      95.81779742
O      61.88756618      84.26565558      96.69652014
N      64.23271653      87.81834105      96.88360306
H      65.64245236      88.80099874      96.04834403
C      63.40879586      88.65926926      99.39315959
H      62.58487519      86.92639023     100.14338094
C      65.67079827      89.67972147     100.96541189
H      64.88656184      90.42994282     102.71529846
H      66.75361143      90.95528673      99.76543567
C      67.74571775      87.79944379     102.05389425
H      68.54885143      86.60891621     100.57801800
C      69.93969000      89.32445292     103.16694305
H      69.24616044      90.39214829     104.78454877
H      70.56896886      90.61324627     101.68917706
H      71.45336077      88.04510821     103.72252257
C      66.61377169      86.25364767     104.24975621
H      65.17191052      84.88926527     103.70362532
H      65.94669830      87.70306775     105.55366738
H      67.99705135      85.16894476     105.32312076
C      61.34710446      90.68505587      98.99631706
O      59.41769389      90.63403326     100.31723576
N      61.49072365      92.27809515      97.08391405
H      63.04407868      92.40281709      95.97842414
C      59.52162883      93.89381115      96.26566254
H      57.83599296      92.79210071      95.82535631
C      58.92258559      95.92148748      98.23664709