 %block lattice_cart
   140.777   0.000   0.000
   0.000 144.511   0.000
   0.000   0.000   162.462
 %endblock lattice_cart

 %block positions_abs
N      89.00230418      42.26554342      82.45459779
H      88.89836923      40.92005828      81.10533320
H      88.11413282      41.82334746      84.08543160
H      90.84856679      42.14838038      82.91947046
C      88.29176709      44.85635819      81.44359421
H      88.97584801      46.24719676      82.80041771
C      89.43505151      45.22674455      78.77152121
H      88.48262945      43.94928956      77.46572032
H      91.49107374      45.10580206      78.71293969
C      88.60168221      47.84023604      77.79831216
H      86.57400587      47.93283263      77.46005115
H      89.34434465      48.12180526      75.89913721
S      89.61646523      50.35924121      79.71260491
C      88.73018359      52.69872239      77.33154976
H      88.57333632      54.67537611      77.88523957
H      86.94061278      52.16392984      76.46605510
H      89.92071118      52.42282235      75.67048033
C      85.36269130      44.87147600      81.62500794
O      84.10791303      42.90805036      81.05997977
N      84.24586306      47.02765372      82.32042722
H      85.30410979      48.60746492      82.49050259
C      81.64370992      47.39237090      82.82309442
H      80.52877140      46.48530227      81.34532844
C      81.02387970      46.32089608      85.42902701
H      82.05378053      47.37725309      86.86899846
H      81.74953460      44.39526497      85.36477631
C      78.34991697      45.88058985      86.07909286
O      76.63593520      46.35491116      84.67124676
N      77.98708951      44.81289449      88.24849867
H      76.24476184      44.25920468      88.79085012
H      79.63682058      44.61636295      89.18958237
C      80.87081187      50.23073983      82.71349030
O      82.53755046      51.89558871      82.85333004
N      78.48786698      50.84868033      82.75128482
H      77.10269759      49.63547604      82.24483817
C      77.61670315      53.53965060      82.88356566
H      78.00031759      54.36546100      81.03730306
C      74.62526639      53.82877873      83.04230267
H      73.97142109      52.95950462      81.29619556
C      73.12293397      52.48329359      85.11722217
H      73.84291970      53.42437729      86.80285804
H      73.57268884      50.47262479      85.10210435
H      71.12549326      52.95950462      84.96604406
C      73.57835801      56.52541817      82.90624238
H      74.16795262      57.47217106      84.63723168
H      71.52233580      56.44038049      82.99883897
C      74.47219856      57.90680811      80.58943792
H      73.30623743      59.49417821      79.98472550
H      74.18873962      56.67470655      78.96238356
H      76.47341873      58.35845270      80.77841055
C      78.84691498      55.17804331      85.06053038
O      79.14738146      57.47406078      84.78652006
N      79.59902605      53.97995683      87.29985606
H      79.51398836      52.08267161      87.47749033
C      80.45885153      55.15347687      89.62421942
H      79.23619860      56.80509767      89.76405917
C      80.46452070      53.24674302      91.89000127
H      80.99553380      54.22562125      93.62288030
H      81.89126407      51.77275650      91.69535946
C      77.86425729      52.16392984      92.49849314
C      77.21608117      49.69405755      91.78228687
H      78.54077931      48.41471284      90.90167441
C      74.77833422      48.70573069      92.42101437
H      74.29834374      46.73096669      92.22826228
C      73.04734493      50.33089532      93.58508577
H      71.24832548      49.46918012      94.01594337
C      73.66906488      52.91982037      94.05373790
H      72.29712358      54.24829797      94.77183390
C      76.05956867      53.73807186      93.52272481
H      76.50365435      55.65047489      94.07452489
C      83.27265400      56.10778866      89.19525155
O      84.26665005      57.72539438      90.49538325
N      84.67483092      55.15158714      87.29040743
H      83.69028352      53.90436778      86.23405042
C      87.25430735      55.83188862      86.57609088
H      87.94027800      57.04698264      88.09165138
C      89.07600351      53.57555540      86.39278743
H      88.25586229      52.22440109      85.07375846
H      89.28576313      52.74785527      88.26739593
C      91.79720940      54.13302466      85.60099210
H      92.50396704      55.44260500      87.02584574
H      91.81799639      55.14969742      83.80953156
C      93.56221378      51.75385923      85.76728802
O      95.80720863      52.02975928      86.54018608
O      92.87813285      49.67327056      84.87722692
C      86.96895867      57.49106832      84.18180764
O      88.44105547      59.25229324      83.93236377
N      85.28899198      56.85801001      82.44703889
H      84.33845965      55.20638921      82.56231219
C      84.91104671      58.28664310      80.04708647
H      86.63825657      58.14491362      78.93403767
C      82.61691898      57.04320318      78.73183695
H      80.88592967      57.83121906      79.52174255
H      82.54888883      54.98529123      78.72616777
C      82.40337990      57.84255741      75.96338791
H      83.69406297      56.52919763      75.03931174
H      82.93817244      59.81354196      75.68559814
S      79.35336163      57.19249156      74.75018361
C      79.70863017      58.64758082      71.66237082
H      78.16661350      58.05798621      70.43215899
H      81.20340369      57.65736424      70.64758779
H      80.03177338      60.67903661      71.56599477
C      84.43294596      61.05887160      80.61400436
O      85.56867148      62.78419172      79.34032883
N      82.87581148      61.59933332      82.56420192
H      81.92338942      60.18014886      83.41646848
C      82.16338465      64.21849399      82.96671362
H      81.93094833      65.11044481      81.12612019
C      79.67461510      64.10700014      84.36322137
H      79.44028904      65.68303189      85.67091198
H      79.38548697      62.39679783      85.47438044
C      77.36536956      64.31298031      82.47538478
H      77.61859287      62.73127939      81.17714280
C      74.88793835      64.03519054      83.91346650
H      75.05801372      62.26073753      84.94525707
H      73.35348058      64.06920562      82.53963547
H      74.54400817      65.60366338      85.20225985
C      77.25387570      66.71482245      80.97683181
H      75.35848021      66.86411083      80.18314676
H      78.62581700      66.69214574      79.44048432
H      77.81890386      68.28518502      82.18436693
C      84.19484044      65.82476136      84.25172751
O      84.21373770      68.15479390      83.85866444
N      86.01464688      64.70037420      85.77106747
H      85.97874208      62.79175063      85.77484692
C      88.23696502      65.88334288      86.81230667
H      87.70028275      67.64834725      87.72882393
C      89.70717210      63.97471930      88.42424321
H      91.38902852      64.97438452      89.07052961
H      90.28353863      62.43648208      87.18269303
C      88.31444380      62.71238212      90.46136818
H      86.94061278      61.29319766      89.87744275
H      87.47540532      64.21849399      91.58953479
C      90.42148864      61.18359354      91.62354986
H      92.11846288      62.32120878      91.88055264
H      90.89203050      59.67748166      90.29885172
N      89.61646523      59.73228373      93.82319129
H      89.39536725      57.83877796      93.73437415
C      89.30088094      60.63935236      96.12487794
N      89.96039543      62.85222187      96.93934998
H      89.47095631      63.24717467      98.74403861
H      90.78998527      64.12967686      95.79039638
N      88.29932600      59.11056377      97.68768160
H      87.96484444      59.53197274      99.51882640
H      87.77587180      57.39658200      97.02816712
C      89.91315227      66.76773479      84.58053989
O      91.11312847      68.78785222      84.73360772
N      89.94905707      65.22571812      82.56798137
H      88.82278018      63.68559117      82.61333480
C      91.26241685      65.86822507      80.19826457
H      92.94427328      66.80930877      80.92580920
C      92.23940536      63.68370145      78.58443830
H      90.65581471      62.89190612      77.53375047
C      94.05543234      64.70415366      76.64746883
H      95.75429630      65.46382363      77.52997102
H      93.34867471      66.15924292      75.36812412
H      94.77163862      63.22638768      75.40591864
C      93.54709596      61.63523812      80.19259539
H      92.42270881      60.81131745      81.70815590
H      95.36879214      62.22483273      80.95415510
C      94.08566796      59.27685969      78.59388693
H      95.53130859      59.60378234      77.16336411
H      92.36223757      58.57010204      77.71894365
H      94.90958864      57.90869784      79.89590836
C      89.94149816      67.83543016      78.78285956
O      91.21895315      69.71570784      78.11767590
N      87.56800191      67.65590616      78.30664853
H      86.75352987      66.04585934      78.92458904
C      86.02220579      69.46437424      76.67770445
H      87.05021690      69.84420923      74.93348706
C      83.49186226      68.29085420      76.03141805
H      82.05000108      69.72704620      75.71772348
H      82.70762583      67.22126911      77.60744980
C      83.56556158      66.32931829      73.87901978
O      82.06511889      64.53218856      73.98673418
O      84.63703641      66.99639167      71.85512290
C      85.48930297      72.03062257      77.98917451
O      86.06000031      74.05451945      76.95927367
N      84.36680555      72.04196093      80.20582348
H      84.09657467      70.27884628      80.88234550
C      83.83957190      74.44002362      81.76295796
H      83.78476983      76.11621086      80.56865093
C      81.21285233      74.26805853      83.11789173
H      81.12025574      75.75905259      84.53518646
H      81.01065160      72.37833221      83.90968705
C      79.05478487      74.57986337      81.12423047
H      77.33324420      73.71436872      81.85177510
H      79.56690070      73.57452897      79.40080007
C      78.73164167      77.37287886      80.21149266
O      77.76599153      78.93379279      81.75917851
O      79.30989793      78.06262896      78.04586630
C      85.97307290      74.68001886      83.66969181
O      87.08423197      76.75304863      83.79252402
N      86.64014629      72.75060830      85.22682629
H      85.90882221      70.99316283      85.08131737
C      88.03476431      73.31941592      87.54363075
H      89.15537201      75.03339768      87.32631223
H      89.18182819      71.61110333      87.64378625
C      86.41337913      73.77483996      89.92090645
O      84.73152271      75.37543815      89.79618452
N      86.94061278      72.50872333      92.02039239
H      88.19917050      71.08764914      91.82197112
C      85.41560365      72.64478362      94.47325714
H      83.42194238      73.07942068      94.19168792
C      85.57434065      70.15979352      95.95669230
H      87.47918477      69.52673521      96.41589579
H      84.64081585      68.78218304      94.74159828
C      83.91705067      70.38845041      98.45113103
H      84.21751717      72.16101369      99.46024488
C      81.18072697      70.58498194      97.76516038
H      79.90327199      70.60576893      99.38087638
H      80.56656592      68.86911045      96.80706914
H      80.93884200      72.32541988      96.69368556
C      84.60869050      68.13400691     100.20101760
H      84.75419944      66.43892241      99.04072564
H      83.20651358      67.71070822     101.65043768
H      86.38503324      68.81997757     100.98903347
C      86.51542435      75.01827987      95.91133887
O      88.74719113      75.24126758      96.23070261
N      84.78443505      76.64911368      96.64833213
H      82.97974643      76.28817596      96.14377520
C      85.41560365      79.21725174      97.56673912
H      87.42060326      79.67645523      97.50626787
C      84.50097611      81.36776028      95.78472720
H      84.91482618      83.21024344      96.60675815
H      82.45818196      81.22036163      95.55229087
C      85.93149892      81.55862264      93.33942135
H      85.74063657      79.83519224      92.23015201
H      87.85901976      82.02916449      93.89311116
C      85.05277620      83.76582298      91.70480809
H      84.99986386      85.56295270      92.70825276
H      83.05155602      83.59763733      91.24371487
N      86.72140452      84.35919704      89.44469542
H      87.62469370      86.02215619      89.70358793
C      87.30532995      82.77749611      87.69669858
N      86.09968456      80.63454648      87.43024717
H      86.32834145      79.43645999      85.96381955
H      84.73341244      80.46636083      88.75494532
N      88.78309594      83.34063456      85.89767913
H      88.37491506      82.67923035      84.15346175
H      89.61457551      85.05461632      86.00539353
C      84.45751240      79.49315178     100.22936349
O      82.47707922      78.51427355     100.89832661
N      85.97307290      80.46636083     101.92255827
H      87.45272861      81.38098837     101.13643212
C      85.77843110      80.23392450     104.63431553
H      84.26098086      78.98670513     105.25036630
C      88.30877462      79.23425928     105.68689308
H      88.22940612      79.38732711     107.74102558
H      89.75063581      80.48903755     104.91777447
C      89.26308642      76.48092804     105.15965944
H      88.17460406      75.23370867     106.38609182
C      89.28576313      75.47748337     102.49892479
H      90.47818043      76.50549448     101.16855747
H      87.36769093      75.53795461     101.75248290
H      90.14369887      73.60665432     102.55750631
C      92.07877862      76.29195541     105.83051228
H      93.12190754      77.65444808     104.69289704
H      92.84033833      74.43435444     105.37697797
H      92.35656839      76.56596572     107.85440916
C      85.04521729      82.82284955     105.67555472
O      84.49341720      83.00804272     107.89220369
N      84.71073573      84.75037039     104.13353805
H      85.14726250      84.34596895     102.31940079
C      83.40682458      87.14276390     104.63809498
H      81.96874284      86.71001657     106.04594108
C      85.35702212      88.95123198     105.73413624
H      86.53999081      87.86841880     107.02481931
H      84.46129185      90.27215067     107.03804740
C      87.12202651      90.41388015     103.97669077
H      85.91449139      91.30394124     102.56695494
H      88.31822327      89.00792377     103.06395296
C      88.89647951      92.19400233     105.36563961
H      90.37046603      92.61730103     103.98991885
H      90.10023517      91.21512410     106.72057338
C      87.66059850      94.73001504     106.61285898
H      86.47385037      94.15364852     108.19455990
H      86.42282776      95.58039188     105.20501287
N      89.52197892      96.54793176     107.68055434
H      88.54688014      98.00869020     108.43266542
H      90.65014554      97.07138595     106.23491371
H      90.72384485      95.84495357     108.98257577
C      81.94606613      88.22935653     102.31751107
O      82.54510937      87.43567148     100.20479705
N      80.12436996      89.86963897     102.86364197
H      79.95807405      90.32317328     104.70990458
C      78.19306968      90.74647198     101.06462252
H      77.03844689      89.11563817     100.56573477
C      76.15594472      92.36785715     102.46679945
H      77.14805103      94.10640536     102.95245911
C      74.06401768      92.99146684     100.55439642
H      72.90750517      94.58639584     101.15721911
H      72.55979554      91.58173101     100.50715326
H      74.66117119      94.11396427      98.93490097
C      75.19974319      91.01481311     104.83840597
H      76.68695780      90.58773497     106.19900891
H      74.27755676      89.26681627     104.25825999
C      73.40828265      92.72879488     106.28782605
H      71.59036593      92.69477980     105.32028618
H      73.87882450      94.73568422     106.24436234
H      73.25332510      92.02581669     108.21723662
C      79.24942669      92.04849341      98.56451461
O      81.25442630      93.30894086      98.69301600
N      78.30834298      91.55149539      96.35353482
H      76.71152424      90.50458701      96.36298345
C      79.25131641      92.21856877      93.83263992
H      80.44940289      93.87774848      94.05751735
C      80.98419544      90.11530339      93.09753639
H      82.46196141      89.73357867      94.48270577
H      81.91772023      90.69544937      91.35520872
C      79.69918154      87.63409274      92.46825752
C      78.79022319      87.23536049      89.95681125
H      79.19084516      88.63186823      88.52250898
C      77.58457780      84.98658617      89.44658515
H      77.13482294      84.66533270      87.48315951
C      77.20474282      83.19323590      91.34009091
O      76.31279199      81.00304311      90.44058119
H      75.80634534      81.02005064      88.69825353
C      78.11937036      83.59385788      93.89311116
H      77.94740526      82.12931999      95.30473672
C      79.36658972      85.89365480      94.33908657
H      79.96374323      86.20356992      96.26660741
C      76.88348934      92.72123597      92.15456296
O      74.84069519      92.06361122      92.96336582
N      76.99498320      94.03459576      90.00594414
H      78.60314028      94.96623083      89.57697626
C      74.95785822      94.04593412      88.05952603
H      73.16828741      93.77192380      89.04029399
C      75.02777810      96.64430780      86.76317378
H      73.93173684      96.55927011      85.02273585
H      76.96474757      97.05815786      86.20381480
C      74.03945124      98.67576359      88.64345147
H      75.09391852      98.47734232      90.40467639
H      72.00610572      98.51135740      88.91935151
C      74.73676024     101.28925508      87.68536022
H      74.44763212     101.46877908      85.65201471
H      76.75120849     101.60672910      87.98015753
C      73.69552106     103.61361844      89.01950700
H      75.02021919     105.19153991      88.98738165
H      73.40450319     103.16008413      91.00560936
N      71.25399465     104.32226581      87.96126027
H      71.23131793     104.45832610      86.05830587
H      71.01588913     106.19876404      88.20503496
H      69.94252459     103.26023962      88.85510081
C      75.18462539      91.84062351      86.26050658
O      77.15183047      91.50614195      85.11533244
N      73.05679355      90.42899796      85.79941336
H      71.51855633      90.77292814      86.87466764
C      72.81112913      88.59218398      83.67158154
H      74.30212320      87.16922007      83.65079455
C      70.24677053      87.37520023      84.05141652
H      68.88238813      88.89454019      83.78307539
H      70.23354244      86.61741998      85.96570928
C      69.66095537      85.25492731      82.24672790
O      67.82225167      85.47224584      80.83321261
O      71.25588439      83.45590786      82.19570529
C      73.05868329      89.84696225      80.95982428
O      73.06246273      92.10518520      80.66691670
N      73.17017713      88.22368735      79.03230344
H      73.26277372      86.34151994      79.33843910
C      72.87726955      88.74147236      76.33944344
H      74.20952661      90.24191505      75.87457077
C      73.46308472      86.40955009      74.80498568
H      72.28200577      84.83540807      75.41347755
C      73.25710455      86.66088369      72.04409553
H      71.21997959      86.61741998      71.74173932
H      74.30968211      85.10563893      71.19938787
H      74.14149646      88.41832916      71.43560366
O      75.95563372      85.78783013      75.22450492
H      75.82335287      85.17744853      76.92903805
C      70.41684589      90.00003008      75.59867073
O      70.23921162      91.42866318      73.75807730
N      68.47609697      89.64287181      77.18793056
H      68.56491411      88.17455446      78.40302458
C      66.19330758      91.29449261      77.26918879
H      65.77378834      91.70078376      75.29253506
C      63.96154081      89.74113758      78.21972112
H      64.02768123      89.24980874      80.21905156
H      64.11838810      87.89298524      77.32399085
C      61.19876094      90.70111854      77.77185599
H      60.74144717      92.15053863      79.16269455
H      59.76634839      89.25169846      78.07610192
C      60.70176292      91.66109951      75.06954736
O      60.41452452      93.90420465      74.80309595
O      60.72066018      90.20978970      73.23273338
C      66.36527268      93.84751286      78.74884449
O      64.71365188      95.54826654      78.70160133
N      68.39861819      94.23301702      80.30219952
H      69.49088001      92.66832364      80.31920706
C      69.10537583      96.75580165      81.24328322
H      68.39672846      98.08049980      79.83543712
H      71.15383916      96.81438317      81.03919278
C      68.14917432      97.29437365      83.91346650
O      68.98254363      99.08772392      84.98872078
N      66.59203984      95.53881791      84.86777829
H      65.55269036      94.45033555      83.69803770
C      65.75300135      95.37819117      87.49638759
H      65.38072528      97.31705037      88.08409248
C      63.22076809      93.90798410      87.48693896
H      62.58393033      93.85318203      89.44658515
H      63.39462291      92.06550094      86.57987033
C      61.16474586      95.46133913      86.08287231
C      59.92697513      94.40498212      83.99850419
H      60.56381290      92.61163185      83.25773147
C      57.80670221      95.57850216      82.86277867
H      56.74089657      94.92465685      81.24895240
C      57.13773909      97.90664498      83.76039867
O      55.13084975      99.35417533      82.66435741
H      54.95699493     100.98311941      83.44481438
C      58.30936941      98.99323761      85.83720789
H      57.69898781     100.78469815      86.60254705
C      60.34082519      97.86318127      87.03718410
H      61.30080616      98.88552321      88.52061926
C      67.52178518      94.04593412      89.38044473
O      68.72176139      92.16943589      88.77195285
N      67.63516877      95.04370961      91.57063752
H      66.33692679      96.41187146      91.85598620
C      68.90695457      94.07428001      93.72870497
H      70.93085145      93.98924233      93.35264944
C      68.44775108      95.98668304      95.91889777
H      69.06002240      95.15898292      97.70279941
H      66.42196447      96.34951049      96.00204573
C      69.92551706      98.43198889      95.86976489
C      68.61782644     100.66375567      96.38943962
H      66.69408506     100.63918922      97.06974110
C      69.71008825     103.11284097      96.23448206
H      68.58381137     104.75123368      96.68990611
C      72.31413111     103.24701154      95.95858202
O      73.49143061     105.50334475      95.46347373
H      72.33113865     106.89418332      95.38221550
C      73.75788202     100.97556051      95.78472720
H      75.79878643     101.04359066      95.74693268
C      72.55979554      98.55482110      95.85653680
H      73.69741077      96.87674414      95.63732855
C      68.35704422      91.27937480      94.44680097
O      66.08370346      90.68222128      94.70947293
N      70.40172809      89.74491703      94.84553322
H      72.17807082      90.44033631      94.90222501
C      70.49432468      87.11630773      94.90600447
H      68.77278401      86.38498365      95.76960939
C      70.48109659      86.19790074      91.97881841
H      72.20452699      87.04638786      91.23615597
C      70.43763288      83.44079005      91.54985053
H      68.66884905      82.75481940      92.34542531
H      71.78311802      82.48269881      92.78195209
H      70.81179869      83.00804272      89.57130709
O      68.39105929      87.25992693      90.75238603
H      68.89372649      88.94934225      90.32719761
C      72.68073802      86.17522403      96.69179583
O      74.38149171      87.56795232      97.25115482
N      72.27255713      83.95101615      97.73681448
H      70.53778838      83.21213317      97.43256855
C      74.04323070      82.46947073      99.37331747
H      75.86870631      83.41622361      99.49048050
C      73.15316959      82.45057346     102.20979667
H      72.53522910      84.36864567     102.64065427
C      70.70975347      80.81218075     102.45924054
H      69.25088476      81.61153498     101.24225679
H      70.15606367      80.88588007     104.43967372
H      70.94785899      78.84119620     101.90933018
C      75.09769797      81.34886302     104.09763325
H      75.38493637      79.34197368     103.72913662
H      74.21519578      81.63610142     105.93444723
C      77.61292370      82.83229818     104.23369355
H      78.30834298      82.62631801     106.16121439
H      77.24064762      84.81084163     103.80472567
H      79.03588762      82.14065835     102.91466458
C      74.45330130      79.62732235      98.30940156
O      73.03789629      78.90544690      96.57085335
N      76.37326323      78.27049886      99.29016951
H      77.39938462      78.95269006     100.74525877
C      77.00254209      75.75905259      98.30373238
H      75.24698635      74.71781339      98.58530160
H      78.51054369      74.87088122      99.39032501
C      77.48253259      75.54929297      95.39544358
O      79.30044929      76.67934930      94.46191878
N      75.64760834      74.31530168      94.02161255
H      73.96197247      73.94680505      94.83797432
C      75.51721721      74.58742227      91.28717858
H      76.73798041      76.15589511      90.74293740
C      76.58302285      72.12510889      89.91523727
H      75.86492685      70.42435521      90.82986481
C      75.67595422      71.95503352      87.19025193
H      76.87970988      70.43380384      86.50239155
H      75.91405975      73.71814817      86.15090246
H      73.64449844      71.62622114      87.10710397
C      79.48564247      71.93802598      90.42735310
H      80.05445009      71.99282805      92.40589655
H      80.43806453      73.54240362      89.54863037
C      80.40215973      69.44736670      89.56374818
H      79.55745207      67.72204658      90.31019007
H      82.44117442      69.29618860      89.83019959
H      80.25854053      69.32453449      87.51528486
C      72.65239213      74.90867575      90.80907782
O      71.15005970      73.29484948      91.36654708
N      72.00610572      77.09508909      89.61666052
H      73.33647305      78.46136122      89.55429955
C      69.39639368      77.76972138      88.71526107
H      68.94852855      76.26927869      87.37733484
H      69.26411284      79.58574837      87.75528010
C      67.23643651      77.66011726      90.68813534
O      65.05002316      77.16689869      90.00216468
N      67.75989071      77.97381183      93.08997748
H      69.57024852      78.19302008      93.65122619
C      65.89473083      78.07585705      95.14222026
H      64.11649837      77.21225212      94.55829483
C      66.92463168      76.63777532      97.40800211
H      68.49310451      77.73381658      98.16956181
H      67.71831672      74.84064560      96.79384105
C      65.13884031      76.08786497      99.59630518
N      64.83837382      73.63688994     100.40888749
H      65.53379311      72.14400615      99.44323734
C      63.21131946      73.67279474     102.26081928
H      62.57448169      71.94180544     103.13765229
N      62.55747416      76.01605537     102.85608307
H      60.91908144      76.25227116     103.81039485
C      63.78012708      77.60909465     101.21769035
H      63.48910923      79.61220454     100.96257730
C      65.06514097      80.81784993      95.71291760
O      66.36149323      82.25782138      96.88832737
N      62.74644679      81.51515894      94.77183390
H      61.56158839      80.14321763      94.17657011
C      61.98488708      84.14943742      94.58286127
H      63.64028733      85.23225059      94.01216392
C      59.87406279      84.24203401      92.58920001
H      58.64952014      82.61497965      92.89722540
H      60.76412389      83.92644971      90.75994494
C      58.30181050      86.65710423      92.52872877
H      57.60261176      87.35630297      94.33530712
C      59.90618814      88.87564293      91.54796081
H      58.97644279      90.61230141      92.14889378
H      59.91185732      89.10618954      89.50138721
H      61.73922266      89.06839501      92.46447807
C      55.99067522      86.18278293      90.58797984
H      55.10628331      87.93266950      89.96437016
H      54.66219762      85.05272660      91.68402110
H      56.54814448      85.06028550      88.95525631
C      61.05514174      85.07540331      97.16422741
O      59.69642852      83.65621885      98.52105090
N      61.56536784      87.43189202      97.91822821
H      62.66329883      88.49013876      96.77116434
C      60.93797871      88.60919152     100.35408543
H      60.28602313      87.11441800     101.61453288
C      63.31714414      89.34618478     101.76949044
H      62.97510367      89.88664650     103.72724690
H      63.98043807      91.16221177     101.06084307
C      65.40907117      87.35819270     101.80728496
H      66.16874114      87.02749059      99.92322783
C      67.51044683      88.33896065     103.54205372
H      69.18096488      87.13709472     103.56473043
H      66.88872688      88.91910663     105.41855195
H      68.26066817      90.02837598     102.63309536
C      64.61916557      84.89776904     103.09796803
H      64.27712510      85.12831565     105.11430601
H      66.06291647      83.42756197     103.15654955
H      62.77479268      84.35163813     102.35908505
C      58.71944002      90.57450688     100.28983473
O      56.78625000      90.32128356     101.49359039
N      59.23155585      92.67021336      98.81395848
H      60.93230953      92.55871951      97.95413301
C      57.52324326      94.84528835      98.42278514
H      55.58816352      94.15742797      98.56262488
C      57.91252688      97.03170169     100.37109296