 %block lattice_cart
   140.777   0.000   0.000
   0.000 144.511   0.000
   0.000   0.000   162.462
 %endblock lattice_cart

 %block positions_abs
N      93.48001069      40.80384011      83.03757835
H      93.54048193      40.49392500      84.92163550
H      95.28091986      41.08162988      82.47255019
H      92.58617014      39.39032483      82.11917136
C      92.28003448      43.25670487      82.42908648
H      92.97923321      44.42833518      83.97110315
C      93.17009557      44.04283100      79.73811622
H      92.56160370      42.60852874      78.39074136
H      95.22233835      44.17700158      79.83260254
C      92.16098172      46.60341016      78.97844624
H      90.10684922      46.66388140      78.87640101
H      92.83561401      46.81505952      77.04336650
S      93.42331890      49.36807975      80.55636770
C      92.56349342      51.70378149      78.28869613
H      93.42142917      50.91387588      76.59172190
H      93.37229629      53.46878586      78.97466678
H      90.50747120      51.76614246      78.14696665
C      89.46812172      43.01481990      82.68797899
O      88.45333869      41.03438671      81.89051448
N      88.33428594      44.80250098      84.02212576
H      89.43221692      46.03082310      84.98777592
C      85.69433828      45.07084212      84.74022177
H      84.53782577      44.06928717      83.36072155
C      85.39198207      43.83496111      87.40851532
H      86.59195828      42.17200195      87.60126741
H      83.53627083      42.95245893      87.55780370
C      85.60741087      45.74547442      89.54768551
O      83.69311811      46.68277867      90.37538564
N      87.79193448      46.25759025      90.37349590
H      88.06216535      46.86419240      92.16495645
H      89.23001621      45.24091750      89.63650265
C      84.79104910      47.88842406      84.40196076
O      86.20645411      49.49280169      83.67630585
N      82.44967820      48.39676044      85.29958075
H      81.23458418      47.07017257      85.93641853
C      81.27993761      50.98757520      85.18241773
H      81.88276030      51.73968629      83.36072155
C      78.30739812      50.61340940      85.10682866
H      77.85197408      49.16776877      83.71221066
C      77.40221921      49.52870649      87.77323250
H      75.39155042      49.13186397      87.55024479
H      77.88409942      50.80238204      89.31902863
H      78.47936321      47.82039391      88.17196474
C      76.82774242      53.01525154      84.73833203
H      77.28883564      54.30026544      86.27656925
H      74.83030170      52.77525630      85.18052800
C      77.36253496      54.27569899      82.15696589
H      77.11309109      52.91887551      80.62628759
H      79.32218115      54.90497785      82.06058986
H      76.18712520      55.93676842      81.83949188
C      82.26637474      52.88863989      87.14206391
O      82.71235015      55.16953953      86.37105557
N      82.87108716      52.03826303      89.46831701
H      82.61597411      50.20144907      89.91240269
C      83.92933390      53.65586877      91.40906593
H      82.45156792      55.07694296      91.62071527
C      84.23169011      52.34628842      94.00177043
H      85.32017247      53.75224481      95.04300962
H      85.21812725      50.60207105      93.52933884
C      81.75803837      52.02125550      95.46819804
C      80.40310460      54.10373390      96.39227422
H      81.10986224      56.01802665      96.30912625
C      78.12976385      53.75980372      97.67161893
H      77.51182334      55.49457247      98.55412112
C      77.39277058      51.30882868      98.36514849
H      75.63343539      51.21434237      99.39693904
C      78.67022557      49.20745303      97.43351340
H      77.83118709      47.40276440      97.88515800
C      80.93033824      49.50225033      96.11448445
H      81.85630413      47.92810830      95.20552609
C      86.42944181      54.85584497      90.50577675
O      86.73368775      57.20099533      90.50388702
N      88.12830577      53.31004884      89.40784575
H      87.76547832      51.43733008      89.31146972
C      90.39030816      54.15286679      88.00377911
H      91.48256997      55.36040189      89.26800601
C      91.86240496      51.75669382      87.13261528
H      93.34017094      52.45022338      85.87783701
H      90.68132602      50.41687787      86.10838361
C      93.15308803      50.43577513      89.43052248
H      91.91531730      50.45089293      91.07836382
H      94.76124513      51.63386161      89.90106433
C      93.89197102      47.78448911      88.79179498
O      92.36696189      46.13664777      88.32125312
O      96.17476041      47.24591711      89.20564504
C      89.78748547      55.92731980      85.90429318
O      90.79281987      57.99468038      85.96665415
N      88.18499756      55.30182038      84.07503811
H      87.59351322      53.49335231      84.20542921
C      87.48768855      56.84761651      81.85838913
H      89.14686825      56.71344593      80.64140540
C      85.35607727      55.58905879      80.37684370
H      83.69122838      55.77425197      81.57681992
H      85.79071432      53.66720713      79.77591075
C      84.80238746      56.88541104      77.99767829
H      86.27070480      56.43943563      76.62573697
H      84.65309908      58.93009491      78.20743791
S      81.82606851      55.68732454      76.66920069
C      82.79549811      55.57205124      73.37540771
H      84.67388607      54.77269702      73.10517685
H      82.97313239      57.53925634      72.78770284
H      81.49536641      54.46278190      72.22834384
C      87.01147752      59.63307310      82.48010910
O      88.04515781      61.11650825      81.21399247
N      85.60741087      60.16219646      84.55880803
H      84.96301419      58.68443049      85.58303971
C      84.72490868      62.79836466      84.96698892
H      84.46790590      63.76968399      83.16985920
C      82.16055007      62.50545709      86.36160695
H      81.71646439      64.40463204      87.02301116
H      82.52526725      61.22611237      87.93385923
C      79.93256275      61.57004256      84.86305397
H      80.59774641      59.71055186      84.27723882
C      77.78394393      61.09005208      86.61860972
H      78.43967896      59.64252172      87.93007979
H      76.14933067      60.52313419      85.49989174
H      77.19434932      62.73978315      87.69953317
C      79.01037631      63.43142298      82.82970846
H      78.45668650      65.17375064      83.78213052
H      77.34930688      62.69442971      81.86027886
H      80.48247311      63.81314769      81.44075962
C      86.77148227      64.36494778      86.42963708
O      86.98502135      66.71387759      86.31247405
N      88.45711815      62.99111674      87.78457085
H      88.19444619      61.10328017      87.67496673
C      90.63408286      64.22321831      89.10926901
H      89.88575124      65.95420761      89.93885886
C      91.35028913      62.51868518      91.29757208
H      92.03059060      60.66486366      90.71175691
H      89.58339503      62.32593309      92.33692154
C      93.48756959      63.63740315      93.13249633
H      93.38174492      62.83993865      95.02789182
H      93.07182980      65.61972606      93.50666213
C      96.32971797      63.00056539      92.41062086
H      97.63173940      63.91330319      93.72020120
H      96.66419952      63.72622028      90.51333566
N      96.65097144      60.23211634      92.05535233
H      95.41509043      59.11339836      92.98509766
C      98.26668744      58.94899217      90.46609249
N      99.99200756      59.92598066      89.08659228
H     100.95576798      58.76946817      87.91307224
H      99.80870411      61.68909532      88.37416547
N      98.08338398      56.47723015      90.19208217
H      99.53280407      55.57772042      89.33792589
H      96.65475089      55.57772042      91.08403300
C      92.80348867      65.11894858      87.27056529
O      94.28125464      66.74789266      87.98110240
N      92.88852635      63.86794975      85.13139512
H      91.43532682      62.62828930      85.11816703
C      94.18676833      64.57659713      82.79947284
H      96.13129670      65.05280816      83.27946332
C      94.75935540      62.23333650      81.03824791
H      92.93576951      61.29036306      80.85494447
C      95.72311582      62.99867565      78.36617492
H      97.19143316      64.37817587      78.78947360
H      94.20944504      63.76023536      77.19454459
H      96.66608925      61.50768159      77.30225900
C      96.77569338      60.41164034      82.25145222
H      96.38263030      60.26802113      84.26779018
H      98.74856765      61.00690413      82.21554742
C      96.73411940      57.62618375      80.94943079
H      97.01190916      58.03247491      78.95010034
H      94.78581157      56.99690489      81.18375685
H      98.22889291      56.61140072      81.93775765
C      92.94332841      66.85182760      81.48422333
O      94.34361561      68.58659637      80.66030265
N      90.47345612      66.70064951      81.20265411
H      89.68355052      65.07548488      81.81870489
C      89.03915385      68.60171417      79.74567511
H      89.82716972      68.97965944      77.88051524
C      86.41054455      67.56803387      79.19765449
H      85.02915461      69.07036629      78.93120307
H      85.66977183      66.47955153      80.78124514
C      86.29527124      65.81814732      76.93187264
O      87.95067149      65.87105965      75.30859774
O      84.38853739      64.41597038      76.72967193
C      88.85207095      71.10182209      81.05903491
O      89.16009633      73.05012991      79.91197104
N      88.59695789      71.09426318      83.51567911
H      88.54971474      69.48421637      84.54180050
C      87.75980914      73.43374436      84.88951015
H      87.88453107      75.09481378      83.67819558
C      85.18978135      73.24099228      86.02712539
H      84.98947036      74.75655278      87.40662559
H      85.05561078      71.63661464      87.31024955
C      82.97691184      73.28445598      84.17519359
H      81.13820814      73.34303750      85.10115950
H      83.29438586      71.55724613      83.10182905
C      83.01092691      75.51811248      82.47255019
O      82.95045567      75.31402204      80.04047243
O      83.15454611      77.64405459      83.45709760
C      89.61363065      74.00255198      87.01923170
O      89.90653823      76.08692010      87.82803456
N      90.96667469      72.12227430      88.09259624
H      90.91376235      70.41774116      87.23655023
C      92.82427566      72.28668049      90.27900958
H      94.38518959      73.45075190      89.60248757
H      93.66142441      70.42152062      90.53601237
C      91.85862551      73.19752856      92.80368395
O      89.52670324      73.46964915      93.05879699
N      93.43843671      73.83247661      94.63104929
H      95.27903014      73.36760394      94.41939994
C      92.77892222      74.33325407      97.23887160
H      90.71912054      74.30301846      97.20674625
C      94.05259776      72.18463527      98.82624171
H      96.08972272      72.18841472      98.51821632
H      93.44977506      70.39506445      98.00610049
C      93.32127368      72.17896608     101.58524211
H      93.88630184      73.78712318     102.74175462
C      90.47534585      71.57614339     101.94240040
H      89.25458265      72.84037029     100.86903584
H      90.05771633      71.78212355     103.94740001
H      90.04826770      69.69019653     101.22808385
C      94.81982664      70.08703906     102.87970465
H      94.42865330      70.07759043     104.90171179
H      96.83238517      70.47632268     102.68884229
H      94.52313961      68.24077644     102.01232026
C      93.43276753      77.13760792      98.41428136
O      95.63051923      77.82546831      98.74498347
N      91.56193848      78.65883762      99.01710406
H      89.81772109      78.15806013      98.42373000
C      91.66209397      81.35925651      99.90338571
H      93.52914357      81.96018948     100.53833375
C      90.64731094      82.92206017      97.76232579
H      90.22401225      84.79666868      98.49931906
H      88.95222644      82.27388405      96.78533728
C      92.58805987      83.26221091      95.60614806
H      92.99813048      81.37059487      94.90316988
H      94.25290875      84.19762544      96.38093586
C      91.34839940      84.70785154      93.44052172
H      92.41609477      85.94940173      92.19141262
H      90.05771633      86.09680038      94.24176567
N      89.95567111      83.00520814      91.77189338
H      89.49079844      81.32713117      92.54857089
C      89.08828673      83.49464725      89.46264783
N      89.72701423      85.67161196      88.45353397
H      89.44166556      85.86247432      86.57703575
H      90.31093966      87.15693684      89.50422181
N      87.80894202      81.84680591      88.12472159
H      87.34973853      82.17939774      86.30302543
H      87.42721731      80.15172140      88.91084774
C      89.92354576      81.61436957     102.19940318
O      87.69555844      81.20807841     101.87437024
N      90.96100551      82.35136283     104.39337543
H      92.82616538      82.75009508     104.32912472
C      89.78559574      82.15294157     106.83301210
H      88.27759415      80.75832355     106.99174910
C      91.75469056      81.04178250     108.68305416
H      90.86462947      80.74887492     110.51608868
H      93.23434627      82.42317243     109.07044805
C      92.62585439      78.39616566     107.96684787
H      93.27780997      78.26577454     106.01854004
C      94.67431772      77.51177374     109.80177212
H      95.19210273      75.63716523     109.12525011
H      94.03559022      77.63649568     111.75574914
H      96.35050496      78.65127871     109.44083441
C      90.41487461      76.28912082     108.22385066
H      91.23123637      74.53923425     107.50953411
H      88.82939423      76.75399349     106.99174910
H      89.61741010      76.06235366     110.11168724
C      88.81238669      84.74564607     108.06133420
O      87.88075162      84.71352072     110.20239410
N      89.19600113      86.86402926     106.59679630
H      90.25802732      86.73363815     105.01698511
C      87.86374408      89.36224745     106.90293197
H      86.83384324      89.24130496     108.68305416
C      89.88008206      91.35212926     107.13914775
H      90.93454934      91.49385873     105.37414338
H      91.21422884      90.93261002     108.65092881
C      88.94844699      93.95428238     107.76275743
H      87.44611457      94.02042281     109.17060353
H      88.23790989      94.97851405     106.12247500
C      91.15564732      95.63046963     108.86635761
H      92.82616538      95.50385797     107.66638140
H      91.64697616      95.11835380     110.80143734
C      90.46589722      98.35167552     108.97596173
H      88.85207095      98.40269813     110.25530645
H      90.09362113      98.99985165     107.05788953
N      92.54648589      99.93337645     110.03420847
H      93.12852159      99.20394209     111.69716763
H      91.97956799     101.67192465     110.58600854
H      94.09417174     100.12801826     108.93249803
C      85.95701023      89.67594202     104.79966658
O      86.50314114      88.69139460     102.69640120
N      83.86886266      91.01197852     105.44595297
H      83.84807567      91.69605945     107.22796489
C      82.08874047      91.96440059     103.59591092
H      81.16466430      90.33167705     102.74931353
C      79.90043740      93.63302892     104.60124531
H      80.58640805      95.36212850     105.48374750
C      78.04283644      94.23963106     102.35814018
H      78.93856671      95.43771754     100.94273517
H      76.27594233      95.11646408     102.95340397
H      77.84252545      92.41982463     101.41327702
C      78.19779399      92.41037600     106.63270110
H      79.43934418      91.82078139     108.16526914
H      77.29261509      90.79088053     105.73508111
C      76.07374162      94.12246803     107.77976498
H      75.40099905      93.28720900     109.53910018
H      74.55818111      94.21128517     106.38514695
H      76.64821842      95.91392857     108.61502400
C      83.44556396      93.35523914     101.46240991
O      84.63420181      95.28653944     101.91027505
N      83.06572897      92.28565406      99.03600133
H      82.09440965      90.64537162      98.95096363
C      83.67233112      93.25697338      96.48487080
H      84.31483807      95.20906066      96.63982836
C      85.59985196      91.51653545      95.26410761
H      87.21367823      91.22551759      96.50943725
H      86.19511575      92.38958901      93.49532378
C      84.73435731      88.90493368      94.29845746
C      84.08618118      88.40037676      91.71331186
H      84.07295310      89.76097970      90.19586163
C      83.67422085      85.95318118      90.97631859
H      83.24147352      85.68672977      88.99777515
C      83.78382497      83.95763020      92.73187434
O      83.35485710      81.57090586      92.05157288
H      83.19612009      81.58224422      90.24310478
C      84.44144973      84.41683369      95.26410761
H      84.58884838      82.80678687      96.51132696
C      84.99891899      86.90749297      96.06535156
H      85.48646838      87.27598959      98.01365938
C      81.34796776      93.76530976      94.84080891
O      79.27115854      93.25886311      95.60614806
N      81.63331643      95.21095039      92.76588942
H      83.27359887      96.18604917      92.74888187
C      79.89854767      95.63991825      90.71553637
H      78.08063096      94.72340100      91.03490011
C      79.23714346      98.46316938      90.60215279
H      80.99269921      99.38346609      90.04090408
H      78.98014069      99.29842841      92.46731266
C      76.97325134      99.04709481      88.77100800
H      75.30840246      98.02286314      89.42296357
H      77.61764801      98.18348988      87.01545225
C      76.49326086     101.96672196      88.49321823
H      78.40566389     102.72261248      88.40062164
H      75.39721960     102.72639194      90.06358078
C      74.85486814     102.75662756      86.13861924
H      73.01616444     101.83255139      86.25200281
H      75.96035804     102.22183501      84.48510871
N      74.78683800     105.49295126      86.33137133
H      73.18057063     106.02396435      85.44508968
H      76.01516010     106.27907741      85.09926977
H      74.79817636     105.92947804      88.18897229
C      81.01537593      94.41348589      88.34959903
O      83.40210026      94.40592697      87.99433047
N      79.32407088      93.38169532      86.82270017
H      77.50048498      93.78042757      87.22143241
C      79.98925454      91.55621970      84.80447245
H      81.98102607      91.05544223      84.64384573
C      78.72313791      88.99942000      85.69075410
H      76.68601294      89.28665840      85.80035822
H      79.18990031      88.62903363      87.66173864
C      79.53949967      86.70529226      84.16196552
O      78.22991934      84.77021251      84.50211624
O      81.44623352      86.73930732      82.83726737
C      79.08974481      92.45761915      82.10027410
O      78.35464128      94.60812770      81.77902063
N      79.28438662      90.90615385      80.20865806
H      79.72091340      89.07500905      80.52235264
C      79.09541399      91.83589920      77.57248986
H      80.11775593      93.60657275      77.33816379
C      80.06673332      89.94050370      75.58260805
H      79.59619146      90.45639899      73.64563859
C      82.89187415      89.23374606      75.63363066
H      83.54760918      88.70273297      77.51201862
H      83.78382497      90.93261002      74.88340931
H      83.29438586      87.91849655      74.10106262
O      78.77605024      87.62936842      76.06070881
H      80.13287374      86.48797373      76.44243352
C      76.40633345      92.48218560      76.93754182
O      75.83374638      94.07333515      75.31615665
N      74.45613589      91.36535733      78.33593930
H      75.00415652      90.00853385      79.56237167
C      71.83697522      92.10235060      77.98633992
H      71.42879434      92.46139860      75.99834784
C      70.04929413      90.03876947      78.74034072
H      68.14256028      90.81544699      78.71010510
H      70.29684828      89.43216733      80.69242800
C      70.06441194      87.67094240      77.10383773
H      68.57719733      86.37081070      77.68776317
H      71.92768209      86.79977857      76.97722608
C      69.11954879      88.54399595      74.35806541
O      67.13911561      89.76286943      74.02925303
O      70.57463805      88.21707330      72.42865484
C      71.35509501      94.63836332      79.37150931
O      69.18946866      95.63613881      79.25623601
N      73.10876103      95.79487581      80.58471361
H      74.79061745      94.90859418      80.43164578
C      72.71191851      97.69971994      82.57081596
H      71.38155118      99.09244824      81.83949188
H      74.40889274      98.78631258      83.00734273
C      71.69146630      96.74351843      85.12383621
O      71.08486415      98.30632209      86.75089057
N      71.53650874      94.27175641      85.43375133
H      72.09964718      93.06044184      84.07125865
C      70.41968049      93.26075284      87.83559347
H      68.75483161      94.38891944      88.28345861
C      69.32363923      90.53954694      87.52567835
H      68.57341788      89.95184206      89.35304369
H      70.93179632      89.30744539      87.15529199
C      67.26572727      90.33734623      85.52634792
C      66.99927586      87.93172463      84.33959979
H      68.22381851      86.41049495      84.93108412
C      65.10199064      87.57834580      82.46121184
H      64.93380500      85.70373731      81.67130624
C      63.38611915      89.41515979      81.90185285
O      61.56442299      89.15626728      80.07259778
H      60.85577562      90.74930656      79.56993058
C      63.83776374      91.86424509      82.85994408
H      62.81542180      93.39681313      81.97744189
C      65.78229212      92.38958901      84.55502859
H      66.11299422      94.25852833      85.30147048
C      72.16389788      93.21917886      90.05035270
O      74.41078246      92.58234109      89.69697389
N      71.16990183      93.55743987      92.37282635
H      69.26505771      93.42893848      92.38416471
C      72.65711644      93.49507890      94.66317464
H      74.60542427      93.92593650      94.15294854
C      71.67067931      95.46039426      96.56234957
H      72.00516086      94.83678458      98.49742932
H      69.61465708      95.54921140      96.47353245
C      72.49837943      98.07199603      96.27700090
C      71.01683400      99.81999287      94.83325000
H      69.18946866      99.44582706      94.00366016
C      72.13744171     102.20482748      94.42506911
H      71.41367653     103.61645302      93.14005522
C      74.39944410     102.90591594      95.67606794
O      75.56162579     105.10933682      95.12615759
H      74.95124419     106.09766368      93.73153957
C      75.82240802     101.26563350      97.04234007
H      77.49670553     101.84388974      98.05523337
C      74.86998596      98.77119476      97.38060108
H      75.89043816      97.38602538      98.47664233
C      72.85931716      90.86269014      95.67228848
O      70.85242781      89.67594202      95.91039401
N      75.12698873      89.94050370      96.15794815
H      76.52349648      91.23874568      96.24487556
C      76.08696970      87.24575397      95.88771728
H      74.42967972      86.03065996      96.00865977
C      76.96947189      86.75442514      93.10792987
H      78.71368928      87.78810542      92.75077160
C      77.34363770      83.96329938      92.64116748
H      75.41233741      83.26410064      92.81880175
H      78.46235568      82.98631087      94.06980058
H      78.21669126      83.75542947      90.78734597
O      74.96636200      87.54433074      91.49599333
H      75.10053257      89.27532004      90.96686997
C      78.04283644      86.42183331      97.86626073
O      79.45824144      88.15282261      98.61459235
N      78.00693164      84.12203639      98.83569033
H      76.61042389      82.99198005      98.19129367
C      80.04405660      83.17150405     100.48353167
H      81.85819386      83.91038703      99.84480419
C      79.61886818      83.94062265     103.25764990
H      79.02549412      85.90593802     103.10080263
C      77.74992886      81.99420456     104.36313979
H      77.15844452      82.63482178     106.22829968
H      78.57007008      80.11203715     104.53510490
H      76.18712520      81.89026961     103.02521357
C      82.01882060      83.91227677     104.82234329
H      83.56461672      84.85525020     103.84346507
H      82.79549811      82.09624978     105.40248928
C      81.46513079      85.48263933     107.22040598
H      80.17066826      84.31478847     108.31833697
H      80.63365121      87.30622521     106.74230522
H      83.21879681      85.87381268     108.22951984
C      80.74514506      80.30856869     100.01110010
O      79.23903319      79.17473290      98.74498347
N      82.77093167      79.40905896     101.02021396
H      83.74603045      80.52588721     102.22019017
C      83.66288249      76.67840444     101.02777285
H      82.45156792      75.48409740     102.18806482
H      85.23513478      76.36470987     102.32223538
C      84.28838190      75.62771661      98.30845670
O      86.00614312      76.79745720      97.11414966
N      83.01092691      73.63783480      97.43162369
H      82.04905622      72.50021956      98.62404099
C      83.16210502      72.67407438      94.91072879
H      84.70034224      73.64728342      93.94885808
C      83.72713318      69.74499859      94.75766096
H      82.00748224      68.84926832      95.45685968
C      83.97279761      68.91729847      92.02700642
H      85.68866910      69.78279312      91.28623371
H      82.32873571      69.36894306      90.87238366
H      84.23924902      66.88395295      91.83614408
C      86.04771710      68.96076217      96.35636942
H      85.91543625      69.27067729      98.38782520
H      87.72201461      69.79980065      95.49654394
C      86.80927680      66.23577683      96.09936663
H      85.52615263      64.94698349      97.06879624
H      88.66687777      66.06003229      96.96675101
H      87.26659057      65.63673359      94.18318416
C      80.70357108      73.42807518      93.57091283
O      78.85919820      72.09770786      93.97153481
N      80.92466906      75.58803236      92.29723730
H      82.54038506      76.56313112      92.57880651
C      78.74203517      76.90328187      91.02923094
H      78.31306730      75.98487488      89.23588066
H      79.15021605      78.88182532      90.63238841
C      76.10208751      76.74265512      92.37282635
O      74.18968448      76.05668448      91.20875494
N      75.97547585      77.27933741      94.78411712
H      77.59119185      77.61570869      95.74409809
C      73.55851589      77.24910179      96.24298583
H      72.53617396      75.74676937      95.28111514
C      73.64544330      76.20219341      98.96419173
H      75.16667299      77.09603395     100.02810763
H      74.20480229      74.21987051      98.91505883
C      71.08297442      76.34392288     100.20007274
N      69.57308310      74.16506844     100.75376255
H      69.89055712      72.35093117     100.24920561
C      67.50383279      74.91906924     101.95373876
H      65.99583119      73.67751905     102.53955391
N      67.49249443      77.53067101     102.18050591
H      66.15078875      78.62293281     102.98363959
C      69.79985026      78.27900263     101.13737699
H      70.41590104      80.21597209     100.96541188
C      72.16767733      79.77944532      96.00677004
O      72.90845004      81.56145722      97.25209969
N      70.17779552      79.89660835      94.53656297
H      69.44080226      78.34892250      93.69941422
C      68.60176378      82.27766349      94.35514925
H      69.77339409      83.83290826      93.68051696
C      66.56274908      82.01877100      92.12149274
H      64.95837144      80.93973727      92.83014012
H      67.52650950      80.85280986      90.72309528
C      65.66890854      84.45840767      90.87805282
H      67.13722588      85.84168733      90.46231305
C      64.41601999      83.65338426      88.37605520
H      63.63367330      85.38626328      87.58237014
H      63.04029924      82.19640527      88.85226622
H      65.70481334      82.57624026      87.18174817
C      63.51273081      85.74720102      92.48243047
H      63.95681650      86.90182379      94.13027182
H      61.90457372      84.51887891      92.86793463
H      62.64345671      87.30055603      91.44497073
C      67.29029371      82.93150881      96.87226469
O      65.88811679      81.36492570      97.97019569
N      67.69280542      85.27098998      97.75854634
H      69.04018028      86.31789836      96.90439004
C      66.81408268      86.22908123     100.16605766
H      66.22637780      84.68895428     101.40004894
C      68.87388436      87.56700745     101.61169829
H      67.97815409      88.39281785     103.27087800
H      69.42946390      89.20540017     100.49487004
C      71.19446828      86.05144695     102.30144839
H      71.84642385      85.14626804     100.56856937
C      73.26938777      87.91093764     103.03655192
H      74.89455240      86.94906694     103.86236233
H      72.46058491      89.35846799     104.25920486
H      74.02338857      88.94650766     101.42272566
C      70.82219219      84.49431247     104.76187205
H      72.35853969      83.13559925     104.94517550
H      69.12521796      83.32457188     104.76565150
H      70.74282369      85.55822837     106.52498671
C      64.55208029      87.87314312      99.55567606
O      62.64345671      87.76353899     100.82746187
N      64.90734883      89.67027284      97.83791485
H      66.57597717      89.93483452      96.95163319
C      62.82109098      91.35968817      96.95541266
H      60.96915920      90.45828871      96.89305169
C      62.47716079      93.73318441      98.74687320