 %block lattice_cart
   140.777   0.000   0.000
   0.000 144.511   0.000
   0.000   0.000   162.462
 %endblock lattice_cart

 %block positions_abs
N      86.26031130      38.12326334      82.78057558
H      84.79955286      36.98753783      83.25678661
H      87.77398208      36.97053028      82.92608450
H      85.98252154      39.05111895      81.13462396
C      86.38881269      40.07724034      84.93297385
H      86.37180516      39.24954023      86.81892071
C      88.66215345      41.77232484      85.00100400
H      90.32511260      40.55723083      84.97643755
H      88.64703564      43.04600038      86.62238917
C      89.06466515      43.39559975      82.60105158
H      87.31288886      44.38959580      82.17586316
H      89.35379328      42.12759340      81.00234312
S      91.52886826      45.72941174      82.64640501
C      91.71217172      46.21696114      79.29025108
H      91.98807176      44.36880881      78.42475643
H      93.36190279      47.42071680      79.00112295
H      89.90937281      46.94828522      78.60617015
C      84.11358221      41.77232484      84.98777591
O      83.01754095      42.34680164      83.05458589
N      83.01565122      42.14460093      87.23466050
H      83.96051438      41.73264059      88.84092786
C      80.58357346      43.25009083      87.76945304
H      79.45729658      42.15027011      86.44097545
C      79.96185350      42.86647638      90.55868908
H      81.11647628      44.16093890      91.67173788
H      80.40027001      40.94273499      91.15395287
C      77.18206610      43.59402101      91.22009329
O      76.50743380      45.41382746      92.40306196
N      75.23753772      42.27877150      90.40184180
H      73.46308471      42.84568939      90.81380213
H      75.64760833      40.78210827      89.29068273
C      80.50987413      46.18294606      87.14395363
O      82.34479838      47.61535860      87.20253515
N      78.25354092      47.11458113      86.52412340
H      76.74742904      45.95617891      86.35404804
C      77.85669839      49.93027335      86.16696513
H      78.98297527      50.31388778      84.48510871
C      75.12982332      50.59167756      85.53957599
H      74.49487528      49.37847326      83.99944905
C      73.23820728      49.97751650      87.66173864
H      73.43851827      48.02920867      88.30046614
H      71.25966383      50.06444391      87.09671048
H      73.46686416      51.27953793      89.24154984
C      75.06557263      53.35634715      84.85171562
H      75.13738223      54.57333089      86.51278505
H      73.16828741      53.71917460      84.14117852
C      76.93451195      54.31254866      82.79758311
H      76.34302761      56.22873114      82.32326181
H      76.86459208      53.17682315      81.07982190
H      78.83935607      54.58466925      83.53079692
C      78.95462938      51.28709683      88.48376959
O      80.19995902      53.15414644      88.02078664
N      78.80345127      50.47829397      90.79679460
H      77.79055797      48.89848278      91.15017342
C      79.70863018      51.87102226      93.01911274
H      78.96974719      53.79098421      93.06446617
C      78.74109030      50.48396315      95.30946103
H      79.23430887      48.48652243      95.22253362
H      76.69829616      50.24207818      95.19607745
C      79.31178765      51.60079140      97.80767922
C      78.26109982      53.85145544      98.62404099
H      77.19151473      55.02119604      97.33902709
C      78.20629776      54.53364665     101.17895096
H      77.21986062      56.20794415     101.80067092
C      79.56690070      53.15414644     102.93828616
H      80.07523708      54.02719998     104.71462889
C      80.83490706      50.88647486     102.21452098
H      82.06133944      49.89436854     103.51276296
C      80.74420020      50.26475491      99.60102949
H      81.40182495      48.38636694      99.15316435
C      82.66605186      51.84456610      93.04367918
O      83.94539657      53.36390606      94.18318415
N      83.83957190      50.17215832      91.45630908
H      82.78132516      49.03643279      90.34326028
C      86.59101341      50.18916585      91.04056929
H      87.33934503      50.73718648      92.88116272
C      87.45083888      47.43961407      90.40373152
H      89.49930220      47.39804009      90.19397190
H      86.76675796      46.60624475      88.65006551
C      86.75164015      45.66894050      92.65250584
H      84.71829463      45.79555217      92.94919287
H      87.57934027      46.23396867      94.45341501
C      87.62658343      43.00253668      91.95519683
O      85.93338865      41.37926178      91.65850980
O      89.92638035      42.46585441      91.83614407
C      87.35446284      52.00519284      88.97320871
O      89.03442953      53.60390130      89.21320395
N      85.91827084      51.80110240      86.91151730
H      84.74475080      50.29876997      87.00411389
C      86.39070242      52.97651215      84.44731419
H      88.40137122      52.74218609      84.07125865
C      84.95451042      51.61590922      82.33271044
H      82.91360600      51.48362837      82.59538240
H      85.54977421      49.68271920      81.94531655
C      85.33434541      53.03320394      79.81181554
H      86.05433114      51.71039552      78.40774889
H      86.76864768      54.50152130      79.98756009
S      82.41471826      54.67159666      78.69120784
C      83.34635333      56.65391956      76.16464376
H      83.55422322      58.62301439      76.72967192
H      81.81000584      56.51219009      74.80026136
H      85.13781387      56.04731741      75.35017171
C      85.87669686      55.93582356      84.45298336
O      87.36958065      57.36256694      83.40229553
N      84.02665480      56.99218057      85.78524042
H      82.87014230      55.69771805      86.58081519
C      83.62603282      59.69826865      86.05547128
H      83.58067939      60.58266056      84.19409086
C      81.09568929      60.43148247      87.28946256
H      81.43395030      61.92058680      88.67085249
H      80.25854053      58.81576646      88.25889216
C      79.24375750      61.51429565      85.22210197
H      79.52154727      60.59210920      83.40040581
C      76.48853654      61.02107707      86.18964185
H      76.14838580      62.28152452      87.78268113
H      76.01232551      59.05954116      86.60538163
H      75.19407401      61.66358402      84.71943477
C      79.37981780      64.30920086      84.79691355
H      81.34324344      64.93092081      84.86683343
H      78.45385190      65.36744760      86.30302542
H      78.42928546      64.70226394      83.01301191
C      85.74063657      61.17036545      87.39150778
O      86.03165442      63.41536032      87.05702622
N      87.30155050      59.90235909      88.91840664
H      86.79888330      58.11467801      89.36438205
C      89.39725698      61.18170381      90.29034795
H      88.68294044      62.85978078      91.24843919
C      90.61990991      59.39591244      92.27078112
H      92.22050810      60.29731189      93.20052647
H      91.62335458      57.88413139      91.29379262
C      88.43916574      58.35278352      93.96775535
H      86.77620659      57.64791560      92.97942849
H      87.91382183      59.89480020      95.22820280
C      89.23285079      56.19282635      95.60992752
H      91.05265723      56.67848600      96.44329682
H      89.54276591      54.55821309      94.39672322
N      87.21840254      55.76763793      97.61492713
H      85.91449139      54.37679936      97.49020520
C      87.19761556      56.45927776     100.05645353
N      88.52609315      58.12601636     101.28099618
H      88.34656915      58.40947531     103.16127386
H      89.80921732      59.22772681     100.39849399
N      85.68961396      55.12891043     101.50965307
H      85.75575438      55.29142690     103.40882801
H      85.25119745      53.33178070     101.02777286
C      91.46650730      62.02074230      88.38550382
O      92.78742599      63.88023298      88.85226622
N      91.44572031      60.93792912      86.02901511
H      90.02086667      59.73795291      85.60760614
C      93.12001782      61.59366415      83.95787507
H      94.22172826      63.29252811      84.33393061
C      95.04564893      59.43181725      83.41552362
H      96.31554502      59.86834402      81.85460968
C      96.69349028      58.90458360      85.79657877
H      95.49162434      58.19782596      87.31402900
H      97.45316026      60.71494141      86.41262955
H      98.20149188      57.61201080      85.24666842
C      93.88913643      57.02808538      82.48766800
H      92.53042321      57.47028133      81.00234312
H      92.71183694      56.27786402      84.00133878
C      95.54642641      54.74529598      81.70721103
H      96.45538476      53.90436777      83.35505238
H      96.77663824      55.48795843      80.23511423
H      94.25385361      53.33933962      80.93620270
C      91.59878814      62.51963004      81.68642404
O      92.77041845      63.82165147      80.17653272
N      89.10056995      62.45726907      81.77902063
H      88.15192734      61.26674150      82.93175368
C      87.64548069      64.16936112      80.16330463
H      88.34089997      64.36967210      78.23578379
C      84.90537754      63.38512470      79.99700872
H      83.70729106      63.75362132      81.63351171
H      84.68994874      61.36878671      79.63985045
C      83.51075952      64.63045433      77.75012413
O      84.76553779      65.13501125      75.76591150
O      81.19962424      65.10666536      78.03169335
C      87.88358621      66.90946426      81.29525070
O      88.63191783      68.74627824      80.03858270
N      87.05588608      67.45559517      83.54591473
H      86.32456200      66.02507235      84.57203612
C      86.82911892      70.06341749      84.49266762
H      87.48485395      71.38433618      83.05269617
C      84.04366234      70.48671617      85.24477869
H      83.92460958      72.15534451      86.44853435
H      83.40115539      68.94658924      86.45231380
C      82.24842234      71.09331832      82.98088657
H      80.36436521      70.32608944      83.30969894
H      82.88337038      69.81586334      81.49556168
C      82.07078807      73.87310573      82.07948712
O      82.90037792      74.45514144      79.96866282
O      80.85758378      75.42079157      83.35505238
C      88.41459930      70.55852578      86.96442963
O      89.86212966      72.44447263      87.18552761
N      88.35601779      68.86155154      88.73510319
H      87.16737993      67.40835202      88.38928327
C      89.81677622      68.98627348      91.09537135
H      91.79154022      69.51350713      90.84025830
H      89.65992894      67.12300334      91.95708655
C      88.51853425      70.68135799      93.05501754
O      87.37524983      72.66746034      92.56935788
N      89.01553227      69.88389349      95.44552133
H      89.69394401      68.10944047      95.63638368
C      87.84390195      71.18591491      97.67161892
H      85.83134343      71.47882250      97.35603463
C      88.04610267      69.48705096     100.03188709
H      87.38847791      70.59632031     101.63815445
H      90.04165366      69.18091530     100.44195770
C      86.58723396      67.02662729      99.58213223
H      87.42816217      66.14223538      97.92295252
C      87.11068814      65.21060030     101.63815445
H      85.99197017      63.50228773     101.37359277
H      86.71573535      65.85310725     103.55622666
H      89.08923159      64.64746186     101.54933732
C      83.81689518      67.38945475      99.33457808
H      83.01565122      65.52807433      98.95663282
H      83.12147590      68.47793710      97.73020044
H      82.97596697      68.04518977     101.09580300
C      89.07222406      73.79751667      98.30845669
O      91.30966001      74.18491058      98.73553484
N      87.28454297      75.65700736      98.57112865
H      85.46095707      75.10520729      98.45207589
C      87.94405745      78.27049885      99.18717943
H      89.97551324      78.59742152      99.28922465
C      87.06533471      79.98448063      97.17273118
H      87.29966078      81.90066311      97.89460663
H      85.10757825      79.69535250      96.60770301
C      88.73018359      79.43079082      94.67640272
H      88.11224309      77.62421246      93.90350466
H      90.69738869      79.46291616      95.28867404
C      88.76419867      81.70602129      92.86793464
H      90.55187976      81.81184597      91.85126188
H      88.51475480      83.50693048      93.83358478
N      86.89903880      81.54350484      90.88939119
H      85.61780436      80.12998956      90.92340626
C      86.53621135      83.21780234      89.00911351
N      88.11224309      84.97335810      88.83336896
H      87.92138073      86.04105345      87.26489612
H      89.44827959      85.38342871      90.13350066
N      84.89214945      82.95324066      87.22899132
H      84.80522204      84.23825455      85.82303494
H      83.74886503      81.42445208      87.18741734
C      86.76486823      78.97914623     101.82712709
O      84.51231446      78.88088045     102.27688195
N      88.52420343      79.58385865     103.58457256
H      90.33267151      79.97881145     103.11403071
C      87.82500469      80.03172378     106.28877091
H      86.20361951      78.84497565     106.74608468
C      90.06999955      79.61787372     108.01787049
H      89.57300153      80.04117242     109.97184750
H      91.52130936      80.87643145     107.27709777
C      91.39091824      77.04217675     108.01220131
H      91.81232721      76.65289313     106.03365786
C      93.96472548      77.14044252     109.52020291
H      94.78675643      75.25260594     109.42949604
H      93.49040418      77.55618232     111.48173882
H      95.25351883      78.35931600     108.47329453
C      89.79976869      75.10709702     109.41059878
H      90.93927365      73.39500498     109.28776657
H      88.01775677      74.71970312     108.45061781
H      89.37458027      75.74204506     111.32300181
C      86.75352987      82.70757624     106.77254085
O      85.49686187      82.89465915     108.73029731
N      87.05777581      84.61053064     105.16438375
H      88.01964650      84.57084638     103.51465268
C      85.98630099      86.99536525     105.60091053
H      84.80522204      86.94812209     107.28654640
C      88.00452869      88.92666553     106.42483121
H      89.31221930      87.89109552     107.63614577
H      87.10123951      90.34773972     107.61346906
C      89.16482065      90.29860685     104.26487403
H      87.80988688      91.38708920     103.16127386
H      90.01519749      88.88887102     103.03088275
C      91.10179012      92.27526056     105.12658923
H      92.51908485      91.34362549     106.29066064
H      90.31188452      93.81916697     106.23585857
C      92.40948073      93.35996347     102.90616081
H      91.00352435      94.32183416     101.74964831
H      93.42237403      91.97479408     101.76854557
N      94.29920704      95.20244663     103.81322944
H      95.93193057      94.60718284     104.60502477
H      93.26930620      96.31738515     104.97163167
H      94.92470645      96.15864814     102.28444085
C      84.21373771      87.86652908     103.47685816
O      84.55955762      86.99347552     101.32634961
N      82.39015181      89.53515742     104.03243769
H      82.21251754      90.07750886     105.85602359
C      80.64026525      90.59529387     102.22396961
H      79.63871030      88.96823952     101.45863046
C      78.77888483      92.69855926     103.46174035
H      79.96941241      93.97034507     104.55967133
C      77.31245721      94.40498211     101.62303664
H      78.71274441      95.52181038     100.60825361
H      76.04445086      95.64464258     102.67372447
H      76.11815018      93.15587303     100.49675976
C      77.09702841      91.36819193     105.49697559
H      78.00598677      90.00947872     106.74797441
H      75.51154804      90.47813084     104.53132544
C      76.24476185      93.45067033     107.45851150
H      75.04100618      92.50013800     108.83423225
H      75.00699111      94.93599522     106.74797441
H      77.91339018      94.25758346     108.35802122
C      82.06889834      91.58928992      99.86559117
O      84.00019863      92.87430380     100.05645353
N      80.94451119      91.34173576      97.65461139
H      79.40816369      90.21356916      97.66217029
C      81.99519902      92.00880916      95.18662882
H      83.26887455      93.62452516      95.27733569
C      83.55611295      89.84318280      93.99799097
H      85.02632002      89.57106221      95.41528571
H      84.58412406      90.71812609      92.44085649
C      82.01976546      87.49236327      93.20241619
C      81.15238108      87.17866869      90.69474938
H      81.46796537      88.77359771      89.46075809
C      79.76910142      84.91477658      89.79146020
H      79.17194790      84.77115738      87.84315237
C      79.95429460      82.78127557      91.51867005
O      79.20785270      80.42100740      90.70986719
H      78.67872934      80.64399511      88.98832652
C      80.92183447      83.08174206      94.09247729
H      80.96718790      81.50382058      95.38693981
C      81.86858735      85.43823077      94.85403699
H      82.49408676      85.95034659      96.72675577
C      79.71807881      92.86107573      93.63516352
O      77.53922437      92.40565168      94.34948007
N      80.14326723      94.02136768      91.51678032
H      81.89504352      94.72623560      91.25221864
C      78.24598201      94.53159378      89.61571565
H      76.43373448      94.10451563      90.49443839
C      78.25732037      97.25468939      88.63494770
H      76.97608593      97.52869972      87.04379814
H      80.06578845      97.60050931      87.71276125
C      77.53166546      99.25779929      90.77978706
H      79.19651435      99.43732329      91.98165300
H      75.82335288      98.63796907      91.74732693
C      77.33324420     101.65019281      89.35871287
H      76.22964403     101.44610237      87.63150302
H      79.15683009     102.29647920      88.65573468
C      75.84980905     103.70243557      90.96309051
H      76.97986538     104.72099807      92.34825990
H      74.23598277     102.84827929      91.91740230
N      74.71030408     105.61672834      89.36627178
H      73.96197246     107.14740665      90.22609725
H      73.40072374     104.93453713      88.15495721
H      75.98397961     106.54269423      88.28912778
C      78.28377654      92.66454418      87.38205915
O      80.22830491      92.13542082      86.32570214
N      76.12003991      91.68755569      86.71120631
H      74.62526639      92.06739067      87.83559346
C      75.60603435      89.95089719      84.56447722
H      77.00065237      88.43722643      84.65707381
C      72.96041751      88.81706141      84.81014164
H      71.50154880      90.20789998      84.37739431
H      72.95852779      88.01203801      86.70553713
C      72.45586059      86.57395628      83.11127768
O      71.25399465      84.71824503      84.15818606
O      73.12671343      86.32073295      80.88706981
C      75.91594947      91.57039266      82.01145697
O      76.24476185      93.88341766      81.88106585
N      75.80823507      90.32317328      79.79480800
H      75.44162816      88.45423396      79.90441213
C      76.26743856      91.23213164      77.27958228
H      78.26865873      91.65354061      77.03958704
C      75.82335288      89.20067586      75.30670801
H      76.03878168      90.02270680      73.43020978
C      77.71118946      87.03693922      75.71866835
H      77.55245245      85.56862188      74.28058662
H      77.50709902      86.18278294      77.58193849
H      79.61414386      87.77771193      75.45410666
O      73.41017238      88.16888529      75.48623201
H      73.04356547      87.58873931      77.16430898
C      74.40983760      93.37886074      76.65786232
O      74.96730686      95.15709320      75.37473816
N      72.11948930      93.26358742      77.78413921
H      71.87949406      92.01447834      79.20899285
C      70.04456981      95.13252676      77.34950215
H      70.43574316      96.38163585      75.76024232
C      67.57091807      93.69255530      76.52936093
H      68.03768047      92.32061400      75.06671277
H      66.33314733      95.04937879      75.59583614
C      66.27078636      92.23368659      78.61561878
H      65.47143213      93.52625939      80.00645735
H      67.66729411      91.00914393      79.50190042
C      64.24877921      90.63875757      77.36461996
O      62.19464671      91.59306937      76.78258426
O      64.51523062      88.32573258      77.50068026
C      69.79890539      96.92776674      79.65874771
O      67.86571537      98.04270528      80.15763545
N      71.86626598      97.27358666      81.14974177
H      73.21364084      95.98857277      80.72644308
C      71.98153928      99.18221023      83.28702223
H      71.34470152     101.06626737      82.75222968
H      74.01110534      99.27669656      83.62339351
C      70.73243019      98.64930741      85.84949111
O      70.73243019     100.36706863      87.48977355
N      69.77433895      96.37029749      86.42774736
H      69.62505057      95.03993017      85.06714442
C      68.30413188      95.77503370      88.80313334
H      67.73910371      97.63263466      89.49099371
C      66.02890140      94.17443551      88.26078189
H      64.76656422      94.08939783      89.88405679
H      66.68085697      92.37730579      87.49544273
C      64.20909496      95.27425623      86.25200281
C      63.01289820      93.57728200      84.64573545
H      63.29257770      91.55527484      84.67597107
C      61.15151778      94.55238078      82.99600438
H      60.40885534      93.23902098      81.62217335
C      60.24066970      97.05437842      83.15663111
O      58.44542970      97.91798334      81.54091512
H      57.91630634      99.59606031      81.98122135
C      61.48977879      98.66253551      84.84226698
H      61.30269589     100.69399128      84.79691355
C      63.57792637      97.85940181      86.31247406
H      64.51523062      99.14819517      87.58614959
C      70.00488556      94.55427049      90.75522062
O      71.67729335      93.08784288      90.01822736
N      69.60615331      94.86985480      93.25532853
H      68.22287365      96.14730979      93.58036146
C      71.25588438      94.01191904      95.28678432
H      73.22308947      94.36151842      94.78789657
C      71.05557339      95.55771517      97.69996482
H      72.46341949      94.82450137      99.01521433
H      69.29434847      95.30449185      98.73742456
C      71.65272690      98.29025942      97.38060107
C      69.69686017     100.06093298      97.16517227
H      67.70130918      99.62629593      97.15572364
C      70.34125684     102.67064502      97.10659076
H      68.84081415     104.05392468      97.07824486
C      72.97364560     103.45299171      96.95541265
O      73.58969638     105.92286400      96.81557290
H      72.13838657     107.00000800      96.96297156
C      74.90116644     101.54436813      97.00076608
H      76.85892290     102.06026342      96.75699139
C      74.26243894      99.06315749      97.28989421
H      75.80634534      97.73845934      97.11414966
C      70.96864598      91.18677820      95.91795291
O      68.88805731      90.30049657      96.22408857
N      73.10025726      89.90365404      96.02755703
H      74.75376778      90.85229666      95.97842415
C      73.08136000      87.11063856      95.93685017
H      71.22564876      86.51159532      96.59636465
C      73.42717991      86.51537477      93.11737851
H      75.26777334      87.12953581      92.42573868
C      73.41206210      83.77338189      92.60148323
H      75.00132193      82.81529065      93.49910322
H      73.36670867      83.43890033      90.57002744
H      71.66406526      82.96079957      93.32146895
O      71.44863646      87.30528037      91.53567759
H      71.70374951      89.08351282      91.27867481
C      75.31501650      86.03349456      97.49209492
O      77.09702841      87.32417763      98.25743408
N      75.05423427      83.57307090      98.29900806
H      73.44229772      82.72080433      97.73964907
C      76.83057700      82.16900424     100.09235833
H      78.75431839      82.84552627      99.80134048
C      75.93484673      82.35797688     102.86269711
H      75.45485625      84.34596896     103.10647180
C      73.58024774      80.77627596     103.63559517
H      72.61837705      81.36776029     105.36091529
H      73.97709027      78.75615853     103.66583079
H      72.15917356      81.23925890     102.21830043
C      78.03244294      81.71169047     104.82234329
H      78.90360677      79.85597924     104.60880422
H      77.11592568      81.72680829     106.66671617
C      80.01854529      83.89432437     104.88281453
H      81.50009072      83.60708596     106.28121201
H      79.06234378      85.64421094     105.40437900
H      80.87081186      83.97369287     103.01198548
C      77.14994075      79.40055519      99.37237261
O      75.62493161      78.43679477      97.90783471
N      78.98675473      78.07018787     100.39093509
H      80.21318710      78.89032909     101.60224965
C      79.31556710      75.26205456      99.67283909
H      77.64126959      74.16979276     100.16416793
H      80.86325295      74.46081061     100.77454953
C      80.00153776      74.62710653      96.87604415
O      82.09535451      75.42457103      96.01810840
N      78.34802723      73.28918030      95.60425834
H      76.79467220      72.57297403      96.45463518
C      78.19684913      73.23437824      92.75077160
H      79.52154727      74.55718665      91.89472558
C      78.87148142      70.63411482      91.54512622
H      77.41639216      69.26217353      92.03645506
C      78.54455877      70.91946350      88.60282235
H      76.49231599      71.07064161      88.52723330
H      78.92817321      69.13934131      87.64284138
H      79.61414386      72.42746510      87.69386399
C      81.36969961      69.63255989      92.55612979
H      81.65882773      69.78940717      94.59136503
H      82.84368613      70.85899226      91.80590845
C      81.61347430      66.86978002      91.71331186
H      81.52087771      66.92836152      89.65539990
H      80.13192887      65.59043529      92.35581881
H      83.35769169      65.97593946      92.35392908
C      75.53989393      73.85609820      92.07613931
O      73.78433819      72.39156030      92.39739278
N      75.17706648      76.07652660      90.90261927
H      76.67561944      77.24248775      90.72120554
C      72.86026202      77.07241237      89.62705401
H      72.33680783      75.57196968      88.31558395
H      73.54056349      78.64844412      88.48754904
C      70.58881099      77.80562619      91.30513098
O      68.77656346      78.90733662      90.36971645
N      70.73054046      77.49382135      93.77878272
H      72.33869756      76.55462737      94.19263278
C      68.79924017      78.10798240      95.64205286
H      67.15139883      77.03839731      95.02600209
C      69.53812316      76.85320413      98.24231627
H      70.92896173      77.98326046      99.25898903
H      70.67573840      75.17323744      97.89082718
C      67.35737899      76.10298278      99.95062886
N      66.34826514      73.71625845     100.13582204
H      66.88683714      72.22715412      99.07001640
C      64.23933058      73.73893517     101.44351264
H      62.89195572      72.22526439     101.68161816
N      63.97287917      76.22770472     102.16916755
H      62.60093787      77.01572058     103.23497319
C      65.79457533      77.68657343     101.26587837
H      66.08559319      79.63110181     101.80822982
C      67.99988594      80.95013078      95.84803303
O      69.00333061      82.36742550      97.30879147
N      66.03079112      81.72302884      94.44585611
H      65.03679508      80.46258139      93.41784499
C      65.26545197      84.47258061      94.44396638
H      66.78290220      85.73113835      93.84681287
C      63.25478317      84.53683132      92.38794415
H      61.90173913      83.08930095      92.94730314
H      63.94264355      83.99070040      90.52467401
C      61.51056578      86.85174604      92.25188386
H      61.09671572      87.19000705      94.24176567
C      62.84849201      89.32728752      91.22009329
H      63.43619690      88.93611417      89.28501355
H      64.27334565      90.11341366      92.48243047
H      61.40663084      90.79182540      91.10859944
C      59.09549555      86.48891860      90.79490487
H      59.44698465      85.81617603      88.87872239
H      57.91630634      88.17455446      90.72498500
H      57.92953442      85.03760879      91.67551733
C      64.11460864      84.94312247      97.09336267
O      62.69920363      83.40488525      98.04011555
N      64.71365188      87.12575637      98.11381488
H      65.88717192      88.15754693      97.01966335
C      64.03335041      88.17833391     100.55723100
H      63.34737976      86.68545013     101.79689147
C      66.27834527      89.39531767     101.84602435
H      65.68119176      89.94900748     103.73764039
H      66.91140359      91.06394599     100.81612351
C      68.47231752      87.47157628     102.32601483
H      68.75199701      86.33396104     100.63093033
C      71.11226518      88.51848466     102.98363959
H      72.55034690      87.07095430     103.26331908
H      70.93841036      89.59751838     104.72974670
H      71.59981457      89.73924786     101.40004894
C      67.63138931      85.56673215     104.42361104
H      69.14128063      84.25148264     104.91493988
H      65.87016439      84.68045052     103.82834725
H      67.21942897      86.55694874     106.18294624
C      61.80914254      90.15498765     100.33613303
O      59.91752650      89.95089719     101.63815445
N      62.11716793      92.12030300      98.68451223
H      63.58359555      91.96156600      97.47319766
C      59.96287993      93.88908684      98.11003543
H      58.24322899      92.76847914      97.93618061
C      59.53013261      95.56149463     100.47219332