 %block lattice_cart
   140.777   0.000   0.000
   0.000 144.511   0.000
   0.000   0.000   162.462
 %endblock lattice_cart

 %block positions_abs
N      93.67559735      45.10958152      81.43981477
H      93.64347201      45.30800278      83.34087944
H      95.45949900      44.77509996      80.85399960
H      92.60223281      43.65260253      80.83510234
C      92.79876434      47.43205516      80.12267553
H      93.27119593      49.12713965      81.19415034
C      93.99874055      47.57567436      77.49595595
H      92.98017807      46.10357756      76.48117292
H      95.96972510      46.99552838      77.35611619
C      93.68693572      50.10790762      76.04275641
H      91.69705391      50.50286042      75.68748787
H      94.49573858      49.82255894      74.17003763
S      94.98895715      52.81210597      77.62067789
C      94.20472073      55.42181801      75.47583852
H      95.24218047      57.17170457      75.79709200
H      92.19972110      55.60890091      75.03364256
H      95.01541332      54.71128092      73.72217250
C      89.91504199      47.40559898      79.99228441
O      88.84545691      45.49319596      79.28174732
N      88.81711101      49.58256370      80.51762833
H      89.77142280      50.95828445      81.43792504
C      86.03354414      49.69783700      81.02407498
H      85.09057071      48.59612657      79.56142680
C      85.61969409      48.39959502      83.65457400
H      86.38125378      49.44461367      85.25706192
H      86.54565998      46.57789886      83.38812259
C      82.87959093      47.85724357      84.22527134
O      81.12403518      48.26164501      82.80797662
N      82.19551001      47.04088180      86.34932373
H      80.40404946      46.40782350      86.53829635
H      83.43139102      47.04277153      87.80252325
C      85.15104195      52.55510320      81.08454622
O      86.60424149      54.31254866      80.68959342
N      82.72652310      52.96517381      81.33021064
H      81.66260718      51.38158314      81.37934352
C      81.57945922      55.60323173      81.23572431
H      81.81567501      56.14747291      79.26285005
C      78.69006769      55.51441460      81.57398533
H      77.99086895      54.18404727      80.16802895
C      77.91339018      54.46750622      84.20259463
H      75.87815495      54.32010757      84.48794331
H      78.33479915      55.81299135      85.70492705
H      79.10958693      52.86123885      84.68069539
C      77.40505380      58.10522937      80.95982428
H      78.39904984      59.58866452      81.98594567
H      75.44918707      57.96727936      81.59288260
C      77.30678803      58.83655346      78.14035261
H      76.41861667      60.67147771      77.85500395
H      76.12381937      57.33800048      77.36745456
H      79.13604310      58.67781645      77.20493810
C      82.96840807      57.37012583      83.18214243
O      83.47674444      59.59055426      82.63223206
N      83.48052390      56.38557843      85.45359344
H      83.03454849      54.56766171      85.83720790
C      84.61624941      57.91814646      87.48126979
H      83.22163140      59.42047888      87.66079378
C      84.73908162      56.51785926      90.00783387
H      84.88270083      57.84444715      91.57630671
H      86.39826133      55.30087552      90.08720236
C      82.35991619      55.15725633      90.61632574
C      82.11425177      52.52864702      90.46325791
H      83.74508558      51.38725233      90.01350305
C      79.75776307      51.48929754      91.10387513
H      79.46674520      49.50508493      90.72970932
C      77.58079835      53.02942450      91.42323887
H      75.70052066      52.25841616      91.60843206
C      77.89638265      55.66559270      91.58575534
H      76.34680706      56.91092235      92.05062801
C      80.24342273      56.78997985      91.19836145
H      80.50609468      58.81198701      91.29284775
C      87.23163062      58.95371649      86.83120394
O      87.68705467      61.03997433      87.78929518
N      88.74908086      57.72728410      85.17580369
H      88.22184721      56.03786879      84.46148713
C      90.98273737      58.79875893      83.95881994
H      91.85201147      60.23306120      85.15501670
C      92.81010271      56.61423532      83.37111506
H      94.50518720      57.52130394      82.63223206
H      92.16759575      55.52008378      81.74784014
C      93.70772270      54.99285013      85.70681678
H      94.41070090      56.08511194      87.30741497
H      95.11934826      53.90058833      84.68069539
C      91.67815665      53.10501355      86.76128406
O      91.62335459      52.77809090      89.16501593
O      90.53487223      51.65748319      85.34776878
C      90.32322287      60.32565779      81.51918327
O      91.77075324      62.06987517      80.89746331
N      88.41648903      59.64724605      80.23983856
H      87.70973138      57.96349989      80.79919754
C      87.71540056      60.77352292      77.72461283
H      89.33111657      60.52785850      76.47550374
C      85.38725774      59.42614806      76.52652635
H      83.70729105      59.90235909      77.62067789
H      85.70284204      57.39091283      76.56621060
C      84.74475080      59.99117623      73.70516497
H      86.23763458      59.30520558      72.46172505
H      84.62380832      62.03397037      73.48217725
S      81.77032159      58.51718970      72.67337439
C      81.97063257      58.55309451      69.35123554
H      81.84591063      60.52596877      68.77297929
H      80.36247549      57.60445189      68.48007171
H      83.72996778      57.59689300      68.87502450
C      87.08045252      63.64590693      77.82665805
O      88.16704515      65.16713660      76.37723797
N      85.34190431      64.36778238      79.57087544
H      84.61435968      62.95804655      80.63290163
C      84.77687615      67.00961976      80.05086592
H      84.41593842      68.06408705      78.31609717
C      82.33723948      66.97182523      81.65524357
H      82.27298878      68.88233854      82.42436217
H      82.38448263      65.74350313      83.30875409
C      79.92972816      66.42191487      79.95826933
H      80.35491658      64.71171256      78.89435341
C      77.65260794      66.13845593      81.83098811
H      77.95496415      64.57565227      83.14056844
H      76.05578922      65.45248528      80.72360848
H      77.39749489      67.89212194      82.88167594
C      79.36092054      68.62533576      78.15924989
H      77.72630727      68.15668364      76.99517848
H      80.95395982      69.15823857      76.97061204
H      79.05478487      70.27506682      79.35355691
C      86.91982579      68.41935559      81.29430584
O      87.37902929      70.62088675      80.77085165
N      88.54121097      67.11544444      82.88356567
H      87.94783691      65.39201404      83.44670411
C      90.94305311      68.22282406      83.81709047
H      90.49707770      70.03507158      84.68069539
C      91.94271833      66.22538334      85.70303732
H      93.86456999      65.73405449      85.15123723
H      90.76163938      64.53785774      85.74083185
C      91.94649779      67.27229171      88.51117063
H      90.01708722      67.53307394      89.17824402
H      93.12946645      68.95414813      88.35621307
C      93.19560687      65.39957293      90.23838047
H      93.78709120      66.40301761      91.93724443
H      94.91903727      64.53974747      89.50705640
N      91.37391071      63.49850826      90.98293265
H      90.72762431      62.42325399      89.54485091
C      90.36857631      63.00339997      93.31296518
N      90.99596544      64.29030359      95.29717781
H      90.14369887      63.80086447      96.93368081
H      92.43971634      65.53941269      95.31229563
N      88.79254457      61.16847572      93.72681524
H      87.71162111      61.14957847      95.30095727
H      88.86057471      59.73606317      92.46825752
C      92.82333078      68.80297003      81.94248196
O      94.23495635      70.54907714      82.43759026
N      92.88569175      67.65968561      79.74473026
H      92.01263821      65.96271139      79.73339191
C      94.55054064      68.44770148      77.63768542
H      96.29097857      68.87100018      78.65435817
C      95.61256683      66.28963404      76.03141806
H      94.00063028      65.21437977      75.33221932
C      96.88813208      67.41402118      73.64091427
H      98.19015352      66.19325799      72.61290315
H      97.97094526      69.12422351      74.02074925
H      95.50296271      68.09054321      72.27464215
C      97.11867869      64.37345156      77.57721418
H      96.17003610      63.86889462      79.33465965
H      98.86100636      65.23894621      78.25373620
C      97.54764658      61.97538886      75.95960846
H      95.76752439      61.04942297      75.50418441
H      98.81943238      60.66769826      76.91769969
H      98.17503570      62.39301837      74.04342598
C      93.42993293      70.80419020      76.28086192
O      94.66014476      72.71281378      75.77630500
N      90.86557432      70.68513744      75.87457077
H      90.02275640      68.98249403      76.05976395
C      89.43883096      72.80918981      74.54987263
H      90.59345375      73.24193714      72.90014156
C      86.90659770      71.74149445      73.82043827
H      85.65937833      73.37799743      73.94327048
H      86.37747434      70.67001963      75.50040496
C      86.93116414      69.92546746      71.54142834
O      88.63002810      70.04640995      69.92004316
O      85.16049059      68.41746586      71.44883175
C      89.19505627      75.35465115      75.95960846
O      89.71851046      77.40122476      74.84089048
N      88.63191783      75.23370868      78.40113485
H      88.08389720      73.59153651      79.20615826
C      88.19728077      77.50515970      79.92614398
H      88.59034385      79.23047983      78.87167670
C      85.43828036      77.41067339      80.87478660
H      85.14159333      78.78828386      82.37900873
H      84.90537753      75.56819023      81.62689767
C      83.46729581      77.94168647      78.82821300
H      81.61158457      77.20469322      79.33276993
H      83.88681505      77.09886855      76.99706819
C      83.29533072      80.73659170      78.31420744
O      81.88181544      82.02916450      79.79953233
O      84.59546242      81.68901376      76.59455650
C      89.78465087      77.68846316      82.26940461
O      89.91315226      79.90511212      83.30119518
N      90.74841129      75.54551351      83.24828285
H      90.47062154      74.00349685      82.15980049
C      91.84445256      75.56252106      85.80319282
H      93.37702060      76.94013154      85.82964899
H      92.53042321      73.65389748      86.16602027
C      89.75063581      76.01038619      87.77606709
O      87.62091426      76.81729933      87.21103892
N      90.24196464      75.16378880      90.09854073
H      92.02397656      74.72159285      90.62199492
C      88.54876986      75.41512239      92.36621231
H      86.76297851      75.69669162      91.37788545
C      88.67916098      72.86399187      93.95925159
H      90.64447635      72.46714936      94.42979344
H      87.89870402      71.43346906      92.69880414
C      87.01242237      72.72793159      96.39699853
H      87.56800191      74.17357222      97.75382203
C      84.29688567      72.90556586      95.82441146
H      83.17060878      73.18713508      97.52705486
H      83.57501022      71.31819576      94.72837019
H      84.04933152      74.57419418      94.63955306
C      87.58311973      70.15034490      97.56484939
H      87.16171076      68.56486451      96.31951975
H      86.83667784      69.90279075      99.46969352
H      89.63914195      70.08420446      97.65744598
C      89.25174805      77.81318509      93.94980295
O      91.43816141      78.13821802      94.89466610
N      87.47729505      79.49504151      94.17279066
H      85.73118793      79.04339692      93.54162206
C      87.69839303      81.91956037      95.56551896
H      89.49174330      82.85119545      95.16867643
C      86.15637636      83.80361751      93.92523652
H      86.08456675      85.48169447      95.11765381
H      84.19106100      83.32173730      93.54729124
C      87.56233273      84.63131763      91.43835669
H      88.24641365      83.08174206      90.26483665
H      89.12891584      85.84641165      92.00338486
C      85.78976945      86.18656239      89.78295644
H      84.75041998      87.35630298      91.12277239
H      84.61246995      84.75037038      88.88911589
N      87.06533472      87.53582698      87.70236777
H      88.50530616      88.66399358      88.24849866
C      86.95762031      87.16355089      85.23816464
N      85.66315778      85.44767940      84.13645421
H      85.94094755      85.08296222      82.28263270
H      84.77687615      84.37431485      85.44036537
N      88.35412806      88.51470520      83.71126579
H      87.97429308      88.26148188      81.85744428
H      89.87535775      89.45767864      84.37267000
C      87.17871829      81.77405144      98.40388788
O      85.25497691      80.77060676      99.18245511
N      88.86057471      82.62253856     100.05550867
H      90.53109278      83.16866947      99.30906678
C      88.66215345      82.57340568     102.76159675
H      87.36958066      81.15044176     103.50047973
C      91.32855727      81.79861788     103.83118185
H      91.19438670      82.05373094     105.87208627
H      92.71372666      83.15733110     103.14143173
C      92.36790674      79.17378804     102.86553170
H      92.78553627      79.38354766     100.85864236
C      94.66581394      78.52939137     104.14487641
H      95.23273183      76.67934931     103.43622905
H      94.25763306      78.33663927     106.15365549
H      96.08121895      80.02416487     104.13920724
C      90.44227564      76.96091852     103.19245435
H      89.82055567      77.06863293     105.15399027
H      91.13013602      75.05040523     102.85608307
H      88.76797812      77.13477334     102.00570622
C      87.45083888      85.01304235     103.85007911
O      86.99541484      85.43634103     106.09129452
N      87.11446759      86.81395151     102.10208227
H      87.19005666      86.22813636     100.28416556
C      86.40015105      89.43878136     102.64065427
H      85.69717286      89.58051085     104.57195456
C      88.65648427      91.18488849     102.36286449
H      88.19350132      93.14264495     102.80506046
H      89.29899122      90.86552474     100.43345394
C      90.98651682      90.21356916     103.95212432
H      91.93893888      88.65454494     102.99781254
H      90.39125302      89.50870124     105.79082804
C      92.78175681      92.45478456     104.00692640
H      91.92382106      94.10262590     104.89887721
H      93.35623361      92.98957711     102.10397200
C      95.10045100      91.90298447     105.65476774
H      95.92815112      90.11152394     105.06139368
H      94.55054064      91.53637758     107.60496529
N      96.85033757      94.13475125     105.62075266
H      95.93382030      95.52181037     106.55805692
H      97.12434787      94.62608010     103.79716677
H      98.63045974      93.76436489     106.20656781
C      84.47829939      90.06050133     100.61864712
O      84.55955762      89.15721215      98.44924131
N      82.64337514      91.53826731     101.22713898
H      82.61880869      91.83684406     103.11119611
C      80.40215973      92.15809753      99.76260110
H      79.36469999      90.51025619      99.09552771
C      78.43684436      93.49035459     101.55406163
H      79.47808357      94.79426573     102.76537620
C      76.53955916      95.11173976     100.09141347
H      75.13738222      95.89786591     101.38209654
H      75.26021443      93.91554301      99.00860030
H      77.57323944      96.48935024      98.96135714
C      77.05734417      91.53637758     103.30016875
H      78.14582651      90.11341366     104.31495177
H      75.89516248      90.35529863     102.07562610
C      75.06935207      92.65131609     105.22579986
H      73.37804703      93.29949223     104.24314218
H      75.85925767      94.26136292     106.23680345
H      74.62337666      91.23402137     106.65254323
C      81.36025097      93.82294642      97.56484939
O      82.93250326      95.41598570      97.90877957
N      80.01665556      93.56027445      95.36709769
H      78.53322042      92.35840853      95.36142851
C      80.73097212      94.51836569      92.77061373
H      81.77032159      96.28903926      92.93124047
C      82.49408677      92.81005311      91.42701833
H      84.11925140      92.42076949      92.63077399
H      83.30666908      93.69255530      89.75461053
C      81.16371944      90.30427601      90.53695724
C      80.72341320      90.09640613      87.94803219
H      81.36969960      91.51370085      86.63089294
C      79.50265001      87.94211813      86.97293341
H      78.98675472      88.06495034      85.00383858
C      78.71841358      85.97113359      88.54518570
O      77.35970038      83.93589834      87.75339038
H      76.93829141      83.92833943      85.98838600
C      79.07935131      86.28482815      91.24938406
H      78.44440327      84.91288685      92.61943563
C      80.19995902      88.44100588      92.18101913
H      80.68939814      88.49958738      94.16145230
C      78.20440804      94.81883219      91.16434637
O      76.30523308      93.63964297      91.87110401
N      78.06834774      96.32872350      89.19525155
H      79.61603358      97.10540101      88.39211787
C      75.82713234      96.25124473      87.49260815
H      74.05645877      95.79015150      88.43558158
C      75.36414939      98.77591908      86.32664700
H      73.94874438      98.62474098      84.83565295
H      76.95340921      99.21433559      85.09265573
C      74.48920610     100.86217692      88.27495484
H      75.94429537     101.19476877      89.69413929
H      72.93018190     100.35573027      89.52028447
C      73.64260871     103.40952800      87.20159029
H      72.55601608     104.31092745      88.70203299
H      72.23854207     103.06559782      85.73516267
C      75.88571384     105.05547961      86.35121344
H      76.99120373     104.01990960      84.95470571
H      77.07624143     105.39185090      87.99905480
N      75.16194866     107.54802863      85.27406945
H      76.51499270     108.14140269      84.06275489
H      75.26021443     108.98800008      86.52506827
H      73.50276897     107.55936698      84.33298575
C      76.30901255      94.20467113      85.44225510
O      78.19873886      94.20845059      84.00606310
N      74.33613827      92.63430856      85.12856052
H      72.97553532      92.79682503      86.45703812
C      74.01299508      90.53860209      83.20292941
H      75.84980905      89.67877660      82.84010196
C      72.28578522      88.44289561      84.19881518
H      70.33558767      88.99469568      83.83220827
H      72.53711881      88.35974764      86.23971959
C      72.92640244      85.87286782      83.12356091
O      75.18084593      85.12831565      83.15568626
O      71.15383916      84.51226487      82.38656764
C      73.21364084      91.71779131      80.70282150
O      72.47664758      93.92877109      80.54219477
N      73.06624218      90.20978971      78.74506503
H      73.34781141      88.34840929      79.06253906
C      72.42562496      90.82395075      76.02574888
H      74.06023823      91.78582144      75.21883573
C      72.17240164      88.38242435      74.46483493
H      71.42218030      88.85674567      72.60534424
C      74.65172257      86.98213716      74.08122049
H      74.30401292      85.20201497      73.10234227
H      75.74587410      86.56261792      75.77441527
H      75.92539810      88.17077502      72.98139979
O      70.63038497      86.60608163      75.58733237
H      69.93496568      85.64610065      74.21350134
C      70.02567255      92.38486468      75.62323717
O      70.26188833      94.18766360      74.16625819
N      67.76933933      91.95778655      76.86100791
H      67.65217630      90.53293291      78.12334508
C      65.69064038      93.62263542      76.55109279
H      65.31647458      94.05727248      74.57443907
C      63.34549003      92.42643867      77.87390120
H      61.82048090      93.80215942      78.03641767
H      63.81225243      91.90298447      79.81087068
C      62.05858642      90.24380478      76.46038592
H      60.53735674      89.60885674      77.69248749
H      63.39840238      88.67911138      76.46038592
C      60.76979307      90.75025143      74.06232324
O      58.81392633      92.12975164      74.03964652
O      61.50489660      89.60507729      72.20094282
C      66.13094661      96.28714953      77.94760054
O      64.72687996      98.03703610      77.54886828
N      68.26444763      96.48557079      79.26096032
H      69.52867452      95.05693770      79.34599800
C      69.02411761      98.89497184      80.65935780
H      68.01122430     100.47289330      79.80520150
H      71.06124257      99.18787941      80.67447560
C      67.97531951      98.84772867      83.43914520
O      67.37816599     100.78658788      84.45770769
N      67.74855235      96.56304957      84.67880566
H      68.37783121      94.98890755      83.80197266
C      66.67707753      96.20400156      87.22237727
H      65.97976852      97.97656484      88.00661369
C      64.35460389      94.33695198      86.99749985
H      63.71020721      93.93444027      88.91179261
H      65.14261975      92.53415306      86.39467715
C      62.18708780      95.18732882      85.38178385
C      60.86427939      93.30894086      83.90401788
H      61.33482123      91.32283851      83.94559186
C      58.47755506      93.96467589      82.82120470
H      57.61395013      92.53037362      81.65713329
C      57.52891245      96.49501943      82.79285881
O      55.28391758      96.94099483      81.63445658
H      54.77558121      98.67576358      81.49272710
C      59.07092911      98.31104640      84.02307063
H      58.42086327     100.23856724      83.87000280
C      61.34238014      97.75357715      85.29674617
H      62.28913302      99.35795479      86.13011547
C      68.52522985      95.04937880      89.05730152
O      69.88961226      93.24280044      88.54518570
N      68.45153054      95.86196111      91.37410598
H      66.92652140      96.90320030      91.86165537
C      70.19007874      95.22134388      93.37910561
H      72.11948931      95.58606107      92.75738564
C      69.91039924      97.06949622      95.62976964
H      70.73620965      96.17565568      97.28894935
H      67.98287841      97.35862435      96.29495331
C      71.35415015      99.49590481      95.20836068
C      69.96709103     101.79192228      94.97025516
H      67.95642223     101.83160652      94.63199416
C      71.23887685     104.21455141      94.70758321
H      70.18818902     105.86617220      94.12932695
C      73.85236833     104.37895760      94.74537774
O      74.87848972     106.67497506      94.74348801
H      73.65205735     107.96565813      95.09875656
C      75.25832472     102.10372711      94.94379900
H      77.29922912     102.05648396      94.94757845
C      74.07535603      99.72834115      95.29339837
H      75.18273566      98.08049980      95.76771967
C      69.87827390      92.46423320      94.34853521
O      67.72398591      91.50425223      94.59230989
N      72.07413587      91.18488849      94.49215441
H      73.72197721      92.08628794      94.15956258
C      72.06657696      88.42588807      94.30129204
H      70.30913150      87.65676946      95.05340312
C      72.25365987      87.55850369      91.47804093
H      73.91472930      88.32951202      90.53317777
C      72.31035166      84.72958340      90.89600524
H      72.39727908      84.14187852      88.92502069
H      70.53022947      83.91700109      91.53473272
H      74.03945124      84.13620934      91.84842730
O      70.08803352      88.29927641      90.21192430
H      69.85937664      90.09451639      90.07775374
C      74.42306568      87.50748108      95.82063201
O      76.20507760      88.97201897      96.34786564
N      74.46652939      85.23036087      96.69935474
H      72.99443258      84.06628946      96.34786564
C      76.65294273      83.93967780      97.75949120
H      78.28944571      85.19067662      97.79539600
C      76.15216525      83.32362701     100.62620602
H      75.57768846      85.09619029     101.50492876
C      73.83158135      81.67956512     100.87753962
H      72.18185028      82.18223233      99.74937301
H      73.17584632      81.57940964     102.82773717
H      74.49109583      79.75771347     100.54305806
C      78.41983683      82.32018235     102.16255351
H      79.02076980      80.40777931     101.68067330
H      77.76410180      82.21813712     104.11275106
C      80.86136323      83.90755245     102.21735557
H      80.60436046      85.81617603     102.94678993
H      81.60024621      83.85652984     100.29550391
H      82.32212166      83.07418315     103.40788314
C      77.32946474      81.52838703      96.27227660
O      75.72319739      80.46258139      94.90222501
N      79.73697608      80.87643145      96.50282320
H      80.97096735      82.11420218      97.27194182
C      80.63459608      78.30073447      95.91322860
H      79.44595822      76.85887331      96.77872325
H      82.56400663      78.13632829      96.61998623
C      80.76687691      77.92467894      92.99171172
O      82.21251754      79.26071545      91.71614646
N      79.21352189      76.23337389      91.96748005
H      78.28944571      75.06930249      93.16367681
C      78.55211768      76.18613074      89.41634953
H      79.38737670      77.85286935      88.53951652
C      79.58012878      73.85420846      87.94425274
H      78.29133545      72.26305891      88.16535071
C      79.63871031      74.55907638      85.10210436
H      81.36025097      75.65133819      84.80541733
H      78.12503953      75.85164918      84.57109127
H      79.60280551      72.76572610      84.09110078
C      82.26165042      72.92257340      88.74549669
H      81.88748462      71.75472253      90.39900721
H      83.37091978      74.51561267      89.43524679
C      83.75642394      71.29740877      86.88411627
H      84.65782339      72.34998632      85.35910714
H      82.42038743      69.87633458      86.22082234
H      85.36080157      70.57364358      87.95559109
C      75.67217478      76.37510337      89.18202347
O      74.49109583      74.61576817      90.18357841
N      74.63471503      78.38388244      87.94803219
H      75.82713234      79.44590863      86.90301353
C      71.89083242      78.65222358      87.36032730
H      71.40328304      77.11965554      86.07153396
H      71.84358927      80.35486699      86.20381479
C      69.94819378      78.73348180      89.52028447
O      67.69564001      79.18134695      89.05352208
N      70.64550279      78.72781262      91.99582595
H      72.45019140      78.37065435      92.50038287
C      68.92585184      78.78261468      94.17845983
H      67.24210569      77.63366108      93.88933171
C      70.22031436      77.60531520      96.52172047
H      71.78311802      78.83930648      97.04895411
H      71.13305216      75.87810535      95.86598543
C      68.30413187      77.18390623      98.67789819
N      67.56335917      74.81040997      99.34308186
H      68.08870307      73.15878919      98.53994816
C      65.62261025      75.06741276     100.91533415
H      64.51334089      73.58397761     101.77138016
N      65.11994304      77.55618232     101.17233692
H      63.83114970      78.22325570     102.41199739
C      66.83203509      78.96024897      99.79094699
H      67.00022072      80.99170475      99.66433532
C      67.98476813      81.46980550      94.71514210
O      69.03167651      82.87387216      96.22314370
N      65.91362810      81.96491380      93.44902547
H      65.56780818      80.70824581      92.05440746
C      64.62861419      84.45935254      93.32619327
H      65.99866578      85.85963974      92.69313496
C      62.35149399      84.15132714      91.51394574
H      61.19120204      82.55072895      92.09598143
H      63.18675303      83.68456475      89.69035985
C      60.49767248      86.41332954      90.90734359
H      59.93642377      87.15221252      92.74604729
C      61.72788431      88.19912091      89.15178785
H      63.36816675      88.93611417      90.15712224
H      60.39562726      89.67121771      88.59998777
H      62.31180974      87.12386663      87.49449786
C      58.16386049      85.47602529      89.48437967
H      56.89963358      87.05016731      89.07430907
H      57.30403501      83.90377299      90.49727298
H      58.55881328      84.86753341      87.55496910
C      63.69697912      85.19634579      95.97747929
O      62.16063164      83.75826407      97.16989659
N      64.64562173      87.35819269      96.89399655
H      66.04590893      88.27093051      95.97181011
C      63.96154081      88.32573257      99.36764830
H      63.30391606      86.85174604     100.64699300
C      66.33881651      89.37453068     100.49581491
H      65.94197399      90.62930895     102.07940556
H      67.32714337      90.60474251      99.17300649
C      68.23988119      87.39976668     101.60697398
H      68.90884429      86.21112883     100.06495731
C      70.45841988      88.79060525     102.66900016
H      71.93240640      87.47346601     103.25292560
H      69.88394308      89.99814036     104.23747300
H      71.33147344      89.85263142     101.13643212
C      67.10415567      85.81428630     103.77637979
H      66.06669593      86.76670836     105.27871219
H      68.72554084      85.04894714     104.79305254
H      65.87772330      84.31195389     103.08096049
C      61.69575897      90.21734860      99.29016952
O      59.72666415      89.75625539     100.38810050
N      62.01512271      91.99180161      97.42500965
H      63.72721474      92.13353109      96.59164034
C      60.08193269      93.90609438      97.14533015
H      58.28291325      92.91398806      97.27761100
C      60.16697037      95.92243235      99.30717705