 %block lattice_cart
   140.777   0.000   0.000
   0.000 144.511   0.000
   0.000   0.000   162.462
 %endblock lattice_cart

 %block positions_abs
N      93.85512136      43.83874057      80.61683895
H      95.72595041      43.65165767      80.95321023
H      93.42993294      42.80128083      79.07293255
H      92.86490477      43.12442402      82.08326657
C      92.94994245      46.43333480      79.77591074
H      93.66614873      47.81472473      81.12706505
C      94.31432485      47.10229791      77.31737681
H      93.84378300      45.61508331      75.97189167
H      96.35900872      47.01348078      77.54036451
C      93.87401862      49.70067159      76.31582186
H      91.83689366      49.99546890      76.30637323
H      94.47873104      49.75736338      74.34861677
S      95.50107298      52.38786241      77.82571318
C      93.33544662      54.60073192      76.43676434
H      91.43816140      54.69143879      77.23611857
H      93.29387264      54.06404965      74.44877226
H      93.99307138      56.54903975      76.53691984
C      90.09456600      46.57317455      79.68898333
O      88.96261993      45.33162436      78.15074611
N      88.93616377      48.21912616      81.24044863
H      90.03598448      49.00336258      82.58971322
C      86.05055169      48.48368785      81.48800278
H      85.06222482      47.46701509      79.99511899
C      85.24741800      47.07962120      83.88039629
H      86.34345926      47.87519598      85.43375132
H      86.00519825      45.16721817      83.78590998
C      82.35613674      46.84151568      84.34337924
O      80.80089199      47.29882945      82.74656050
N      81.56056197      45.87397581      86.57892547
H      79.75587334      45.26737366      86.71120631
H      82.83045805      45.54327371      87.96598458
C      85.42316255      51.37496911      81.56170211
O      87.17493884      52.90564742      81.62595280
N      83.00431287      51.97779180      81.45776716
H      81.83457228      50.48490801      81.24044863
C      81.89315380      54.55726822      81.51256922
H      82.42416689      55.29804093      79.66630661
C      79.06045405      54.12641062      81.92263983
H      78.32535052      52.72801315      80.59794169
C      78.27243818      53.05115635      84.52479296
H      78.28566627      54.57238603      85.91185208
H      79.37981780      51.60551572      85.48288420
H      76.33168926      52.36329597      84.52101351
C      77.45796614      56.52069386      81.58059937
H      78.20818749      57.85673036      82.95820985
H      75.48698160      56.05582118      81.94720627
C      77.70174083      57.66208855      78.93309280
H      76.78522357      59.50457171      78.95387979
H      76.81923865      56.47723015      77.49690081
H      79.68595346      57.80381802      78.39263108
C      83.16116015      56.32794177      83.44953869
O      83.64870954      58.53703183      82.94876122
N      83.95673493      55.37551971      85.72098972
H      83.70729106      53.50658039      86.01389730
C      85.12269607      56.79470417      87.72598934
H      83.96996302      58.43498661      88.19086201
C      85.24552828      55.15442173      90.05413216
H      85.79921809      56.43565617      91.56780293
H      86.48329901      53.51602902      90.19586163
C      82.67739022      54.40231066      90.84592748
C      81.49253182      52.07794730      90.07302942
H      82.57723472      50.76458751      88.95053199
C      79.10958694      51.36741020      91.11237889
H      78.39149094      49.52870650      90.59270416
C      77.72252782      52.98312620      92.66006474
H      75.99720770      52.31983226      93.52366967
C      78.94518075      55.30937929      93.36115320
H      78.09669363      56.50368632      94.78411712
C      81.37914824      56.06149036      92.48054074
H      82.12747986      57.87940708      93.03045110
C      87.73051838      57.75846459      87.15151254
O      88.59034385      59.41764430      88.57825591
N      89.07222406      56.84194733      85.13706429
H      88.21428831      55.54748481      84.02779494
C      91.51941964      57.82460501      84.46999090
H      92.37357593      58.93765381      85.97610277
C      93.03686986      55.44166013      84.00700795
H      94.81321260      55.87251773      83.06025507
H      92.26208208      54.36073668      82.43664539
C      93.32032881      53.55571327      86.28223844
H      91.73295871      53.61051534      87.59559822
H      94.97572906      53.88452565      87.46520711
C      93.45827883      50.83072793      85.37139035
O      91.74051761      49.29627016      85.89295481
O      95.26107774      50.19766961      84.08259701
C      91.32666755      59.29481208      82.03224396
O      92.69482940      61.03336029      81.57304046
N      89.48796385      58.80537297      80.35983617
H      88.39570204      57.30493028      80.80959103
C      88.85301581      60.03747453      77.92586868
H      90.50085715      60.12440194      76.69187740
C      86.70250726      58.47845032      76.44999243
H      85.01120221      58.19310164      77.59138712
H      87.58123000      56.66242333      76.03047319
C      85.83512289      59.76913339      74.06704755
H      87.28832242      59.41764430      72.64975281
H      85.73118794      61.81948644      74.25224073
S      82.83234777      58.46522223      72.80282064
C      83.39737594      58.81104215      69.39375438
H      81.75142432      58.38207428      68.23157269
H      84.79766314      57.42965221      68.78526250
H      83.87736643      60.79714450      69.14242078
C      88.15948625      62.84749755      78.15452556
O      89.81866595      64.28368955      77.56871041
N      86.23385514      63.43520244      79.65496826
H      85.15293169      62.00090017      80.29936493
C      85.54599476      66.02412749      80.69809718
H      85.00553303      67.23922150      79.12395516
C      82.97029780      65.81436786      82.23444467
H      82.78321489      67.44520167      83.47977431
H      83.48430335      64.32904298      83.56670172
C      80.65160361      65.09627187      80.69620745
H      81.06923312      63.80558879      79.14663188
C      78.74298003      64.08526829      82.54813924
H      79.30422875      62.25790294      83.31536812
H      77.15372020      63.45976888      81.39540619
H      78.05700938      65.55925481      83.81236614
C      79.60280551      67.60015923      79.54536413
H      79.57068016      69.19697797      80.84738556
H      77.68473330      67.46787839      78.81026059
H      80.74420020      68.32203468      77.98822965
C      87.65114987      67.19197835      82.17775288
O      87.69272385      69.47476773      82.44987347
N      89.61457551      65.71232264      82.91285642
H      89.70528238      63.90385456      82.30625427
C      91.69705391      66.68553170      84.43975528
H      90.97706818      68.29746824      85.49989174
C      92.60223281      64.74289305      86.38050420
H      94.29353786      63.84149359      85.63028286
H      91.07911340      63.37095174      86.59215355
C      93.25418839      66.10916517      88.88817102
H      91.59311896      67.16930163      89.48532454
H      94.88124275      67.26189822      88.37038601
C      93.79087066      64.02290732      90.96498024
H      94.20472073      65.26067806      92.55990925
H      95.64280245      63.21032501      90.58136580
N      91.62335458      62.25979267      91.52244950
H      91.11123875      61.05792673      90.12972121
C      90.51408524      62.14262964      93.81090807
N      91.01297298      63.61850589      95.71008301
H      90.25519273      63.47299696      97.45619012
H      92.26964098      65.04713898      95.55134600
N      88.78876511      60.44943486      94.17373552
H      87.70217248      60.31904375      95.73842891
H      88.50908562      59.17197987      92.78289695
C      93.89480561      67.56614416      82.55569815
O      95.04375921      69.44075266      83.04324753
N      94.11023441      66.17341586      80.39007179
H      93.14269454      64.52935397      80.33904918
C      95.46894763      67.08993313      78.09783377
H      97.24340064      67.80235995      78.86317293
C      95.79020110      64.87328416      76.35739584
H      93.94960767      64.19487241      75.73378616
C      97.04119992      65.81058841      73.92153862
H      98.55298097      67.09938176      74.46955925
H      95.62390519      66.96521119      72.97100629
H      97.67425824      64.43108820      72.53070006
C      97.20749584      62.46199339      77.27391310
H      97.87645895      61.32437815      75.69221218
H      95.65225108      61.51335078      78.23578379
C      99.45438042      62.76245987      79.15230106
H     100.96427175      63.57315246      78.00901664
H     100.07232093      60.95966097      79.93086830
H      98.97627967      63.97377444      80.74723006
C      94.19338237      69.40295813      76.93565209
O      95.55209559      71.20764676      76.24779171
N      91.63091349      69.41429649      76.79014316
H      90.43849618      67.99322230      77.23422885
C      90.18716258      71.43063447      75.45032721
H      91.26052713      71.87472015      73.74768380
C      87.55288410      70.79379670      74.55648666
H      86.80644221      72.46998394      73.62107214
H      86.22251678      70.38561582      76.07582662
C      87.69272385      68.87383477      72.32283016
O      86.72140453      66.80269473      72.64219391
O      88.93616377      69.47287801      70.36129425
C      90.27409000      73.83625606      76.99045415
O      91.41548469      75.67495977      76.28936569
N      88.91159732      73.89105813      79.12962434
H      88.21995749      72.21109143      79.71543950
C      88.73585278      75.99999269      80.79258350
H      89.16860010      77.73665117      79.77402101
C      86.02409552      76.06802284      81.78280008
H      86.00897771      77.45697168      83.30591949
H      85.56111257      74.12160474      82.27790838
C      84.13436920      77.20752781      79.80992581
H      82.31834222      77.09036477      80.77557596
H      84.26665005      75.91684473      78.21121735
C      84.71262546      79.99109466      78.94821061
O      85.29844061      80.14794195      76.68809794
O      84.30444457      81.77310658      80.50156564
C      90.53676195      76.07180229      83.13584412
O      91.88602654      77.85570393      83.63473187
N      90.57266675      73.92885265      84.52290324
H      89.26119669      72.61171341      84.08637646
C      91.83878338      73.60948891      86.93797347
H      93.53386789      74.77733977      86.97198854
H      92.28664852      71.60826874      87.13450500
C      90.20983930      74.47687328      89.18863750
O      88.63947673      76.01888995      88.96376007
N      90.51030578      73.41862655      91.36938167
H      91.93137997      72.18841472      91.71142213
C      89.17804873      74.14428145      93.74854710
H      87.16926966      74.48632192      93.43863198
C      89.11190831      71.70275506      95.37182200
H      91.06399559      71.41173720      95.96141661
H      88.60357193      70.07948015      94.20964032
C      87.15415185      71.51756188      97.46563876
H      87.29777105      73.19563884      98.65616633
C      84.51609392      70.90529055      96.53400368
H      83.52020815      72.52478600      95.73842891
H      83.38414786      70.10593632      98.05712309
H      84.51987337      69.62216639      94.92395686
C      87.83445333      69.32169990      99.09836229
H      89.41048507      69.82814655     100.32479467
H      88.63569728      67.74566816      98.04200528
H      86.21684760      68.57714773     100.13204258
C      90.10212490      76.53478524      95.04867880
O      91.86523955      76.36848932      96.55290095
N      88.92293568      78.71930886      94.54601160
H      87.54910465      78.56435130      93.23454154
C      89.55599400      81.26288047      95.63827341
H      91.61201622      81.24965239      95.50788230
C      88.56577741      83.30756434      93.83736423
H      88.50908562      85.19351120      94.65750545
H      86.53810107      83.21496775      93.49154432
C      90.02653585      83.22819584      91.38827893
H      90.06055092      81.32524144      90.60026306
H      91.98051286      83.79322401      91.72087076
C      88.87380280      84.98186186      89.47587590
H      88.88514116      86.85647036      90.33003220
H      86.85935455      84.80422758      89.08092310
N      90.38747357      85.07256872      87.07592349
H      91.79342995      86.32167781      86.74711111
C      89.45394878      84.09558022      84.92919439
N      87.28076352      83.14882733      84.60416147
H      86.53999080      82.80300742      82.88073107
H      86.22062705      82.51009984      86.05736100
N      90.74652157      84.44517958      82.85238518
H      89.94905707      84.03888843      81.16863903
H      92.49262869      85.21807765      82.81081120
C      88.66971236      81.63704628      98.42939918
O      86.53054217      81.00587769      99.08135475
N      90.36290713      82.71608001     100.06023298
H      92.03531492      83.25087255      99.31190136
C      90.10968381      82.58190944     102.79655668
H      88.44294520      81.51799353     103.37670266
C      92.80821298      81.54067024     103.82456780
H      92.79120544      81.52933188     105.88436948
H      94.35022965      82.71608001     103.12725879
C      93.07844384      78.80623627     102.93828616
H      93.34867471      78.49065197     100.92005846
C      95.49729352      77.54956827     103.94173083
H      97.05631773      78.88749450     103.81133971
H      95.94515866      75.75243854     103.03844165
H      95.48973462      77.23776343     105.97885580
C      90.82589008      77.16973328     103.74141984
H      91.01486271      75.18174120     103.23308346
H      89.05143707      77.98609505     103.08757454
H      90.88258187      76.92217913     105.78610371
C      89.64670086      85.20295984     103.77165546
O      88.58467467      85.37114548     105.83523660
N      90.13425025      87.35535811     102.49797993
H      91.55721416      87.45362387     101.23186330
C      88.99663501      89.95184206     102.83624094
H      88.48640890      90.17294004     104.81856384
C      90.93927366      92.14581431     102.61703268
H      89.76764334      93.68972071     103.31434169
H      91.22840178      92.31777940     100.58557690
C      93.30710073      91.63747793     104.30266856
H      94.25574334      89.96884960     103.55055748
H      92.73640338      91.13859019     106.21507158
C      95.01541331      93.89381115     104.13448291
H      94.02519673      95.09567708     105.48374750
H      95.18926814      94.67615784     102.23719770
C      97.64969179      93.11146446     105.20973719
H      98.47361247      91.92471633     103.74141984
H      97.22072392      92.09290197     106.94828539
N      99.34099685      95.23173738     105.89570784
H      99.56398455      96.59800950     104.58045832
H     101.12300876      94.75930580     106.39459558
H      98.73439470      96.06510668     107.50008548
C      86.63825657      90.33167705     101.33201879
O      86.52676272      89.62113996      99.12103901
N      84.85246520      91.77542795     102.25042578
H      85.00364331      92.37447119     104.05700414
C      82.71329502      92.66359932     100.50809812
H      81.77977022      90.92883056      99.91283433
C      80.48152824      94.15648311     101.90460586
H      80.97285708      96.10101148     102.37703744
C      78.22519502      94.55332563     100.04511517
H      77.62048260      92.94705827      98.90372048
H      78.87904033      96.04998887      98.79222663
H      76.53955915      95.31488534     100.95218380
C      79.77666033      92.88091785     104.42361104
H      81.44906811      92.61446644     105.59524135
H      79.13604311      90.94205865     104.15904936
C      77.79622715      94.26230778     106.08845992
H      77.98519978      96.27108685     105.67649959
H      77.82079359      93.94672349     108.12180543
H      75.88004467      93.67271317     105.61791807
C      83.90571232      94.15270365      98.21208065
O      85.41749337      95.82511144      98.76388073
N      83.13659371      93.50263780      95.90094537
H      81.64937910      92.33667667      95.64016314
C      84.16271510      94.27364614      93.55012583
H      85.39103720      95.92148748      93.69185531
C      85.52520777      92.11368896      92.34825990
H      87.03887855      91.44850530      93.57469228
H      86.39826133      92.89036648      90.65317540
C      84.10791304      89.73263381      91.55457485
C      83.15549097      89.46429267      89.03556967
H      83.28399236      90.96851482      87.66362837
C      82.20873809      87.13614985      88.12472159
H      81.54355443      86.81111693      86.22365692
C      81.97441203      85.09335571      89.79712938
O      80.95395982      82.87670674      89.13572517
H      80.85002487      82.69340329      87.33481599
C      82.76242790      85.41271946      92.37093662
H      82.42794634      83.84991580      93.64083270
C      83.90382259      87.59157390      93.17218057
H      84.30444457      87.78243625      95.16395211
C      81.99141957      95.16181751      91.84937215
O      79.86736719      94.31522012      92.23676605
N      82.60936007      96.70383418      89.94452803
H      84.40271034      97.10256643      89.42485329
C      80.74608993      97.50507813      87.99999965
H      78.82612799      97.27831098      88.71053675
C      80.93317283     100.38124158      87.43875094
H      79.38359725     100.92170331      86.19342130
H      82.64337514     100.66281080      86.32759187
C      80.81412007     102.09522335      89.83492390
H      82.57912445     101.63413013      90.79301514
H      79.34769245     101.53586436      91.16907068
C      80.69695704     104.82398814      89.03367995
H      78.95651911     105.19248478      87.99433047
H      82.36936483     105.08854983      87.86204963
C      80.72530294     106.76284734      91.16718095
H      79.16627873     106.51718292      92.48998937
H      80.38515220     108.64123530      90.39617262
N      83.15171152     106.74395008      92.35770853
H      83.43517047     107.95715437      93.80334916
H      84.59357270     107.21260220      91.20119603
H      83.65059927     104.94493063      92.75455106
C      80.90860639      95.68527169      85.74933561
O      82.86069367      95.16559696      84.77423684
N      78.61447864      94.98796268      84.93864303
H      77.20663254      95.44149700      86.14806787
C      78.03622239      93.66326454      82.57270568
H      79.17950681      91.96251086      82.37239469
C      75.16950758      93.04721376      82.66152282
H      74.14338619      94.82544622      82.80703175
H      74.80668012      91.91904715      84.34715869
C      74.36448417      91.59212450      80.28235739
O      73.17017714      92.55021574      78.54758864
O      75.26777334      89.47563103      80.12551011
C      78.49353616      95.33378260      80.14818682
O      78.76187730      97.65058706      80.38251289
N      78.57479439      94.27364614      77.81248510
H      78.55589713      92.38203010      77.55926177
C      78.82990744      95.73818403      75.51646763
H      80.54199948      96.84367392      75.81693411
C      79.36281026      94.04687898      73.22045016
H      77.70741001      93.46106382      72.14330616
C      80.99931325      95.50196824      71.31938549
H      81.18450643      94.46261877      69.55249139
H      82.83045805      95.70227923      72.23968220
H      80.01665557      97.27075207      70.94332995
O      80.60058100      91.83211974      73.99523795
H      80.90482694      90.81733671      72.52503088
C      76.59247149      97.63357952      75.08372030
O      76.82490783      99.66881476      74.12751879
N      74.38338143      97.03642601      76.13251841
H      74.27188758      95.31488534      76.95265963
C      72.27633659      98.94693931      76.42920544
H      72.21964480     100.15258470      74.76057710
C      69.78756704      97.59389527      76.49912531
H      68.24932982      98.96394685      76.51613285
H      69.64583756      96.72084171      78.35861600
C      69.44552657      95.83267035      74.24468182
H      70.42440480      94.06577624      74.65097298
H      70.36960274      96.46383894      72.51747197
C      66.54857614      95.53787304      73.77980915
O      65.34293075      93.70294879      74.77002574
O      65.36938692      97.23862672      72.45700073
C      72.45397086     100.89713687      78.46822013
O      70.83447541     102.59789055      78.65908249
N      74.34558690     100.77619438      80.11795120
H      75.39060555      99.18882428      79.95921419
C      74.84825410     102.42025627      82.22688577
H      73.79567655     104.13990722      81.81681516
H      76.80601056     103.03441733      82.41963785
C      73.73331558     101.60956369      84.75344985
O      74.61392804     102.61867754      86.61483027
N      72.10248177      99.67826339      84.92541494
H      71.21053095      99.39858390      83.26056606
C      71.10281655      98.65970091      87.27434475
H      70.75132746     100.52675051      88.07180925
C      68.71987167      97.08933834      86.61483027
H      67.65973521      96.58667115      88.30802504
H      69.16395735      95.35834904      85.59059860
C      66.70920287      98.20238714      84.89517932
C      66.02890140      96.94382942      82.59160295
H      66.93785976      95.18638395      82.08704602
C      64.33003744      98.15136453      81.09682943
H      63.71398667      97.24240618      79.37717849
C      63.11872288     100.41525666      81.77335145
O      61.23655547     101.34500200      80.45810194
H      60.78869033     102.83032688      81.39729592
C      63.80091408     101.63224040      84.07692783
H      62.64629130     103.19315434      84.70809642
C      65.56591845     100.43793337      85.65295957
H      66.19141786     101.49618011      87.28379338
C      72.83947503      97.47295279      89.08659228
O      74.74998833      96.34289645      88.38361410
N      72.21208590      97.57499801      91.60370773
H      70.66251032      98.59167076      92.06102150
C      73.71252859      96.48084647      93.63516352
H      75.66083642      96.55265607      92.96431068
C      73.36670867      97.92081792      96.04456457
H      74.42117596      96.87013009      97.46752848
H      71.40328303      97.90381039      96.66250507
C      74.57046433     100.40958748      95.99354196
C      73.05301410     102.55253712      96.25621392
H      71.02155832     102.37301312      96.22975775
C      74.13771701     104.98083543      96.26566255
H      72.78467297     106.49639593      96.46597354
C      76.81545919     105.27941219      96.40739202
O      77.71685865     107.64912898      96.27700090
H      76.65483246     109.05508536      96.70974823
C      78.29889435     103.22338996      96.46975299
H      80.32846041     103.43692903      96.44707627
C      77.25576543     100.73462040      96.28078036
H      78.48030808      99.17748592      95.78945152
C      73.12860316      93.72184606      94.01121906
O      71.16328779      92.94516854      94.88805206
N      75.12604387      92.17038075      93.70319367
H      76.74364959      93.02264732      93.15895249
C      75.36981856      89.38114471      93.47642651
H      73.53300459      88.53832678      93.87137931
C      76.15972416      88.52698842      90.66829321
H      78.13826761      89.05800151      90.45853359
C      75.64760833      85.77743664      90.37727536
H      76.84758454      84.55100426      91.51678032
H      75.92539810      85.36358657      88.37794492
H      73.63504981      85.41838864      90.64372677
O      74.48731638      89.83467903      88.99588542
H      74.37582252      91.54110189      89.60248757
C      77.22552980      88.34746442      95.44741105
O      79.10580749      89.49641802      96.13149198
N      76.78900303      85.99286543      96.30723653
H      75.21108155      85.11981188      95.67984739
C      78.64660399      84.65115975      97.93807033
H      80.50798441      85.50720577      97.72264153
C      78.05700938      84.76643306     100.76510090
H      77.51087848      86.68450527     101.28288591
C      75.77044054      83.13559925     101.35658523
H      75.24887608      83.32835133     103.33890814
H      76.33735844      81.17973252     101.05233930
H      74.23598278      83.71952468     100.11125559
C      80.17161313      84.03699870     102.58301761
H      80.38137275      81.99042510     102.67183475
H      79.56312125      84.52832754     104.48975146
C      82.82667860      85.14248859     102.38270662
H      82.59235253      87.04355326     103.13859715
H      83.70918078      85.10469407     100.51943648
H      84.02098563      84.30533984     103.83779588
C      79.13982256      81.82223946      96.74187358
O      77.54489355      80.85847904      95.36804255
N      81.27521329      80.62415298      97.34658600
H      82.55266828      81.47641955      98.48231151
C      81.84213119      77.93885189      96.84391880
H      80.40971864      76.79556747      97.78311278
H      83.54288487      77.39272098      97.87004019
C      81.86669763      77.37760317      93.98665261
O      83.62603283      78.32246633      92.69030036
N      79.94106652      76.05479475      92.86037573
H      78.70518551      75.03434255      93.89972520
C      79.53855481      75.80157143      90.08625750
H      80.77632555      77.29067576      89.37761014
C      80.34546795      73.32980941      88.67463195
H      78.82423826      71.98432428      89.00722378
C      80.57979401      73.80602044      85.91185208
H      81.02198997      72.05991333      84.91596631
H      82.06322917      75.21575627      85.67752601
H      78.79589237      74.31246709      85.01234235
C      82.50542512      72.10715649      90.09003696
H      81.75898323      70.91284946      91.59425910
H      83.81689518      73.53956903      90.77600761
C      84.36113636      70.38750554      88.44408534
H      85.00931249      71.42307556      86.78490563
H      83.26887455      68.75289228      87.82614483
H      86.12047156      69.94719931      89.41729439
C      76.81356947      76.80879555      89.45130946
O      75.01832947      75.50488440      90.09381641
N      76.53200025      78.71552940      87.82614483
H      78.06267856      79.49220692      86.99088580
C      74.30968210      79.87960081      86.92852483
H      73.45174636      78.40561429      85.77390206
H      74.73676025      81.62381820      85.91941098
C      72.18751945      80.50132077      88.87683266
O      70.05968763      80.78477972      88.10582433
N      72.67317912      80.35203239      91.37883030
H      74.45519103      79.96841795      91.94385847
C      70.68518703      80.59958654      93.41595527
H      68.87860868      79.85125492      92.77155859
C      71.35603988      78.89883286      95.57780217
H      73.10214699      79.45819184      96.51510642
H      71.75666185      77.08847505      94.67829244
C      69.39261424      78.16939850      97.40516751
N      68.82569634      75.73921046      98.22530873
H      69.36048889      74.14050200      97.32579901
C      67.09659677      75.89605774     100.05078435
H      66.48621517      74.37482806     101.26965782
N      66.19519732      78.31679715     100.12448368
H      64.77412313      78.95174519     101.23186330
C      67.69941946      79.67928982      98.56545947
H      67.31580502      81.64460519      98.17806558
C      70.15228421      83.31134380      93.96208617
O      71.00644051      84.46785630      95.83480495
N      68.71231276      84.43384123      92.17062563
H      67.80524413      83.23953420      90.98954668
C      68.08870308      87.23441562      91.96275573
H      69.78189786      88.40604594      91.92307148
C      66.54857614      87.46496223      89.57603140
H      64.90640397      86.22152232      89.66484854
H      67.78256742      86.68072581      88.12661132
C      65.95331235      90.01987221      88.60093262
H      67.40840161      91.26709157      89.35682315
C      66.19897677      90.34112568      85.77012260
H      67.97154005      89.65893448      84.97643755
H      65.96087125      92.35368420      85.39595679
H      64.56814296      89.37736526      84.96131974
C      63.37383593      90.80221890      89.59114921
H      61.99622545      90.79088054      88.06047090
H      63.60249281      92.77887262      90.12594176
H      62.76345433      89.82712012      91.29946180
C      66.48054599      87.77865680      94.37215678
O      64.46798746      86.68261554      94.73876369
N      67.43107832      89.23185634      96.15416869
H      68.99577171      90.12191743      95.51733093
C      66.08181374      89.80066396      98.49553960
H      65.37316637      88.01865204      99.24765067
C      68.02634211      90.96662509     100.50053921
H      66.84148371      91.81889166     101.95184902
H      68.88805731      92.46328833      99.37615206
C      70.06535680      89.15437756     101.53232978
H      70.79668089      88.06778493      99.94495968
C      72.15539411      90.77576273     102.53577445
H      73.63127036      89.41893924     103.00631631
H      71.60548375      92.15526294     103.96251782
H      73.03033739      92.00030538     101.12792835
C      69.24143613      87.43472661     103.51654241
H      67.94508388      86.21585314     102.47530321
H      68.31735996      88.37203086     105.09824333
H      70.79479116      86.29900110     104.24975622
C      63.76878873      91.31055528      98.18940393
O      61.59938292      90.62458463      98.95285336
N      63.94831273      93.47240218      96.96486128
H      65.49788831      93.69350016      95.87259947
C      62.17763917      95.68905115      96.76455029
H      60.31814848      94.80465923      96.79100646
C      62.57070225      97.35578976      99.19851778