 %block lattice_cart
   140.777   0.000   0.000
   0.000 144.511   0.000
   0.000   0.000   162.462
 %endblock lattice_cart

 %block positions_abs
N      93.16442639      43.15560451      80.46188140
H      92.54081670      41.91594405      81.77146172
H      95.05037325      43.33701824      80.67919993
H      92.56916260      42.59435579      78.73656127
C      92.17420980      45.69539667      80.92864379
H      92.88096744      46.19428443      82.79758311
C      93.28914832      47.67205039      79.03891748
H      92.62207493      47.34512774      77.11706582
H      95.34706028      47.54921819      79.01057159
C      92.49546327      50.38380765      79.86850734
H      93.08883733      50.75419401      81.80736653
H      90.51691982      50.76364265      79.44142919
S      94.06582584      52.65714841      77.89185360
C      96.76057556      53.43004647      79.92330940
H      97.35961880      51.72173389      80.90407735
H      96.15019396      54.83033368      81.30469933
H      98.23267236      54.39758634      78.85561402
C      89.27914909      45.80878026      81.31036850
O      87.84295709      44.53888418      79.96677311
N      88.53081747      47.17505237      83.21332290
H      89.82716972      47.85535386      84.43786556
C      85.95889995      47.75330863      84.01645659
H      84.67010661      46.79710712      82.72766325
C      85.59040332      46.59679612      86.62427890
H      86.82061515      47.57756409      87.95086677
H      86.12897532      44.61069378      86.52601313
C      82.88998442      46.68561327      87.46142765
O      81.87898085      48.62258273      88.30235586
N      81.61441916      44.63337049      87.04379814
H      79.85130451      44.37069852      87.72976879
H      82.57440013      43.15938397      86.30302543
C      85.56772661      50.58600838      83.83126341
O      87.36485633      52.12613531      83.89551411
N      83.17911255      51.41559822      83.73299764
H      81.73347192      50.17782748      83.60827570
C      82.58384876      54.14058357      83.71976955
H      83.46635095      54.96072478      82.04736177
C      79.74547984      54.66403775      83.20765373
H      79.25415100      53.83822736      81.38595756
C      77.96724738      53.54343006      85.14084374
H      78.30172893      51.51575372      85.28068350
H      75.98303475      53.79287392      84.64762518
H      78.04472616      54.53742610      86.94364264
C      79.28627634      57.44571489      82.99411466
H      79.54138940      58.33010680      84.83659780
H      77.38521167      57.87846221      82.32893100
C      81.06639853      58.85734045      81.00990203
H      82.95990430      59.10678431      81.77902063
H      80.28594156      60.66013935      80.39763070
H      81.05128072      57.59500327      79.38284768
C      83.67989002      55.29709607      86.15940622
O      84.86285869      57.30398541      85.99311031
N      83.61563933      54.04798698      88.32125314
H      83.14509747      52.22251137      88.01889693
C      84.70979086      54.80576724      90.77033843
H      83.71957427      56.60100723      90.96498025
C      83.70634619      53.24296356      93.01155384
H      84.74191621      51.46473110      92.92273671
H      81.74292055      52.73840664      92.65250585
C      84.28649217      54.33144592      95.62693506
C      83.66099276      56.80698739      96.25054474
H      82.84463099      58.08633210      94.88805206
C      83.94067225      57.54020121      98.73364512
H      83.17155364      59.34300011      99.30245274
C      84.93088884      55.99818453     100.59880499
H      85.22757587      56.70683191     102.48853130
C      85.63764648      53.49240744      99.91094460
H      86.58061991      52.29054150     101.26398864
C      85.12364092      52.61368470      97.50721273
H      85.69811772      50.70317141      97.07068596
C      87.58028513      55.23851455      90.82136105
O      88.70845174      55.99062563      92.70919763
N      88.92199081      54.48262404      88.76722854
H      88.13208521      53.54720950      87.30269064
C      91.62618917      54.93993780      88.51589494
H      92.31215982      55.98306673      90.15239793
C      92.92632087      52.43794016      88.20409009
H      92.23090159      51.59890167      86.45609325
H      92.57294205      51.30221465      89.88405680
C      95.83083021      52.58533882      87.81480647
H      96.77380364      53.71917461      89.25477792
H      96.24090082      53.64358554      86.09704527
C      96.96088655      50.00964185      87.45386876
O      98.24779017      49.77342606      85.43375133
O      96.64908171      48.24652719      89.08659228
C      92.09862075      56.58966886      86.10649389
O      94.13385598      57.84822659      86.25011310
N      90.55471435      56.49140311      84.09960455
H      89.01458740      55.37268513      84.21109840
C      90.81360685      58.02964033      81.96232409
H      92.58239068      57.59689300      81.00234312
C      88.56483254      57.24918335      80.29180602
H      86.86974804      57.92948483      81.24233836
H      88.58561953      55.19316113      80.20109917
C      88.84073258      58.69671370      77.84272073
H      90.68888492      58.32821707      77.01124114
H      88.75569490      60.69793388      78.32271121
S      86.24424863      57.73484301      75.73000671
C      87.63697692      54.99096040      74.22767429
H      87.28926728      53.46028209      75.56182107
H      89.69299915      55.10056454      74.20121812
H      86.97557271      54.50341103      72.33794798
C      90.54148626      60.95304692      82.64829474
O      92.20822487      62.52529922      82.02846451
N      88.61018597      61.58232578      84.14873744
H      87.33273098      60.30487080      84.76289849
C      87.89020025      64.33376730      84.94053276
H      87.68422008      65.36555786      83.16985920
C      85.28048821      64.48116595      86.07058910
H      85.14064846      66.25750869      87.10048993
H      85.03104434      62.85600132      87.31402900
C      82.92399950      64.46037897      84.30747444
H      83.03549335      62.68970540      83.26056607
C      80.54294434      64.23739126      85.80224795
H      80.80939575      62.74450748      87.19686597
H      79.01037630      63.92747614      84.46432173
H      80.06862304      65.99861619      86.75844946
C      82.64432000      66.57498270      82.37995360
H      84.30916888      66.68836629      81.17430821
H      82.42511175      68.26439803      83.53835584
H      81.00592729      66.07609496      81.23477945
C      89.99157591      65.69059080      86.45042408
O      90.45833831      67.87889386      86.01578702
N      91.48256997      64.12211795      87.77890168
H      91.05360209      62.26640672      87.69764344
C      93.69921893      65.07831947      89.18863751
H      93.35717847      66.74505808      90.35270892
C      94.45321973      62.80875817      90.93474463
H      96.30704124      62.90135475      91.82858517
H      94.87273897      61.24406477      89.66106909
C      92.63908247      61.30453603      92.62604968
H      91.42587818      60.02519131      91.56024403
H      91.49579805      62.75017666      93.54445666
C      94.08661283      59.63023850      94.70285888
H      95.50201784      60.85100171      95.57213300
H      95.01635817      58.16003143      93.60114845
N      92.02114197      58.53986642      96.35447969
H      90.69833355      57.44193544      95.52677956
C      92.04759814      58.80442810      98.86970541
N      93.23245653      60.72627977      99.95818777
H      93.08694761      60.92659076     101.84791408
H      93.96756007      62.15302313      98.92072803
N      91.05927127      57.10934361     100.22274945
H      91.07060963      57.10934361     102.12948329
H      90.51503010      55.49551734      99.36103426
C      95.94043434      66.02318263      87.49355300
O      97.80370448      67.03040674      88.52345385
N      95.94043434      65.41847021      85.01045264
H      94.52124988      64.30920086      84.37550459
C      97.80181476      66.12711757      83.09993933
H      98.95643754      67.49338969      84.12228126
C      99.52902461      63.94637341      82.13428919
H     101.23355774      64.55675500      81.15352123
C     100.65719122      62.55931429      84.44542447
H     102.04425033      61.26296204      83.64984969
H      99.15674852      61.53886209      85.41863351
H     101.49622970      63.89535079      85.77201233
C      97.98889766      62.00373475      80.53180126
H      96.88718722      62.89190613      79.03513802
H      96.61128718      61.14390929      81.79791789
C      99.47800200      59.90424882      79.26946410
H     100.34727610      58.75718495      80.74723006
H     101.14096115      60.64502153      78.30381395
H      98.32715867      58.68726507      78.07326733
C      96.65286116      67.68803150      80.93431297
O      97.98889766      69.31886531      79.99133955
N      94.31526971      67.11733415      80.25779096
H      93.42898807      65.62634010      81.05714518
C      92.83750373      68.60832822      78.59672153
H      93.86551485      68.68958645      76.81470961
C      90.43566159      67.20237185      78.16397419
H      89.11096344      67.55764039      79.70221142
H      90.70778218      65.16713660      78.03358309
C      89.09395591      67.70503904      75.63363066
O      86.94155764      68.60643849      75.54103407
O      90.24857869      67.18536430      73.58327762
C      92.34617489      71.36921836      79.38851684
O      92.71467152      73.06808231      77.74823441
N      91.76035974      71.77739924      81.70532130
H      91.84728715      70.22593394      82.81270093
C      91.17643431      74.20758729      83.04891672
H      91.98901662      75.78550875      82.00200835
C      88.33617566      74.71214421      83.30214005
H      87.88642079      75.56441077      85.12383621
H      87.41209949      72.89422749      83.59126817
C      86.99258025      76.28628623      81.26312535
H      84.98380118      76.15589511      81.70721104
H      87.41587894      75.62677174      79.36017096
C      87.77870639      79.03016883      81.49367197
O      89.87252315      79.93912719      80.70187664
O      86.19700547      80.56462661      82.45554266
C      92.55782424      74.75182847      85.56981162
O      93.54615110      76.85698358      85.79279933
N      92.64286192      72.88855831      87.26111667
H      91.82838988      71.21426080      86.83403852
C      94.32093889      72.90934531      89.49288345
H      96.01602339      74.05640918      89.24910875
H      95.06927051      71.00450118      89.70831225
C      92.85262154      73.78806805      91.73220912
O      91.52603367      75.68913271      91.80779818
N      93.20411064      72.34431714      93.80901834
H      94.02236213      70.61899701      93.76555464
C      91.83405906      73.10587684      96.28267009
H      89.83661835      73.26839330      95.80456933
C      92.04003923      71.06686215      98.29711834
H      93.98645733      70.84387444      98.93206638
H      91.67343233      69.31886531      97.27288667
C      90.31660883      71.15378956     100.40983236
H      90.75313561      72.71659322     101.67783872
C      87.46312210      71.20670191      99.46118974
H      87.14564808      69.64389823      98.15538887
H      87.03793368      73.05485423      98.65616633
H      86.26692534      70.95536830     101.11847973
C      90.58306024      68.56297478     101.87248053
H      92.56538315      68.23038295     102.32601483
H      90.22401224      66.86222111     100.76510090
H      89.71945532      68.92958169     103.70551504
C      92.84128319      75.57574913      97.20485652
O      95.24501506      75.84409027      97.60358878
N      91.19533157      77.43523982      97.32957846
H      89.32450252      77.24437747      97.00265581
C      91.68666041      79.95235528      98.17806558
H      93.73890319      80.10353338      98.06846146
C      90.63786231      81.81184597      96.21086048
H      90.79470959      83.77527161      96.81368319
H      88.61018597      81.54728428      95.95196798
C      92.17987898      81.63421169      93.71642175
H      92.09295157      79.78039019      92.82069148
H      94.19621695      81.86664803      94.06791085
C      91.18588294      83.47102567      91.69819406
H      91.36918639      85.46846638      92.15928727
H      89.16954496      83.04583725      91.66795844
N      92.41609477      83.13654411      89.19052724
H      94.20566558      83.71102091      88.85982513
C      91.23690555      82.46758099      87.01167279
N      88.88041683      81.68334457      87.12694611
H      88.04515780      81.20524382      85.47910475
H      88.00358383      81.10130888      88.71998539
N      92.32916736      82.57907486      84.83092864
H      91.49012887      81.74192609      83.33615511
H      94.22267312      82.82473927      84.78557520
C      90.43566159      80.27171902     100.72163719
O      88.32861675      79.50449014     101.19784823
N      91.97578854      81.56807127     102.31845594
H      93.54237165      82.45057346     101.67216953
C      91.57327683      81.81373569     104.87714535
H      90.27125540      80.41344849     105.63870506
C      94.16598133      81.31106850     106.17538733
H      93.75213127      81.04650682     108.17471778
H      95.45477468      82.87009270     105.78610371
C      95.50012811      78.89977772     105.36847420
H      95.91208845      78.99615377     103.35402595
C      97.98322848      78.62387768     106.72907715
H      97.58071678      78.55206807     108.74730485
H      99.13596154      80.31896218     106.52687644
H      98.97533480      76.89288837     106.22074077
C      94.03747994      76.37321364     105.66327150
H      93.53481274      75.90456151     107.60591016
H      95.46422331      75.02583877     105.03777210
H      92.53325780      76.30329376     104.25920486
C      90.53392736      84.38565320     105.73508111
O      89.61929982      84.72958339     107.81566978
N      90.53581708      86.30561514     103.98141508
H      91.42776790      85.97113358     102.32790456
C      89.35662787      88.90020936     104.17794663
H      88.57239145      89.03626966     106.07712156
C      91.56571793      90.80694321     103.83401643
H      92.84506264      90.57450688     105.43272490
H      90.77203287      92.65887500     104.25731513
C      93.13041131      90.67655210     101.38682085
H      92.24223995      91.57795155      99.76165622
H      93.21544900      88.69233947     100.83691051
C      95.70988773      91.98424271     101.70051543
H      96.87206941      91.74235774     100.01676928
H      96.60750773      91.27559534     103.41260747
C      95.17509518      94.83772944     101.94051067
H      94.86140062      95.37819117     103.90204659
H      93.48567986      95.22701306     100.82935160
N      97.33694209      96.29281871     100.89360230
H      98.80714916      96.05660291     102.08979905
H      96.89285640      98.14475049     100.73108583
H      98.09661206      95.56149462      99.30623218
C      87.44611456      89.44067109     102.18050591
O      87.68422008      88.38620382     100.09424807
N      85.75291979      91.21890355     102.63592995
H      85.44678412      91.70456321     104.45573640
C      83.77248661      92.02203723     100.83880022
H      82.81061592      90.27026094     100.34936112
C      81.72591301      93.67743748     102.10491685
H      82.79738783      95.28370485     102.82490259
C      79.70957504      94.70544861     100.13393231
H      78.07874123      95.69944464     100.90305093
H      78.94801533      93.15398330      99.01332461
H      80.66766628      95.95266797      98.80356498
C      80.14799154      92.21667904     104.16282881
H      81.37442392      91.50236250     105.65571259
H      79.25226127      90.59340414     103.26709854
C      78.28094195      94.09128755     105.30233378
H      76.49137113      94.34640060     104.31589664
H      79.35808594      95.74857753     105.88247976
H      77.62331719      93.36941210     107.11647104
C      85.08206695      93.24846961      98.55223138
O      85.99480475      95.41787542      98.68640196
N      84.81183608      91.80660844      96.57557766
H      83.90098800      90.13609037      96.72297631
C      85.44300467      92.66454418      94.03200605
H      86.35574248      94.50135816      94.23987594
C      87.22690631      90.69166991      92.73754353
H      88.75947435      90.32884246      94.06413140
H      88.10751877      91.54015702      91.08025355
C      85.96456913      88.17455446      92.19330235
C      84.72679840      87.73424823      89.82358555
H      84.65498880      89.15154296      88.35715794
C      83.50036602      85.47791501      89.19808615
H      82.65376863      85.19256635      87.36316190
C      83.34540846      83.62031405      91.13694534
O      82.36841996      81.18823629      90.68908020
H      82.34952270      81.05406571      88.87872239
C      84.45278808      84.01148740      93.44430116
H      84.40176547      82.37120495      94.65750546
C      85.76236842      86.30750486      93.97153481
H      86.59384800      86.45301379      95.83102550
C      82.96935293      93.29760249      92.63738803
O      80.91711015      92.53415306      93.43296281
N      83.33029065      94.40498211      90.37349590
H      85.03293406      94.63741846      89.54201633
C      81.11364169      94.97378973      88.68597030
H      79.35808594      94.57127803      89.68563552
C      81.29694514      97.78570249      88.27023053
H      83.24714270      98.18443474      87.74677634
H      80.84908000      98.58883617      90.11271367
C      79.48280788      98.82127251      86.23688501
H      77.54016923      98.44710670      86.81703099
H      79.55461748      97.66853946      84.53046215
C      79.50737432     101.72200240      85.73610754
H      80.17822716     102.52702582      87.50867082
H      77.58741239     102.43064977      85.49233285
C      81.45190270     102.84072038      83.78213052
H      83.33595983     102.21711070      84.33771006
H      81.45946160     104.89863234      83.82937369
N      80.90577179     102.24923604      81.08360135
H      80.97758139     100.41809124      80.55069853
H      81.99614388     103.14307659      79.79858746
H      79.11242152     102.85772791      80.85494447
C      81.23080472      93.42610389      86.18019322
O      83.10352350      93.41665525      84.70998615
N      79.24281264      92.04849341      85.45264859
H      77.87654051      91.90865365      86.77923646
C      79.10108316      90.31372466      83.31347840
H      81.01726565      89.70901224      82.85805436
C      77.45891100      88.12164212      84.11283264
H      75.44824220      88.56950726      84.07125866
H      77.89732750      87.66243864      86.07247881
C      78.09385904      85.76137396      82.48388854
O      79.94579083      84.49903679      83.14340304
O      76.83908077      85.31161910      80.59605197
C      78.06929260      91.52314949      80.94943079
O      77.13576780      93.65287104      81.15163150
N      78.09007959      90.40821096      78.69498730
H      78.49259129      88.55816891      78.44554342
C      78.57384952      91.75180638      76.31771160
H      79.95523946      93.25224907      76.60494999
C      79.66422161      89.95656637      74.36562430
H      78.06551315      88.84351757      73.69477147
C      81.28938624      91.06583572      72.24913084
H      80.05539495      92.10140574      70.96411695
H      82.39487613      89.68255606      71.19655329
H      82.70857070      92.33384209      73.04092617
O      81.27237870      88.23691544      75.53158545
H      80.44845803      86.62497888      75.39741487
C      76.35720056      93.15587302      75.26513404
O      76.51971702      94.83394999      73.66642558
N      74.11598515      92.50580718      76.18732048
H      73.96858650      91.06772546      77.43453985
C      71.82374713      94.05538275      75.57504914
H      72.14689033      94.65820544      73.63241050
C      69.32552895      92.59651403      76.02480402
H      69.00049602      92.36029824      78.04492144
H      69.92268246      90.74836170      75.33694363
C      66.85943611      93.59051007      74.70388532
H      66.16401683      95.38952953      75.42576078
H      65.27206601      92.41510031      75.28214157
C      67.04651901      93.53948746      71.90898010
O      68.27106167      91.82361597      70.89797653
O      66.08275859      95.35551445      70.62207649
C      71.90689509      96.45911462      77.18698570
O      70.91478878      98.30537723      76.30070405
N      72.82152263      96.40242283      79.48300316
H      73.41489669      94.73568422      80.19731972
C      73.41489669      98.90064101      80.97210750
H      72.35287050     100.39730425      80.03102379
H      75.30840245      99.68109798      80.74911979
C      72.80829454      98.88741294      83.70087229
O      72.18279513     100.88296392      84.82336973
N      72.85553770      96.54982148      84.94809167
H      73.47914738      95.00024590      84.02590523
C      71.52706010      95.99613168      87.36694135
H      70.74282368      97.70255453      88.21353874
C      69.13466659      94.33317252      86.85482552
H      68.08397876      94.25758346      88.62360935
H      69.66756941      92.40187222      86.37672475
C      67.20525602      95.48212611      84.98021701
C      66.27362095      93.70200393      83.10749823
H      66.93313544      91.77448309      82.97143793
C      64.32153367      94.56749858      81.48989251
H      63.46359792      93.08028398      80.38629235
C      63.85666100      97.18099007      81.16674930
O      62.05764155      98.00302102      79.55859222
H      62.05008264      99.81715827      79.54158469
C      65.05096803      98.88930265      82.80703175
H      64.65601523     100.87540501      82.54813925
C      66.58731552      98.01435937      84.79502383
H      67.59076019      99.25024038      86.07058910
C      73.14088637      94.67521299      89.35682316
O      74.89455239      93.21823399      88.75022101
N      72.75538221      95.18732882      91.79079065
H      71.28517513      96.37029748      92.07047014
C      74.24637627      94.37096705      93.93563001
H      76.23247862      94.60340338      93.44430116
C      73.88165909      95.95833715      96.43006874
H      75.29706410      95.18354936      97.71130319
H      72.10909581      95.67298847      97.44107231
C      74.75660237      98.75891154      96.26566256
C      72.86876578     100.64674813      96.52077560
H      70.95069358     100.13841175      97.01021472
C      73.49993437     103.15630468      96.19763241
H      72.29050953     104.70776997      96.74376331
C      75.98492447     103.88384930      95.39827818
O      76.60286498     106.29325035      95.14883430
H      75.16100380     107.36283545      95.40583708
C      77.69701651     101.89207777      94.80679384
H      79.52060241     102.57048951      94.18885334
C      77.12820889      99.34850615      95.41906517
H      78.54172418      97.96144704      94.92962605
C      74.11976460      91.59117964      94.53467325
O      72.02216840      90.58206578      94.57624723
N      76.18712519      90.24191505      94.74821232
H      77.83307681      91.20189602      94.61215203
C      76.49515058      87.50937081      94.66317464
H      74.79817635      86.53994120      95.31513021
C      77.05450957      86.79694398      92.00055027
H      78.86864683      87.45645846      91.28056453
C      77.00348696      83.90755246      91.94574820
H      75.19879833      83.19134617      92.63549830
H      78.50015020      83.13843384      93.13438604
H      77.06017875      83.42000307      89.94452804
O      75.24037231      87.49425299      90.19775136
H      75.09297366      89.28193409      90.46609249
C      78.26960359      86.55694874      96.68707151
O      79.83996615      88.08384761      97.53744835
N      77.96913710      84.20234976      97.62248605
H      76.63499033      83.28394276      96.61337219
C      79.69445723      82.94568175      99.34591645
H      81.56339655      83.72046955      98.96041227
C      78.80061668      83.76204352     101.90460587
H      78.88754409      85.81617602     102.00287164
C      75.98114502      82.89087969     102.42994979
H      74.58274755      83.54850445     101.06745711
H      75.24793121      83.48047431     104.26109458
H      75.90366624      80.83674720     102.54522309
C      80.53349571      82.87765160     104.15149046
H      80.63932038      80.82351911     104.09668840
H      79.68500860      83.53338664     105.91082565
C      83.23391461      84.08518672     103.93795139
H      84.36397095      83.54283528     105.57256464
H      83.06950842      86.12987059     103.73764039
H      84.26192573      83.60141678     102.21830044
C      79.82673807      80.05062104      98.81301362
O      78.36220018      79.04528664      97.45052095
N      81.80339179      78.90355718      99.86181172
H      83.20745844      79.91645047     100.66494540
C      82.32306653      76.28061705      99.33268836
H      80.67900464      75.08442030      99.65394183
H      83.69311811      75.67212517     100.74431392
C      83.30761394      75.92345878      96.53589342
O      85.16710463      77.15367061      95.76488507
N      81.99992333      74.22648454      95.31513021
H      80.66955600      73.28729058      96.30912625
C      81.79394316      74.23404345      92.48998938
H      82.92399950      75.79306766      91.75299612
C      82.83518236      71.76228143      91.30513097
H      82.15299116      70.07475583      92.26700168
C      82.18511651      71.65456703      88.42707780
H      80.12909428      71.76606089      88.39495245
H      82.53282615      69.85932703      87.47654547
H      83.02226526      73.25138578      87.43119203
C      85.71134581      71.91723899      91.89850505
H      85.99291503      71.39945398      93.87137931
H      86.46156715      73.81830367      91.64717144
C      87.21745768      70.20703668      90.31113493
H      87.13242000      70.55663604      88.28156888
H      86.67699595      68.22093433      90.23176643
H      89.16387578      70.21837503      90.98576723
C      79.03872220      74.64978324      91.88905641
O      77.47591854      73.14178164      92.76588942
N      78.43778923      76.67745958      90.61727061
H      79.84941478      77.96247347      90.55490964
C      75.93201214      77.49571108      89.54201633
H      75.14777572      75.95180467      88.42329836
H      76.25893479      79.06229418      88.24755380
C      73.94968924      78.58986260      91.32969743
O      72.12232389      79.77094155      90.37349590
N      74.15188995      78.07585704      93.74854711
H      75.55784633      77.04217675      94.52333490
C      72.00138141      78.60875986      95.55701518
H      70.30818663      77.59586656      94.95986167
C      72.41145202      77.65255835      98.31601561
H      73.81551867      78.83930648      99.24576095
H      73.24482132      75.77983957      98.12704297
C      70.01527905      77.27083364      99.87692954
N      68.86065627      74.98615453     100.26621316
H      69.18946865      73.46681458      99.16072327
C      66.71392718      75.42268130     101.56445514
H      65.08309338      74.19624892     101.54177841
N      66.63266895      77.93601730     102.17294700
H      65.08309338      78.74670989     102.93828617
C      68.73593434      79.05662501     101.10525164
H      69.17246112      81.04461708     101.26209893
C      71.20958608      81.49815141      95.79512069
O      72.32074515      82.94757148      97.21808461
N      69.22537345      82.09908436      94.38349514
H      68.48271101      80.79139376      93.20808537
C      68.30885619      84.71068614      94.04145469
H      69.97748453      85.71979998      93.38005048
C      66.36621754      84.52927241      91.90984339
H      64.80341388      83.40488525      92.64116748
H      67.09376217      83.51448937      90.27145069
C      65.28340436      86.93867345      90.85915556
H      65.05285775      88.13675994      92.52022500
C      67.01061421      88.14053939      88.76344909
H      66.16779628      89.98302254      88.39495245
H      67.32619851      87.22780158      86.94364264
H      68.95514259      88.55249972      89.30958000
C      62.76439919      86.45868298      89.43997110
H      61.38678871      85.63476230      90.72876446
H      62.96848963      85.40043624      87.68252564
H      61.66646820      88.03471471      88.69541895
C      67.38478002      85.83507328      96.49620916
O      65.82575582      84.74092176      97.90783472
N      68.25027468      88.04794280      97.21241543
H      69.84142423      88.68100112      96.36770777
C      67.44336154      89.12319707      99.68984663
H      66.76872925      87.78338111     101.10147219
C      69.74504819      90.42143905     100.93706599
H      69.10632070      91.67243787     102.44506759
H      70.79762575      91.49480359      99.53299935
C      71.66501012      88.49013875     101.93484149
H      72.20547185      87.19000705     100.43061934
C      74.12732351      89.68066633     102.61514297
H      75.11565037      90.66899319     101.09958246
H      75.40666822      88.28793804     103.42961501
H      73.73426044      91.10740970     104.04566578
C      70.52739488      87.13142554     104.09668840
H      69.74126874      88.53360247     105.38359202
H      71.88421838      85.84263219     104.96218305
H      69.02695219      85.86341918     103.47118898
C      65.14545434      90.86552473      99.30623218
O      63.25383830      90.75781034     100.60447416
N      65.43836192      92.62674965      97.57335316
H      67.04840874      92.50391744      96.55479068
C      63.51273081      94.43143828      96.95163321
H      61.63812231      93.59239980      96.78344757
C      63.45981847      96.54604203      98.96608146