 %block lattice_cart
   140.777   0.000   0.000
   0.000 144.511   0.000
   0.000   0.000   162.462
 %endblock lattice_cart

 %block positions_abs
N      95.71083259      46.65821224      79.71166005
H      95.56721340      45.32595518      78.35483656
H      95.29131335      45.97224158      81.44264935
H      97.46638834      47.37441851      79.94220666
C      94.18582346      48.75013927      79.34316342
H      94.77919753      50.18822099      80.69053828
C      94.60156326      49.97468191      76.70888494
H      94.21416935      48.64809403      75.18009635
H      96.58010670      50.50758474      76.50668423
C      93.27875484      52.49179737      76.23267390
H      91.27753466      52.00235825      76.21755610
H      93.93071041      53.31382831      74.46011062
S      94.05732208      54.68199016      78.82537841
C      97.27741571      55.92731980      78.18476118
H      98.58132686      54.33617024      78.09783377
H      97.72339113      57.30115083      79.65496825
H      97.37001230      57.04225832      76.45566161
C      91.41926414      48.03015354      79.66063743
O      90.81455173      45.99869775      78.85372431
N      89.90748310      49.58350857      80.69053828
H      90.44794481      51.19544510      81.55603293
C      87.24674845      49.25091673      81.04580682
H      86.64392574      48.45534196      79.24489765
C      86.60991068      47.66921581      83.53268666
H      87.30155050      45.73035661      83.46654624
H      84.57278571      47.40654386      83.69709285
C      87.61713479      48.94478108      85.90807263
O      88.77742675      50.99513412      85.85516030
N      87.39414709      47.99802819      88.14172912
H      88.12736090      48.92966326      89.63839237
H      86.39637160      46.37853274      88.30991478
C      85.93905783      51.84929041      81.15541096
O      87.28643270      53.72200918      81.13462397
N      83.40493484      51.94188700      81.36139112
H      82.60747034      50.23735387      81.68264459
C      81.75520377      54.25302229      81.32170687
H      81.85724899      54.97300800      79.39418603
C      78.79211291      53.76358317      81.73366721
H      78.28566627      52.51447408      80.17842245
C      78.46330054      52.25558158      84.22243676
H      78.84880470      53.51791875      85.80413769
H      79.53477535      50.49624637      84.23188538
H      76.46963927      51.75291438      84.33959979
C      77.16127911      56.31471370      81.69776241
H      77.79811688      57.69610362      83.08671125
H      75.23753773      55.72889853      82.13617891
C      77.30111885      57.66019883      79.21277231
H      75.83658096      59.10394972      79.09371954
H      77.03844689      56.13141023      77.85783853
H      79.21163215      58.40664072      79.02379966
C      82.86447312      56.17298421      83.13017495
O      82.69061830      58.45766333      82.56325706
N      83.82445408      55.27725394      85.34871364
H      83.87736642      53.38563791      85.60004724
C      84.82789876      57.06682476      87.33292626
H      83.34446360      58.42175854      87.78457085
C      85.12269606      55.50213137      89.77823212
H      85.88425577      56.78714526      91.19741658
H      86.21495788      53.77114208      89.56091360
C      82.82289915      54.49679698      90.95742134
C      81.91016133      52.11574183      90.41695962
H      83.07234302      50.91576561      89.24343957
C      79.68784318      51.17465811      91.39205838
H      78.96029856      49.31138798      90.99332614
C      78.35369642      52.58817340      93.18540866
H      76.81545919      51.73968628      94.22475814
C      79.18706571      54.94088267      93.80334917
H      78.16283405      55.97078350      95.23576171
C      81.13348382      56.01235749      92.35203936
H      81.68150445      57.94554749      92.70541818
C      87.09557033      58.44821469      86.57514602
O      87.28454296      60.74423216      86.80380290
N      89.06088571      57.06871450      85.86082947
H      88.88703089      55.16764981      85.82681439
C      91.42682304      58.26491125      85.17674855
H      91.96728477      59.91464232      86.28601790
C      93.39969731      56.19944039      85.33359583
H      94.96250097      56.84005760      84.15251689
H      92.80632325      54.41931820      84.48321899
C      94.25196389      55.89141499      88.09448597
H      95.47083735      54.23034557      88.17574421
H      92.66081432      55.54370536      89.35304370
C      95.68248671      58.10239479      89.23588067
O      94.73006464      58.93765381      91.22765220
O      97.70638358      58.90174902      88.25511271
C      91.43438195      59.41386484      82.57081596
O      93.06521575      60.83871849      81.99444944
N      89.49552275      58.79970379      80.97777668
H      88.30310546      57.60539677      81.86783777
C      88.87191308      60.16219647      78.62695715
H      90.51408524      60.23778551      77.38729669
C      86.80455248      58.51624485      77.35139188
H      85.34946322      57.97578312      78.70443592
H      87.84768141      56.88163159      76.65408288
C      85.47229544      59.54425596      74.91364494
H      86.35668734      59.09261137      73.10895631
H      85.15293168      61.57571174      74.79270246
S      82.16716411      58.20066055      74.62262709
C      81.65315856      59.11150863      71.29292933
H      79.71996853      58.61262088      70.78081350
H      83.23108002      58.37262564      70.19688807
H      81.88370517      61.15430277      71.15119985
C      87.84579168      62.84560783      79.03702776
O      88.92671513      64.68053208      78.24712215
N      85.83134344      63.18008939      80.58660334
H      85.04521729      61.60972683      81.32926578
C      84.70506656      65.58382126      81.29903016
H      84.26098086      66.69875978      79.62662237
C      82.24464289      65.04713899      82.90340778
H      82.07267780      66.26979191      84.55124914
H      82.37881345      63.14040514      83.67441613
C      79.87870555      65.05658761      81.24233837
H      79.92783843      63.71488194      79.68142443
C      77.64315931      64.08715801      82.75789887
H      78.10047309      62.15018854      83.29080169
H      76.00476660      63.93409019      81.51823841
H      77.20663254      65.21721436      84.42463748
C      79.31367737      67.75700652      80.22377588
H      77.56379082      67.67763801      79.13718325
H      80.77821528      68.35982922      78.90852637
H      79.14549174      69.03635123      81.82815352
C      86.59101341      67.29024412      82.67475091
O      86.18850170      69.64484311      82.86939272
N      88.57900549      66.25656383      83.86338876
H      89.02876036      64.40841149      83.69709285
C      90.44794481      67.67385856      85.18052800
H      89.46528713      69.24611085      86.07625827
C      91.28698329      66.18853368      87.46142766
H      92.36034785      64.53124371      86.86994333
H      89.66370839      65.31736985      88.38739356
C      92.96506027      67.83448529      89.37572042
H      91.48540457      69.08359438      90.07680887
H      94.31432485      68.90973956      88.25322299
C      93.90803370      66.50033852      91.73031940
H      92.21672864      65.70476375      92.59959351
H      94.56376872      67.84582366      93.14761413
N      95.75429630      64.62006084      91.24654947
H      95.15714278      62.80781331      91.32591797
C      98.21471997      65.01879308      91.11426862
N      99.24840026      67.21465507      90.88183229
H     101.15135466      67.15040436      90.75522063
H      98.26574257      68.73588475      90.27711987
N      99.60933798      63.03269074      91.24465973
H     101.43481360      63.34260585      90.78167679
H      98.92714678      61.28091445      90.90072955
C      92.40570127      68.91918820      83.53646611
O      93.57355213      70.79379671      84.17330388
N      92.41326018      67.99511204      81.12895479
H      91.32666756      66.47766180      80.72644308
C      93.75685558      69.03257177      78.92175445
H      95.57288257      69.92830206      79.29780999
C      94.76974889      66.95576256      76.97155690
H      93.16348153      65.70098429      76.66731096
C      95.71650177      68.21998946      74.50924351
H      96.38735461      67.00300572      72.98990355
H      97.23962119      69.56169515      74.85884288
H      94.29542758      69.31036155      73.49446048
C      96.78230741      65.38540000      78.19043036
H      96.10956484      64.59738412      79.97055255
H      98.43392822      66.51356660      78.67797976
C      97.60433836      62.95332223      76.89029867
H      96.05476279      61.60216792      76.99045416
H      98.91013925      61.96499537      78.13940776
H      98.11834393      63.32937777      74.93254221
C      92.12980124      71.06402757      77.50634944
O      93.11434865      73.06713745      77.04525622
N      89.76764335      70.58403709      77.14163226
H      89.32922683      68.81336352      77.70288097
C      87.91760128      72.55502162      76.20810746
H      88.64325618      73.62649645      74.60561955
C      85.58189956      71.25488993      75.43520941
H      84.40460006      72.71186891      74.57916339
H      84.47640967      70.68797202      77.07738157
C      86.07700786      69.06469712      73.63807968
O      87.54910466      69.46342938      71.75213282
O      85.07923236      67.00678518      73.94610506
C      87.44516970      74.54679316      78.06381871
O      87.44516970      76.68407362      77.26257475
N      87.42438272      74.09703830      80.50156564
H      87.22596146      72.35093119      81.24233837
C      86.50408601      76.07180229      82.21554742
H      86.07133867      77.69129774      81.02313011
C      83.85657943      75.30457342      83.24544825
H      83.03643822      76.51588797      84.69675806
H      84.02476508      73.52823068      84.27345937
C      81.77788050      74.65072810      81.33493495
H      80.19428984      73.85704306      82.38751251
H      82.44684360      73.37516285      79.86472787
C      80.64971388      77.03745244      80.01968543
O      81.98197093      78.88560478      79.91386077
O      78.42172655      76.83903118      79.15608051
C      88.33901026      77.20185862      84.19220114
O      88.28042873      79.48653775      84.76100876
N      90.19283176      75.65795223      84.88006152
H      90.49896742      73.94397047      84.09771482
C      92.07310945      76.42140167      86.60160219
H      92.06366081      78.45663690      86.91907621
H      93.88913643      75.84503514      85.81925550
C      91.56288334      75.53134056      89.20753477
O      90.00574886      73.88727868      89.74421704
N      93.01419315      76.64249965      90.93474463
H      94.16881592      77.95774916      90.17318492
C      92.57388692      77.06768806      93.66350942
H      90.60668183      76.71241951      94.15105881
C      93.87779807      75.00788637      95.28111514
H      95.91492303      75.19496928      95.03356100
H      93.40536650      73.10493198      94.64805682
C      93.34489525      75.03623228      98.20830120
H      94.14802893      76.71619897      99.08891367
C      90.40448112      74.80568566      98.73175538
H      89.68071593      72.98021005      98.11381489
H      89.30088094      76.34392288      97.92295252
H      89.99818995      74.69608154     100.74809337
C      94.79620507      72.94808470      99.58213223
H      94.14613922      71.09615292      98.95474309
H      94.55054064      73.34870668     101.58713185
H      96.77663824      73.33736832      99.16828217
C      93.06143631      79.80968094      94.65561573
O      95.23273184      80.23675909      95.40205762
N      91.18682781      81.39705104      95.16017266
H      89.41615425      81.04367222      94.53656298
C      91.53264771      84.06534459      96.11826389
H      93.54898569      84.31856792      96.46219409
C      90.83533870      86.13270519      94.28711910
H      90.99974489      87.89959928      95.33402747
H      88.80955210      86.20262505      93.92807110
C      92.55121020      86.10057984      91.92118176
H      92.36979647      84.30156039      90.93096517
H      94.54676119      86.17805861      92.42195923
C      91.97484367      87.97707807      89.93885886
H      89.93771871      88.06400548      89.66106909
H      92.67782186      87.43472662      88.07936817
N      92.97072944      90.41860447      90.55868908
H      93.46961719      90.75119629      92.37093662
C      93.07277466      92.35368420      88.97131899
N      92.52475404      92.24408009      86.68097069
H      92.83466914      93.73318441      85.53012736
H      92.05610190      90.66237915      85.72098973
N      94.19905155      94.42482424      89.49288345
H      94.90769891      95.41126139      88.02078665
H      95.39713803      94.42293451      90.97820833
C      90.19094204      84.49242274      98.48231152
O      87.91760128      84.19762544      98.73931429
N      91.53642718      84.84202212     100.47975222
H      93.33922607      85.34468931     100.10180697
C      90.66337361      84.63982139     103.15749442
H      89.06277542      83.34535888     103.22363483
C      92.77230818      83.42472738     104.72218780
H      92.03909437      83.17339377     106.63081138
H      94.33511185      84.75509471     104.89037345
C      93.60189804      80.73564683     104.00220207
H      94.24818443      80.79233862     102.04822507
C      95.92437168      79.82857820     105.48185778
H      97.45504998      81.14382772     105.07178717
H      96.39680325      77.86326284     105.07745635
H      95.70327370      80.09691935     107.50953412
C      91.47595592      78.90072258     104.11369593
H      90.71250649      78.74198558     106.02042978
H      92.09956561      76.95430448     103.86425206
H      89.84512212      79.57535488     103.04978002
C      89.49363303      87.13237041     104.27810212
O      87.83634305      87.03788409     105.88059003
N      90.31188453      89.28287895     103.23497320
H      91.42871278      89.13925975     101.69484625
C      88.97773774      91.69794918     103.41071774
H      87.98941088      91.80944303     105.21540637
C      90.76352911      93.97317965     103.25764991
H      91.62713403      94.25285915     101.40760785
H      92.21483892      93.81633238     104.71273917
C      89.41426452      96.59989923     103.80567054
H      88.73207332      96.35801426     105.73508111
H      87.79665879      96.90036572     102.56601008
C      91.26430658      98.85434272     103.69795613
H      91.69138473      99.43826816     101.76854558
H      93.05009795      98.51797144     104.66927546
C      90.21172902     101.04075606     105.13981732
H      90.59345375     100.73273067     107.14103748
H      88.17838352     100.75918685     104.97352140
N      91.21706342     103.54842288     104.21763087
H      90.85801542     104.90902583     105.50453450
H      90.34967904     103.86400717     102.54522309
H      93.11623836     103.54842288     104.03054797
C      86.93116414      91.76219988     101.41516676
O      87.46217724      90.76064492      99.36292398
N      84.71451519      92.95083772     101.95373876
H      84.35168773      93.42137958     103.76976574
C      82.64337514      93.47429191     100.07913025
H      81.94417641      91.74330260      99.20607670
C      80.72341320      95.19016341     101.29233455
H      81.60024621      96.79076158     102.24475661
C      79.01699035      96.46761838      99.36103424
H      77.42962024      97.59389527     100.03944600
H      78.48975670      95.11646407      97.89838608
H      80.15082613      97.85656723      98.34814095
C      78.97541637      93.98640774     103.23308347
H      80.05445009      92.65981987     104.37825762
H      77.66205658      92.69761440     102.30333812
C      77.39938463      95.56054975     104.85824810
H      76.01610496      94.39269889     105.83901606
H      76.26365911      96.93438079     103.82267807
H      78.31968133      96.73595952     106.27932229
C      83.97185275      94.92749145      97.78122305
O      85.48363380      96.69627528      98.01365939
N      83.21218276      94.23774135      95.48331586
H      82.18984083      92.62580479      95.47386723
C      83.84335136      95.35645931      92.99643603
H      84.82033985      97.13847123      93.34036622
C      85.88047632      93.71995634      91.52811869
H      87.67571631      93.68216181      92.54101199
H      86.74597096      94.72529072      89.95019722
C      85.22474128      90.94016892      90.73443364
C      84.70128709      90.35435376      88.24755381
H      84.55010899      91.97006977      87.00978307
C      84.71451519      87.79755406      87.50489137
H      84.40837952      87.54244101      85.50367120
C      84.42538705      85.85680514      89.34359507
O      83.60902529      83.52677259      88.70108812
H      83.57312049      83.27165955      86.90584813
C      84.64270558      86.53332717      91.83236462
H      84.35924664      85.05745092      93.21186483
C      85.24174883      89.02776590      92.59014488
H      85.68961395      89.47752076      94.52900407
C      81.63426129      95.80054501      91.24843919
O      79.48753221      95.67582307      92.18385371
N      82.15771548      96.41659578      88.76722854
H      83.94917602      96.25407931      88.12661132
C      80.19428984      96.66603966      86.78868508
H      78.38393203      96.54131772      87.76189414
C      80.09602408      99.43070925      85.77768151
H      78.65416289      99.57432845      84.31503335
H      81.92338942      99.99195796      85.01234236
C      79.68595346     101.31098694      88.04346337
H      81.17694753     101.00674100      89.43430192
H      77.92850799     100.90658550      89.04123886
C      79.66705619     103.88668390      86.76411865
H      78.21574639     103.79219758      85.30524994
H      81.56056197     104.46871959      86.20098021
C      78.54833823     105.69515198      88.68597030
H      79.51776782     105.47027454      90.48876922
H      76.60380985     105.19815395      89.15084299
N      78.73353141     108.47493938      87.98488185
H      80.61191935     108.82453876      88.01322775
H      77.61292370     109.42925118      89.20186560
H      78.05322992     108.67336065      86.21420830
C      80.22641519      94.73851882      84.67030190
O      82.22574563      93.98073856      83.67441613
N      77.99086897      93.95239267      83.95787508
H      76.42995502      94.60623797      84.84037727
C      77.60158534      92.58612054      81.57304047
H      79.11336639      91.19339226      81.46343634
C      74.87093082      91.44472584      81.61650418
H      73.46686417      92.82800552      81.02313011
H      74.29834374      90.95150729      83.53268666
C      74.80479039      89.12792140      79.92519913
O      72.99065314      88.79155010      78.51735301
O      76.54900778      87.48574923      80.07448749
C      77.68851276      94.42860370      79.26757437
O      77.71685865      96.74540816      79.51134906
N      77.98331006      93.24752476      77.03013841
H      77.90205183      91.34079091      77.00557197
C      78.35747586      94.47017768      74.48656680
H      79.81823431      95.92526693      74.49790515
C      79.08691022      92.36502257      72.56471514
H      79.04911569      93.21917885      70.69199636
C      81.64182020      91.09890594      73.19588372
H      82.92494436      91.61291150      71.66709514
H      81.38670715      89.05989125      73.34706183
H      82.50542512      91.71684643      74.95899836
O      77.23308871      90.33356677      72.64030419
H      77.18773527      89.76475916      70.91687379
C      75.84980905      95.56432922      73.62674132
O      75.97264125      97.29342879      71.99968697
N      73.66339570      94.72718045      74.54325859
H      73.84669916      93.30421655      75.80181631
C      71.15383915      95.81755254      74.24279209
H      71.06313230      96.75674652      72.41164730
C      69.16395735      93.73318441      74.34294759
H      67.36871736      94.65915030      74.75301821
H      69.50032863      92.41793490      75.89252317
C      68.58570110      92.28943351      71.89008284
H      66.88494741      91.12725183      71.95433354
H      70.15984312      91.14047992      71.22867863
C      68.10193116      94.13947558      69.64508798
O      66.41440556      95.73062513      70.01925379
O      69.24521558      93.99963582      67.60985274
C      70.72298156      98.00774533      76.17976157
O      68.53656821      98.94504959      76.27235816
N      72.48420648      98.54253789      77.89752279
H      73.96575191      97.37090756      78.16964338
C      72.14405575     100.70249505      79.63418127
H      70.88360829     102.06876718      78.74789963
H      74.05078959     101.43948832      79.89685323
C      71.17273642     100.02219358      82.22499604
O      71.18596450     101.62468150      83.90874219
N      70.36582329      97.67704323      82.69742763
H      70.42440480      96.35612454      81.32170687
C      69.48332109      96.80021023      85.25233760
H      68.08303390      98.05120905      86.10082472
C      68.27578598      94.09034268      84.98210674
H      67.49721874      93.58200631      86.82081043
H      69.81969238      92.78832125      84.57203613
C      66.39739803      93.72562550      82.72388380
C      66.14417470      91.25953268      81.68075487
H      67.26667213      89.68350093      82.32893100
C      64.59648885      90.94583811      79.49812098
H      64.73821832      89.21295908      78.42853589
C      63.28879824      93.07178020      78.43987424
O      61.94709256      92.77131372      76.31960131
H      61.09482599      94.27364615      75.76969096
C      63.38706401      95.39803330      79.85149980
H      62.29669193      97.00052122      79.20332366
C      64.83081491      95.69661005      81.95854464
H      65.09537660      97.58633636      82.68042009
C      71.60737348      96.45061085      87.18552761
O      73.78433818      96.41659578      86.30491516
N      71.16328780      96.13313684      89.59870812
H      69.39639368      96.08778340      90.31302467
C      73.22308947      95.51141687      91.44686046
H      74.95596850      95.94794366      90.42262879
C      72.74309898      97.24996508      93.84303342
H      73.97520055      96.72651090      95.40583708
H      70.80612952      97.04020546      94.51010681
C      73.05112438     100.09967237      93.33658677
C      70.96108707     101.33555338      92.40684142
H      69.23198749     100.42659502      91.81157762
C      71.16895697     103.97928049      92.05157288
H      69.41529095     104.92036418      91.59425911
C      73.26277372     105.35122179      93.01533330
O      73.23442783     107.86833723      92.87927300
H      71.77744885     108.45037294      91.97220437
C      75.41139254     104.00573666      93.72776012
H      77.27466269     104.76729635      94.07169030
C      75.27911170     101.31665611      93.83169506
H      76.96096811     100.23384293      94.23987595
C      73.24954564      92.77698290      91.96464547
O      71.27856109      91.56566833      91.81913653
N      75.38493637      91.87180399      92.81880176
H      76.86648181      93.01508841      92.44274621
C      75.97642071      89.06178096      93.08336344
H      74.32479991      88.02432122      93.74665737
C      77.05923388      88.19250686      90.56813772
H      77.35781065      86.17994834      90.88750146
C      75.18462539      88.48919389      88.59526345
H      73.39316485      87.60669171      89.10171010
H      75.76855081      87.70873692      86.78112619
H      74.77077532      90.44884009      88.10771406
O      79.24375750      89.45673376      89.88594652
H      80.63837552      88.92194122      90.91962681
C      77.97008197      88.52131925      95.14694458
O      79.46485548      90.25608800      95.71008302
N      78.00598677      86.22152232      96.20519130
H      76.81734891      84.80233786      95.73653918
C      79.96941241      85.53366195      97.96641624
H      81.74197570      86.51820935      97.60358878
C      79.09446912      86.12514628     100.73864474
H      78.59747110      88.11880754     100.64415842
C      77.05167499      84.32423710     101.59469076
H      76.04256113      85.28610780     103.11214099
H      77.90394155      82.54411491     102.18428537
H      75.98208988      84.14660283      99.84291445
C      81.34135371      86.15349217     102.70584983
H      82.57534499      87.65015542     102.01232026
H      82.20306891      84.28266312     102.75309299
C      80.50609468      86.93583886     105.45351188
H      79.43084042      85.47130098     106.42105176
H      79.41194315      88.68005625     105.52532149
H      82.19739974      87.20795945     106.59490658
C      80.59680155      82.79922797      97.31824011
O      79.28911093      81.58980313      95.93118100
N      82.85313476      82.16427993      98.33491287
H      84.02476508      83.47574999      99.07757531
C      83.66760680      79.54133981      98.58624647
H      82.16149494      78.45852663      99.48197674
H      85.34568377      79.41094868      99.77488432
C      84.13436920      78.42640128      95.91417346
O      85.41749337      79.67173091      94.34570061
N      83.08179165      76.07558174      95.26599733
H      81.88748462      75.22709464      96.48865026
C      83.27832319      74.80379593      92.81124285
H      85.01687140      75.35181657      91.85504134
C      83.61091501      71.90117632      93.09848125
H      81.93283804      70.99032824      93.86948959
C      84.18728154      70.62561106      90.53412265
H      85.93149892      71.40984748      89.77634240
H      82.69439775      70.69742066      89.11493818
H      84.65026449      68.65462652      90.92151654
C      85.87291741      71.39850913      94.85592672
H      85.40237555      72.08259005      96.74187357
H      87.35068338      72.63627985      94.13405127
C      86.68361000      68.53935320      95.26599733
H      85.35891186      67.34882563      96.30156735
H      88.36735615      68.84548888      96.41117148
H      87.24485871      67.60771813      93.51800049
C      81.11647629      75.51433304      91.07647410
O      79.36092053      74.03467733      90.32625275
N      80.89726802      78.07302246      90.63994732
H      82.07834697      79.33535964      91.44875018
C      78.88281979      79.06890823      88.99399570
H      78.91305540      77.93318272      87.27812420
H      79.39493562      80.94351672      88.31369423
C      76.15972417      78.91961984      90.06924996
O      74.26432868      79.08213631      88.63116824
N      75.77988917      79.11048220      92.56746816
H      77.27088323      79.49031720      93.69563477
C      73.18718467      79.22953496      93.63327380
H      72.05901807      77.79901215      92.66951338
C      73.47442308      78.60781501      96.49431944
H      74.71030408      80.12715497      97.12926748
H      74.64227393      76.93918668      96.80045510
C      71.04234530      78.54734376      97.90216554
N      69.24899503      76.56880032      97.85114293
H      69.46064438      74.94741513      96.86848525
C      67.07203032      77.48342784      98.91316912
H      65.36371773      76.37982768      98.77521910
N      67.41407079      79.89660835      99.78622268
H      66.13094661      81.07579757     100.56290019
C      70.00299584      80.49943104      99.33079862
H      70.98754324      82.19829501      99.88826789
C      72.07035642      81.85814427      93.38760938
O      73.37237785      83.68928906      93.94885808
N      69.65339646      82.09436005      92.51266610
H      68.53656821      80.56557147      92.26322221
C      68.49877369      84.41494397      91.81346736
H      69.92362733      85.65082498      90.98576724
C      66.37661105      83.97841718      89.96531503
H      65.16718620      82.53277655      90.79868433
H      67.39706324      83.22063694      88.34581958
C      64.98199302      86.54655524      89.34926425
H      66.03457058      88.28699319      89.65539991
C      64.29035319      86.25931685      86.44853436
H      64.07870385      88.16038151      85.68697465
H      62.55369470      85.18406257      86.19531103
H      65.85315685      85.43161672      85.39217735
C      62.61605567      86.99819983      90.92907545
H      62.74077761      86.48608400      92.92084698
H      61.07592873      85.90971747      90.09759587
H      62.00756380      88.95595630      90.74010281
C      67.67296329      85.48830851      94.39105405
O      66.61471656      84.15038229      95.98976251
N      67.94886333      87.97140889      94.76333014
H      68.92018265      89.02398645      93.50288268
C      66.94163921      89.20351045      97.01399416
H      66.07425484      87.72574447      98.15727859
C      68.89561621      90.66804833      98.52955467
H      67.86760510      91.62991903     100.03377682
H      69.70252935      91.93227524      97.11792912
C      71.02722750      89.02398645      99.71819253
H      71.97775984      88.06967466      98.15727859
C      72.96230725      90.70584286     100.79155707
H      74.56101570      89.57578652     101.42839484
H      72.26877769      91.70928754     102.45073678
H      73.76544093      91.84534783      99.27599656
C      69.92362733      87.15882658     101.71752297
H      71.48832071      86.07034422     102.49797993
H      68.45530998      86.07601340     100.75943172
H      69.08080939      88.32100825     103.19339921
C      64.66451900      90.76631411      96.40172285
O      62.62361458      89.97640850      97.20107708
N      64.88750670      92.80721852      94.93340550
H      66.49755353      93.39492341      94.09436702
C      62.60282759      94.19994682      94.10759510
H      61.08537736      92.83745414      93.82035670
C      61.79969391      96.19738752      95.92929127