 %block lattice_cart
   140.777   0.000   0.000
   0.000 144.511   0.000
   0.000   0.000   162.462
 %endblock lattice_cart

 %block positions_abs
N      91.91815189      44.98202499      80.81148076
H      92.01641765      44.48880642      82.65396392
H      93.66236928      45.53760452      80.27290876
H      91.45516894      43.42300078      79.81370526
C      90.30810507      47.18166642      80.26157041
H      90.83155926      48.83517695      81.37083974
C      90.44605508      47.84685007      77.44965765
H      88.92482540      49.17721741      77.05659458
H      90.35723796      46.17633201      76.24590199
C      92.92348628      49.33217497      77.11328637
H      93.16537125      49.78192982      75.11773537
H      94.54487146      48.19833918      77.68965289
S      92.99529589      52.40864939      78.74978936
C      90.04543311      53.71067083      77.55170288
H      90.19472149      55.61929440      78.31326257
H      88.37869450      52.86596316      78.41719753
H      89.91504199      53.52358793      75.50512928
C      87.66437796      46.62608688      81.06281436
O      86.34723872      44.99336334      80.07826696
N      86.77620658      48.16432410      82.91663587
H      87.95539580      49.53248595      83.53835584
C      84.21184799      48.23991315      84.07125865
H      83.08746082      46.92655336      82.95254067
C      84.32901102      47.48024317      86.82458988
H      85.41371392      48.92966326      87.80913729
H      85.43450090      45.80216620      87.26867558
C      81.79110857      47.09095955      88.19275174
O      80.79144335      48.77092624      89.24154984
N      80.88215021      44.87997977      87.85638046
H      79.59902605      44.15432486      89.06958475
H      82.10858260      43.71401864      86.97387826
C      82.88526011      50.73246216      83.63095241
O      84.16460482      52.59573230      83.18119755
N      80.40593918      50.92521424      83.84260176
H      79.50265002      49.24335782      83.89173466
C      78.86581225      53.40831462      83.82370450
H      79.35336163      54.23790446      82.00011862
C      76.00476661      52.89052960      84.04669220
H      75.75154328      51.46378625      82.58026458
C      75.28478087      51.77370136      86.73199329
H      75.59091654      53.06627416      88.30613532
H      76.38460160      50.08050659      87.14395364
H      73.26655317      51.40331501      86.55435902
C      74.55723624      55.21111353      83.47599487
H      74.98998357      56.68887950      84.84226698
H      72.50310375      55.14308338      83.60827570
C      74.82368766      56.14841777      80.76801706
H      73.21931002      57.38240905      80.38062317
H      74.43440404      54.62340863      79.43764973
H      76.54333861      57.00257406      80.02157517
C      79.88626446      55.34150463      85.79468904
O      80.33979876      57.43154193      84.85549508
N      80.50231523      54.62151892      88.09637570
H      79.89004390      52.91698578      88.69919839
C      81.70985035      56.28825751      89.90484378
H      80.73475156      58.10239479      89.79334993
C      81.54733389      55.28670257      92.57502706
H      82.50920457      56.51691441      93.91862246
H      82.66038267      53.56138244      92.72809489
C      78.80534101      54.71978467      93.64272243
C      77.97386142      52.21022814      93.67106833
H      79.29666984      50.67388064      93.42729363
C      75.65516723      51.71511984      94.70663833
H      74.98809384      49.79893737      94.91450823
C      74.17362180      53.49902149      95.90094536
H      72.36326399      53.23634953      96.80990372
C      74.99376303      56.00290885      95.62126588
H      73.75032312      57.40508578      96.43006874
C      77.15183047      56.63974661      94.29845746
H      77.61103397      58.62773869      94.34381088
C      84.54821927      57.02714050      89.30391081
O      85.63292216      58.28380851      90.81947132
N      85.49497215      56.14652804      87.12127691
H      84.21562744      55.40197587      85.91374181
C      87.98941088      56.87029322      86.05169183
H      88.82844936      58.14774822      87.43308176
C      89.88291664      54.67065179      85.49422257
H      91.68571556      55.30371012      84.72321423
H      88.95884048      53.25335707      84.32070253
C      90.71817567      53.32705638      87.97354349
H      89.16671037      52.57872476      89.10359983
H      91.69705391      54.52325314      89.33603616
C      92.31310468      50.93277314      87.27434476
O      94.67148312      51.09151016      87.43875094
O      91.28509358      48.83517695      86.81892070
C      87.51697931      58.47467087      83.74244628
O      88.69427880      60.40975060      83.44009007
N      85.85590987      57.57138168      81.96610354
H      85.22285156      55.78559033      82.20231933
C      85.07545291      58.95277162      79.72866758
H      86.43227640      58.89985928      78.17909201
C      82.76431763      57.68098581      78.48522766
H      81.20907288      57.84539201      79.82504363
H      83.25753620      55.67787593      78.46633040
C      82.13125931      58.63340788      75.80181631
H      83.50320061      57.69610362      74.58105310
H      82.37125455      60.67053284      75.62229231
S      78.94329102      57.66586801      74.96277783
C      79.29289039      57.19532615      71.58205745
H      79.83335211      58.93198463      70.61451757
H      77.58457780      56.49990686      70.66554018
H      80.61191935      55.68354509      71.11529504
C      84.39137199      61.72122066      80.32015191
O      85.54977421      63.51835039      79.43953946
N      82.62258816      62.08782757      82.17397343
H      81.57945922      60.55903899      82.64451528
C      81.95929421      64.68053208      83.07537289
H      81.61347430      66.04302474      81.56926101
C      79.50642946      64.40841149      84.56069777
H      79.41572260      65.96365624      85.90807263
H      79.55745208      62.78702630      85.83248357
C      77.18773527      63.80936825      83.05458590
H      77.48820176      62.14262963      81.88295557
C      75.01832946      63.16686129      84.84793617
H      73.19285385      63.02135237      83.90496273
H      74.68006845      64.60116358      86.28601789
H      75.23564799      61.39807747      85.87783701
C      76.19184950      65.87672883      81.27068426
H      75.26021443      67.51134210      82.10972274
H      74.67817874      64.93942458      80.23511423
H      77.75276344      66.49088989      80.07259778
C      84.09846441      65.89751582      84.76100876
O      84.46885076      68.20676137      84.76856765
N      85.57623039      64.42163958      86.12161169
H      85.39103721      62.55081053      85.78524042
C      87.86090950      65.56681371      87.53512699
H      87.19194638      67.13150710      88.69352921
C      88.84923636      63.59204972      89.35493342
H      89.35757274      61.88751659      88.31558395
H      87.20328473      62.98166812      90.43396714
C      90.77297775      64.43864711      91.19741658
H      90.28164890      66.02790694      92.41062086
H      92.46995196      65.27957532      90.39428290
C      91.67815665      62.40152215      92.91895725
H      92.86679449      63.14040514      94.43073829
H      92.87246368      61.10894934      91.84748242
N      89.56355290      60.78013696      93.81846698
H      88.68483016      59.85417107      92.39928251
C      88.54876988      60.70076847      96.10881527
N      89.36135219      61.99145154      98.13838132
H      88.22373694      62.13318100      99.66528019
H      90.60668182      63.43520244      98.07602035
N      86.50030655      59.35150387      96.25621392
H      85.53087695      59.47622580      97.89460662
H      86.13180992      58.04381326      94.91450823
C      89.93582899      66.50222824      85.84193221
O      90.88825105      68.54502238      86.35971722
N      90.43849619      65.25689861      83.77457161
H      89.52575837      63.59016000      83.60449626
C      91.96728477      65.97877406      81.55225348
H      93.77008367      66.71954677      82.21176795
C      92.48884924      63.68086685      79.88173541
H      90.80888255      62.50356737      79.70032169
C      93.18237878      64.15140870      77.24745694
H      94.82077150      65.37784109      77.00368223
H      91.58178061      64.94887322      76.22511499
H      93.68504599      62.39963241      76.29125541
C      94.53731255      62.24467485      81.28580206
H      93.93260014      61.86483987      83.21899208
H      96.22861760      63.40496682      81.10249862
C      95.38390994      59.49701280      80.35227726
H      97.18859858      59.07938328      81.25178700
H      95.46138873      59.28347373      78.30381395
H      93.98173302      58.16664548      81.06092464
C      90.93549420      68.08203943      79.93842720
O      92.42459854      69.80169039      79.23544902
N      88.47885000      68.10282643      79.47733399
H      87.27887379      66.71009813      79.99511899
C      87.33556558      70.31191648      78.28680641
H      88.31066436      70.89773164      76.56904519
C      84.55388844      69.80169039      77.48934191
H      83.79232875      71.62527628      76.90730620
H      83.49186226      69.25744921      79.16741887
C      84.22129661      67.99511202      75.28781075
O      82.14637713      66.92930639      74.93254221
O      86.03165442      67.84204419      73.85350847
C      87.48863341      72.74021480      79.87039705
O      87.63603206      74.76789113      78.70443592
N      87.36769093      72.76856070      82.37995360
H      86.99352511      71.23977211      83.45898732
C      87.05966553      75.25921997      83.65740858
H      87.84579168      76.95052503      82.78057558
C      84.17783291      75.56913509      84.30369499
H      83.89626368      77.23020453      85.48855339
H      83.77343147      74.06869239      85.65484930
C      81.97819148      75.71464402      82.47821937
H      80.28310697      75.88660911      83.63662159
H      81.85346954      74.03467733      81.29336097
C      82.33534975      78.08436081      80.81903967
O      82.85880395      80.12526524      81.77146172
O      81.79866748      77.86704228      78.54947836
C      88.31255409      75.12504940      86.31247405
O      89.31410902      77.07524697      87.15151255
N      88.30499518      73.02745321      87.73354824
H      87.91949100      71.44008310      86.74900084
C      89.53898645      72.78934768      90.24688425
H      91.33044700      73.77578483      90.00499928
H      89.94716734      70.79568642      90.57002744
C      88.08767665      73.84759442      92.36715716
O      86.54565998      75.64472414      92.17440509
N      88.65270481      72.99532785      94.68018217
H      90.19850095      71.89361741      94.86159589
C      87.33556558      73.77578483      97.04611952
H      85.28143307      73.83247660      96.93084622
C      87.85524032      71.79535164      99.10214174
H      87.12580596      72.49644011     100.89549202
H      89.89992419      71.61771737      99.27410683
C      86.57589560      69.05713821      98.66939441
H      87.17682856      68.02534764      96.99131746
C      87.32233749      67.21087560     100.72730637
H      85.96929345      65.65752058     100.75565226
H      86.88014153      68.24644563     102.45451623
H      89.32922684      66.75545157     100.66305567
C      83.73752667      69.03068205      98.28577997
H      83.35391223      67.23544205      97.35414490
H      83.31800743      70.54813228      96.95730237
H      82.60558061      69.05524850     100.00543092
C      88.31822327      76.40817358      97.82468676
O      90.23440575      76.63305100      99.18339998
N      86.93305387      78.46419581      97.11603938
H      85.64992971      77.99932313      95.78000289
C      87.53587656      81.17217360      97.55823534
H      89.56922207      81.51610380      97.56579426
C      86.53999079      82.75198481      95.42095489
H      86.74786069      84.67383646      96.12960225
H      84.52932200      82.30600940      95.37749118
C      87.86468894      82.45151832      92.81502230
H      87.71918002      80.52777694      92.09125712
H      89.83756322      83.02032594      92.96809013
C      86.79510385      84.26565559      90.85915556
H      86.70250726      86.21207368      91.53189814
H      84.82033986      83.76298838      90.55868908
N      88.28420818      84.17116927      88.51400521
H      89.77331252      85.35980711      88.39873191
C      87.62280397      83.28299791      86.26523090
N      85.61591463      81.84491617      85.93641852
H      85.17938786      81.48775790      84.11283262
H      84.46885076      81.38571269      87.39528723
N      89.05710624      83.70629659      84.14495797
H      88.28420818      83.28110817      82.45176321
H      90.58589484      84.84391184      84.24133402
C      86.38125378      82.18317719     100.14527066
O      84.10413358      82.04522717     100.51565702
N      88.03476432      82.93150880     101.99720246
H      89.89614473      82.92394991     101.56823458
C      87.35257311      82.86914784     104.64659875
H      85.95228592      81.47641954     105.23430362
C      89.69016457      81.82979837     106.02609895
H      89.15348230      81.20051951     107.91393555
H      91.18115862      83.24898282     106.01665033
C      90.71817567      79.31646237     105.01320566
H      91.23974014      79.47330965     103.02710330
C      92.92915546      78.80056708     106.62703192
H      93.80031929      77.19052027     105.68027903
H      92.23373618      77.88971901     108.33723423
H      94.22172826      80.37659883     106.91427033
C      88.59790276      77.30579357     104.97919058
H      89.24985833      75.82424814     103.70551504
H      86.90470797      77.94263134     103.99275345
H      87.90626292      76.78800856     106.85001963
C      86.51920381      85.54122084     105.59335162
O      86.01464689      86.04388805     107.76275743
N      86.57022643      87.24953344     103.86803151
H      86.63636684      86.60135730     102.07279150
C      85.82567425      89.88003246     104.20440278
H      84.99419468      89.89137082     106.09034965
C      88.13680953      91.61858066     104.19684389
H      89.35001383      90.92883056     105.71240438
H      87.69839303      93.51586588     104.87525564
C      89.86023993      91.75653069     101.87248052
H      88.75286032      92.44817052     100.28133096
H      90.39503247      89.94617288     101.04478040
C      92.45294444      93.17571514     102.30711758
H      93.67559735      91.97573895     103.44662254
H      92.09767589      95.06733119     103.04222110
C      93.84000355      93.24563502      99.78433295
H      92.72695475      94.43805233      98.52577521
H      94.16125702      91.47307174      98.78844718
N      96.18893336      94.75363662     100.30211795
H      97.08088417      94.15081392     101.87814970
H      95.82232645      96.56966361     100.75565226
H      97.53252876      94.58923044      98.95474309
C      83.79043902      90.69072504     102.33168402
O      83.67138626      89.52287419     100.26621316
N      82.20306892      92.52375957     102.80411559
H      82.34668812      93.47429191     104.45573638
C      80.40215973      93.55743987     100.85391804
H      79.22674996      91.93605469     100.37392755
C      78.48408753      95.46606345     101.98397438
H      79.44973767      97.06666162     102.84757930
C      76.58113314      96.56966361     100.10369669
H      75.26210416      98.03231177     100.70085020
H      75.59091654      94.93694007      99.32890891
H      77.77732989      97.43326853      98.66939441
C      76.97419620      94.19994682     104.12503428
H      78.17039295      93.05477267     105.34957694
H      75.62493161      92.90170484     103.26331909
C      75.56823983      96.01408407     105.85224414
H      74.19062935      97.17437603     104.85068919
H      76.87593044      97.17437603     106.93694704
H      74.37204307      94.98985240     107.17883201
C      81.81756474      94.35490436      98.60514373
O      83.53154650      95.94794366      98.82813142
N      81.17694753      93.46862273      96.39983312
H      79.85980828      92.08912251      96.41873037
C      81.90638189      94.44183177      93.98476288
H      83.02887931      96.09534231      94.48931982
C      83.74508558      92.45383969      92.78289695
H      85.14159333      91.83967865      94.16806634
H      84.93372344      93.31177544      91.33725632
C      82.40149018      90.10302017      91.90606394
C      81.93472777      89.79310505      89.28879301
H      82.65093404      91.21039979      88.00566883
C      80.77632555      87.59913280      88.26078189
H      80.52688167      87.22496698      86.27090008
C      79.85980828      85.76987773      90.01255817
O      78.75998757      83.64771507      89.03556968
H      79.08124104      83.80078291      87.25544749
C      80.45129261      85.95696064      92.54857089
H      79.77099114      84.47919466      93.78067245
C      81.69662225      88.11313836      93.55957446
H      82.06322916      88.23597057      95.56457409
C      79.41761232      95.04276474      92.42573868
O      77.19151473      94.55710509      92.94352369
N      79.90327199      96.02542243      90.19775135
H      81.67394554      96.42226496      89.60059784
C      78.09480391      96.18982861      88.16062639
H      76.19373923      95.87802378      88.89006074
C      77.74709427      98.86757080      87.02679061
H      76.32224063      98.74095915      85.54713491
H      79.62548222      99.41370170      86.37672475
C      76.65483246     100.53808887      89.16407107
H      77.71874838     100.35289568      90.91773708
H      74.74242942      99.85022849      89.49288345
C      76.67750917     103.29519955      88.13228050
H      75.56635010     103.37267834      86.39940146
H      78.55211768     103.90369143      87.53323726
C      75.50020967     105.19059504      90.08436778
H      76.91183523     105.38523686      91.57158238
H      73.99598753     104.17770174      91.06135629
N      74.84447465     107.60944473      88.85415595
H      76.43373447     108.52785171      88.32881203
H      73.63127035     108.85099492      89.64595128
H      73.88260395     107.52251732      87.20631461
C      78.64471427      94.37947082      86.02334593
O      80.59680155      94.42104479      84.95187112
N      76.79656193      92.82989523      85.20509444
H      75.20163292      92.77887263      86.25389254
C      76.92128387      91.28031965      82.82592901
H      78.76187730      90.36947158      82.66152283
C      74.68762736      89.37547554      82.95820986
H      72.92451272      90.40159693      83.22655099
H      74.89171780      88.44384046      84.78368547
C      74.55345680      87.38370400      80.87006227
O      73.04167575      87.76164927      79.12962434
O      75.90839057      85.58279482      80.86628282
C      76.75498796      92.92249182      80.36928481
O      76.12948855      95.18638395      80.58282388
N      77.23119899      91.86046563      78.10350295
H      78.04945048      90.13703523      78.04114198
C      76.57924340      92.88280758      75.59961558
H      77.82079359      94.48340576      75.23111895
C      77.15372020      91.01953742      73.44721732
H      76.06334813      91.50330736      71.76725063
C      79.96563296      90.71529148      73.03714670
H      80.86703241      90.12569688      74.79270245
H      80.60436046      92.57289246      72.41542675
H      80.02232475      89.32067348      71.52347594
O      76.45452146      88.62336446      74.32405033
H      74.68762736      88.43061237      73.95177424
C      73.89961150      93.93349541      75.35395116
O      73.40261347      95.87802378      74.07649618
N      71.97775984      92.81855687      76.47077941
H      72.40672770      91.13481074      77.26446447
C      69.37182724      93.76342003      76.41030817
H      68.72176140      94.35112491      74.54703803
C      67.56146943      91.73763342      77.35517133
H      68.18318939      91.14992854      79.22977984
H      67.70697836      90.38647912      75.80748549
C      64.67396763      92.33856640      77.31926653
H      64.27145592      93.82578100      78.68553866
H      63.61950034      90.84568260      78.26223997
C      63.56469828      92.88280758      74.71144422
O      61.28001917      93.46484328      74.47522844
O      65.02356700      92.71651166      72.81604873
C      68.93907993      96.08778340      78.15074612
O      67.03612553      97.42759935      77.71610906
N      70.67573841      96.95894723      79.71921896
H      72.36515372      96.07077587      79.67008607
C      70.71920210      99.45527569      80.94943079
H      69.77244923     100.79320191      79.70410114
H      72.69585584     100.00707578      81.13084450
C      69.76300059      99.48929077      83.58181953
O      70.18629928     101.29775885      84.97076838
N      68.92396211      97.33689250      84.55124914
H      68.51389151      95.87046487      83.39851608
C      67.81469276      97.15169932      87.11749746
H      67.42729887      99.06221261      87.77512223
C      65.34859993      95.80999363      86.91718647
H      64.59648885      95.48685043      88.80691280
H      65.85315686      93.86546526      86.45987270
C      63.34926949      97.04776437      85.20509444
C      62.14929327      95.65503607      83.28135305
H      62.65573992      93.71050770      82.91852560
C      60.24066971      96.79454103      81.93397819
H      59.09927501      95.62102099      80.71699444
C      59.72477441      99.43448869      82.22121658
O      57.74056178     100.33588814      80.93431297
H      57.48544873     102.05175965      81.47099524
C      60.93041980     100.78753273      84.05614083
H      60.48066495     102.69426658      84.63439709
C      62.73888788      99.64991749      85.60949586
H      63.68753049     100.68548752      87.08915158
C      69.52111562      96.10479093      89.24343957
O      71.43729810      94.95394760      88.68786003
N      68.83892443      96.49974373      91.64528171
H      67.51233655      97.79231653      92.11015439
C      70.67006922      95.70983813      93.54445666
H      72.58814143      95.97251010      92.84147846
C      70.53967811      97.23484726      96.16928651
H      72.05901807      96.42415469      97.29934284
H      68.64995179      97.00996984      96.95730237
C      71.17651588     100.04676002      95.94629880
C      69.19986216     101.81176439      96.17117624
H      67.26289268     101.25051568      96.47164272
C      69.69119099     104.37423329      95.94062962
H      68.23799145     105.79908692      96.09369745
C      72.22909343     105.37011904      95.63827342
O      72.84703393     107.91558040      95.55512545
H      71.48454127     109.08721071      95.32268912
C      74.24165195     103.58243796      95.54189738
H      76.18240087     104.20604764      95.44174188
C      73.70874914     100.94438003      95.57402271
H      75.22241992      99.65558667      95.10726032
C      70.55479591      92.89792538      94.03956496
O      68.53845795      91.68661081      94.14916908
N      72.74309899      91.67716219      94.29467800
H      74.42495541      92.58045137      94.25877320
C      73.15505932      88.89170560      94.23609649
H      71.33147344      88.10746918      94.78789658
C      73.74465394      87.96951916      91.44497073
H      75.73075628      88.00731368      90.90639873
C      72.75821679      85.43161672      90.97442888
H      70.73431992      85.57901537      91.33536659
H      73.43851827      84.10502885      92.39172360
H      73.10592644      84.76265360      89.05824639
O      72.38783045      89.33957073      89.69697389
H      72.61270787      91.07056003      90.18830272
C      75.39060555      88.19817604      96.04456457
O      77.11214623      89.69672900      96.37337695
N      75.27344252      85.83601814      96.94407430
H      73.61804227      84.88926527      96.86092634
C      77.22930926      84.59446797      98.52010603
H      79.07935131      85.42405781      98.15349914
C      76.84758455      85.28988725     101.35469550
H      76.64538382      87.33268139     101.19784823
C      74.39283006      84.25620695     102.44884704
H      72.72042228      84.72107963     101.34146743
H      74.17740127      85.03855364     104.34235281
H      74.71597325      82.25309707     102.81167450
C      79.36847945      85.09524543     102.86269710
H      81.01821052      85.88515104     101.91405450
H      79.80500622      83.18662185     103.50331433
C      79.49509111      86.70529226     105.26453926
H      78.87337114      88.65548981     105.04722073
H      81.37536879      86.68072582     106.10735718
H      78.25354092      85.70373731     106.57034013
C      77.19340446      81.77877575      98.25365462
O      75.58902681      80.80367698      96.89494142
N      79.07179242      80.53344612      99.25331985
H      80.49286659      81.61247984      99.92795215
C      79.30611848      77.78578405      98.82624171
H      77.62237233      76.75021403      99.40827741
H      80.84624541      77.13382848     100.02621792
C      80.03366311      77.28311686      96.12771253
O      81.36025097      78.81379517      95.02411236
N      78.99809308      75.20630764      95.13938567
H      77.89071347      74.08569993      96.21841939
C      78.75620812      74.78867813      92.45597430
H      80.22830491      75.75621800      91.39016867
C      79.25698558      71.95408866      91.77378311
H      78.52377178      70.84859877      93.34981484
C      78.21385666      70.95442343      89.28501354
H      79.28155204      71.64228381      87.66173864
H      76.21263649      71.41362693      89.13194572
H      78.56156630      68.92485738      89.20753477
C      82.21818672      71.54401805      91.70197350
H      83.07990193      72.49455038      93.31391005
H      82.75864845      72.38494626      89.90295405
C      83.02887931      68.70186967      91.39205838
H      82.18795110      67.41874551      92.76777915
H      85.04521729      68.46376416      91.74732694
H      82.75486899      67.97243531      89.48721427
C      76.25798993      75.72220293      91.45819880
O      74.30968210      74.45608630      91.75299612
N      76.18051116      77.93507243      90.30168631
H      77.83024223      78.83269243      89.97098419
C      73.98275944      79.05568014      89.06391557
H      73.75032312      78.10136836      87.25355776
H      74.59314104      80.94540645      88.51967439
C      71.52800496      79.37126444      90.58892470
O      69.60426358      79.32402128      89.44753001
N      71.58280704      79.41283841      93.07202507
H      73.22119974      79.60559050      94.03200605
C      69.21686969      79.57724461      94.65750546
H      67.72209617      78.43962937      93.81279779
C      69.59859441      79.00087808      97.44863122
H      70.76077609      80.36337074      98.46530397
H      70.82502679      77.34358810      97.43540314
C      67.18163445      78.38671702      98.93206638
N      65.95709179      76.20975232      98.95474309
H      66.63361381      74.55435207      98.29144915
C      63.72154558      76.56124141     100.29644878
H      62.26078714      75.16095420     100.56478992
N      63.70642775      78.90639176     101.13359754
H      62.16441108      79.69818709     101.93106203
C      65.66796368      80.18951592     100.01487956
H      66.01567332      82.19829499     100.12826313
C      68.34759558      82.36459091      94.62160065
O      69.42473958      83.93117403      95.88771728
N      66.34637541      82.93150880      93.14950386
H      65.78512671      81.54255996      91.96464545
C      65.09159715      85.57145646      93.07013536
H      66.71487206      86.76009432      92.61849077
C      63.29068797      85.79444417      90.72876446
H      61.96410009      84.22030215      90.65695485
H      64.51145116      85.78121608      89.06958475
C      61.64284662      88.27565481      90.82325076
H      60.61105605      88.26242674      89.03934913
C      59.76256894      88.32289798      92.97564904
H      60.51279030      88.88225696      94.81246302
H      58.73077837      86.55978332      92.72242571
H      58.28291325      89.70050846      92.58447569
C      63.24533453      90.64726135      90.63427814
H      64.15429289      91.15370800      92.41251060
H      62.01890217      92.24785952      90.20531026
H      64.71932107      90.49986270      89.20186560
C      64.31680936      86.38592850      95.86126112
O      62.75589542      85.10658380      96.99698663
N      65.29757731      88.43817128      97.01588390
H      66.69219534      89.42649814      96.16550706
C      64.13350590      89.50586664      99.32701918
H      63.25100372      88.08668219     100.52888511
C      66.42952338      90.87024904     100.59124608
H      65.77945752      91.80188411     102.30900730
H      67.37627625      91.97573895      99.13426709
C      68.52711959      89.00319946     101.46052019
H      69.08080940      87.65960404      99.99976175
C      70.84770350      90.53198803     102.22019017
H      70.20708627      91.78487659     103.72252257
H      71.48832072      91.53921216     100.54211319
H      72.19507836      89.13170084     102.90238136
C      67.70319892      87.34590947     103.65260271
H      67.11360430      88.42872266     105.30422350
H      69.30001764      86.08735175     103.97952536
H      66.12527744      86.08546202     103.24820127
C      62.01701243      91.39937242      99.08135476
O      59.91941622      91.26898130     100.14338095
N      62.40440633      93.01319869      97.25209969
H      64.04090931      93.13792063      96.27700090
C      60.54680536      94.89536609      96.42062010
H      58.69487358      94.02798171      96.16361733
C      60.12539640      96.96461641      98.42184027