 %block lattice_cart
   140.777   0.000   0.000
   0.000 144.511   0.000
   0.000   0.000   162.462
 %endblock lattice_cart

 %block positions_abs
N      90.90809318      42.28916500      81.67981000
H      92.81482702      42.34774651      81.78563467
H      90.16732046      41.04383536      80.43825981
H      90.29393211      41.83941013      83.42969657
C      89.97267865      44.81383935      80.98817017
H      90.64353149      46.24247244      82.31286832
C      90.93076988      45.83618129      78.55231296
H      90.14653347      44.80817017      76.94982504
H      92.98490238      45.95145459      78.46349582
C      90.57172188      48.59140225      78.09877864
H      88.55916336      48.99580368      77.92492381
H      91.49201860      49.00525231      76.30542836
S      91.55815903      51.17276839      80.50817969
C      94.82360610      51.38819719      79.50284529
H      95.54170208      49.46067635      79.36678500
H      95.99712614      52.28770692      80.93714755
H      95.14863901      52.48045900      77.78886352
C      87.13430973      44.95934828      81.32643119
O      85.77370677      43.37764735      80.34944268
N      86.24991780      47.00214242      82.57743000
H      87.44044539      48.25314124      83.38623286
C      83.55894753      47.54449387      83.14434789
H      82.51014943      47.06450339      81.43603531
C      82.64243028      45.94767514      85.43280646
H      83.40965916      44.03905156      85.50461605
H      80.61097449      45.61130385      85.48949824
C      83.23391462      47.15521025      87.83275887
O      81.71079521      48.66132212      88.77195285
N      85.55638826      46.91143556      88.67179735
H      85.92677460      47.69567198      90.37255104
H      86.70723158      45.77571004      87.65701433
C      83.23013517      50.45467239      83.54685960
O      85.01781626      51.86062877      84.11566722
N      80.83585193      51.34662321      83.52040342
H      79.43745445      50.13719837      83.04041294
C      80.16310935      54.06215993      83.63567674
H      81.15710540      54.75379976      81.96704840
C      77.31718152      54.39664148      83.40701986
H      76.73136637      53.44610915      81.67414082
C      75.87154090      53.26658515      85.76539829
H      76.69924102      54.09050582      87.46048280
H      76.30806767      51.26158553      85.94681202
H      73.85709264      53.59728725      85.47815988
C      76.38176701      57.02525079      83.06686912
H      77.12065000      58.08160779      84.67313649
H      74.33519341      57.15753163      83.23883421
C      77.12442945      58.08538725      80.32865569
H      76.14177176      59.83527381      79.85244465
H      76.27594232      56.84572679      78.91891985
H      79.13698797      58.13452013      79.89779809
C      81.24970199      55.58527933      85.92980447
O      81.86197330      57.77736186      85.44981399
N      81.59930135      54.52514287      88.15968152
H      81.42166707      52.62785765      88.26928566
C      82.60085629      55.93298898      90.31396953
H      81.83740686      57.83405365      90.08342291
C      81.61252943      54.63096755      92.65156097
H      82.31550763      52.69777753      92.54573631
H      79.55461748      54.66309289      92.70258358
C      82.50070081      55.66842729      95.20080178
C      81.58985273      58.03814409      95.90189023
H      80.63743066      59.24378948      94.55829483
C      82.11708637      58.73545310      98.39065978
H      81.65032397      60.56848762      99.15977840
C      82.99958856      57.13674464     100.29550391
H      83.20367899      57.58838923     102.27593708
C      83.93500307      54.79159428      99.53772365
H      84.70412168      53.70311193     101.08163006
C      83.55894753      53.93176881      97.05084383
H      84.16932913      52.03637332      96.60675815
C      85.51103482      56.16920477      90.34609488
O      86.51636921      58.07593862      91.24938404
N      86.86029941      54.47600999      89.17824402
H      86.07417327      52.83950700      88.59242885
C      89.47568062      54.75191003      88.35432334
H      90.49046366      55.55126426      89.96059071
C      90.45833831      51.92487947      87.84409724
H      89.39442239      51.12741496      86.27373467
H      90.08606223      50.88741972      89.58642489
C      93.42898808      51.55071366      87.32253277
H      94.10739982      52.22912540      89.14422894
H      94.24157038      52.83383782      85.93169420
C      94.08283338      48.73691118      86.85577038
O      92.73923797      47.34418288      85.47815988
O      95.67587266      47.84118090      88.18613769
C      89.99346564      56.41864864      86.13578465
O      91.65453507      58.08349752      86.09232094
N      88.32672702      56.07282872      84.19881517
H      87.05872067      54.70844633      84.61077552
C      88.33050647      57.36540152      81.71571481
H      90.03881907      57.11406792      80.58943792
C      86.24046917      56.18621230      80.00740221
H      84.51514905      56.37707466      81.11478184
H      86.62597335      54.24924283      79.42536650
C      85.90409790      57.64508102      77.57532445
H      87.75791940      58.12507150      76.81376475
H      84.68333470      59.23434085      78.04586631
S      84.15610105      55.79314923      75.20560765
C      81.82039933      58.05515163      74.43837876
H      80.89632317      57.74145706      72.62424151
H      82.80116728      59.85795053      74.62168223
H      80.37475871      57.72067007      75.86701186
C      88.16987975      60.30014649      81.90657715
O      89.63819709      61.62862408      80.69148313
N      86.27448426      61.27713499      83.29363627
H      85.07450804      59.95054712      83.95693021
C      85.76803760      64.03802513      83.60922057
H      85.14253819      64.81281292      81.80642167
C      83.32462147      64.39707313      85.26840026
H      83.41910780      66.28679945      86.08287230
H      83.36997490      62.91363798      86.69325391
C      80.81884439      64.16841625      83.76228839
H      80.89821290      62.61317149      82.41302382
C      78.90077218      63.45787915      85.66524279
H      77.33418907      62.80592358      84.49739193
H      78.65888721      65.16430202      86.79151968
H      79.53760995      61.87617823      86.82364503
C      80.01571071      66.49088989      82.39034709
H      77.98803437      66.54002277      82.03129909
H      80.62042313      66.41908029      80.42314201
H      80.85096974      68.13684151      83.30497462
C      88.04326808      65.44209178      84.83565295
O      88.34940374      67.70598391      84.43125151
N      89.62685874      64.01345869      86.27373467
H      88.95033671      62.29947692      86.76884297
C      91.78681590      65.28524450      87.65890405
H      91.08383771      66.94631393      88.65101037
C      93.06616062      63.50512231      89.63744750
H      94.39841767      64.60494303      90.75616548
H      94.36062315      62.31081528      88.56975214
C      91.19911103      61.96499537      91.29851693
H      89.83850807      60.94265343      90.13444553
H      90.15031292      63.13473596      92.62888426
C      92.57294205      59.96188548      92.77250346
H      93.76157990      61.01824248      94.07830435
H      93.55371000      58.81671133      91.36654708
N      90.81549659      58.47845032      94.30696122
H      90.05771633      56.90808775      93.53406317
C      89.83472862      59.22300249      96.47069785
N      90.00480400      61.43776173      97.47981171
H      89.23379565      61.88562686      99.16922702
H      91.06871990      62.79836467      96.66911912
N      88.41932361      57.59972758      97.72925557
H      87.32139262      58.21577836      99.16544758
H      88.05649616      55.85173074      97.06029247
C      93.89008129      66.19420286      85.91846612
O      95.46044385      67.75511679      86.54018607
N      93.95055254      65.12461776      83.57520550
H      92.50491191      63.93975936      83.18781159
C      95.59839387      66.16585696      81.60800040
H      97.02702698      67.36772290      82.48294368
C      97.21977906      64.06826075      80.26629472
H      98.52369021      65.08493351      79.03797262
C      98.77313409      62.87962290      82.29397106
H      99.68776163      64.28746901      83.48449863
H     100.31326104      61.86106042      81.38312296
H      97.54859143      61.49823297      83.21048832
C      95.61918087      62.33727145      78.64113009
H      95.00501981      63.43331271      77.01029628
H      94.18865805      61.62673436      79.94504124
C      96.85695161      59.96377520      77.54130937
H      98.41597581      60.34172046      76.24873657
H      95.22422807      58.92064628      76.84400036
H      97.78291749      58.97544834      79.09277468
C      93.96756007      67.71732226      79.83165766
O      94.88218761      69.23855195      78.35011223
N      91.57894602      67.01056462      79.52741174
H      90.73801780      65.47232740      80.28141252
C      89.75347039      68.35038058      77.79831216
H      90.59628832      68.37116757      75.91803447
C      87.10974329      67.01434408      77.80776078
H      85.96078969      67.73621953      79.35733636
H      87.44233511      64.99233692      78.01941014
C      85.44678412      67.35449481      75.41158782
O      86.40865482      67.13528656      73.39147039
O      83.09785432      67.45465031      75.76874609
C      89.43788610      71.17174196      78.51073897
O      89.16765524      72.81958331      76.95738395
N      89.19033196      71.50811325      81.00517770
H      89.36985595      69.94908904      82.09177034
C      89.01080795      74.05546432      81.99350456
H      89.67599161      75.48220768      80.66502698
C      86.33306576      74.64883838      82.85521977
H      86.47857469      76.07180229      84.33865493
H      85.50536565      72.94241552      83.65646372
C      84.68900387      75.52189194      80.46660571
H      82.76715222      74.78300895      80.55731257
H      85.45056357      74.68474318      78.74695476
C      84.70601142      78.29412044      80.12456524
O      82.88809470      79.59614187      80.91825029
O      86.65053979      79.36370553      79.48583776
C      90.78526096      74.37104861      84.21393298
O      92.16098171      76.23998794      84.29897068
N      90.82683493      72.59092643      85.95437093
H      89.51914433      71.23410293      85.65579417
C      92.39152832      72.61360314      88.32975690
H      94.19054777      73.55468685      87.98582670
H      92.65609001      70.66529531      88.93635905
C      91.03848429      74.01578007      90.45569900
O      89.50213680      75.73165156      90.00405441
N      91.40320146      73.16540322      92.80651853
H      92.86962909      71.96920647      93.05785214
C      89.89142041      73.99310335      95.05529284
H      87.89020024      73.98743417      94.56018456
C      90.05771633      71.94086057      97.23981647
H      91.98712689      71.92196331      97.96169192
H      89.80260327      70.07003152      96.41589579
C      88.23602017      72.21676062      99.52449558
H      88.69144421      73.91940402     100.59030121
C      85.53938071      72.51722710      98.81017902
H      84.84207170      70.93552618      97.69146106
H      85.25781149      74.21042188      97.66878433
H      84.22980039      72.81013468     100.37298268
C      88.80482778      69.96042740     101.43311915
H      87.53115224      70.17585620     103.03749679
H      90.74746644      70.17585620     102.08696446
H      88.74435654      68.21432028     100.34274706
C      90.68132601      76.55935168      96.16834164
O      92.85451127      77.01855518      96.81084859
N      88.95789562      78.42262183      96.36487317
H      87.17399398      77.95585943      95.87354434
C      89.28103881      81.07768730      97.27194180
H      91.31249461      81.39705104      97.38154594
C      88.27003523      83.17906296      95.43890728
H      88.70278257      85.02154611      96.25715877
H      86.25369726      83.12804035      95.02127778
C      89.77047792      83.11859172      92.88021785
H      89.12041207      81.54255997      91.72559508
H      91.81705153      83.01276704      93.08619803
C      89.31694362      85.61114072      91.43079778
H      90.75880480      86.92072106      92.09976090
H      87.35162825      86.07034422      91.84275811
N      89.67032244      85.22752628      88.69636381
H      89.22623676      83.45307327      88.15590208
C      90.09173140      86.81867584      86.84632174
N      90.65864930      89.10902413      87.20725947
H      91.22367747      90.23719074      85.77484693
H      90.47156639      90.00286467      88.88533643
N      89.85362589      86.12325655      84.50117139
H      89.87441287      87.46118278      83.14056844
H      88.68577502      84.65871866      84.13456448
C      88.34373457      81.38949214     100.04983949
O      86.17243902      80.78100027     100.51282244
N      89.81394163      82.64427041     101.57295889
H      91.60918163      82.79922797     100.94179030
C      89.47946007      82.84647113     104.37353330
H      88.12074685      81.41972776     104.97446627
C      91.90019949      82.03010936     105.77382049
H      91.40698091      81.83168810     107.76370230
H      93.41009081      83.36992531     105.35997043
C      92.74490715      79.39961033     104.86864159
H      93.66898331      79.38071307     103.02804815
C      94.83683418      78.48876225     106.63553570
H      94.33038752      78.26010536     108.61785860
H      96.28625425      79.94574124     106.49380622
H      95.50957675      76.77478048     105.70768007
C      90.65486985      77.56090663     105.36752934
H      89.34151005      77.87460120     103.81228458
H      89.70622724      77.67051075     107.19300496
H      91.36351722      75.62960634     105.29571974
C      88.61018598      85.42972700     105.41288277
O      87.88642079      85.56389756     107.65409818
N      88.47790514      87.34401975     103.71023935
H      88.77459217      86.89615461     101.87909457
C      87.47446046      89.88003246     104.30928259
H      86.28393289      89.63247832     105.97413149
C      89.47946007      91.77542796     104.90265666
H      90.87785755      91.14803882     106.28026714
H      88.65931886      93.44216656     105.79460749
C      90.94966715      92.45383970     102.50837343
H      89.70811696      93.43271793     101.18745472
H      91.76035974      90.80221890     101.58240752
C      93.14174967      94.28498450     103.18300571
H      94.38141014      93.12091309     104.34707712
H      92.52002971      95.83267035     104.39621001
C      94.72156086      95.19394286     100.96257730
H      95.97444942      96.67170883     101.66177604
H      93.36284765      96.19360807      99.77960862
N      95.98767750      93.14547953      99.50748803
H      97.01757835      92.13258623     100.75659714
H      97.32371400      93.61602138      98.23003304
H      94.70077388      92.09479170      98.56640434
C      85.54693962      90.83056480     102.28538572
O      85.65276429      89.90081945     100.15755388
N      83.62319823      92.19116774     103.02615843
H      83.66099275      92.81099797     104.82895733
C      81.58229382      93.07555966     101.39532463
H      80.41066351      91.52976353     100.70746424
C      79.62075791      94.78009279     102.70868441
H      80.62987176      96.23707178     103.75937224
C      77.83307681      95.93093612     100.69990535
H      76.87876503      94.34923519      99.78905726
H      78.87053656      96.94193969      99.23725717
H      76.64254923      97.38413565     101.54272328
C      77.93701176      93.18705351     104.44912235
H      79.26170991      92.35746366     105.79082802
H      77.15277534      91.57700669     103.43244959
C      76.00382174      94.78387225     105.83807119
H      74.43345917      95.26008328     104.59652100
H      76.78616844      96.49974374     106.66955076
H      75.37454288      93.74830223     107.50480979
C      82.95234540      94.43238315      99.15410922
O      84.68333470      95.92526694      99.48292159
N      82.06606375      93.79554538      96.90722464
H      80.49381146      92.71651166      96.86187120
C      82.77849058      94.84812294      94.38632972
H      83.36808519      96.81721776      94.50538248
C      84.68900387      92.96784526      93.28839874
H      85.62063894      92.21384446      94.96269625
H      85.93433351      94.12813721      92.12810678
C      83.63264686      90.55655448      91.97503896
C      83.11864131      90.28821335      89.30485567
H      83.21312762      91.96629031      88.14834317
C      82.27960283      88.06400548      88.21259387
H      82.16055006      87.93550409      86.17924835
C      81.81095070      85.94562228      89.66201394
O      80.79427795      83.84613635      88.62833366
H      80.84719028      83.92361512      86.81797585
C      81.91299592      86.00231407      92.22259311
H      81.65032397      84.27510422      93.27706038
C      82.86919743      88.31344935      93.39044397
H      83.13186939      88.33234661      95.41434084
C      80.54483407      95.08811818      92.59297946
O      78.55684199      93.87113444      92.97281444
N      80.79805740      96.61879650      90.54262640
H      82.54605424      97.18193494      90.02295168
C      78.89510300      96.90981435      88.72470970
H      77.20568768      96.24652041      89.69980847
C      78.31306729      99.76330108      88.19369660
H      77.04884040     100.12990798      86.60821623
H      80.08941003     100.77241493      87.94425272
C      77.03750203     101.11634512      90.43113256
H      78.27338305     100.68170807      92.02228211
H      75.27816684     100.12423881      90.83553398
C      76.62743142     103.99628802      90.07775374
H      78.55306254     104.73139156      90.07019483
H      75.64477375     104.49139632      91.81819167
C      74.89644212     104.71816347      87.82708969
H      72.91600894     104.44604288      88.32030826
H      75.32352027     103.66180646      86.11121821
N      74.97392089     107.46771526      87.38867319
H      73.96480704     108.10455303      85.89956885
H      76.72569720     108.06108932      86.92380051
H      74.42212081     108.55619761      88.85888026
C      79.40910855      95.26953191      86.36255180
O      81.65599314      95.02008803      85.75405994
N      77.50993361      94.00530500      85.26084137
H      75.72792169      94.26230778      85.89389968
C      77.84630490      92.35935339      83.00450815
H      79.67933941      91.42015941      82.93458827
C      75.91500461      90.31466952      83.19537050
H      73.97803513      91.00630935      83.08576638
H      76.17389711      89.04099398      84.79029952
C      76.15122039      88.52509870      80.91069140
O      78.00882136      87.06056080      80.52329749
O      74.54873248      88.88792615      79.17025345
C      77.81606927      93.86168580      80.56487148
O      77.19812877      96.08589367      80.58943792
N      78.68723310      92.81666715      78.40680402
H      79.69634695      91.22173815      78.68270406
C      78.73069681      94.13569612      75.84055570
H      79.72469284      95.84022925      76.42826057
C      80.14988128      92.84879250      73.74484922
H      78.87620574      91.50708682      72.84344977
C      81.27615815      94.74985717      71.99496265
H      80.35208199      96.58100197      71.81921809
H      81.29127597      93.92782623      70.10712605
H      83.20745845      95.15803806      72.58266753
O      82.24558776      91.37480598      74.69349182
H      81.45946161      89.82334067      75.22072547
C      76.24948617      95.20150176      74.95994323
O      76.14744093      97.30287742      74.06610269
N      74.20669201      93.92971595      75.70260568
H      74.60353455      92.25352871      76.51896743
C      71.50816284      94.87079966      75.67237006
H      71.08297443      95.83456008      73.90169649
C      69.86977013      92.45006025      75.56087620
H      67.92524176      93.12091309      75.48906659
H      70.28928937      91.34646008      77.24840180
C      70.46881337      90.91938194      73.02675321
H      72.35476023      90.09546126      72.91903881
H      70.29873800      92.19305747      71.41481667
C      68.29184865      88.87658779      72.77164016
O      66.42668879      89.35090910      71.36568379
O      68.09909658      87.02843546      74.18515545
C      70.86187645      96.94571915      77.66792104
O      68.96837068      98.30821182      77.28808605
N      72.36798831      97.20272193      79.78630424
H      73.89866663      96.13880601      80.20582348
C      72.33775270      99.64613805      81.26784966
H      70.95069358     100.87634988      80.36833993
H      74.23314819     100.45494091      81.25651131
C      71.28139569      99.49495994      84.07031378
O      70.93935522     101.43381914      85.17202423
N      70.71636752      97.19705275      84.90557281
H      71.08486414      95.74196349      83.73205277
C      69.25560907      96.73973898      87.18836221
H      68.62633021      98.59356049      87.82897942
C      66.89156146      95.06166201      86.64601076
H      65.89378597      94.58923044      88.38455896
H      67.60398828      93.22295831      86.05263668
C      65.14356462      96.05565805      84.65990840
C      64.89978992      94.73851881      82.27507379
H      65.70481333      92.88469730      81.98594567
C      63.45603903      95.77975801      80.40991392
H      63.24061022      94.65159140      78.72238832
C      62.34299023      98.15892344      80.57054066
O      60.83120917      99.24929552      78.69404243
H      60.05831112     100.82343754      79.15135620
C      62.93825401      99.61212298      82.81742524
H      62.22204774     101.51318765      83.02340541
C      64.24027545      98.56332487      84.83376322
H      64.55208029      99.66881476      86.52317854
C      71.11509976      95.84400871      89.27462005
O      72.88955277      94.39269890      88.71715079
N      70.63132984      96.45061085      91.68780055
H      69.21592483      97.57499801      92.30007188
C      72.09775745      95.47173262      93.85153718
H      74.07063172      95.76464020      93.34131107
C      71.55351627      96.93627052      96.36298346
H      72.48704108      95.90447995      97.88232340
H      69.55796528      96.68493692      96.81084859
C      72.14500061      99.71227847      96.46313894
C      70.13244209     101.44704722      96.83163558
H      68.18035481     100.86123207      96.72581091
C      70.61999148     104.01518528      97.10753562
H      68.94380424     105.14146217      97.40233292
C      73.10120213     105.00351215      96.86943011
O      73.50371383     107.54330431      97.02438767
H      71.90311565     108.34076881      97.33052333
C      75.08730447     103.28008175      96.49526429
H      77.01482531     103.95282432      96.48770538
C      74.69424141     100.68548752      96.19668753
H      76.23436835      99.40803253      95.79417584
C      71.70091493      92.65226096      94.29184342
O      69.56174473      91.58456560      94.74348801
N      73.94590978      91.45984366      94.39199890
H      75.51816207      92.44061162      93.93657486
C      74.28983998      88.74241722      94.24460025
H      72.54562258      87.71629583      94.62632498
C      75.07785584      88.33612607      91.47804093
H      76.82963213      89.35657827      91.12844157
C      75.37454288      85.61114072      90.81474699
H      73.52639054      84.74186662      91.08875731
H      76.81073488      84.87603719      92.09598143
H      75.95657858      85.44862426      88.84565217
O      73.32418982      89.33201183      89.76783862
H      73.42812477      91.13670046      89.90578865
C      76.35531084      87.80511297      96.17212109
O      78.22613989      89.18083373      96.76927461
N      76.19657383      85.50909550      96.95635751
H      74.82652225      84.33746519      96.33085811
C      78.26393440      84.29589121      98.37554198
H      79.85130452      85.60358182      98.23759195
C      77.70646515      83.98597609     101.21202118
H      77.25482056      85.86436405     101.92255827
C      75.21391615      82.43829024     101.55028219
H      75.40477849      80.54667420     100.75659714
H      73.56796453      83.15260679     100.53927861
H      74.83030170      82.21152308     103.56095097
C      79.95901892      83.24142393     103.12064475
H      80.32940527      81.21941677     103.01482008
H      79.32029142      83.61558974     105.04249640
C      82.31361789      84.95918514     103.00537144
H      83.21123790      84.73430771     101.16477801
H      83.76870715      84.35825218     104.33195932
H      81.77693562      86.94906695     102.99403308
C      78.83463176      81.82601892      97.22658838
O      77.40788839      80.96052427      95.70535870
N      80.93411769      80.76399273      98.00515562
H      81.97157744      81.81657029      99.21458046
C      81.45190270      78.05979438      97.63854871
H      79.72091339      77.01855518      98.04672960
H      82.88431525      77.35492646      98.94057014
C      82.23424940      77.31335248      94.92868119
O      84.07673254      78.35270195      93.76460977
N      80.55428270      75.84692486      93.76649950
H      79.08029618      75.07969598      94.70380375
C      80.49192174      75.45197206      91.03017580
H      81.60119108      76.85792844      90.01728250
C      81.33662939      72.57580861      90.25916747
H      80.52593680      71.27945636      91.63677795
C      80.58640805      71.90684550      87.57764583
H      78.53794472      71.79535165      87.40568072
H      81.03994237      69.99444247      86.96159504
H      81.43867461      73.36004503      86.38900797
C      84.29027163      72.55313190      90.49916271
H      84.70223196      73.60193000      92.22637255
H      85.16143546      73.38272175      88.82675491
C      85.44300467      69.89995616      90.78073192
H      87.43099675      70.15884866      91.24560460
H      85.21056834      68.74722310      89.08942688
H      84.63420182      68.83415052      92.34542531
C      77.65544253      76.05290503      90.31774898
O      75.96602721      74.95119459      91.41756969
N      76.98836915      77.89538819      88.67935626
H      78.35275154      78.16561905      87.37166566
C      74.42401054      78.65127871      87.88945066
H      73.38277135      76.96753257      87.32253277
H      74.44290781      79.79456313      86.17735862
C      72.46625409      79.92306452      89.69980847
O      70.99037784      81.42161749      88.76439394
N      72.78561783      79.39205143      92.28495406
H      74.29928860      78.38860675      92.86887950
C      70.66345517      79.52244254      93.88744198
H      69.08175425      78.57757939      92.96525555
C      71.26438814      77.91806490      96.20424644
H      72.82152263      78.83836162      97.18879386
H      72.14878007      76.09069956      95.85275735
C      68.99104740      77.58925252      97.92767683
N      67.62477527      75.36693438      98.40955704
H      68.04240479      73.59437110      97.83508025
C      65.76528458      75.87338103     100.12920800
H      64.55397000      74.40884314     100.87376016
N      65.94102913      78.43773964     100.85108345
H      64.66546386      79.51110418     101.78082880
C      67.93091093      79.40905896      99.43189899
H      68.51105691      81.35736679      99.61898188
C      69.85654204      82.23419980      94.50538248
O      71.16990183      83.54000068      95.92645667
N      67.51139169      82.86914784      93.72114606
H      66.62322033      81.62192848      92.58164111
C      66.47204222      85.45429344      94.02728172
H      67.84587325      86.75820459      93.21847886
C      64.18925283      85.59602291      92.30574105
H      62.80219372      84.19762544      92.90667403
H      64.63522825      85.03666392      90.37255104
C      62.90990812      88.23030139      91.87488346
H      62.81731153      89.27154059      93.65122620
C      64.32720285      90.05010783      90.05129756
H      65.89945514      90.96473537      91.02072716
H      63.07053485      91.46929229      89.24627415
H      64.96026116      88.88225697      88.47904528
C      60.24728374      87.99030615      90.86387989
H      59.10021986      86.99064093      92.25282873
H      60.39468240      87.39315264      88.89856452
H      59.52351857      89.90459891      91.09442649
C      65.73126951      86.16860998      96.80517941
O      64.65034605      84.61714468      98.03728096
N      66.19803190      88.58934939      97.41178156
H      67.28084508      89.58712488      96.19668753
C      65.30608109      89.76664888      99.82874152
H      64.28373914      88.23408084     100.75470741
C      67.69847459      90.82111617     101.21391089
H      67.12777725      91.82834029     102.91844403
H      68.44491648      92.19872665      99.87409494
C      69.69024613      88.77643230     101.59752534
H      70.36298869      88.06211575      99.78716753
C      72.12610334      89.96318042     102.65199263
H      73.42056586      88.48919390     103.28316122
H      71.44769160      91.20473061     104.14865586
H      73.04262060      90.95339701     101.09485815
C      68.88333300      86.56545251     103.26615367
H      68.88711244      87.11914232     105.24847657
H      70.15322907      84.98375159     102.89954676
H      67.11643889      85.61869963     102.79750155
C      63.19714652      91.66582383      99.30717705
O      61.23561060      91.35401899     100.60352930
N      63.49572328      93.33067271      97.44390691
H      64.96026116      93.25319393      96.22314370
C      61.50773119      95.15236888      96.91478353
H      59.73705763      94.10546050      96.81273832
C      60.92380576      97.01941847      99.09174825