 %block lattice_cart
   140.777   0.000   0.000
   0.000 144.511   0.000
   0.000   0.000   162.462
 %endblock lattice_cart

 %block positions_abs
N      94.32849780      42.27121259      79.98472550
H      93.53103329      41.45485083      81.51162436
H      96.23334192      42.33357356      80.08110154
H      93.68032167      41.08824392      78.63357119
C      93.21166955      44.83746093      79.36489527
H      93.88252238      46.12436455      80.82565371
C      94.24534983      45.61413844      76.63802020
H      93.64630659      44.14204164      75.32843987
H      96.30326179      45.56689528      76.71360925
C      93.38741409      48.13314362      75.66670088
H      91.36918639      47.97818606      75.28497616
H      94.39841767      48.93438757      74.06043351
S      93.85039704      50.61246454      77.92492382
C      91.40698091      52.85367995      77.10289287
H      89.66087380      51.88425035      77.59800117
H      91.39942201      53.11635191      75.05820900
H      91.67721178      54.72450900      77.92114437
C      90.24479923      44.93383697      79.71260491
O      89.03915384      43.05733874      79.10033359
N      89.18466277      46.98985920      80.75951329
H      90.29393211      48.50164025      81.10722293
C      86.47479524      47.35457638      81.09210512
H      85.51481427      46.34546253      79.57465489
C      85.78315541      46.09034947      83.71882469
H      86.48613359      44.16093891      83.55630823
H      83.77815580      46.03932686      84.18747682
C      87.03982340      47.69661684      85.75217021
O      86.59573772      49.95483978      86.14145383
N      88.35885237      46.31900636      87.30363551
H      89.15064770      47.18450101      88.81163711
H      88.40042636      44.46518484      86.85954983
C      85.38820261      50.07578227      80.93147838
O      86.80171789      52.02786955      80.67069615
N      82.97691183      50.40837410      81.20548870
H      81.75425892      48.94950539      81.36233598
C      81.57284519      52.77053199      81.24517295
H      81.99047469      53.57744513      79.39513089
C      78.63998994      52.32644631      81.34532845
H      78.28472139      50.89403376      79.90724672
C      77.71780351      51.35890643      83.97960693
H      77.93512204      52.84801077      85.38556330
H      78.98392014      49.76397743      84.29141177
H      75.74681896      50.76364265      84.04007817
C      76.95624380      54.60167679      80.71038040
H      77.10364245      55.85456533      82.33932449
H      75.00415652      53.94594176      80.75762356
C      77.49292607      56.03219961      78.23483893
H      79.40343938      56.54620516      77.65658268
H      76.36853891      57.75751973      78.25373620
H      76.89199310      54.74340626      76.74573460
C      82.24180829      54.91537136      83.22560613
O      82.08118157      57.19816074      82.73994646
N      83.21123789      54.20105481      85.54996949
H      83.33784956      52.36802029      86.06775450
C      84.08618118      55.82621944      87.58331500
H      82.78793920      57.39469228      87.89511985
C      84.40554492      54.41459388      90.11743799
H      85.37119508      55.62590845      91.47426148
H      85.35607726      52.64769978      89.65256532
C      81.90732675      53.62090883      91.23804569
C      80.94167659      51.17371326      90.70136342
H      82.01315141      49.82822812      89.60343243
C      78.62109269      50.21562201      91.65945466
H      78.04283643      48.28432172      91.33442174
C      77.13954725      51.94850104      93.02383706
H      75.36887369      51.45528248      93.91200843
C      78.04472616      54.36546100      93.53406316
H      76.81640405      55.65614407      94.52805921
C      80.33696417      55.27441935      92.65345070
H      80.99458893      57.07721826      93.35264944
C      86.65809870      56.89958398      86.81419640
O      87.30627481      59.02174663      87.36032730
N      88.07917288      55.37268512      85.43091673
H      87.65209473      53.51319443      85.34965850
C      90.50558147      56.11156811      84.45014878
H      91.24635419      57.51563476      85.75972911
C      92.29704201      53.86279380      84.06653434
H      94.07527447      54.63002268      83.36733560
H      91.56760765      52.55510319      82.65301905
C      93.15686748      52.44738879      86.48727374
H      93.99212651      50.62380290      86.02051134
H      91.63941725      52.11857641      87.83842806
C      95.06738078      53.97995683      87.91779656
O      94.25479848      55.90180849      89.06675016
O      97.28025030      53.45650264      87.63811707
C      90.14464374      57.75185055      82.05397581
O      91.45800353      59.73606318      81.95759977
N      88.52136884      57.10556415      80.33999405
H      87.64264610      55.44638445      80.68770369
C      87.90531806      58.72128015      78.07610192
H      89.33395115      58.49829244      76.60967431
C      85.53560126      57.54587038      76.78352913
H      83.80083250      58.20727459      77.67170049
H      85.58473414      55.49362761      76.94226614
C      85.45623276      58.18081842      73.93004239
H      86.85274050      57.21894773      72.75841208
H      85.77559650      60.17447968      73.52942042
S      82.40621448      57.32666213      72.66203604
C      82.84841044      57.86712386      69.27375676
H      82.89943306      59.80409333      68.57644775
H      81.07584716      57.32099295      68.37613676
H      84.67199633      57.03375455      68.79943545
C      87.22690632      61.49539838      78.71104997
O      88.23413043      63.11111437      77.44871279
N      85.70567664      61.93759433      80.62156327
H      85.20111970      60.39746739      81.62500794
C      84.82884362      64.52462966      81.23194487
H      84.66821688      65.78318738      79.61055969
C      82.23424940      64.14101522      82.45459779
H      81.59741163      65.77940793      83.53363152
H      82.22291103      62.40246701      83.56008768
C      80.17822716      63.90668915      80.36456049
H      80.71301972      62.47049715      78.98695001
C      77.72536242      63.20182124      81.72138398
H      77.88787887      61.42169905      82.74561564
H      76.17389711      63.46071374      80.39101666
H      77.23403357      64.53785774      83.21048832
C      79.69634695      66.31231075      78.92080959
H      78.14110220      65.84365862      77.65091350
H      81.20812800      66.76206561      77.59800117
H      79.25982017      67.84109934      80.23038992
C      86.77148227      65.80775382      83.02151569
O      86.91321174      68.17180144      83.09710474
N      88.30405031      64.41313580      84.55597345
H      87.96389957      62.56120402      84.87722692
C      90.55093489      65.44114692      85.58398457
H      90.02748070      66.85088275      86.99183067
C      92.11751802      63.41347058      87.03151492
H      92.99435102      61.99428612      85.82397981
H      90.93454933      62.45726907      88.42046376
C      94.42676356      64.44337143      88.59998776
H      93.72567510      65.93436549      89.83397904
H      95.86673501      65.15012907      87.30741496
C      95.68532129      62.41569509      90.23649075
H      94.32282861      61.33666137      91.34387037
H      96.98545300      63.16213699      91.64622658
N      96.96466600      60.34077560      88.85132136
H      96.14074533      58.73450823      89.47493104
C      98.99612179      60.24250983      87.28851770
N     100.07137607      62.24939918      86.45325867
H     101.29213927      62.02830120      85.00383859
H      99.27958073      63.92180696      86.91246216
N      99.89374179      58.05231703      86.44192031
H     101.44520710      57.81421152      85.35721741
H      98.82604642      56.52919763      86.86899846
C      92.36129270      66.75450671      83.59221303
O      93.60095316      68.56864397      84.38400836
N      92.57861123      65.79452574      81.22249624
H      91.99657552      64.00117547      80.92958866
C      94.03747995      66.76773479      79.18537127
H      95.67587266      67.50094860      80.19637485
C      94.85384171      64.45470978      77.52997102
H      93.16631612      63.51740553      76.81754420
C      96.36751248      65.41847020      75.27741725
H      95.11084450      66.38412035      73.96405747
H      97.31804482      63.86511517      74.31365683
H      97.77346886      66.84521357      75.76685637
C      96.63018444      62.82765543      79.10033359
H      95.44154660      62.23239164      80.67447560
H      98.23645182      63.88968162      79.83165767
C      97.89819080      60.45226945      78.07988138
H      99.41186157      61.00784899      76.80053666
H      96.54136730      59.22961653      77.12556959
H      98.64274296      59.39213299      79.68236929
C      92.72789961      68.82375702      77.77563544
O      93.75969018      70.95347857      77.41280799
N      90.27692458      68.47982683      77.28430660
H      89.60040256      66.75450671      77.74728955
C      88.73490792      70.32986889      75.93126256
H      89.84417726      71.01772927      74.33444382
C      86.19700547      69.09965706      74.89191309
H      84.48113398      70.23349285      75.01663502
H      85.58851359      67.52362532      76.06921258
C      86.30849932      68.33620763      71.98173456
O      87.98657629      69.13934131      70.62491107
O      84.62853263      66.82820603      71.22395431
C      88.16232084      72.83375626      77.46383060
O      88.22468180      74.82363806      76.31865645
N      87.67477145      72.73171103      79.89968782
H      87.26659057      71.01017036      80.61967354
C      87.32139262      74.81985861      81.68925863
H      86.79793844      76.50549448      80.62723245
C      85.28993684      74.36821402      83.72260415
H      85.12364092      76.10298278      84.82053514
H      85.93811296      72.83186653      84.93013926
C      82.61975356      73.55374198      82.89301430
H      81.58418355      73.10020767      84.61455497
H      82.86541798      71.76795061      81.89901826
C      81.18545130      75.31307718      81.19226061
O      81.92622400      77.52783642      80.83321261
O      79.34296814      74.42112636      80.14913169
C      89.63630736      75.71369916      83.26906983
O      90.14464374      77.98137073      83.38623286
N      91.14808841      73.87688518      84.10432886
H      90.68510546      72.05140956      83.79630347
C      93.17198529      74.18302084      86.06019560
H      94.30582108      75.89700261      85.91279694
H      94.43243274      72.56919457      86.30019084
C      91.93610428      74.35120648      88.67368709
O      89.57394640      74.16412358      88.89667479
N      93.52536412      75.03339768      90.64089218
H      95.31115549      75.51905735      90.17979896
C      92.66742837      75.58708749      93.21469942
H      90.61896504      75.79684711      93.26950148
C      93.32316339      73.36665908      94.89277638
H      95.35461918      73.14745082      94.63766333
H      92.54081670      71.56197045      94.27483588
C      92.79404003      73.71436872      97.78216792
H      93.10584488      75.65322791      98.40388787
C      89.94622247      73.57830842      98.18656935
H      89.57772585      73.43090977     100.20857650
H      89.15442716      72.02117394      97.09808699
H      89.23379565      75.43212994      97.63287954
C      94.00913406      71.65078758      99.46402433
H      95.92153708      71.44102796      98.72892080
H      92.77703249      70.02184350      99.20135238
H      94.11306899      72.10054245     101.47091368
C      93.54237165      78.13065911      94.30507150
O      95.75902061      78.49915574      94.74537773
N      91.70177822      79.92967856      94.69813457
H      89.98023756      79.41000382      94.05940708
C      91.90208921      82.39577140      95.76394021
H      93.77480798      82.30506454      96.61431705
C      91.80571316      84.63509708      93.72303580
H      91.80760290      86.41899872      94.75293664
H      90.22590197      84.47824980      92.41345546
C      94.15464298      84.70123750      92.05062801
H      94.75179650      82.78127557      91.60654233
H      95.80059460      85.16422045      93.19958161
C      93.87874293      86.52482339      89.73571328
H      91.98523717      86.07695826      89.05541180
H      95.25068423      86.07317880      88.26739593
N      94.12062790      89.14020461      90.42546338
H      94.88974651      89.24224983      92.16779104
C      93.48756958      91.17732958      89.25761252
N      92.60884685      90.96756995      86.98805122
H      92.19877625      92.61919075      86.12255656
H      92.61451604      89.28949299      86.07720313
N      93.57071755      93.46767787      90.20625513
H      93.32694285      94.99079727      89.08375770
H      93.41198053      93.57728199      92.10543007
C      90.37330062      82.84552626      98.27916594
O      88.07728316      82.55072896      98.22247415
N      91.59028437      83.51259965     100.38243132
H      93.45733397      83.88298601     100.27471692
C      90.34495473      83.41622361     102.77482484
H      88.66876748      82.23136521     102.60097001
C      92.05326731      82.18034260     104.74580938
H      91.10651444      82.37876386     106.56372609
H      93.74268265      83.33496538     104.97635599
C      92.73356878      79.43645999     104.18456066
H      93.55371000      79.40055519     102.29483435
C      94.50424234      78.19679953     106.15932466
H      95.25068423      76.51494311     105.23524849
H      93.53103329      77.64499945     107.89031396
H      96.07082546      79.41945246     106.70167611
C      90.43188213      77.51460833     104.11842024
H      89.15820661      77.93979675     105.68122390
H      91.01958702      75.54362379     104.00692639
H      89.52670323      77.89822277     102.30806244
C      89.32261279      86.00325893     103.80472568
O      87.80894201      85.94845687     105.59996567
N      89.96700946      88.17077501     102.62364673
H      91.15186786      87.90621333     101.15154993
C      88.63475242      90.59907332     102.69167688
H      87.70689680      90.91276789     104.50203469
C      90.64542121      92.63241884     102.61797755
H      91.33706104      92.71556679     100.67911835
H      92.03059060      92.12597218     104.05605928
C      89.65142517      95.22134389     103.42300096
H      88.54593528      95.15142401     105.16343889
H      88.23602016      96.02636729     102.16066378
C      91.71122686      97.25279967     103.90866062
H      92.36885161      97.97278540     102.09452336
H      93.40631135      96.35328995     104.65699224
C      90.82494521      99.31449108     105.74169515
H      89.69866834      98.40553272     107.20812277
H      89.56827721     100.60706388     104.74391965
N      92.80537838     100.87540501     106.80183161
H      93.82961005      99.82471718     108.02259481
H      92.04570842     102.33994291     107.75803312
H      93.98078815     101.64074417     105.50547936
C      86.83951242      90.80127404     100.36731351
O      87.31950291      89.58618002      98.53994817
N      84.86474842      92.41321058     100.63754438
H      84.85341006      93.35807374     102.29483435
C      83.01092690      92.95178258      98.73458998
H      82.25503638      91.12252751      98.16200291
C      80.88687454      94.63741845      99.68701204
H      81.81661987      96.37029748     100.29928337
C      79.08785509      95.42732405      97.53272404
H      77.64221445      96.70288931      98.25459949
H      78.10897686      93.77570326      96.78817188
H      80.14610182      96.32683378      96.00960463
C      79.39021130      93.54704637     102.01515486
H      80.78860876      93.28626414     103.50425919
H      78.49448102      91.76503446     101.50303903
C      77.32851988      95.52747955     102.89576732
H      75.56918468      95.17410073     101.88665347
H      78.08818987      97.40964696     102.54238850
H      77.09986301      95.24402060     104.92344365
C      84.46601616      93.99491151      96.44991087
O      86.41621373      95.32527883      96.60486842
N      83.69500783      93.18988810      94.26349752
H      82.24558776      91.95022764      94.21625436
C      84.34318396      94.27459100      91.76338961
H      85.29371629      96.07361045      92.08275336
C      86.39542674      92.60596267      90.54262641
H      87.99224546      92.68155172      91.84086839
H      87.12297136      93.60184843      88.89100561
C      85.75480952      90.01325817      89.97192906
C      84.91766075      89.41043547      87.46048279
H      85.08206695      90.85796583      86.02995998
C      84.45656754      86.88765084      86.74238680
H      83.89909828      86.42466790      84.83376322
C      84.56806140      85.02816015      88.56786241
O      83.82917840      82.69812761      88.04251850
H      83.81784004      82.30506454      86.27184494
C      85.25025258      85.64988011      91.08119841
H      85.08206695      84.03416411      92.31896915
C      85.68866909      88.16321611      91.88433209
H      85.94756159      88.64698604      93.84964746
C      82.09063019      94.68655134      90.05318730
O      79.88720932      93.88341766      90.57664148
N      82.47802408      95.95266797      87.92157601
H      84.20334421      96.56304957      87.38111429
C      80.62231284      96.32872350      85.92413530
H      78.81006532      95.61062751      86.59120869
C      80.20279360      99.08205474      85.23816465
H      78.91966944      99.06126775      83.62622811
H      81.96968771     100.05904325      84.82809404
C      78.98014069     100.45021659      87.50016705
H      80.24247786     100.33683301      89.12344195
H      77.12253971      99.64519318      87.88000204
C      78.55873171     103.24134236      87.00316903
H      77.30962263     103.15819440      85.36666604
H      80.28972101     104.17297743      86.38522852
C      77.33985824     104.78713848      89.03840427
H      75.86398199     103.61928762      89.87744275
H      76.51782729     106.47466408      88.19180688
N      79.18801057     105.43342488      91.02261689
H      79.53005104     103.81203970      91.96936978
H      78.51904746     106.82048399      92.15267323
H      80.87553618     105.96254825      90.30641062
C      81.06450881      94.67521298      83.57898495
O      83.09596459      93.87774848      82.81931497
N      78.91966944      94.29159854      82.42247244
H      77.33796852      94.39364376      83.48449863
C      78.69290229      92.93477505      79.93937207
H      80.42578131      91.86518995      79.64079531
C      76.61609307      90.87875282      80.03574811
H      74.67912359      91.57606183      79.99606386
H      76.73325610      89.73546840      81.74595042
C      76.60286498      88.93233472      77.73595119
O      74.65455715      88.87942238      76.34511262
O      78.43023032      87.63031329      77.41469771
C      78.58518788      94.66954380      77.66603131
O      78.58329815      96.99201744      78.05342521
N      78.54550363      93.76247517      75.29253507
H      78.61164405      91.88597694      74.94104597
C      78.99147905      95.35551445      73.06265802
H      80.62987175      96.51202696      73.53508959
C      79.77004629      94.06483138      70.59467545
H      80.41633268      95.23079252      69.02242316
C      81.92055482      92.16943589      70.92159810
H      83.73658181      93.14453467      70.88947276
H      81.63520615      90.65387539      69.55721571
H      82.04527676      91.14142478      72.70172029
O      77.63087609      92.66076473      69.66304038
H      76.86742666      93.76436490      68.44416691
C      76.95624380      97.40208805      72.37668736
O      77.67811925      99.27291710      71.47906737
N      74.47692287      96.96556127      72.94360526
H      73.94402005      95.31771993      73.74862867
C      72.51160752      98.88363348      73.07966555
H      73.47725765     100.44832687      72.14803048
C      70.20803113      98.30537723      71.48284682
H      69.48237624     100.17620628      71.01419469
H      68.92679669      97.01469416      72.44849696
C      70.84108946      97.12996746      68.81455326
H      71.87476975      95.37819117      69.15092455
H      71.85776221      98.50379849      67.66370994
C      68.40145279      96.55549066      67.33867701
O      67.44336154      94.38419513      67.17049137
O      67.42257455      98.26569298      65.90059529
C      72.14311088      99.80581992      75.74417965
O      69.93213109     100.43509878      76.33377426
N      73.84575430      99.44677192      77.50918403
H      75.54272851      98.79103689      76.93281750
C      73.81740840     100.52958510      80.22094129
H      73.18812954     102.48923128      80.12267552
H      75.72603197     100.73556527      80.96171400
C      72.47948217      99.07071638      82.33365531
O      71.94846907     100.25746451      84.31975766
N      72.01649921      96.63107971      82.05208609
H      72.82530209      95.78448233      80.54408449
C      70.86376616      95.07205551      83.93236377
H      69.14411522      95.94321934      84.65234949
C      69.78284271      92.60029349      82.77963072
H      68.72270625      91.70267349      84.29897067
H      71.30596212      91.31338987      82.26373543
C      67.96681573      92.80816338      80.54408449
C      67.75516638      90.78237678      78.83577190
H      68.73404461      89.02304158      79.17403291
C      66.10543531      91.13008642      76.70038117
H      65.93913939      89.56917248      75.39835974
C      64.79396525      93.44311142      76.25818521
O      63.06864512      93.41098608      74.33255410
H      62.61700053      95.12307812      73.93571157
C      65.13978516      95.44622132      77.89468820
H      63.93980895      97.06193731      77.56965527
C      66.87455392      95.16654182      79.87512137
H      66.91801763      96.58761601      81.33965927
C      72.53050477      94.47679172      86.19436616
O      74.86620650      94.01002932      85.89012023
N      71.46280941      94.57505749      88.48093500
H      69.60331872      95.01347399      88.48849391
C      72.95002401      94.28781909      90.74104767
H      74.73392566      95.29315349      90.51805997
C      71.61020806      95.38952953      93.00871925
H      72.40578285      94.44844582      94.65845032
H      69.64111324      94.80371437      92.85187197
C      72.11287526      98.23545735      93.19391243
C      70.15700852     100.11762476      92.78951100
H      68.28617947      99.52047125      92.23204173
C      70.65589628     102.67253474      92.96903500
H      69.31985977     104.17675688      92.62132536
C      73.22781378     103.55314720      93.45469466
O      73.69457618     106.09482909      93.57185769
H      72.43601846     107.03780252      92.67045824
C      75.04573049     101.75979693      94.24271053
H      76.75593281     102.44198813      95.12332299
C      74.53172495      99.19165887      93.90633925
H      75.91500461      97.70633399      94.12743723
C      73.49048575      91.38519947      91.21536898
O      71.68579711      89.90743349      91.30607584
N      75.82618747      90.61419113      91.66701357
H      77.22269521      91.91054338      91.75961016
C      76.78616844      88.01014827      91.86354510
H      75.21580586      86.69111931      92.05629719
C      77.67245008      87.35441324      89.08753715
H      79.68689832      87.78905030      89.11021387
C      77.32663016      84.44423472      88.54140625
H      78.30361866      83.36898045      90.00027496
H      78.09007958      83.94912643      86.69325391
H      75.31596136      83.99447986      88.48093500
O      76.50459921      88.79438469      87.13167042
H      76.29483959      90.58584524      87.32820195
C      78.68912284      87.52826806      93.80807348
O      79.86264288      89.21579366      94.89277638
N      78.86864683      85.18878689      94.79829007
H      77.77071584      83.69968255      94.32396876
C      80.34074362      84.36108676      96.89021710
H      82.24180829      85.12453619      96.68045748
C      79.09163453      85.02060125      99.43378871
H      78.01638027      86.75725973      99.17867566
C      77.19623904      83.00426327     100.05928812
H      75.94146077      83.41433388     101.64098905
H      78.04661588      81.16366984     100.41833612
H      75.85264363      82.65277418      98.53805844
C      81.08718552      85.40610542     101.56539999
H      82.34007406      86.88765084     100.87564989
H      82.16621925      83.71857982     102.04539048
C      80.03838741      86.29994596     104.14298669
H      78.53416527      87.63598246     103.69323182
H      81.51048421      87.41866394     105.04816559
H      79.11998044      84.78060601     105.18611561
C      81.03238346      81.52649729      96.49526430
O      79.83618670      80.54383961      94.77750308
N      83.01659609      80.43234576      97.68201242
H      84.13909351      81.62098361      98.66467010
C      83.49847629      77.67334534      97.64421790
H      81.71646438      76.74926918      98.10342139
H      84.90443268      77.24059802      99.08985852
C      84.48680315      76.72092328      94.97781407
O      85.81339103      78.04373170      93.63232893
N      83.85563457      74.42679554      94.19735710
H      82.62731246      73.46492484      95.29717781
C      83.87264210      73.40445360      91.53662245
H      85.47890947      74.28884552      90.60309765
C      84.25625654      70.53962851      91.55740944
H      82.58762821      69.88011403      92.56463357
C      84.22791065      69.70059003      88.95714603
H      84.49436206      67.65968561      88.88344671
H      85.94567187      70.14656544      87.91212738
H      82.47424463      69.92735719      87.89700957
C      86.64487060      69.94058527      93.14666927
H      85.93622325      70.06719693      95.07796956
H      88.16421056      71.30307794      92.85754114
C      87.96767902      67.33654241      92.90856375
H      87.98846602      66.56175462      90.99805045
H      86.47101578      66.25939841      93.82886047
H      89.71378615      67.13056224      93.97814885
C      81.48780751      74.38711128      90.27050582
O      79.65288326      72.89233777      90.01350304
N      81.38954173      76.92501372      89.66012422
H      82.81061591      78.10609267      90.13822498
C      79.42044691      78.16278446      88.12377673
H      79.50548459      77.26705419      86.27184494
H      79.99681344      80.08652584      87.66457324
C      76.62176224      78.27994749      89.18391319
O      74.87565513      78.44246395      87.68724995
N      76.25893479      78.00026799      91.70858755
H      77.90110695      78.36309545      92.61187672
C      73.81173921      78.06640842      93.08808775
H      72.48137189      76.70202602      92.30385133
C      74.20858175      77.40878366      95.84519845
H      75.59186141      78.71269481      96.63321432
H      74.99659761      75.51905735      96.07574506
C      71.89555673      77.42390147      97.60642337
N      70.29873800      75.40567377      97.93334602
H      70.37999623      73.72948653      97.02627739
C      68.22003906      76.23715334      99.15977840
H      66.76683952      74.97103672      99.83441069
N      68.46570347      78.77505578      99.64732779
H      67.07675463      79.90133267     100.31629090
C      70.88077370      79.47992370      98.63821394
H      71.46469913      81.42256235      98.42467486
C      72.57963767      80.70824580      92.70258359
O      73.29395421      82.66033308      93.75138169
N      70.45180583      80.81407047      91.40623134
H      70.03606604      79.05284555      90.80340864
C      68.95325286      83.02316053      90.72781959
H      70.34409143      84.49714706      90.35554351
C      67.31108070      82.63387691      88.40345622
H      66.10165586      81.08430134      89.01572755
H      68.52050554      82.11231245      86.81797585
C      65.77851266      85.02627043      87.60410199
H      64.70325838      85.54594516      89.28217896
C      67.36210331      87.16355089      86.84254229
H      69.18002003      86.62875834      86.03940861
H      67.91768285      88.42399834      88.37511033
H      66.42290933      88.52415383      85.61610991
C      63.92091169      84.20612921      85.62177909
H      62.76628891      85.83507329      85.12100162
H      62.81920125      82.57529540      86.22838124
H      65.15301325      83.71669009      84.04574735
C      67.43769237      84.02849493      92.92746102
O      65.50828179      82.97213792      93.61910085
N      68.15200891      86.29616651      93.89878034
H      69.70347421      87.15410225      93.19580215
C      66.83864912      87.59062903      96.04361971
H      66.07519969      86.18089320      97.33619251
C      68.87199463      89.37831013      97.27761099
H      67.66068006      90.41765960      98.57774269
H      69.62221598      90.74647198      95.93023613
C      70.99037784      88.03471472      98.67600846
H      72.05807319      86.82151042      97.39666375
C      72.87821442      89.90176431      99.84196960
H      73.42434532      91.40787619      98.54561735
H      74.52416604      88.88887101     100.55628614
H      71.90122591      90.84662747     101.39154517
C      69.74882765      86.08640689     100.64132383
H      71.22470390      85.35697253     101.87909456
H      68.86254600      84.55761830      99.58496682
H      68.43546785      87.10307964     101.86019730
C      64.52562411      89.02493130      95.13844080
O      62.50172723      88.72257509      96.22314371
N      64.72971455      90.52537400      93.14855900
H      66.39645316      90.46301303      92.22448283
C      62.70392794      91.81983652      91.81630195
H      61.35466336      90.37986507      91.22103816
C      61.21860306      93.76247517      93.42634876