 %block lattice_cart
   140.777   0.000   0.000
   0.000 144.511   0.000
   0.000   0.000   162.462
 %endblock lattice_cart

 %block positions_abs
N      86.40015106      37.38532521      84.11850180
H      87.95539580      36.27794559      84.05992029
H      85.33056595      36.71636210      82.68797899
H      85.53654613      37.27383136      85.81736576
C      87.11446760      40.01960369      83.42875170
H      88.13491981      40.84352437      85.01612180
C      88.75475004      40.14243590      81.11572669
H      87.86657867      39.35064058      79.43387027
H      90.54999004      39.19757275      81.47666442
C      89.46717685      42.89954660      80.49967591
H      87.71351083      43.67055493      79.74756484
H      90.60290238      43.11119594      78.79514278
S      90.27975918      44.90832567      83.13395439
C      90.35156878      47.91110078      81.62595279
H      91.36068263      47.78637884      79.83260252
H      91.16793054      49.35674141      82.84104681
H      88.52420342      48.70100638      81.10249862
C      84.62569805      41.34241211      83.06592425
O      82.98730534      40.15188454      81.89429393
N      84.41215898      43.69323165      83.92386000
H      85.85213043      44.38109202      84.97265809
C      81.91583052      44.74580920      84.55313886
H      80.54577894      44.07684609      83.16985920
C      81.17127834      43.71590836      87.09104129
H      82.73975118      44.26392899      88.30991477
H      81.17694753      41.65610668      87.14773308
C      78.60125056      44.59274137      88.12850104
O      78.29322516      46.59396154      89.18863751
N      76.71530369      42.93167194      88.02834554
H      75.03533701      43.46835422      88.75589017
H      76.90994550      41.37075801      86.94553237
C      81.64182020      47.75614322      84.66463271
O      83.48052390      49.00903177      85.33548555
N      79.36469999      48.79549269      84.12228125
H      78.11748063      47.63898019      83.26245579
C      78.69762661      51.57528010      84.05425111
H      79.68217401      52.35195761      82.42152757
C      75.73075629      51.98346098      83.88039629
H      74.95596851      51.07639235      82.20042960
C      73.99787726      50.70411627      85.93263906
H      74.50999309      48.71045501      85.85705001
H      71.98342902      50.72301353      85.51123010
H      74.28700539      51.45811707      87.82803456
C      74.89549726      54.79537374      83.91252163
H      75.57957819      55.96322460      85.46398695
H      72.83758531      54.73868195      83.81803532
C      75.70996930      56.12763079      81.48800277
H      74.84258493      57.97956257      81.23100000
H      75.17895620      54.93332376      79.89874294
H      77.76599153      56.23723491      81.47855414
C      79.76343224      53.05682553      86.16507540
O      80.79711253      55.04670734      85.77957123
N      79.42328151      52.22345622      88.49132849
H      78.70329578      50.46790048      88.70486757
C      80.33790905      53.51413930      90.76655897
H      79.59713633      55.43410123      90.67207265
C      79.58201852      51.86818768      93.01722301
H      80.50231522      50.03137370      92.86793463
H      77.52788602      51.74157601      92.91895725
C      80.26231999      53.04926662      95.52111037
C      79.27210340      55.45677795      96.00865976
H      78.25921010      56.48856851      94.56868832
C      79.68784318      56.72667403      98.30656697
H      78.90927594      58.58427499      98.62782043
C      81.14860162      55.49079302     100.21519054
H      81.33946399      56.41297946     102.02554834
C      82.19173055      53.08328170      99.76543567
H      83.04966630      51.94755618     101.22619411
C      81.84024146      51.93810755      97.36359353
H      82.60558062      50.10318330      96.90627976
C      83.19706496      53.61996397      90.85348638
O      84.19484045      55.72322936      90.99143641
N      84.54443982      51.65653833      90.05413215
H      83.79610820      50.33184018      88.90139910
C      87.38847792      51.81149589      89.99744037
H      88.15003762      53.03603854      91.46575771
C      88.43916574      49.14887151      89.95964583
H      90.47629070      49.26414482      89.67051772
H      87.47351560      48.29093577      88.35526821
C      87.81177661      47.63520074      92.43329758
H      88.89458978      45.88531417      92.30290646
H      85.78787973      47.29882945      92.60148322
C      88.60168221      49.04304684      94.86159589
O      90.49329825      50.55104844      94.90883906
O      87.09179088      49.15265097      96.74376331
C      88.28609791      53.29682077      87.60882630
O      90.35912767      54.15286679      87.53323726
N      86.56644697      53.87885647      85.86082946
H      84.69750765      53.60862561      86.14239868
C      87.17115939      54.95411075      83.44197979
H      89.15537202      54.64419563      82.98655574
C      85.62347354      53.92232018      81.24233836
H      83.69406298      54.54404014      81.59949663
H      85.71040095      51.86440822      81.26312534
C      86.30377502      55.02214089      78.64207495
H      87.93838827      54.03381403      77.87862552
H      86.90470798      56.98367681      78.84049622
S      83.92271985      54.66687235      76.28369652
C      81.85157982      57.12540628      76.81281988
H      80.89537831      57.01391243      78.63262631
H      80.45318235      57.17264944      75.29914910
H      83.01943067      58.80915242      76.63707533
C      86.96895868      57.89830434      83.41363389
O      88.31822325      59.25701756      82.24578304
N      85.09057072      58.88852093      84.86683342
H      83.87925616      57.69988308      85.73988698
C      84.76175833      61.51713023      85.48288420
H      84.46129186      62.55081052      83.72921818
C      82.46007169      61.65696998      87.24599885
H      82.91360600      63.06670581      88.67652167
H      82.31078332      59.84283272      88.20975927
C      79.94295625      62.12184265      85.90240344
H      79.85791855      60.71966573      84.39440184
C      77.53733465      62.05003305      87.63150303
H      75.74020493      62.35994817      86.67719123
H      77.78677852      63.58260109      88.98454707
H      77.27844214      60.26802114      88.63116824
C      79.96941241      64.76934922      84.69675805
H      81.50953936      65.06603625      83.36072155
H      80.03933229      66.13940079      86.23310555
H      78.31212243      65.00178555      83.49489212
C      87.19950529      62.48089065      86.75278029
O      87.63036289      64.68053208      86.22365691
N      88.87758225      61.09383154      88.03968390
H      88.44294519      59.24189975      88.19842091
C      91.38524907      61.89885495      88.75777990
H      91.34934427      63.62039562      89.88405678
C      92.71372666      59.82771491      90.19019246
H      94.53731255      60.68187120      90.61349114
H      93.09167193      58.11184341      89.11493817
C      91.37013125      59.17764906      92.72620516
H      89.37647000      58.70521748      92.50699690
H      91.23596069      60.95966097      93.75043682
C      92.84600750      57.25201794      94.41562048
H      94.20472073      57.99845984      95.76866452
H      94.06488097      56.24479382      93.09848125
N      91.16793054      55.49457247      95.54567683
H      91.13202574      53.71067083      94.86726507
C      89.73173855      55.72322936      97.56579424
N      89.77898169      57.81326666      98.89238212
H      89.20261518      57.58838923     100.69707075
H      90.99218599      59.22867167      98.48042178
N      88.66593291      53.71634001      98.56356974
H      87.62847315      53.94688662     100.14905011
H      88.67160208      52.02881441      97.67350864
C      93.11812810      62.53758244      86.63372752
O      94.82833041      64.07015048      87.07970294
N      92.72884448      61.58327065      84.35093815
H      91.17171000      60.52691364      84.04102303
C      94.20850018      62.17097554      82.13806863
H      95.62768464      63.52968875      82.75600913
C      95.33099760      59.88440670      80.69809718
H      96.30609638      60.64407667      79.05025584
C      97.24718008      58.70899693      82.34404879
H      98.46038438      60.18487318      83.11694687
H      98.51329671      57.53358716      81.21966165
H      96.39680325      57.62807348      83.87850656
C      93.50363226      57.77547213      79.86472787
H      91.95594641      58.54270101      78.74600990
H      92.70994721      56.83438843      81.51823839
C      94.85289686      55.95755542      78.12617966
H      93.58678023      54.52892233      77.35517133
H      96.31554501      54.78970456      78.98600514
H      95.48217572      57.09517066      76.52747120
C      92.70238830      63.93220046      80.23322450
O      93.86268026      65.35138492      78.80459141
N      90.10590436      63.95487717      80.37495398
H      89.23851998      62.77379823      81.59760690
C      88.57900549      65.39484863      78.56648589
H      89.54654537      65.42508425      76.74856918
C      86.03165442      64.05692240      78.30759339
H      85.06411454      63.85472168      80.11228202
H      86.16204554      62.05570223      77.83138236
C      84.35168773      65.27390614      76.31960131
O      82.20306891      65.94664871      76.93376236
O      85.05466592      65.15296366      74.03870165
C      88.27286983      67.99700176      79.50190043
O      88.70372743      69.83948491      78.06570842
N      87.87602731      68.52045595      81.99444943
H      87.67571632      67.18441944      83.34182429
C      88.34845889      71.13961662      82.92986396
H      89.04765761      72.37927708      81.44264934
C      85.97496263      72.35849009      83.98811069
H      86.33212091      74.21609105      84.80447245
H      85.44205981      71.23788239      85.63028285
C      83.88681505      72.43974832      81.85649940
H      82.11992095      71.83125645      82.72388378
H      84.03043425      71.02434331      80.36739507
C      83.57689995      75.14205695      80.79636294
O      85.29277143      76.11715573      79.46221617
O      81.48308318      76.29101055      81.35383221
C      90.30621534      71.33425843      85.23344033
O      91.48540457      73.33358887      85.66051847
N      90.35345850      69.41996567      86.94931182
H      89.22718162      67.92330243      86.58081519
C      91.62902376      69.60515885      89.28879299
H      93.42993294      70.47821241      88.81825114
H      92.00885874      67.75322706      90.10893421
C      90.30810507      71.24922074      91.18985766
O      88.60546165      72.74021480      90.65695485
N      91.03942915      70.83159123      93.64083270
H      92.52097459      69.68641708      94.01688823
C      89.60134743      71.51567215      95.85370221
H      87.64737042      71.90117632      95.33402747
C      89.69205429      69.31981018      97.64516276
H      91.58178061      69.06091767      98.42373000
H      88.93994321      67.73244007      96.56990848
C      87.97429307      69.62594584      99.99787201
H      88.41270958      71.48732626     100.75943171
C      85.05844537      69.28768483      99.21552533
H      83.90382260      69.42185540     100.91438927
H      84.55199871      67.52645991      98.27444162
H      84.40460007      70.96576180      98.21397038
C      88.39570203      67.53590854     102.06145315
H      87.80232797      65.76901444     101.18839959
H      86.96139977      67.68897637     103.53166022
H      90.28731808      67.43008386     102.87592518
C      90.60101264      73.99121362      97.14438528
O      92.83088969      74.24443695      97.67917782
N      88.85490554      75.85826322      97.77366414
H      86.99163538      75.50488440      97.56012508
C      89.47473576      78.20908275      98.99820680
H      91.46461758      78.16750877      99.52921988
C      89.07411379      80.33880431      97.17651062
H      88.94183295      81.97341757      98.41995054
H      87.44516971      80.11581660      95.93685016
C      91.60445731      80.77533109      95.76299534
H      92.25641290      79.00654726      94.93151577
H      93.17859934      81.47452982      96.89305168
C      91.14714356      82.79166906      93.69941421
H      92.83844860      83.09402527      92.56746816
H      90.53109277      84.52643782      94.62538010
N      89.12135695      81.87704153      91.91929202
H      88.12547118      80.33502486      92.43896676
C      88.72073496      82.43073134      89.53445741
N      89.71473101      84.44895904      88.49888739
H      89.41048506      84.94406733      86.68097068
H      90.79943391      85.65082497      89.50611152
N      87.26375598      81.03044414      88.08692706
H      87.01053265      81.69373807      86.31625350
H      86.38692296      79.68117955      89.11493817
C      87.74563618      78.39805539     101.32257015
O      85.92771948      77.01288600     101.64193391
N      88.68483016      79.85881382     103.15938413
H      90.28542835      80.68084477     102.52443609
C      88.47884999      79.91550561     105.82011878
H      87.22218199      78.33380469     106.22452021
C      90.95439147      79.06323905     107.10891213
H      90.81266200      79.17851235     109.15737545
H      92.32444305      80.45974679     106.46073601
C      91.88035736      76.44974756     106.22829966
H      92.17326493      76.38360714     104.18928497
C      94.55243036      76.09258928     107.21473681
H      95.45382982      74.25577531     106.96151347
H      94.44660570      76.30045918     109.26131040
H      95.69949424      77.52311210     106.27932227
C      90.26086191      74.41073286     107.44717314
H      90.82400036      72.47187367     107.04277170
H      88.34656915      74.81702402     106.79899701
H      90.50463661      74.59025686     109.48429810
C      87.53965601      82.39293681     106.86324770
O      87.13336487      82.43451079     109.19516997
N      87.12769568      84.25431723     105.34012830
H      87.46595670      83.77054729     103.52599104
C      85.68205506      86.53143744     105.91460510
H      84.51987338      86.25931685     107.59457179
C      87.59445809      88.46462745     106.89726278
H      88.66971236      87.56511773     108.40526438
H      86.45873256      90.02176194     107.62102796
C      89.25363778      89.86869410     104.86769673
H      88.01208759      90.71718122     103.46174034
H      90.16070641      88.32289798     103.85480341
C      91.14147438      91.76219987     105.89948730
H      92.76474928      92.06644581     104.66738573
H      91.70839227      90.69072505     107.56622590
C      90.21172903      94.46261877     106.32467571
H      88.34089998      94.23396189     107.15615528
H      90.04732283      95.26386273     104.43494939
N      91.88224708      95.89125186     107.93094308
H      92.09767589      95.07866955     109.64492484
H      91.41548468      97.73562475     108.06700337
H      93.67937681      95.86479570     107.29032585
C      83.75264448      87.28543824     103.93795137
O      83.56934104      86.12703601     101.93484148
N      82.46763060      89.41704952     104.37636788
H      82.99864368      90.35435377     105.95239962
C      80.85191460      90.58490038     102.40349362
H      79.57823906      89.11469331     101.72697159
C      79.24186778      92.77131372     103.64504379
H      80.65916251      94.02420227     104.46140556
C      77.79433743      94.11301940     101.60980856
H      76.24098240      93.02831650     100.80100570
H      79.01321090      94.70072429     100.05645354
H      76.88915851      95.76275048     102.44506758
C      77.35781065      91.71117726     105.80878042
H      78.46896972      90.64726135     107.17883200
H      75.94807482      90.54143667     104.86769673
C      76.32224063      94.05065844     107.22607516
H      75.21486100      93.38169532     108.82667334
H      75.06368291      95.15614833     106.02798867
H      77.90961072      95.23929629     107.78354443
C      82.58668335      91.27654021     100.18117546
O      84.28365759      92.79965962     100.70085020
N      82.04811136      90.33167705      97.88893744
H      80.63459607      89.05044261      97.96452650
C      83.08557110      91.18583335      95.43040351
H      84.00208836      93.00941924      95.70819328
C      85.10190908      89.40004198      94.43829720
H      86.50597573      88.93894876      95.87259948
H      86.13936882      90.09924072      92.80179422
C      84.12681030      86.84702173      93.42540390
C      83.79610820      86.45206893      90.85537611
H      84.42538706      87.89015066      89.55146496
C      82.67172103      84.36581108      89.96909447
H      82.53944019      83.92361512      87.98110239
C      82.24842234      82.24742788      91.50166251
O      81.04844614      80.15550086      90.87049392
H      80.95395981      80.01566111      89.06580529
C      82.65471350      82.45340805      94.15672798
H      82.21251754      80.84525096      95.33213774
C      83.55422323      84.77021251      95.06001715
H      83.83768217      84.86091938      97.07635514
C      80.91049612      91.80377385      93.65595050
O      78.76376702      91.96062113      94.42884857
N      81.47552429      92.25352871      91.22009329
H      83.28966155      92.40470682      90.65128567
C      79.54800345      92.93571991      89.31335944
H      77.70929974      92.51431094      90.14105956
C      79.80878567      95.76464020      88.71809565
H      79.09257940      96.33155810      86.87183305
H      81.82512364      96.18604917      88.75589017
C      78.68061907      97.72995557      90.59648361
H      79.42706096      97.30665687      92.46920239
H      76.62837629      97.56176993      90.60593223
C      79.27210340     100.43604365      89.93696912
H      78.81478964     100.61934710      87.93763868
H      81.27899275     100.87446015      90.10893421
C      77.56946000     102.29175489      91.19552684
H      77.43339969     101.86845619      93.20619564
H      75.69674122     102.07443636      90.36782673
N      78.61636836     104.97138680      90.96309051
H      80.12059052     105.29830945      92.09503657
H      77.33513393     106.36033564      91.22009329
H      79.03021843     105.32476562      89.13383545
C      79.64248976      91.31244501      86.83970770
O      81.58134896      90.46584762      86.03090484
N      77.46552504      91.12725183      85.67563628
H      75.98775907      91.87180400      86.62994808
C      76.93262222      89.81011259      83.36450100
H      78.10236281      88.12069727      83.50245102
C      74.08480468      89.14870838      83.21143317
H      72.96419697      90.63970244      82.33460016
H      73.07191137      88.82934463      84.97643755
C      73.51410732      86.80922720      81.57304046
O      73.04167574      87.14937794      79.26568463
O      74.01299507      84.63982140      82.36483578
C      77.75276344      91.29921692      80.96454859
O      78.06456829      93.69916934      80.93053351
N      77.95307443      89.98207768      78.82726812
H      77.55812163      88.11313836      78.87262157
C      78.25732036      91.13481073      76.25346089
H      79.56501098      92.70895275      76.48400750
C      79.27588285      89.43594678      74.26357908
H      79.83902130      90.49419351      72.58928158
C      81.71174007      87.96384998      75.20655251
H      83.17249850      89.20351044      75.96244303
H      82.13503876      86.62214430      73.70422009
H      81.03143859      86.89237516      76.82982741
O      77.43150998      87.75786981      73.57193925
H      77.97953061      86.60702649      72.28125618
C      75.76666109      92.41604517      75.42198131
O      75.79878644      94.08656324      73.78547832
N      73.52166622      91.82267111      76.47077941
H      73.53678404      90.14081469      77.36839941
C      71.22375904      93.36468778      76.24779171
H      70.68140759      93.46862273      74.26357908
C      69.09592721      91.84534783      77.48367272
H      69.20364161      91.64314711      79.53024631
H      69.01277925      89.99341604      76.58794244
C      66.42196448      92.89225621      77.04903566
H      66.27834527      94.92371199      77.35517133
H      64.79679985      92.07211499      78.01279608
C      65.83236987      92.36880202      74.25790990
O      65.83236987      94.14892420      72.64597336
O      65.07081016      90.18427840      73.74012489
C      71.53178443      95.91581831      77.76902139
O      70.59070071      97.85278778      76.91108564
N      73.09269836      95.97439982      79.82315389
H      73.99220809      94.39080917      80.39196151
C      73.65961626      98.24207140      81.35383221
H      73.08324973      99.92770727      80.32393136
H      75.66650559      98.12301864      81.80358707
C      72.31980029      98.44049266      83.98811069
O      71.94752422     100.48895598      85.11816702
N      71.42407002      96.31644028      84.87817178
H      71.17840560      94.81599759      83.72543873
C      70.06913626      96.02542243      87.27623447
H      69.94630405      97.83389051      88.25133325
C      67.36871736      95.34890041      86.76600837
H      66.53156860      95.46228399      88.64439633
H      67.35170981      93.35712888      86.24066446
C      65.87583356      96.84934311      84.69864778
C      64.30358127      95.55488058      83.09049069
H      64.14484427      93.52909397      83.27379414
C      62.73699817      96.83611502      81.37083974
H      61.50489661      95.71172786      80.19731970
C      62.74833652      99.40236335      81.29147124
O      61.35938768     100.52864024      79.36395040
H      61.50300688     102.33143914      79.50190043
C      64.18263880     100.77808411      83.03946808
H      64.15618262     102.81709880      83.01679136
C      65.85126712      99.54598255      84.71376559
H      66.98888236     100.56076558      86.06869937
C      71.43162893      94.59678934      89.24343957
O      72.82246750      92.88658703      88.48754904
N      71.05557340      95.01630858      91.67740705
H      69.89528144      96.52242045      91.85693105
C      72.37271263      93.72184606      93.83169505
H      74.36259444      93.93349540      93.33469703
C      71.82469201      95.10134627      96.43006873
H      72.67884829      93.99774610      97.94562923
H      69.77811841      95.19394285      96.64738726
C      72.89616682      97.78664736      96.59447493
C      71.18596451      99.78408807      97.12170856
H      69.15639845      99.64991750      97.28044558
C      72.18373999     102.23884255      97.43918258
H      70.86093159     103.79030785      97.54689698
C      74.75943696     102.54497821      97.38815997
O      75.65894668     104.95248954      97.73020044
H      74.45897049     106.29230549      97.49398464
C      76.53011051     100.58533203      97.02911197
H      78.53322042     100.97839510      96.98375855
C      75.52477613      98.07388576      96.60392355
H      76.64349409      96.37313207      96.46030435
C      72.05145916      90.87402850      94.12460264
O      69.86504582      89.97451878      94.16050743
N      74.12637865      89.40949061      94.42317939
H      75.84791932      90.20506539      94.21719923
C      74.17740126      86.55411415      94.49309926
H      72.24799069      86.14026409      95.07891442
C      74.71597325      85.52421331      91.70575295
H      75.15627948      83.54000068      92.03078587
C      72.52767019      85.61680990      89.84059308
H      72.20830645      87.54999992      89.20186558
H      70.95163845      84.89493445      90.94797270
H      72.59570034      84.16172064      88.38361409
O      76.90049688      86.84513200      90.84403776
H      78.02110458      87.30055605      92.19708180
C      76.15216525      85.60358182      96.25621391
O      78.00409705      86.97552312      96.76832975
N      75.79311725      83.36047668      97.11981883
H      74.19440880      82.51576902      96.50754751
C      77.45040724      82.10758814      98.91316912
H      79.40060479      82.68962384      98.60136427
C      76.58680230      82.75009508     101.65138253
H      76.46019065      84.80233786     101.79500173
C      74.15283482      81.20807841     102.42428060
H      73.38560594      81.64460519     104.28566102
H      74.63093557      79.20685825     102.37325798
H      72.75821680      81.38949214     100.91816873
C      78.74864922      81.99231483     103.50520405
H      80.59680155      82.34191420     102.66238611
H      78.59747111      80.15172140     104.42172131
C      78.65416290      83.82912881     105.64059478
H      78.86392252      85.78499554     105.03021318
H      80.08090627      83.34157942     107.04277170
H      76.96474757      83.36992531     106.72529769
C      77.83591140      79.23709387      98.37837656
O      76.48853655      78.18262659      96.90250031
N      79.69540209      77.98798478      99.59347058
H      80.75742829      78.99331917     100.82179268
C      80.34168849      75.31024259      99.22119449
H      78.78644374      74.08947939      99.79378157
H      81.91016133      74.62616166     100.37014809
C      80.95395981      74.75088360      96.45841463
O      82.95517999      75.84125568      95.65150149
N      79.20596298      73.57358411      95.09592195
H      77.79433743      72.67029493      96.01243922
C      79.03399788      73.54145876      92.31613455
H      80.11114188      75.17040284      91.66417897
C      80.18862067      71.17174196      91.15962204
H      78.94896020      69.53145952      91.26733644
C      80.18484120      71.67440916      88.27589969
H      81.59835649      70.61616243      87.21576323
H      80.40404947      73.66996015      87.81669620
H      78.24787173      71.21142622      87.75055577
C      82.88526011      70.33081375      91.92874065
H      82.74542037      70.24388634      93.98287317
H      84.01531644      71.94464003      91.32402824
C      83.95484520      67.90629490      91.07269463
H      85.82189480      67.67196883      91.91362284
H      83.94539657      67.92141271      89.01289295
H      82.81156079      66.32270424      91.72087077
C      76.42617558      74.22553969      91.48654471
O      74.61581777      72.73454562      91.79645981
N      76.22775430      76.42140166      90.28467876
H      77.95307443      77.11115177      89.85004171
C      74.08480468      77.57413471      88.94864226
H      73.23064838      76.45919619      87.44064066
H      74.54400817      79.46197130      88.26078189
C      71.76422075      78.07680191      90.61160141
O      69.86504582      78.86670751      89.46075810
N      71.65272691      77.57602444      93.04367919
H      73.22308947      76.84281063      93.84114368
C      69.49465946      78.17317795      94.67262326
H      67.82225167      77.30012440      93.84681286
C      69.73465470      76.97509147      97.21997433
H      71.09525765      77.95585943      98.41617109
H      70.43574317      75.06079872      96.92139758
C      67.23643652      76.71241951      98.57301837
N      65.64150750      74.70553017      98.62971016
H      65.69064038      73.07091691      97.64327302
C      63.80091408      75.14205695     100.42306043
H      62.32125837      73.75499783     100.65927622
N      64.12405728      77.45697168     101.39437976
H      62.80313858      78.53033623     102.25987441
C      66.28212473      78.43018073     100.38337619
H      67.04746389      80.27077416     100.81423378
C      68.85593196      80.96052427      94.83325000
O      70.31102123      82.37403955      96.05212348
N      66.69408506      81.80334220      93.76744437
H      65.74544246      80.52021803      92.72053598
C      65.93819454      84.51698919      93.71831147
H      67.54068245      85.67539142      93.13816549
C      63.82925997      84.62848304      91.74543721
H      62.28157412      83.39638148      92.32747292
H      64.56058405      84.10124940      89.89350541
C      62.72565980      87.40260127      91.45630907
H      62.52345909      88.24352948      93.32524840
C      64.21098468      89.45295432      89.91807187
H      63.35115922      91.32567309      89.94830749
H      64.36405251      88.75186585      87.98677156
H      66.13094661      89.70239819      90.61727059
C      60.27468478      87.11536287      90.23554588
H      59.16730516      85.59224346      91.07080491
H      60.70554238      86.68639499      88.26834078
H      59.15596680      88.84068299      90.33381164
C      65.22198826      85.36358657      96.42439955
O      63.83114970      84.22219188      97.76421551
N      66.20086649      87.51787457      97.26532776
H      67.60682286      88.31911853      96.25432419
C      65.46387323      88.94461794      99.33646780
H      64.59648886      87.74653146     100.77265980
C      67.92240717      90.08790236     100.40038371
H      67.52934409      91.17449499     102.10680657
H      68.66884906      91.57700669      99.18906915
C      69.99354720      88.17360960     101.06934683
H      70.37149247      86.92639024      99.47441782
C      72.29145440      89.70428792     101.59280102
H      72.76199626      90.72662985      99.86748089
H      73.84669916      88.43250211     102.04822506
H      71.67162416      90.89481549     103.15371495
C      69.26600258      86.65049019     103.42772528
H      67.44997559      85.75853937     103.03655192
H      69.01655870      87.98085752     104.97730085
H      70.75888636      85.32012287     103.92094384
C      63.32470304      90.86835932      98.79978553
O      61.36316714      90.76631410     100.04511517
N      63.85571614      92.64281233      97.11225993
H      65.44875543      92.40659654      96.08991799
C      62.14551383      94.68749620      96.41684066
H      60.37295055      93.70294879      96.05779266
C      61.81103227      96.73784925      98.61270262