 %block lattice_cart
   140.777   0.000   0.000
   0.000 144.511   0.000
   0.000   0.000   162.462
 %endblock lattice_cart

 %block positions_abs
N      90.23346088      40.09424788      82.45648751
H      89.33773061      39.85047319      84.12322613
H      92.13263582      39.95629786      82.59443753
H      89.76858821      38.87915386      81.05997978
C      89.77236767      42.72096746      81.65146411
H      91.10273498      43.96062792      82.62089371
C      90.56794243      43.06300792      78.76585203
H      89.23379567      41.73453032      77.92681355
H      92.49357355      42.45640577      78.36523005
C      90.07472388      45.76720627      77.81909914
H      88.03948863      46.03743713      77.67170049
H      90.96100551      45.91271520      75.96527763
S      91.08383772      48.30132926      79.80709122
C      91.23312610      50.89025431      77.62256761
H      89.65520462      52.14692230      78.02885876
H      91.12730142      50.28554189      75.65536251
H      93.10962432      51.73496197      77.50162513
C      86.99446998      43.30678261      81.90657715
O      85.44678414      42.49231057      80.33432486
N      86.35952194      44.68817255      83.95881993
H      87.80138311      45.12847878      85.13045024
C      83.89342910      45.57445419      84.80163787
H      82.46290629      44.28566084      84.06842407
C      83.90098801      45.10580206      87.69291913
H      85.41465879      46.21129196      88.54707543
H      84.43578055      43.12158943      87.83275887
C      81.29316569      45.58579255      88.85321108
O      80.71679916      47.62102778      89.69980847
N      79.58674283      43.86425187      88.56786241
H      77.97669602      44.04944505      89.57508653
H      80.02137989      42.08790914      88.01984178
C      83.08840569      48.10857717      83.76984730
O      84.47924425      49.92082471      83.14245816
N      80.60719504      48.67738479      83.78685484
H      79.26926882      47.39048117      84.22527134
C      79.56406612      51.22095641      83.27473901
H      80.03271824      51.70661607      81.32832090
C      76.68601295      51.35134753      83.44859383
H      76.02271900      50.34979258      81.77429632
C      75.63154567      50.22507064      85.96192982
H      73.59064125      49.98885486      85.84287706
H      75.84319500      51.48362837      87.57953555
H      76.52349648      48.46384572      86.54963471
C      75.62020730      54.05554588      82.97805197
H      76.34019303      55.39914129      84.36511110
H      73.60764878      54.08956095      83.40890957
C      75.98681421      55.04009329      80.31920705
H      74.75282293      56.60667640      79.79953233
H      75.85831282      53.65303418      78.80364656
H      77.84819463      55.92259548      80.25117690
C      80.77349095      53.23918411      84.94903652
O      81.44434379      55.28575771      84.11755695
N      81.24214308      52.67037649      87.40190128
H      80.59585669      50.94694610      87.90078902
C      82.49314191      54.35223291      89.20470018
H      81.38954173      56.06054550      88.88155699
C      81.95268017      53.63413691      92.02039238
H      83.30761394      54.70372201      93.14477954
H      82.58195903      51.70850580      92.40022738
C      79.32029142      53.92704449      92.91045349
C      77.50804388      52.00897228      92.74604729
H      77.72347269      50.19861448      91.82953002
C      75.24226203      52.24707780      93.89878034
H      73.87976937      50.73151730      93.80807348
C      74.64510852      54.48262403      95.26883191
H      72.88955278      54.55254390      96.31007111
C      76.34397248      56.51596954      95.14222025
H      76.01704983      58.20727459      96.24204097
C      78.74959408      56.17959826      94.05373789
H      80.22924977      57.53264230      94.42790370
C      85.34284918      54.98340150      88.61321584
O      86.08362189      57.20194019      88.24282949
N      86.64109115      52.85934912      87.87244313
H      85.63386703      51.25497148      87.62488898
C      89.23568538      53.14469780      86.84254228
H      90.48101503      54.16326028      88.13133563
C      90.35440336      50.61435426      86.21515315
H      92.13074609      50.93938719      85.22682629
H      89.10340455      49.45217258      85.06430982
C      91.04604319      49.22540542      88.64156173
H      89.32072308      48.95895401      89.73571327
H      92.50491191      50.28932134      89.63366806
C      92.32727764      46.69884134      87.96881917
O      90.98935140      45.32690004      86.52695800
O      94.55337524      46.19239469      88.76439394
C      89.39820185      54.83033367      84.29519122
O      91.06683019      56.36290171      84.01740145
N      87.52926252      54.58844870      82.75884372
H      86.18377739      53.29965536      83.18025269
C      87.24958304      56.03030988      80.37022966
H      88.97301343      56.30243047      79.27229868
C      85.19545053      54.76419325      78.75829312
H      83.37186463      55.06277001      79.66725148
H      85.29560602      52.70817102      78.70160133
C      85.08773614      55.84511670      76.11645574
H      86.07228353      54.53553636      74.86923637
H      85.54316017      57.85200604      76.01252078
S      81.88653976      55.77897628      74.76152197
C      81.09474443      59.05576170      75.49662550
H      81.80528152      60.16692078      73.91303485
H      82.15299117      59.65858440      77.15769493
H      79.08596536      59.12568158      75.93882147
C      86.43322127      58.79308975      80.78030028
O      87.56516733      60.53163796      79.61244942
N      84.71923949      59.41858916      82.64923960
H      83.64398522      58.02586086      83.38812259
C      83.91043663      62.01129366      83.05931021
H      83.74414072      62.86922940      81.19604006
C      81.30450405      62.08121353      84.39912616
H      80.76593205      63.98794738      84.96982352
H      81.46891025      61.00784899      86.14901273
C      78.92155917      61.43492713      82.85899923
H      79.23714347      59.56598781      82.05775526
C      76.82207324      61.08910722      84.81864540
H      74.94179555      60.94359829      83.99094528
H      76.73892527      62.94292873      85.71248595
H      77.33040961      59.75307071      86.30208056
C      78.21102208      63.33599180      80.86155851
H      77.49292607      65.14257016      81.54185999
H      76.86553695      62.55175538      79.51607338
H      79.89287850      63.66102473      79.71827409
C      85.84929583      63.37567606      84.69959266
O      85.97968695      65.63767845      84.64479058
N      87.54438033      62.02452174      86.08854150
H      87.41776868      60.12156735      86.15846136
C      89.72512450      63.05064313      87.58142528
H      89.11474290      64.66446940      88.70770217
C      90.84573221      60.85667088      89.34831938
H      92.85073182      60.96816473      89.80563315
H      90.92510071      59.11434322      88.25605757
C      89.13930935      60.68281606      91.71992590
H      87.14186863      60.47305644      91.26261213
H      89.18277305      62.51963004      92.65534042
C      90.28637321      58.66269863      93.50382754
H      91.58461519      59.55275973      94.83230514
H      91.39375284      57.43059708      92.27739517
N      88.34751402      57.25296280      94.99671132
H      87.44422484      55.81110163      94.13310640
C      87.26281112      58.05798621      97.05840274
N      87.52359334      60.33699614      98.04483987
H      86.86407886      60.48439480      99.82874152
H      88.84073258      61.55964907      97.40422265
N      85.37119508      56.93548878      98.22436387
H      84.84585116      57.88791084      99.79283671
H      85.12175120      55.06277001      97.95224328
C      91.95122209      63.98227820      86.08098259
O      93.62174016      65.06131193      87.27528961
N      91.84917687      63.50606717      83.65457399
H      90.73234863      62.06798545      83.08198692
C      93.52347439      64.56053445      81.62500793
H      94.80470883      65.82287163      82.63034233
C      95.23556643      62.57065265      80.12078580
H      96.15964259      63.71771652      78.68270406
C      97.18765371      61.43870659      81.97649703
H      96.13885561      60.30487080      83.34087944
H      97.95488260      62.99773079      83.08198692
H      98.65408134      60.30298107      81.08265649
C      93.61418125      60.51652014      78.82443355
H      92.39341805      61.68626073      77.64902378
H      92.26113722      59.65291522      80.11700634
C      95.20722054      58.49073354      77.44493334
H      96.34861523      59.36945627      75.97283653
H      93.99968542      56.96950386      76.75707295
H      96.35239468      57.52697312      78.86222806
C      92.29137284      66.36144363      79.78252478
O      93.20977982      68.22471378      78.98506027
N      89.88575124      65.74350313      79.15891510
H      89.12230180      64.18447892      79.95448987
C      88.26814552      67.15323896      77.29564496
H      89.23757511      67.62756026      75.54197894
C      85.70000746      65.67736271      76.87612572
H      84.53971549      65.88712233      78.56554103
H      85.92488488      63.64779665      76.61723321
C      84.29594081      66.54663681      74.42515068
O      82.34196379      67.89401167      74.65947674
O      85.31450329      66.05719769      72.24062706
C      87.67288172      69.84798868      78.19326496
O      87.96012013      71.51094783      76.66825583
N      87.18722207      70.29396409      80.73305711
H      86.72423912      68.90312552      81.95571005
C      87.26092139      72.78840282      81.71760452
H      87.87508245      74.09420370      80.25117690
C      84.57373057      73.63311048      82.36956011
H      84.64931963      74.68379831      84.13834393
H      83.38320300      72.02873284      82.87033757
C      83.07139815      75.05796412      80.33810431
H      81.07962663      75.10142783      80.86155851
H      83.31328312      74.09798316      78.53152597
C      83.88209074      77.75460357      80.01307139
O      82.85974880      79.55740247      81.25840103
O      85.86630338      78.17601254      78.70727052
C      89.09584564      72.98871381      84.00795281
O      90.37708009      74.94647027      84.10810831
N      89.22812649      71.06308270      85.62555855
H      88.20767428      69.53240438      85.11344272
C      90.42432324      71.05363407      88.12188701
H      92.24035023      72.01361503      88.27117538
H      90.91376236      69.19603310      88.86643917
C      88.79348943      72.57108430      90.17790924
O      87.21367824      74.21514619      89.40312144
N      89.33017170      72.13077806      92.60053836
H      90.67754657      70.91190459      93.18257406
C      87.91665642      73.28729057      94.74159828
H      85.93433351      73.37421798      94.19168792
C      88.33239620      71.63378004      97.13021233
H      90.16165129      71.83409103      98.05617824
H      88.01492219      69.72515647      96.42534442
C      86.30660960      71.90212118      99.30339759
H      86.42566236      73.88822354      99.84196959
C      83.76303798      70.97237583      98.44924131
H      82.40432476      70.76261621      99.98180935
H      83.98413596      69.16768721      97.47981171
H      83.13186939      72.22715411      96.94123971
C      87.12864054      70.36577369     101.67122466
H      85.94189242      70.38467095     103.35686053
H      89.01080796      71.05174434     102.14932543
H      87.41776868      68.38723024     101.18745474
C      88.72356955      75.94235604      95.30473672
O      91.01769730      76.51683284      95.27072164
N      87.06061040      77.63744054      96.15700329
H      85.20300943      77.21414185      96.24959988
C      87.74280160      80.22447586      97.10753562
H      89.74780121      80.27927793      97.57618774
C      86.93588847      82.27482891      95.28394972
H      86.36330139      83.99825931      96.25904850
H      85.36741562      81.67578567      94.08964269
C      89.22812649      82.90599750      93.55107071
H      89.83850809      81.13532395      92.68935550
H      90.50369174      84.03416411      94.70947293
C      88.14342357      84.59919228      91.45725395
H      89.90275877      85.18122798      90.55774422
H      87.27981865      86.26971034      92.29629243
N      86.50692059      83.21213316      89.60343244
H      85.34662864      81.82318432      90.21003457
C      86.22346165      83.77338188      87.29796633
N      87.37052551      85.53082735      86.14523327
H      86.71856994      85.89554453      84.38778781
H      88.35885237      86.85552550      87.10143480
N      84.75325457      82.32774125      86.00350380
H      84.46034699      82.57529540      84.13456448
H      84.04271748      80.86509308      87.00505875
C      86.59573772      80.57785468      99.68512232
O      84.52081823      79.65944770     100.38243132
N      87.83350846      82.10286382     101.25926433
H      89.26781073      83.08930095     100.47502791
C      87.58217486      82.22569603     103.99369830
H      86.33495550      80.72714306     104.65699224
C      90.15220265      81.74948500     105.26359439
H      89.76102930      81.83641241     107.28371182
H      91.47312134      83.25748660     104.78927309
C      91.71122685      79.14733186     104.98202516
H      92.27247558      79.07930172     103.00159199
C      93.96378062      79.03961746     106.83017750
H      94.81226773      77.16311924     106.80561105
H      93.31938395      79.22292092     108.77848533
H      95.38863426      80.45691220     106.38798155
C      89.85740535      76.97225688     105.51681772
H      90.96100551      75.24882648     105.75303351
H      88.47790514      76.78517397     104.00125721
H      88.93332917      77.29917953     107.32906524
C      86.50125141      84.83540807     104.76281692
O      85.41276905      85.04138823     106.80939052
N      86.93021928      86.79127480     103.20568243
H      88.15854138      86.77048781     101.74492399
C      85.69244855      89.23091147     103.65921674
H      84.73246758      89.15910187     105.48091292
C      87.89586943      91.19055766     103.89165309
H      89.37174568      90.57072743     105.18800533
H      87.03415424      92.83272982     104.78738336
C      89.25458265      91.90487420     101.47847258
H      87.95067149      92.52092498     100.00637579
H      90.27692459      90.27781985     100.73769986
C      91.08572745      94.00436014     101.70712946
H      92.60884685      93.25224906     102.87309061
H      90.07283415      95.51425146     102.67655906
C      92.35184408      94.85851643      99.30339759
H      90.83061439      95.11740894      97.94090492
H      93.55182029      93.34484565      98.58341187
N      94.04692859      97.08461403      99.65866614
H      95.16186710      97.13941609     101.20635199
H      92.86773936      98.58316699      99.62843052
H      95.28091987      97.22823323      98.20924607
C      83.80083251      89.97168419     101.57295889
O      83.69689757      88.73391345      99.60764353
N      82.07929185      91.70267349     102.13987679
H      82.16055008      92.38486469     103.91999897
C      80.04216687      92.61163184     100.36542379
H      78.82140367      90.99213639     100.00070661
C      78.34897209      94.72245614     101.60697398
H      79.59619147      96.34762077     101.82807195
C      76.04539572      95.51992064     100.01015523
H      74.58652700      94.07428001     100.17078197
H      76.52160675      95.80337959      98.02594260
H      75.49548536      97.29626337     100.89265742
C      77.45135210      93.94199917     104.31684150
H      79.20501812      93.64531214     105.35619098
H      76.53105539      92.10140574     104.26770862
C      75.94146077      95.84684329     105.97224175
H      75.96791694      95.47456721     107.99802836
H      74.01582966      95.72779053     105.24469713
H      76.71624857      97.72145180     105.62264238
C      81.29505543      93.54326692      97.84452889
O      83.20745845      94.92654658      97.98625836
N      80.44089913      92.55494006      95.65055664
H      79.09163453      91.20756519      95.75449158
C      81.12309032      93.52625938      93.06919050
H      82.06795349      95.35173500      93.18446379
C      82.95801457      91.79715980      91.66323411
H      84.66443743      91.39842755      92.74226783
H      83.59674207      92.58895513      89.87177356
C      81.99047470      89.14020461      91.12088266
C      81.10419307      88.54305109      88.72659943
H      81.03049373      89.80538827      87.12411151
C      80.08563059      86.07128908      88.29763155
H      79.76248739      85.58751914      86.34176482
C      80.04027715      84.21746756      90.14767362
O      79.48280788      81.69657266      89.70358792
H      79.19367976      81.22981026      87.97259863
C      80.96813276      84.85430533      92.57597193
H      80.94167660      83.39732634      94.00271528
C      81.92055482      87.28827282      93.00116035
H      82.64432000      87.78905029      94.84175378
C      78.92344889      94.17065605      91.36654708
O      76.80317598      93.37319155      91.75016152
N      79.27115853      95.89030700      89.53540229
H      80.94734578      96.80115508      89.47682076
C      77.30017399      96.34573104      87.51906431
H      75.45013194      96.04715428      88.37700005
C      77.47213908      99.07260611      86.59687786
H      76.00760119      99.18787941      85.15312696
H      79.32407088      99.51480207      85.81453117
C      76.71435883     100.95099406      88.68502544
H      78.25637550     101.21177630      90.02673112
H      75.06462776     100.25179533      89.69980847
C      75.88854844     103.51913212      87.60599172
H      73.98370431     103.45299170      86.82364503
H      77.16411370     103.97644589      86.05452641
C      76.18901492     105.72822218      89.48248994
H      78.14110220     105.54869818      90.10987909
H      74.95502364     105.47310913      91.11332375
N      75.81862856     108.18486639      88.23338085
H      77.02805340     108.40596437      86.77262242
H      75.80917994     109.58704331      89.53162283
H      74.20669202     108.08282117      87.21481837
C      77.54394869      94.53726296      85.25139273
O      79.55461748      93.63775323      84.41802343
N      75.24793121      94.06105193      84.30275013
H      73.85331319      95.17788018      84.97927214
C      74.85297841      92.57194759      81.99539429
H      76.23814780      91.08662271      82.33554503
C      72.26405338      91.26047753      81.91980524
H      70.88833261      92.74580241      81.54941888
H      71.81618823      90.42143905      83.74717058
C      71.96169717      89.55972385      79.73906107
O      70.39133459      90.24569450      78.09121973
O      73.15033501      87.55472423      79.55764736
C      75.45013194      94.06672111      79.51985283
O      76.01516010      96.30982624      79.64457477
N      75.44824220      92.91209833      77.26918878
H      75.07407639      91.06205627      76.97817093
C      75.67500936      94.42198965      75.02608365
H      77.34363769      95.61440696      75.23584327
C      76.21925054      92.87997298      72.67526412
H      74.42401055      92.15620780      71.96661676
C      77.44379319      94.24813483      70.47751241
H      79.03305303      95.37819117      71.14080635
H      76.02460874      95.53314872      69.71406298
H      78.14110220      92.98768738      69.00541562
O      77.84819463      90.89576035      73.28753545
H      79.53005104      91.47779606      73.64280399
C      73.53772890      96.35706940      74.68971237
O      73.86843101      98.42254026      73.69571632
N      71.25871897      95.82038712      75.64024471
H      71.08675387      94.23868620      76.69282227
C      69.05340836      97.54759697      75.77441527
H      69.18757894      98.69466085      74.06610269
C      66.72904499      95.83928439      75.78575363
H      66.18102436      95.73723917      77.76807653
H      67.03329093      93.94577862      75.03364256
C      64.42735835      96.96745100      74.54987262
H      64.21948846      98.94788417      75.07899599
H      62.76628892      96.05471319      75.35300630
C      64.48216041      96.29470843      71.70772424
O      65.44592083      97.53247916      69.97106576
O      63.22549241      94.45600473      70.96317208
C      68.97026041      99.28992463      78.09499918
O      67.40556702     100.99634750      78.19893414
N      70.48393118      98.69466085      80.03574810
H      71.72737109      97.26224830      79.80709122
C      70.79951547     100.40486316      82.24294844
H      70.12866263     102.29458947      81.77240659
H      72.83853016     100.26502341      82.51128957
C      69.29340361      99.93999049      84.71660019
O      69.81496806     101.13807697      86.58931897
N      67.67579789      98.01435937      84.53140700
H      67.62477527      97.24902022      82.78341016
C      66.69314019      96.78792700      86.72726898
H      65.80307910      98.25624434      87.86110478
C      64.90545911      94.80749382      85.81831062
H      63.97382403      93.82672586      87.37166566
H      66.15456821      93.36185319      85.05108175
C      63.02707116      95.77125424      83.81142128
C      62.20692993      94.25569374      81.79130385
H      62.85510606      92.33195235      81.58532368
C      60.23027620      95.09473222      80.19826457
H      59.56320282      94.02325740      78.59388694
C      59.20982401      97.42665449      80.62912217
O      57.13868396      98.22600872      79.28930621
H      56.34121946      99.71889251      79.94126180
C      60.14523852      99.03103213      82.53963547
H      59.13045549     100.69966046      83.12923009
C      61.91591208      98.14475049      84.19503572
H      62.15023814      99.16898215      85.94492229
C      68.89278162      95.85440220      88.40534596
O      70.88644288      95.26669731      87.33198140
N      68.43735759      95.43488296      90.88655660
H      66.65534568      95.74290835      91.49693819
C      70.37810651      94.62796982      92.88966650
H      72.26594309      95.04748906      92.17723967
C      69.86788040      96.48935024      95.12143326
H      70.80518466      95.76558506      96.80706913
H      67.87043970      96.31171597      95.59764429
C      70.54062297      99.34850615      94.76616472
C      68.70002955     101.10217217      94.15956257
H      66.76306007     100.60139470      93.75138168
C      69.40489745     103.67031023      94.21247492
H      68.01027944     105.00067755      93.54162206
C      71.87854920     104.48478227      94.82474623
O      72.43601847     106.99622854      95.12710244
H      70.84486890     107.86739237      95.21025040
C      73.76827551     102.61773267      95.13655107
H      75.62209703     103.42842526      95.40489222
C      73.06340760     100.05337407      95.21591958
H      74.45424617      98.68521221      95.80551420
C      70.34220172      91.85952077      93.62477003
O      68.41468087      90.76536924      94.01216392
N      72.60987328      90.83528911      93.93279542
H      74.20480229      91.86518995      93.74760224
C      73.14655555      88.03660444      93.80051457
H      71.30029296      87.17488924      94.11420915
C      74.32763450      87.37520023      91.23237651
H      76.31562659      87.91566196      91.29284775
C      73.58119261      84.80328272      90.32908733
H      71.54406764      84.48580870      90.31585925
H      74.52983521      83.43512087      91.54040190
H      74.36920849      84.51037514      88.44880966
O      73.05962815      88.63753741      89.35020911
H      73.80040087      90.27970957      89.14044949
C      75.03439214      87.13898444      95.80929364
O      76.72191774      88.63564768      96.61809650
N      74.80762499      84.72391421      96.70313420
H      73.39977889      83.57685034      96.11542930
C      76.80695542      83.52204828      98.05428851
H      78.52282691      84.33463059      97.25493427
C      76.58018827      83.78472024     100.92289304
H      75.50682373      85.50815063     101.25170542
C      74.97959008      81.84775077     102.19845831
H      75.90366624      80.02416487     101.95468361
H      73.05206924      81.86097885     101.47280340
H      74.92856747      82.24081384     104.22046547
C      79.11242153      84.03983329     102.36853367
H      80.50703954      85.05650605     101.24225680
H      79.87020178      82.21624740     102.94867965
C      78.74014544      85.50437118     104.90832584
H      80.65443821      85.53838626     105.66799581
H      77.68189870      84.48958815     106.35207675
H      77.76126722      87.30150091     104.68911758
C      77.08663492      80.78572458      97.21902947
O      75.52194153      80.03172378      95.63732855
N      78.95746397      79.43457026      98.18656934
H      80.23113951      80.34730807      99.27694143
C      79.01604548      76.70202602      97.67445351
H      77.21324658      75.75716286      98.00137616
H      80.38987651      75.83086219      98.93868041
C      79.86075315      76.19368964      95.02694695
O      81.97157744      76.93824180      94.09342215
N      78.24125770      74.85387368      93.67768236
H      76.95435407      73.84475983      94.66034004
C      78.20535290      74.78773326      91.03962443
H      79.46391062      76.24660197      90.30830034
C      79.10864207      72.20258766      90.01161331
H      77.73292132      70.73993950      90.47270654
C      79.42989554      72.63155554      87.15245740
H      79.60564009      70.88544842      86.07342368
H      80.98703004      73.85987764      86.59876759
H      77.76504666      73.40634333      86.21893260
C      81.69756712      71.28418068      91.02639634
H      81.75614864      71.05363407      93.07108021
H      82.97691183      72.89800695      90.96970455
C      82.87108716      69.12422350      89.57130709
H      81.48402805      67.61244245      89.39745226
H      84.73624704      68.63856384      90.29885171
H      83.38887218      69.84420923      87.71181639
C      75.42934494      75.49827035      90.17790924
O      73.66245084      73.94869478      90.54451613
N      74.97581062      77.71302959      88.86265971
H      76.45546633      78.78639414      88.31463908
C      72.47003353      78.62387768      88.03684931
H      71.77461426      77.03272812      86.92946969
H      72.87443496      80.21691696      86.79340940
C      70.61810175      79.44590862      90.12499689
O      68.56018979      80.16211489      89.29351732
N      71.11698949      79.14922159      92.60053836
H      72.92923703      79.23992845      93.18824324
C      69.02506247      79.21914146      94.37121192
H      67.61721636      77.94735566      93.56996797
C      70.00583042      78.10609267      96.80139995
H      71.68201767      79.06607363      97.51760624
H      70.77872848      76.22581498      96.47258758
C      68.02728697      78.05695978      98.80262013
N      66.79707515      75.90267179      99.66811477
H      67.07675464      74.13577768      98.99915166
C      65.15301325      76.69068766     101.43878833
H      63.79618977      75.46047583     102.33829805
N      65.30797082      79.22481064     101.79405687
H      64.10232543      80.20368887     102.90332623
C      67.09754163      80.13376900     100.09897238
H      67.62288555      82.07262820      99.72669629
C      67.70603350      81.90066310      94.61687634
O      68.79829531      83.65432912      95.77716829
N      65.47804618      82.28994672      93.54351180
H      64.65979469      80.89343898      92.53250821
C      64.14389940      84.63131762      93.51138644
H      65.38733931      85.99758975      92.60053836
C      61.70804218      84.21368811      91.87299373
H      60.58176530      82.72647350      92.74793702
H      62.39023338      82.97402765      90.37255104
C      60.02618577      86.35096857      91.15111828
H      58.73361296      85.76326369      89.66012423
C      58.42936703      87.22969131      93.35642889
H      56.84955583      88.33329147      92.63077399
H      59.45548842      88.21801817      94.84364349
H      57.49206279      85.57996023      94.15767284
C      61.21104416      88.76792852      90.19491677
H      61.96882442      88.57328671      88.29196237
H      62.83809852      89.09485118      91.41379025
H      59.99406043      90.42899795      90.24215992
C      63.55619452      85.51759927      96.13432658
O      62.13701005      84.32896141      97.57051857
N      64.52751385      87.65676945      96.86754038
H      65.65190100      88.54116137      95.60331347
C      63.92658087      88.91343745      99.09930715
H      63.44281094      87.62086465     100.62809574
C      66.38511482      90.15309791     100.01015523
H      65.80496883      91.51559058     101.44256778
H      67.20147658      91.35685357      98.55128652
C      68.26917194      88.17266474     101.00982045
H      68.62821994      86.86308440      99.46213461
C      70.78250794      89.37642040     101.67878357
H      70.46692365      90.89198090     103.03749679
H      71.41178680      90.24569450      99.92133811
H      72.05429374      88.01392773     102.55561658
C      67.36021358      87.00481387     103.57417906
H      67.80051982      88.41077025     105.01415051
H      68.60365350      85.39098760     103.88220445
H      65.37978041      86.45112406     103.46268521
C      61.87244837      90.89198090      98.66278037
O      59.73705765      90.62741922      99.66244559
N      62.46582243      92.94233395      97.20391166
H      64.20815010      92.94989285      96.42345470
C      60.65168517      94.88119315      96.35731427
H      58.72983351      94.13853071      96.38943962
C      60.57231667      97.08650375      98.35664472