 %block lattice_cart
   140.777   0.000   0.000
   0.000 144.511   0.000
   0.000   0.000   162.462
 %endblock lattice_cart

 %block positions_abs
N      93.58583536      41.42178062      81.92452956
H      92.93765923      39.79094681      81.17619794
H      93.73323401      41.31973539      83.82559423
H      95.30359658      41.53138474      81.09871916
C      92.27625502      43.84818920      81.40674455
H      93.05104281      45.15776953      82.79569339
C      92.60695713      44.69478659      78.64396468
H      92.04570841      43.23024870      77.30792817
H      94.61762593      45.13320309      78.57782426
C      91.16887540      47.04371640      77.83705154
H      89.17332442      46.70545538      78.21121735
H      91.27470008      47.59362676      75.85472864
S      91.96445018      49.63453118      79.80047718
C      95.21855889      50.36585525      78.87829074
H      96.41853510      48.69344747      78.95010034
H      95.87807338      51.87007741      80.12173065
H      95.27525068      50.96111905      76.90730620
C      89.54371077      43.59874532      82.23822412
O      88.23790989      42.20223759      81.04013764
N      88.56294282      45.03682706      84.06747920
H      89.81961082      46.05161008      85.08226223
C      86.02693011      44.99714280      85.14273347
H      84.92899912      43.43811860      84.36227650
C      86.17243903      44.42266600      88.01700719
H      87.22123714      45.96846213      88.88628129
H      87.13997890      42.60474928      88.00377911
C      83.79705306      44.25448035      89.48343481
O      82.67455563      46.19144984      89.88594651
N      82.86730771      42.19278895      90.33003220
H      81.12309032      42.27593690      91.10293026
H      83.40210026      40.38432088      90.05224243
C      84.79104910      47.56717058      84.73455258
O      86.11952670      49.48713253      84.70053751
N      82.34763298      47.58606785      84.00322850
H      81.34040885      45.96468268      83.98244151
C      80.86797727      49.82539354      83.18875646
H      81.60497053      50.07483740      81.28202261
C      78.05795424      49.01470095      83.08482151
H      78.02015972      47.41599249      81.78468981
C      76.57073964      48.32306112      85.60760614
H      77.61197883      46.82072869      86.56002820
H      74.62810099      47.79015829      85.17863827
H      76.56129100      50.05971960      86.71309603
C      76.48381223      50.96489849      81.55414320
H      74.84164006      49.93499766      80.85872392
H      77.70268570      51.48646295      79.97811145
C      75.63154566      53.39130708      83.01301191
H      74.25771463      54.51947370      81.97366244
H      77.20190822      54.58939356      83.59882707
H      74.75093320      52.96611866      84.82525945
C      81.39332119      52.19511033      84.72321423
O      81.94512127      54.11318253      83.76134353
N      81.33096022      51.93432809      87.20253515
H      80.93600742      50.20522852      87.90551334
C      81.80906098      54.19633049      89.00911350
H      80.54861353      55.75535471      88.53479220
C      80.99836839      53.28170296      91.59614883
H      82.24558775      51.88330548      92.45030512
H      79.26359963      52.23857403      91.21064466
C      80.43334022      55.49646220      93.51611076
C      78.03149808      56.69265895      93.53311830
H      76.79750679      56.42242808      91.92874066
C      77.58552267      58.66175377      95.19796718
H      75.86020254      59.74267722      95.05056853
C      79.54327913      59.29670182      96.88927223
H      79.46391062      60.88974110      98.16294776
C      81.88842948      58.01168791      96.83447017
H      83.32084203      58.65608459      98.13838132
C      82.37219942      56.05582118      95.14883430
H      84.08807091      54.96355938      95.00899455
C      84.59073811      55.21300324      88.74077237
O      84.96679364      57.48634401      89.21698340
N      86.35952194      53.47256531      88.18330311
H      85.73024308      51.80771644      87.48977355
C      89.05238193      53.97523252      87.83748319
H      89.44166555      55.54181562      89.11682790
C      90.57739107      51.56205202      88.66140386
H      92.60884685      51.84740068      88.48943877
H      89.95378138      50.08806549      87.36505161
C      89.96700947      50.74380052      91.37694057
H      90.89486509      48.99958313      91.95897628
H      88.02815027      50.05405042      91.45630908
C      90.48668421      52.92454469      93.32524840
O      92.15531254      54.54026069      92.99454630
O      89.18844223      52.88297071      95.41717543
C      89.70811696      54.96544911      85.17107936
O      91.72067549      55.97267322      84.70998614
N      87.92232560      54.71600523      83.41930307
H      86.39920619      53.64642013      83.83882231
C      87.82783928      56.02180612      80.86439310
H      89.77614711      56.20510957      80.21810670
C      86.53904594      54.12830034      78.95387979
H      84.83451280      53.42154270      79.86850733
H      87.81272147      52.54659942      78.61750851
C      86.04204792      55.43788068      76.38196228
H      85.78882459      54.00168869      74.92876275
H      87.76547831      56.40164110      75.79992658
S      83.39832081      57.44854947      76.27991706
C      80.59774641      55.39819642      76.38385201
H      80.59963614      54.01680649      74.85695315
H      78.81951395      56.40542056      76.12495950
H      80.52782654      54.45522299      78.21310708
C      86.75258501      58.62773870      81.16485958
O      88.07350370      60.34549992      80.41652796
N      84.65120935      59.04536821      82.50845499
H      83.60430097      57.60161731      83.18875646
C      83.71012565      61.67019806      83.15474139
H      83.54571946      62.77568795      81.42564181
C      81.02671428      61.39429802      84.36416623
H      80.59774641      63.18197912      85.29202185
H      81.21190746      59.85984025      85.72287945
C      78.88376464      60.31337457      82.60861048
H      79.40532911      58.36506673      82.19098097
C      76.43467934      60.04314371      84.10905317
H      75.08352503      58.96788944      82.98466602
H      75.72036280      61.86483988      84.75156012
H      76.81451433      58.92253600      85.79468905
C      78.24881660      61.84594261      80.13495874
H      76.83152187      60.76879861      79.09749899
H      79.91177576      62.04058441      78.93876198
H      77.43245483      63.67330795      80.62061840
C      85.48646838      63.14229486      84.88573069
O      85.71134581      65.32303902      84.35093814
N      86.87352749      61.85917070      86.72254467
H      86.83006379      59.95621630      86.86427414
C      88.84451204      63.33315721      87.99622020
H      87.84673655      64.78635675      89.06202584
C      90.15787183      61.60594737      89.91240268
H      91.19722130      60.07148960      89.01289296
H      88.56105309      60.76123970      90.90072954
C      91.91342757      63.08560307      91.84559270
H      90.82116576      64.36116832      93.03801000
H      93.37229629      64.10038610      90.80246378
C      93.29859696      61.27902472      93.61437653
H      94.28314437      62.36183789      95.06190688
H      94.65542045      60.28313895      92.42573868
N      91.49390833      59.46110800      94.56490886
H      91.43532681      57.74334678      93.73720874
C      90.28448349      59.44032101      96.84580852
N      90.47156639      61.34705487      98.34058204
H      89.52481351      61.06359591      99.97519530
H      91.60351246      62.81726194      97.89649635
N      89.19411141      57.52980770      97.80389977
H      88.93332918      57.28225357      99.67850827
H      88.94844699      55.98212186      96.71352768
C      90.74746644      64.63328891      86.03279456
O      91.16887540      66.91796804      86.25011309
N      91.82461043      63.40874627      84.13172989
H      91.43721654      61.57949120      83.74433600
C      93.47623123      64.63517864      82.31381318
H      94.80281910      66.02790693      83.04891671
C      95.17320546      62.58671533      81.01368147
H      96.25790837      63.45409969      79.49245179
C      97.23111742      61.79303028      82.89584888
H      98.51046213      60.65163558      81.75445419
H      96.60372828      60.68754037      84.51534433
H      98.40463746      63.37284146      83.50812021
C      93.69921894      60.24345469      79.95732447
H      92.20633515      60.91241781      78.70443592
H      92.52569890      59.16064151      81.25745617
C      95.12596230      58.29136741      78.22255571
H      96.48656525      57.35406316      79.45654699
H      96.01980285      59.27024565      76.64463424
H      93.78992580      56.77391719      77.82193373
C      92.04570841      66.00523022      80.07448750
O      93.39497300      67.56425443      78.92553390
N      89.68921970      65.37595137      79.38284767
H      88.86718875      63.94731827      80.34471836
C      88.23602017      66.76867965      77.51201862
H      89.25647238      66.33215287      75.77913959
C      85.41087933      65.98444324      77.34005352
H      84.53782577      66.64962689      79.08238118
H      85.26537040      63.93031074      77.36650969
C      84.42255247      66.80458445      74.84561479
O      85.73024308      66.70631868      72.84061517
O      82.23802885      67.42630440      74.76246683
C      88.31727840      69.65996091      78.08082624
O      89.08261755      71.14906525      76.41786708
N      87.91854615      70.47065349      80.48644783
H      87.18722206      69.21776495      81.72421857
C      87.68422008      73.13327787      81.23477945
H      88.39475718      74.43907875      79.81181554
C      84.87041760      73.75499783      81.50312059
H      84.70034223      75.45575152      82.65396391
H      84.31672779      72.11282567      82.61238993
C      83.26226051      74.12727391      79.18442640
H      81.29883487      73.51689231      79.28458190
H      83.96523870      72.70808945      77.86728716
C      83.30005504      76.85036953      78.08838514
O      81.10419306      77.80279160      77.71799878
O      85.33529028      78.06924300      77.68020426
C      89.26592101      73.74554921      83.61583461
O      89.78748547      75.93574200      84.01456686
N      89.89519987      71.99566264      85.31469856
H      89.93677385      70.16640757      84.77612656
C      91.56382820      72.55691135      87.52378862
H      92.48412492      74.37860751      87.23843995
H      92.89797498      71.08481455      88.07369898
C      90.09929031      73.18996966      89.97287392
O      88.67443667      75.05323980      89.84815199
N      90.60006778      71.84826399      91.94196874
H      91.97956799      70.52923501      91.94952765
C      89.26592101      72.33014420      94.27389101
H      87.38186387      73.02934292      93.81846697
C      88.94655726      69.95664795      95.84803303
H      90.83439385      69.14217591      95.99732141
H      87.83539819      68.54313267      94.84269863
C      87.71445570      70.51789666      98.55034166
H      88.57239145      72.07125168      99.59725004
C      84.92144021      71.12449881      98.26499299
H      84.00303323      71.12449881     100.10747614
H      84.16365996      69.99066301      96.72108659
H      84.95167583      73.05768882      97.55634562
C      87.96956876      68.47321279     100.63659951
H      90.01992181      68.31258605     100.77832898
H      87.00202888      66.78190773      99.96763639
H      87.10029465      69.23288276     102.34113264
C      90.47156639      74.52033699      95.72520082
O      92.64664138      74.16506845      96.26377282
N      89.10151482      76.55179277      96.32802351
H      87.41398922      76.57824894      95.43607269
C      90.12007730      79.04812123      97.28422503
H      91.97578854      78.62671226      98.07035118
C      90.14086429      81.09280510      95.28300486
H      90.23535061      82.95040607      96.16928650
H      88.36830101      80.94162701      94.24365539
C      92.57105233      80.79989752      93.69563476
H      92.69955372      78.83080270      93.10415042
H      94.09795119      81.22886539      95.00710482
C      92.40853587      82.43451079      91.34670495
H      92.66931810      84.32990627      92.11015438
H      90.57739107      82.16050047      90.44341578
N      94.46644782      82.02255046      89.77256293
H      96.04436929      82.98631088      90.24310479
C      94.78392184      80.68840367      87.61638521
N      92.82049620      79.49220691      86.56947683
H      93.07938871      78.27711290      85.12194648
H      91.04037401      79.93440287      87.09860020
N      96.83238516      80.52210775      86.36727612
H      96.94576874      79.37315417      84.84604644
H      98.35928403      81.56901613      86.83025907
C      88.60829625      79.85125491      99.66905964
O      86.39353701      79.44874321      99.98842338
N      90.14842320      80.88682493     101.43217429
H      91.92098648      81.32146198     100.87848448
C      89.54182105      81.08902566     104.03432742
H      87.99791465      79.79456312     104.46518502
C      92.05704677      80.15361112     105.36091529
H      91.62429945      80.16494948     107.37536354
H      93.60095317      81.48397845     105.05855908
C      92.87340854      77.51177374     104.76754123
H      93.86362513      77.56657580     102.96096287
C      94.88029788      76.81068528     106.85190935
H      95.80626378      75.04757063     106.32845516
H      93.76157991      76.39872494     108.52998632
H      96.36940222      78.21097247     107.12025049
C      90.63597258      75.52378167     104.78454877
H      89.64575600      75.70330567     106.57978876
H      91.68666041      73.80035127     104.37069870
H      89.31127444      75.79590224     103.23119374
C      88.75191545      83.79133428     104.85068919
O      87.84295709      84.10124939     107.00875664
N      88.93143945      85.65271470     103.10080262
H      89.35473814      85.11603243     101.31879071
C      88.06405507      88.25108837     103.45607117
H      87.46879128      88.57423157     105.40248927
C      90.38274926      89.98963658     103.08568481
H      91.73201385      89.03532479     104.31589664
H      90.12196703      91.78676631     104.05700413
C      91.34461995      90.24663936     100.34747138
H      89.86118480      91.15181827      99.23820204
H      91.62996862      88.40982538      99.46307947
C      93.79370525      91.71306698     100.08479942
H      93.68977031      93.59334466     100.92194818
H      94.08661283      91.88503207      98.05145391
C      95.93665489      90.32411814     101.55122704
H      96.10861999      88.39848704     100.83502077
H      95.22989725      89.96129070     103.45229171
N      98.36495320      91.74141287     101.62681610
H      98.23834154      93.36846723     102.61892241
H      99.12273346      91.95684167      99.88826789
H      99.67831299      90.56033394     102.34869155
C      86.01937120      89.03721452     101.55689622
O      85.55071908      87.68417048      99.66150073
N      84.78160047      91.22551759     102.00287163
H      84.96490392      91.82645057     103.80378081
C      82.90321251      92.32722803     100.31912549
H      81.72969247      90.70773259      99.82023774
C      81.35741639      94.38891944     101.63626473
H      82.45723710      96.08022449     102.05767370
C      79.49414624      95.56054975      99.80700966
H      78.22047071      94.00530500      99.36481370
H      80.28027239      96.33344781      98.06657172
H      78.31873648      97.10067670     100.50620839
C      80.42200186      93.26831173     104.11747538
H      81.85441441      93.11524390     105.58957217
H      79.65855243      91.35590871     104.03999660
C      78.43400978      95.03709557     105.20595773
H      78.29605976      94.67804756     107.22796489
H      76.75593281      95.06355173     104.01543016
H      79.29761471      96.89847598     105.38170228
C      84.19389558      93.33256243      97.87570937
O      86.15732122      94.54954618      98.09869707
N      83.02415500      92.88091784      95.67606794
H      81.52182258      91.70361836      95.67795766
C      83.70067702      94.03932007      93.30068196
H      84.51325933      95.89503131      93.68051695
C      85.50158619      92.11368896      91.75488584
H      87.33084126      92.00975401      92.69219009
H      85.70189718      93.02075759      89.91807186
C      84.46034699      89.50775637      91.25977754
C      83.27926805      89.01831726      88.94297308
H      83.17722283      90.47340653      87.51433999
C      82.33440489      86.59757785      88.55935864
H      81.34607803      86.11569764      86.83970770
C      82.17188843      84.74753579      90.52656373
O      81.28182733      82.47797449      89.80846773
H      80.93978687      82.33057584      88.03401473
C      83.29060641      85.31823314      92.82825038
H      83.44178451      84.08613158      94.44963556
C      84.49058261      87.69361911      93.23265181
H      85.35040809      88.07156437      95.04300962
C      81.28371706      94.77442362      91.71142213
O      79.23147428      93.85979607      92.27267085
N      81.75047946      96.11801902      89.62516428
H      83.50792493      96.84178420      89.44564028
C      79.85130452      96.57344306      87.71276125
H      77.96913711      96.36368344      88.52912302
C      80.15932990      99.22094963      86.79057481
H      79.54327913      99.39480444      84.83092863
H      82.18322679      99.53275446      86.56569738
C      79.01982494     101.44137804      88.37794492
H      80.23491896     101.60389450      90.03334517
H      77.14899589     100.77430465      88.92407582
C      79.26737908     103.81298456      86.70742686
H      78.15999947     103.61078385      84.98021701
H      81.23836363     104.16069420      86.22365692
C      78.46613513     106.20915754      87.97543321
H      79.27304826     107.68314405      86.78301591
H      79.27115854     106.36222537      89.86515952
N      75.72792170     106.59277197      88.09448597
H      75.27060793     108.38423251      88.56502782
H      74.96447227     105.30586836      89.28123409
H      74.83030170     106.26206987      86.44097545
C      80.06862304      94.67993730      85.60571641
O      82.14354253      94.30388175      84.75156012
N      77.90488641      93.69727961      84.58715393
H      76.25893479      94.55143590      85.03312934
C      78.08252069      92.08156361      82.31003372
H      79.67744969      90.77765245      82.29680564
C      75.65611210      90.46962707      82.09649465
H      74.15755913      91.88503207      82.13806863
H      75.17990107      89.38870361      83.78402025
C      75.40666823      88.75375557      79.76457238
O      73.84764402      89.35279881      78.15830502
O      76.91278010      87.08323751      79.31103807
C      78.18078645      93.75775085      79.90819158
O      77.96346793      96.03298134      80.07637722
N      78.58140843      92.72218084      77.60272548
H      78.71368928      90.81922643      77.60272548
C      78.48125294      94.11112968      75.16119908
H      79.79083327      95.69094087      75.34072308
C      79.21635647      92.44628079      72.92565285
H      78.09007959      90.72474012      72.87274052
C      78.83085231      93.64247754      70.37830178
H      79.92878329      95.38669493      70.30649218
H      76.88254448      94.15270365      69.94933391
H      79.45257226      92.35557393      68.89675636
O      81.81095070      91.92282660      72.96722683
H      82.10952746      91.05544222      74.53192022
C      75.78839294      95.20717093      74.70010586
O      75.51627235      97.16303767      73.54359336
N      73.90811526      94.13380639      75.82260329
H      74.28795025      92.57100273      76.84872468
C      71.30407240      95.24496546      76.05314990
H      70.83731000      96.05943750      74.22011538
C      69.56363447      93.06044184      76.62951643
H      69.94913864      92.71651165      78.62317769
H      69.97937426      91.40126214      75.48434228
C      66.82353131      93.71428715      76.33849858
H      66.81219296      95.73062513      76.76179727
H      66.01472845      92.44439106      77.74445495
C      65.84087363      93.07555965      73.76280161
O      65.56875304      90.76820383      73.10328713
O      65.52906879      94.83867430      72.17165206
C      71.22092444      97.48240141      77.96555293
O      69.36143375      98.84489408      77.99011937
N      73.34119737      98.15703371      79.34316341
H      74.76227155      96.88335817      79.34127369
C      73.98937349     100.29431417      80.98155613
H      73.34119737     101.93837606      79.92519912
H      76.03783682     100.27352718      81.22533082
C      72.96892128     100.52297105      83.64607023
O      73.53961863     102.40324873      84.92919439
N      71.10376141      98.92048314      84.34526896
H      70.37810651      97.75263228      83.02057082
C      70.21559005      98.30821181      86.96820909
H      70.06630167     100.16770250      87.84126264
C      67.77595338      96.75863624      86.88695085
H      67.13344643      96.56777388      88.83525868
H      68.33342264      94.89158664      86.21798774
C      65.69914416      97.97939943      85.32603692
C      65.02640159      96.87013009      82.88451052
H      65.84276336      95.07866954      82.34971798
C      63.14423418      98.09467274      81.50123086
H      62.57920601      97.40114318      79.66630661
C      62.00850867     100.38124158      82.26657002
O      60.04697276     101.21083144      80.86061364
H      59.43092198     102.66025151      81.76390282
C      62.84754715     101.43948831      84.55313886
H      62.13889978     103.24417694      85.19186635
C      64.59554399     100.15636415      86.17641376
H      65.04718858     101.03508688      87.96220513
C      72.07130128      96.91926297      88.67652167
O      73.55473644      95.45094563      87.75433523
N      71.86721084      97.30476714      91.14639396
H      70.64833737      98.67103926      91.68685569
C      73.58119261      96.23707177      93.07202508
H      75.49170591      96.37880125      92.31613455
C      73.39977888      97.71483775      95.59291998
H      74.39188520      96.59423005      97.00643526
H      71.47981695      97.84900832      96.32991324
C      74.60353454     100.38124158      95.66850903
C      73.28639530     102.47694807      96.62282082
H      71.38155118     102.43726381      97.35225518
C      74.52794549     104.82776759      96.63415918
H      73.69835564     106.54363908      97.36359353
C      76.99970751     105.00918133      95.54000764
O      78.19590427     107.29952961      95.57780217
H      77.29450481     108.66958119      96.35636941
C      78.20346317     102.86245223      94.60837257
H      80.11586620     102.99284334      93.90728411
C      77.04506094     100.52297105      94.55734996
H      78.09952822      98.83733519      94.09247729
C      73.02183362      93.39114395      93.55579501
O      70.88266343      92.49163422      93.41028609
N      74.88510377      91.92660605      94.40239240
H      76.50648894      92.86957949      94.74632259
C      75.14210654      89.05044261      94.15483825
H      73.29584394      88.15093289      94.29656773
C      76.12476423      88.36069251      91.56213375
H      78.16188919      88.67627679      91.56591321
C      75.82807720      85.60169208      90.81380213
H      76.55940128      85.20295984      88.92974500
H      73.83441594      85.15004749      91.05946655
H      76.72758692      84.40927478      92.23298659
O      75.11565038      89.67783174      89.67807662
H      75.61831757      91.40126214      89.91240268
C      76.93167736      88.01487258      96.09558718
O      78.61731323      89.37358580      96.85903661
N      76.75026364      85.72263458      96.85714688
H      75.32541000      84.70785154      96.09558718
C      78.64376940      84.32234737      98.36325875
H      80.31050801      85.52988249      98.29900806
C      77.66867062      84.09935966     101.16194342
H      77.48158772      86.07601339     101.71374351
C      75.02872296      82.87103756     101.29422427
H      73.62087686      83.81779044     100.12637340
H      74.09519817      82.98064170     103.12725879
H      75.30651273      80.89249411     100.78777761
C      79.42800582      82.59891697     103.04789028
H      79.41666746      80.55234337     102.82301285
H      78.80439614      82.88804511     104.99052893
C      82.19645487      83.36425613     103.22930401
H      83.38320299      82.08302169     104.32345554
H      82.29661036      85.24831326     104.05889386
H      82.87864607      83.48519862     101.29044481
C      79.07840645      81.73531205      97.07257568
O      77.28694591      80.96052426      95.69307547
N      80.92466906      80.15172140      97.75854633
H      82.58384876      80.82824342      98.41806082
C      80.91522043      77.36437508      97.33713737
H      79.06328864      76.80690583      98.04578473
H      82.42700148      76.57069003      98.48609096
C      81.65788287      76.73131677      94.58947531
O      83.87075238      77.00910654      93.81468752
N      79.71524422      75.89227829      93.40461691
H      78.11275631      75.74110018      94.42695884
C      79.53383050      75.59181180      90.67396239
H      80.89632317      76.94485584      89.92752049
C      80.30672856      72.84037029      89.72154032
H      78.89888245      71.47031871      90.34326028
C      80.34452308      72.87249565      86.74522138
H      78.54739336      73.66618069      86.12917060
H      80.40688405      70.97521043      85.94775688
H      81.86008359      74.12916364      86.14239869
C      83.12808994      72.11660511      90.62105005
H      83.03927281      72.26211404      92.67329283
H      84.36775040      73.61893754      89.95208693
C      84.06350447      69.52201089      89.98421228
H      82.63487137      68.08203944      90.33759110
H      85.87953145      69.01934370      90.81569186
H      84.15232160      69.54279788      87.92441060
C      76.90900065      76.23998794      89.73476841
O      75.13454764      74.85103909      90.47554112
N      76.60286498      78.30356906      88.31369422
H      78.15433029      79.32213155      87.86204963
C      74.20102284      79.28244729      87.29702146
H      73.52261109      78.08625054      85.76256370
H      74.68290305      81.00398796      86.27090008
C      72.12799307      79.97219741      89.25666765
O      69.95669754      80.42006253      88.39117300
N      72.50215888      79.79456312      91.61126664
H      74.27472217      79.21441715      92.01755779
C      70.60109421      80.14983168      93.61815598
H      68.89467135      79.32969045      92.80746339
C      71.30785185      78.55490267      96.07102074
H      72.71002878      79.30701373      97.38060107
H      72.23759720      76.77478048      95.62126587
C      69.10065152      78.28656153      98.00232103
N      67.72871022      76.17573723      98.47475261
H      67.73626912      74.54679316      97.48075657
C      65.75583595      76.86548734     100.08290970
H      64.51617549      75.40094946     100.78210843
N      65.96748529      79.26921921     100.64982759
H      64.69569949      80.30856868     101.61547774
C      68.05374314      80.20463374      99.32701917
H      68.50727746      82.17939773      99.08702393
C      70.15700853      82.94662661      94.13594099
O      71.40233817      84.10502884      95.73087000
N      68.75294188      84.18439736      92.55235034
H      68.41846032      83.37181503      90.85726584
C      67.80618900      86.75253541      92.78667640
H      69.43513308      87.98463696      92.51077636
C      65.74638732      87.17583410      90.72309527
H      64.10799460      86.00798324      91.16340150
H      66.68369157      86.66938745      88.95809089
C      64.69758921      89.84979683      90.67207266
H      66.09409696      91.16882580      91.41284537
C      64.35743848      90.44317091      87.77134277
H      63.39178833      92.24030063      87.48410437
H      63.52595890      88.90115423      86.68663987
H      66.09598668      90.86457986      86.75089056
C      61.99717031      89.83656876      91.79457009
H      60.72349478      88.56478294      90.79301514
H      61.29419212      91.75464096      91.53567758
H      61.90268399      89.45295431      93.81657724
C      66.74038336      87.42149852      95.42851379
O      65.18513860      86.00420379      96.55290095
N      67.41879510      89.55499953      96.53589341
H      68.76050078      90.42805309      95.49465421
C      66.98415805      90.05766673      99.14560545
H      66.49849839      88.33801578     100.16794738
C      69.50505295      91.19717171     100.39849399
H      68.81719257      92.13258622     102.09924767
H      70.25338457      92.67682740      99.17773079
C      71.62154642      89.37736526     101.15816397
H      72.12799307      88.13203563      99.59913976
C      73.83819539      91.05355250     101.77988393
H      73.22781379      92.54265684     103.06678755
H      74.86242705      91.80755330     100.16038848
H      75.12131955      89.75342079     102.72852654
C      70.77494903      87.71440610     103.44284308
H      70.26472293      88.65548981     105.20217828
H      72.26216364      86.33868535     103.81322944
H      69.14411523      86.61647512     102.83813066
C      64.70892757      91.78865604      99.49331509
O      63.25005886      91.20851005     101.21296603
N      64.45381452      93.71995632      97.87948882
H      66.00339009      93.99774609      96.80045509
C      62.28062926      95.48496070      97.54122781
H      60.65357490      94.22073380      97.51666137
C      62.21070938      97.49373977      99.66528018