 %block lattice_cart
   140.777   0.000   0.000
   0.000 144.511   0.000
   0.000   0.000   162.462
 %endblock lattice_cart

 %block positions_abs
N      93.36851684      45.40721342      81.21966165
H      95.23178698      45.57539905      80.83982665
H      92.64097220      43.81606385      80.45621221
H      92.98490240      45.31650654      83.08860097
C      91.89830976      47.45378700      80.03291352
H      92.62018521      49.05438519      81.10816780
C      92.63719274      47.89598296      77.27958229
H      91.96256045      46.25570052      76.23267391
H      94.64975127      48.29093577      77.08683020
C      91.13108088      49.94066683      75.70355054
H      89.10907373      49.76114284      76.06070881
H      91.69610904      49.78192982      73.72689682
S      91.92287620      53.02658991      77.02068977
C      90.19566635      54.90308813      74.55837640
H      88.29649141      54.19066131      74.90230658
H      90.83061439      54.27002982      72.70455488
H      90.23535061      56.93076446      74.90986549
C      89.12041208      47.03993695      80.40141016
O      88.38152909      44.91588457      79.75512375
N      87.60485157      48.81627968      81.43509045
H      88.41743389      50.51892308      81.71476995
C      84.84585116      48.50069539      81.64296035
H      84.04271747      47.45378700      80.06125941
C      84.15799079      47.17032806      84.17519359
H      84.99513953      45.29194010      84.26779018
H      82.10574801      47.20434313      84.33393062
C      84.86663814      48.74824953      86.40129119
O      85.00836763      51.05560536      86.29735625
N      84.98947036      47.61630347      88.65951415
H      85.85874447      48.62352759      90.02578626
H      85.07261831      45.71145935      88.68974976
C      83.55327837      51.18410675      81.35005276
O      84.87986624      53.00391319      80.98344586
N      81.01348620      51.36363075      81.52768704
H      80.09129975      49.76492228      82.01145697
C      79.50926405      53.68232493      81.41052401
H      80.01760043      54.08672636      79.45654699
C      76.67089513      53.21934200      81.57304046
H      76.18712519      51.78692944      80.17464299
C      75.92823269      52.20266923      84.08826619
H      76.93356708      50.52081281      84.72321424
H      73.92323308      51.74157601      84.03346412
H      76.18523547      53.67287630      85.50745066
C      75.21391615      55.63441221      80.90974654
H      75.71658335      57.13674463      82.22688577
H      73.18057064      55.30937929      80.94565134
C      75.77894431      56.65108497      78.10161322
H      74.40889273      58.14774822      77.74445496
H      75.56540523      55.12229638      76.74101028
H      77.68189871      57.44099058      78.13562831
C      80.49759091      55.77425196      83.10182905
O      80.72624780      57.87751735      82.34026934
N      81.46513079      55.32827655      85.40918489
H      81.44056435      53.58594890      86.18586239
C      82.63487137      57.12540627      87.13828445
H      81.46513079      58.82049078      87.19686598
C      82.70857070      56.06338009      89.94641775
H      83.44934341      57.58649949      91.11993781
H      83.98791542      54.45144354      89.93885886
C      80.22736005      55.10150940      91.11426862
C      78.42078169      56.75690965      92.10637493
H      78.62676186      58.77702707      91.90606394
C      76.18901493      55.89330473      93.21375456
H      74.91155994      57.26524602      94.02066770
C      75.93957105      53.19477554      93.65972996
H      74.25771463      52.30660418      94.40050268
C      77.71024461      51.49591159      92.55990926
H      77.38899112      49.47957361      92.61660104
C      79.82106889      52.49935626      91.27300564
H      81.16466431      51.12174579      90.59081443
C      85.32584164      57.90019407      86.38050420
O      86.36897057      59.89952450      87.10804884
N      86.64676034      56.43754591      84.77234712
H      86.01370202      54.65364426      84.51723406
C      89.15253742      57.17642888      83.89929356
H      90.21456362      58.48411950      85.08604168
C      90.63975203      54.63852645      83.72165928
H      92.34050572      54.88608059      82.58782350
H      89.58717448      53.17965773      82.72010434
C      91.40887065      53.61996396      86.30869460
H      89.64575600      53.23445981      87.30080093
H      92.31404954      55.16953954      87.31969818
C      93.16064693      51.21245264      86.04791238
O      95.54926099      51.22946019      86.27656925
O      92.34050572      49.06005437      85.37705954
C      89.11852236      58.55781882      81.29714043
O      90.59817806      60.24156496      80.90218763
N      87.33840016      57.84728173      79.67197580
H      86.14220342      56.41297945      80.06314915
C      86.61274527      59.59338884      77.65941728
H      88.17743866      59.76535394      76.32904995
C      84.40932438      58.51057566      76.18921020
H      82.65565836      58.86962366      77.21155214
H      84.40554492      56.45266371      76.10606225
C      83.99736405      59.57449158      73.52658583
H      85.56583689      58.98678669      72.32849935
H      83.86697294      61.62106517      73.70422010
S      80.94923550      58.69765857      72.22267468
C      81.31962186      59.08694219      68.78715224
H      79.67367025      58.16286602      67.96134184
H      82.94100704      58.11184341      67.97268020
H      81.18923075      61.08060345      68.28448503
C      86.18377739      62.28435912      78.37184410
O      87.40454059      64.04936349      77.28714118
N      84.60018673      62.69442972      80.14629711
H      83.47579959      61.23556101      80.65274375
C      84.05783529      65.07359515      81.24233836
H      83.56461673      66.20554121      79.59449702
C      81.67111095      64.78257729      83.01868110
H      81.15521567      66.46632345      84.09015591
H      82.26637475      63.37284147      84.39629157
C      79.29194552      63.98133334      81.45398771
H      79.75681819      62.40152215      80.21810670
C      77.26237947      63.11583870      83.27190443
H      75.68445800      62.34483035      82.19098098
H      76.51782729      64.73155468      84.30936417
H      78.16188919      61.96310564      84.72132451
C      77.94835012      65.85405212      79.75890320
H      79.01226604      66.30569671      78.05248034
H      77.73670078      67.73999897      80.56203688
H      76.12098478      65.10949995      79.16552914
C      86.21590273      66.60427347      82.49900637
O      86.34251441      68.89462176      82.16074535
N      88.23790990      65.41374588      83.43064144
H      88.24357908      63.52779903      83.13773385
C      90.43188215      66.67419333      84.45298336
H      89.65520463      68.40518264      85.25233760
C      91.41831927      64.86761498      86.52412341
H      92.59939822      63.39362845      85.70020274
H      89.85740534      63.99645115      87.54457562
C      93.12285242      66.34349123      88.41573945
H      91.89642004      67.82692639      89.14895326
H      94.69321497      67.33370783      87.52756808
C      94.01480323      64.64840673      90.57758635
H      92.42365367      63.84338332      91.60559746
H      94.85951089      66.03357611      91.84937215
N      95.91775763      62.86072564      89.82925472
H      97.45599484      63.69787439      89.06958475
C      95.92342680      60.30581566      90.10704449
N      94.06582585      59.06615521      91.04623847
H      93.94488336      57.17642888      90.81002269
H      92.40853587      59.95243685      91.38827893
N      97.68465173      58.86962366      89.30958000
H      97.64496747      56.97422818      89.52689851
H      99.27391156      59.68031626      88.63116824
C      92.37452079      67.38662016      82.34971799
O      93.79181553      69.16296289      82.65774337
N      92.67876673      65.97688433      80.36361562
H      91.95311183      64.21187996      80.44865332
C      93.90897856      66.83859953      78.10350296
H      95.81193296      67.51701128      78.51168384
C      94.26802656      64.74289304      76.05692935
H      92.49735301      63.71488194      75.80748549
C      95.18076436      65.87483911      73.47556321
H      93.84472787      67.19197834      72.62140693
H      95.47178221      64.41597039      72.05070958
H      97.00057080      66.77623855      73.81004477
C      96.21444465      62.73033452      76.92620347
H      95.77224871      62.38640433      78.90852637
H      98.06448671      63.59016000      76.64274452
C      96.01413368      60.23589579      75.61662312
H      97.39930305      58.81104215      76.16275404
H      96.21444465      60.24723415      73.56627008
H      94.19243750      59.48567445      76.21944583
C      92.45766875      68.99288753      77.05281512
O      93.61418126      70.93930563      76.46322051
N      89.95756084      68.90973956      77.16808843
H      89.01269769      67.32047973      77.63296110
C      88.47979487      71.03190222      76.07204716
H      89.27536964      71.46653926      74.22200510
C      85.74536088      70.35160074      75.20466279
H      84.76837238      72.11849485      74.78892300
H      84.81183609      69.17619097      76.61628834
C      85.57339580      68.64517788      72.85384325
O      87.20045014      69.07414576      71.20789164
O      83.91988527      66.93875503      72.76313640
C      88.40987498      73.45453134      77.72933714
O      88.82939422      75.48031796      76.48778695
N      87.95634068      73.39406010      80.16708408
H      87.67288172      71.68952697      80.97966640
C      87.20422959      75.80535088      81.49745142
H      87.23446523      77.36248536      80.15007655
C      84.52648741      75.62771661      82.46121184
H      83.94067226      77.08658533      83.79157915
H      84.26192572      73.78334372      83.33615511
C      82.47424463      75.66173168      80.27479848
H      80.77538068      74.80757538      81.06470408
H      83.13186939      74.83025210      78.50790438
C      81.72969248      78.35270196      79.50190043
O      79.36186541      78.74009584      79.20521339
O      83.29816532      80.14794195      79.43953945
C      89.10907373      76.58202839      83.67819557
O      89.00891823      78.80056708      84.53235187
N      90.88541646      74.87560553      84.40196076
H      91.10840416      73.31847106      83.32103731
C      92.41987423      75.22520490      86.73010357
H      93.76535935      76.71619897      86.27090008
H      93.58772508      73.52823068      86.78490564
C      90.87596783      75.64850359      89.16974025
O      88.57995035      75.94519064      88.98076761
N      92.09673102      75.80157143      91.28056453
H      93.97322926      76.04723585      91.03301039
C      91.00635894      76.50454962      93.61815598
H      88.94655725      76.46675509      93.60492791
C      91.99279608      74.33703354      95.38882954
H      94.05259775      74.37860751      95.36804255
H      91.32761242      72.58147779      94.54034243
C      91.23879528      74.50899863      98.17995530
H      91.65642479      76.43274001      98.78088827
C      88.42310308      73.85893278      98.41428136
H      87.45556319      74.80190622      96.85903662
H      87.82594955      74.82836237     100.13204258
H      88.13964412      71.81991808      98.35381012
C      92.67876673      72.52478600      99.83346582
H      92.62018521      70.58592680      99.14182600
H      91.80382345      72.40195379     101.69484625
H      94.54959578      73.32791968     100.15093985
C      91.79059537      79.25410141      94.31735473
O      93.99968542      79.87015218      94.20775059
N      90.02181154      80.71674957      95.41150626
H      88.17365919      80.33880430      95.12237813
C      90.47534584      83.19607050      96.83258044
H      92.43499203      83.36047668      97.45052094
C      90.03314989      85.13492969      94.75010205
H      90.27314513      86.95851559      95.67228848
H      88.08862151      85.26910025      94.08491839
C      91.81516181      85.37681466      92.58636541
H      91.99657552      83.44173491      91.90606394
H      93.64819632      85.77743664      93.43863199
C      91.09895553      87.23630535      90.36404727
H      92.71089208      88.33990551      89.71965060
H      89.69677860      88.49864252      91.19363713
N      89.80827246      85.81901061      88.33637094
H      89.48134981      83.98219663      88.73888264
C      89.14308880      86.65237991      86.06303019
N      89.41898883      88.96351520      85.31658830
H      89.27914910      89.43216732      83.47032569
H      90.18054854      90.04632838      86.69230905
N      88.18688729      85.10280434      84.42652720
H      87.65965364      86.13648464      82.91096670
H      87.48579882      83.38504312      84.87817179
C      88.66309832      83.40205067      99.01521433
O      86.47479524      82.47041558      98.76010128
N      89.46245254      84.57179125     101.09013383
H      91.29170762      85.12359134     101.09580300
C      88.30027086      84.53777618     103.57890338
H      86.55038429      83.45118354     103.59969037
C      90.26558622      83.31512326     105.30044406
H      89.55126967      83.21496776     107.23174435
H      91.81705153      84.66060839     105.46673996
C      91.42209873      80.71108039     104.96974195
H      92.58805986      80.88115575     103.28032663
C      92.82805511      79.83991656     107.44339369
H      91.41642956      79.29567538     108.84179116
H      94.02992105      81.30634419     108.24652737
H      93.88063267      78.14861151     106.92182923
C      89.20167032      78.84025134     104.46707474
H      87.78248586      78.76466228     105.95806881
H      89.96700946      76.95619421     104.13448292
H      88.18121810      79.33535964     102.74742381
C      87.54249061      87.12670123     104.51242819
O      86.38786784      87.28732797     106.43050038
N      88.14153386      89.12981111     102.99875740
H      89.13364017      88.77454257     101.40571812
C      86.76392337      91.54866080     103.18206086
H      85.49024783      91.53732243     104.80155630
C      88.57428118      93.86546526     103.56756502
H      89.58528476      94.27553586     101.82145791
H      89.84228753      93.32878299     105.09824334
C      87.09084602      96.27297658     104.36502953
H      86.32739659      96.01219434     106.26042502
H      85.58095470      96.64147322     103.01198548
C      88.62152434      98.79576121     104.51053845
H      87.41209950     100.28864499     105.25131117
H      89.01269769      99.60645379     102.65860667
C      91.11785280      98.69371598     106.05444486
H      92.13452555      96.97595476     105.54610848
H      90.87596783      98.47639747     108.08590064
N      92.77703249     100.93304167     105.65760232
H      93.04915309     100.90091632     103.76976573
H      94.32282862     100.81209918     106.77065113
H      92.07405431     102.51474260     106.45884628
C      85.19356081      91.97762866     100.75943173
O      85.90598762      90.83434426      98.79789580
N      83.00903719      93.22673776     101.06745711
H      82.93344813      94.13758585     102.74175462
C      81.27615815      93.77853785      98.98497872
H      80.79427795      91.84912728      98.44451699
C      79.03683248      95.32055451     100.08101998
H      79.85697369      97.17815549     100.43061934
C      77.12631917      95.96495119      98.04011555
H      75.48036755      97.07988971      98.57490810
H      76.35342110      94.26797697      97.16517228
H      77.85764325      96.99863149      96.41495092
C      77.81795901      94.25663860     102.48853130
H      79.20690784      94.37380163     104.00598153
H      77.32285071      92.27998487     102.19184427
C      75.59942032      95.69283060     103.50142461
H      73.94590978      95.74385322     102.27121278
H      76.13043340      97.62224116     103.97952535
H      74.98147980      94.65537086     105.17194266
C      82.60274602      95.18071477      96.76077084
O      83.78760443      97.15925821      97.17462091
N      82.20779322      94.44750097      94.47987119
H      81.28560678      92.78643153      94.29089856
C      83.22068653      95.53220386      92.29534757
H      84.06539420      97.40492264      92.45030512
C      85.26159094      93.51397617      91.47520635
H      86.81683570      93.42326929      92.82258121
H      86.20834383      94.12813721      89.75177594
C      84.45089837      90.84001342      90.67018294
C      84.09751955      90.30144144      88.02456610
H      84.66254771      91.74708205      86.69986796
C      83.29816532      87.86369448      87.29135228
H      82.85218990      87.59157389      85.31847802
C      82.91644060      85.96074008      89.10548955
O      82.47235492      83.57023630      88.37983464
H      82.61975356      83.28110817      86.59593301
C      83.33784956      86.51820935      91.79834955
H      82.96368376      84.96107487      93.06635590
C      84.02570994      88.98052273      92.58258596
H      84.10129900      89.49641802      94.55546023
C      81.09285471      95.65503607      90.25444315
O      78.90644135      95.11079489      90.91395764
N      81.64087534      96.25785876      87.97921267
H      83.46635095      96.54509717      87.51056055
C      79.69823669      96.74162870      85.84571167
H      77.85764325      96.45250058      86.72254466
C      80.15555045      99.41181198      84.64573545
H      79.50359488      99.54409282      82.69553790
H      82.16055006      99.86912575      84.54369024
C      78.97636124     101.24862597      86.42585763
H      79.77193600     101.10689648      88.31936340
H      77.02616367     100.58533202      86.51845422
C      79.04628110     103.93014759      85.45642803
H      77.85953298     104.10778188      83.78213053
H      80.95301495     104.41013808      84.84037727
C      78.17889672     105.63090128      87.63717221
H      79.32029142     105.09799847      89.26800601
H      76.17389711     105.40035468      88.05480173
N      78.61164405     108.32943045      87.20253515
H      80.37286897     108.45226266      86.48254943
H      78.44723787     109.45381761      88.73699292
H      77.41922676     108.86989218      85.81358632
C      80.10641756      94.67048866      83.83504286
O      82.10952746      94.40781671      82.81837011
N      78.17700701      93.26264256      83.10749824
H      76.54995264      93.86168580      83.90118329
C      78.15433028      91.56944778      80.81526021
H      79.54894831      90.05955647      80.95132051
C      75.65044292      90.03876947      80.54313963
H      74.20858175      91.41449022      80.01401626
H      75.32729972      89.13359056      82.36294606
C      75.93201214      87.88259174      78.55514755
O      76.64443897      85.71318594      79.25623601
O      75.05895858      88.34368496      76.47266914
C      78.38487689      93.24563502      78.41152834
O      78.01260082      95.59834428      78.33404956
N      78.85163930      92.11368896      76.15708485
H      78.95557425      90.20695511      76.22889445
C      78.67778448      93.32689326      73.70799956
H      80.09318949      94.81977704      73.81949341
C      79.37698321      91.16882580      71.76158144
H      78.87053656      91.71684643      69.83972979
C      82.28527200      90.99308127      71.35340056
H      83.07517760      92.87524867      71.07372108
H      82.48369326      89.80255368      69.68477223
H      83.23769406      90.30144144      73.04470561
O      78.68156393      88.63281310      72.22267468
H      76.86931639      88.53076787      72.22267468
C      76.09263888      94.63080442      73.06360287
O      75.99626284      96.53564853      71.79559653
N      73.88732827      93.56121932      73.91775918
H      73.99126322      91.80566357      74.66231135
C      71.44958132      94.85568184      73.85539821
H      71.05462852      95.36401822      71.89953148
C      69.48426596      93.23240694      75.19332443
H      67.77028420      94.34167628      75.46733474
H      70.15133936      92.57478219      77.03013842
C      68.78884668      90.88536686      73.64752831
H      67.68902596      89.58334543      74.80404082
H      70.46881337      89.81011258      73.12974331
C      67.29785261      91.56188889      71.22489917
O      66.60621278      89.73641326      69.84161951
O      66.51172648      93.78609676      70.73923952
C      71.34186693      97.48051170      75.26513403
O      69.84709341      99.17748592      74.74545929
N      72.98025964      97.67515350      77.23800830
H      74.28039134      96.28053549      77.32304598
C      73.33552818      99.82755178      78.94632090
H      72.50593833     101.54909244      78.18098173
H      75.31029219     100.40391829      79.05592502
C      72.28295063      99.42315034      81.69209323
O      72.66467535     100.91036495      83.42119281
N      70.96203193      97.25374453      82.05870013
H      70.81085383      96.00274572      80.62439786
C      69.77150436      96.58289170      84.58904366
H      68.56963842      98.12490836      85.24099925
C      68.13500138      94.19427763      84.22621621
H      66.98226833      94.15837283      85.93263907
H      69.34631595      92.53320820      84.32637171
C      66.45881413      93.98451801      81.78280008
C      65.97126474      91.68094163      80.43731496
H      66.92179709      89.94995233      80.95132051
C      64.23649599      91.56944778      78.40774889
H      63.86044046      89.88570164      77.31548709
C      62.96471019      93.82011182      77.78980839
O      61.23939006      93.78609676      75.80559576
H      60.41546939      95.37913604      75.53725463
C      63.51840000      96.15014437      78.92364417
H      62.96659991      97.99640697      78.24901188
C      65.18702832      96.21439507      80.88140064
H      65.81630718      98.04742959      81.51634867
C      71.67823821      96.05754778      86.60160218
O      73.33174873      94.48718521      86.11972198
N      71.27005733      96.82477667      88.88439157
H      69.74126875      97.91703847      89.21887312
C      72.92167812      96.03865052      91.14450425
H      74.74904348      96.70572390      90.47176168
C      72.18468487      97.63735897      93.33658676
H      73.19379872      96.79454105      94.92206714
H      70.19291333      97.46539388      93.83547451
C      73.08986376     100.38880049      93.22887237
C      71.16234292     102.46371998      93.15706277
H      69.19324811     101.93459662      93.06257644
C      71.95791770     104.95437927      93.32335868
H      70.61054284     106.48694731      93.26666690
C      74.46558452     105.54397387      93.53878749
O      75.17423189     107.92502903      93.55768474
H      73.72670153     108.95870931      93.20997511
C      76.30050877     103.65046811      93.49721350
H      78.28094194     104.10211270      93.30446141
C      75.70335525     101.15224991      93.40083745
H      77.28694591      99.87101547      93.26666690
C      72.67412397      93.25130420      91.91740230
O      70.65400654      92.14770404      91.97031465
N      74.75093319      92.11179923      92.56935788
H      76.42145125      93.03587540      92.60904214
C      75.00037707      89.38303444      92.51455581
H      73.20513708      88.61769528      93.17218057
C      75.81484911      88.62714392      89.85004172
H      77.54961786      89.66838311      89.46264783
C      76.31373686      85.83034897      89.31524917
H      74.73959483      84.59068851      89.78957048
H      78.10897686      85.28799752      90.16562601
H      76.68790266      85.50531605      87.31591873
O      74.07252145      89.29043785      87.98299213
H      74.34086258      91.03276551      87.55024479
C      77.20757740      88.38903840      94.38349515
O      78.93100781      89.83278930      95.02789182
N      77.33418907      85.87003323      95.00332538
H      75.94146077      84.72674880      94.38160541
C      79.23714347      84.73619743      96.79100647
H      80.98325057      85.81523117      96.62849001
C      78.23936797      85.08390707      99.51788153
H      77.54583841      87.02276627      99.56512470
C      76.01327037      83.45118354     100.14527068
H      74.65266743      83.68173015      98.61270264
H      75.11376065      83.97085828     101.92161340
H      76.61609307      81.49342708     100.36069947
C      80.43522995      85.12359134     101.50020444
H      82.03771786      86.15916135     100.72352692
H      81.03427318      83.17150405     101.77799420
C      79.81539972      86.07223394     104.18928499
H      78.09574878      85.14059887     104.83368165
H      79.44123390      88.09613083     104.14015209
H      81.49914587      85.72452429     105.32501049
C      79.65855243      82.01310182      96.12582281
O      78.36031045      80.85847904      94.51388625
N      81.52182257      80.82257424      97.35225518
H      82.97124265      81.91105660      97.95318815
C      81.94890072      78.07869163      97.03478115
H      80.27082376      76.99776818      97.54311753
H      83.28304750      77.70452583      98.55979029
C      83.02415500      77.26799904      94.52900407
O      84.43578056      78.63049172      93.19674701
N      82.13976308      75.02867337      93.71453203
H      80.96057386      74.03467733      94.84080891
C      81.98291579      74.10648692      91.13316589
H      83.46068178      74.78300894      89.86704926
C      82.16621925      71.13016798      90.99710559
H      80.41633268      70.55758092      91.91929204
C      82.42322203      70.11160550      88.23999489
H      80.87742590      70.63694942      86.98710636
H      82.82006455      68.08959834      88.21731819
H      84.30349971      70.69931039      87.63339275
C      84.22602093      69.89617671      92.72620517
H      84.14476269      67.83826475      92.71486681
H      83.80461196      70.52356583      94.64238765
C      86.79226926      70.62750078      92.06669068
H      88.05649616      69.80924930      93.47075734
H      87.35729743      72.60982368      92.05724205
H      87.42721730      69.70909380      90.33381166
C      79.42800583      75.06079872      89.90484378
O      77.58930212      73.77200537      89.91807187
N      79.36942430      77.33602919      88.77100799
H      80.89632317      78.47742388      88.82581006
C      77.30017399      78.50576978      87.40095641
H      77.02238422      77.30768330      85.75122534
H      77.96157820      80.42006253      87.02679061
C      74.63754962      78.62293281      88.62171961
O      72.80073565      78.80434655      87.48221464
N      74.75849210      78.70041159      91.10481999
H      76.36475946      78.45474717      92.10637493
C      72.47381298      79.16150482      92.63360858
H      71.04895934      77.91806490      91.82291599
C      72.59853492      78.26955399      95.55701519
H      73.99504268      79.40527950      96.55857012
H      73.13143774      76.28345164      95.66661931
C      70.00016124      78.55679240      96.74187359
N      68.02539724      76.91084077      96.29022900
H      68.22381852      75.18930011      95.49276449
C      66.09220723      77.60626005      97.69240591
H      64.49349876      76.36093041      97.93240116
N      66.61944088      79.67173091      98.86214650
H      65.47237699      80.70730093      99.98086449
C      69.16679194      80.29723033      98.36892793
H      70.08897838      81.94696140      99.14371572
C      71.55540601      81.90349769      92.56368871
O      72.54373287      83.50787533      94.02255741
N      69.64300298      82.47797449      91.06135628
H      68.83042065      80.86036877      90.45475414
C      68.12744247      84.84769130      90.88939118
H      69.34064677      86.31600864      90.10704449
C      65.86921953      84.46029739      89.05257722
H      64.61633097      82.87292729      89.43430192
H      66.59298470      83.76865756      87.25166803
C      64.34798985      86.82434501      88.53668193
H      63.42958285      87.30244577      90.31680411
C      66.01283872      89.11658304      87.64851057
H      64.87711322      90.79843945      87.29891119
H      67.01439368      88.64604117      85.91185208
H      67.45469990      89.60602214      89.03556968
C      62.35810804      86.21018396      86.62427891
H      60.89545986      87.65960404      86.61483026
H      61.39434762      84.53777618      87.33859545
H      63.20470543      86.16105108      84.74589095
C      67.11076972      85.44673454      93.38382993
O      65.88244761      83.96707883      94.63482874
N      67.46792799      87.83156913      94.30979582
H      68.53562335      88.96540493      93.20619565
C      66.26228260      88.95406657      96.62849001
H      65.81063801      87.45551360      97.97019568
C      68.03862534      90.66615860      98.05523336
H      67.29218343      91.38992378      99.83346582
H      68.39200415      92.40092737      97.00265581
C      70.50282845      89.21673852      98.90938966
H      71.18501965      88.16794042      97.27288667
C      72.63821917      91.04032442      99.65016238
H      71.91067455      92.15526295     101.22052494
H      72.86309661      92.10613005      97.90027582
H      74.45991535      90.10868935      99.89015761
C      70.03606605      87.18528274     100.77265980
H      69.01183439      87.94117327     102.39404498
H      71.70280465      86.21963259     101.50020444
H      69.01372412      85.47130097     100.26810288
C      63.73004933      90.22018320      96.13716117
O      61.74772643      89.47941049      97.04800925
N      63.73004933      91.84534783      94.27767046
H      65.45725918      92.50108285      93.80523890
C      61.47182640      92.96595553      93.20052648
H      60.10933372      91.46740257      92.82636067
C      60.35121870      94.86324074      95.07702470