 %block lattice_cart
   140.777   0.000   0.000
   0.000 144.511   0.000
   0.000   0.000   162.462
 %endblock lattice_cart

 %block positions_abs
N      88.67821613      40.23786709      83.45898733
H      88.45144896      38.86025659      82.15885562
H      87.68422008      39.80511975      85.03123962
H      90.44322049      40.32668422      84.17897305
C      88.01870163      42.81545377      82.66530227
H      88.93710863      44.06267313      84.02212577
C      89.11474290      43.27843671      80.13306901
H      88.09807015      42.15971875      78.73467154
H      91.14241924      42.92316818      80.15952518
C      88.91632164      45.97507617      78.99356405
H      86.89998367      46.39648514      78.91797500
H      89.90086905      45.91649465      77.18509597
S      90.64542121      48.36935940      80.80770131
C      94.01291351      47.81944904      80.20487861
H      94.95588693      49.59012261      80.68297937
H      94.29826217      47.24119280      78.24901188
H      94.51747042      46.19806388      81.36706030
C      85.02348543      43.32756960      82.76167832
O      83.49847629      41.93295158      81.59193773
N      84.14287297      45.11336096      84.19220114
H      85.48457866      46.12436455      85.09926977
C      81.51993284      45.83523641      84.45487309
H      80.56184160      45.71807338      82.63506665
C      80.29727992      44.30455810      86.56758711
H      81.00970674      42.38081671      86.38239393
H      78.24692687      44.34613208      86.36727612
C      80.89821290      45.15871440      89.28123410
O      79.19745921      45.67083023      90.77222816
N      83.21690707      45.33256923      90.14294929
H      83.59296262      45.80122135      91.95519683
H      84.79293882      44.89793217      89.15651216
C      81.20245883      48.60368546      84.96887865
O      83.08840568      49.71106509      85.59248833
N      78.90266191      49.78854386      84.79880328
H      77.36442468      48.66793617      84.62494846
C      78.40755361      52.51352920      84.85171562
H      79.29950443      53.48673826      83.27001469
C      75.61642785      52.97462244      84.45865255
H      75.33485863      51.92960378      82.70498653
C      74.02527829      51.63102702      86.38239393
H      74.33897286      49.60524041      86.58648437
H      72.09397799      51.88991952      85.71532054
H      74.07630091      52.49085249      88.25322298
C      74.62432154      55.66370298      84.22243676
H      75.33107917      56.61990449      85.90051372
H      72.57018902      55.75818929      84.33959979
C      75.28005656      56.71061135      81.54658430
H      77.30395344      56.59911750      81.18564657
H      74.50715851      58.60600684      81.31036851
H      74.47314342      55.49173787      80.09527449
C      79.34863731      53.85712462      87.28946256
O      80.35019227      55.93393384      87.22521187
N      79.32029141      52.62313334      89.48910399
H      78.58707761      50.86946731      89.66484854
C      80.32373609      53.63035747      91.97220437
H      79.97413672      55.65236461      92.15928727
C      79.25604072      52.02786955      93.96964508
H      79.58485311      50.00964185      93.70697312
H      77.20568768      52.19794491      93.84492314
C      79.85697369      52.77242171      96.77777838
C      78.52660636      54.69427337      98.04011556
H      76.99781778      55.70527696      97.14060583
C      79.27871744      55.27630908     100.64037896
H      78.35086183      56.82777438     101.58524212
C      81.02482456      53.71917459     102.02176890
H      81.44623352      53.95350066     104.00598153
C      82.28716173      51.86724281     100.68384267
H      83.58162426      50.51419877     101.49831471
C      81.65032396      51.30599410      98.12893269
H      82.87864606      49.98885485      97.17084145
C      83.24714270      53.81366091      91.95330710
O      84.32239696      55.33489060      93.26477716
N      84.55861275      52.37368946      90.32625275
H      83.62130851      51.44016466      88.95053199
C      87.35162825      52.63258196      89.92185132
H      88.39853662      53.54720950      91.44308100
C      88.34940374      49.86602265      89.42863275
H      86.81872542      48.95139511      88.39873191
H      88.33995512      48.76242247      91.16907068
C      90.84951165      49.41248834      88.12283187
H      92.31027009      50.26097544      89.30013136
H      90.91376235      50.10223844      86.18397267
C      91.07060964      46.51742762      87.74110715
O      93.24379490      45.60280008      87.26300639
O      89.16576552      45.15871440      87.84126265
C      87.71445571      54.51663910      87.70709208
O      89.11852236      56.39502705      87.89039553
N      86.36897056      54.17081918      85.48099448
H      85.20678889      52.67415594      85.23344033
C      87.11541246      55.44260499      83.02246055
H      89.06749974      54.82466449      82.79191394
C      85.44867386      54.17648836      81.02313011
H      83.58540371      54.93426861      81.46154661
H      85.60930058      52.12235587      81.00234312
C      86.23291027      55.26119126      78.41530780
H      88.20578455      54.86056930      77.98633992
H      86.04771709      57.30776486      78.27168860
S      84.43578055      54.18404727      75.71677862
C      81.56339655      56.11534756      75.94732523
H      80.07996139      55.38780293      74.71900313
H      81.86764249      58.05231704      75.31615664
H      80.81884439      56.10778865      77.86728717
C      86.77148228      58.37734995      83.19631537
O      88.19633591      59.80598305      82.04736177
N      84.87986624      59.19182199      84.62116901
H      83.45690232      58.25451775      85.48288421
C      84.26570519      61.79775458      84.77801629
H      84.01437158      62.52718895      82.86750299
C      81.83740686      62.04341901      86.30680488
H      81.65599314      64.03708027      86.79057482
H      81.91488564      60.86800924      87.99433048
C      79.50737433      61.46327303      84.64951490
H      79.60752981      59.60945152      83.75378463
C      77.18868013      61.48972919      86.45231381
H      77.04506094      63.29630755      87.42741258
H      77.47213909      59.89857964      87.73165852
H      75.46524974      61.00973871      85.42808214
C      78.84597012      63.39835278      82.68230981
H      80.01949015      63.33599181      80.99100476
H      79.07084754      65.24839483      83.56103255
H      76.86175748      63.37756579      82.12673028
C      86.19133629      63.40591167      85.94208770
O      86.28204315      65.69625996      85.66618766
N      87.96956875      62.18892793      87.44253039
H      88.04326808      60.28975298      87.62961330
C      90.06149579      63.42291921      88.86927376
H      89.62496900      65.21060030      89.79901911
C      91.42398845      61.67870183      90.72687473
H      92.86962908      62.74450746      91.73787830
H      92.35751325      60.17447968      89.67618690
C      89.52481350      60.60344756      92.63360858
H      87.84673654      59.91558717      91.66228925
H      88.84829149      62.08310325      93.89783548
C      90.54715544      58.35656296      94.25310403
H      92.24601940      58.99718019      95.22253362
H      91.30682542      57.01674701      92.88494218
N      88.70845174      57.24918335      95.99921114
H      87.25903167      56.19471606      95.33969666
C      88.20578455      57.75751972      98.33113341
N      89.37552514      59.55653917      99.50843290
H      89.09395592      59.64157687     101.39626949
H      90.98557195      60.28030435      98.78844718
N      86.69589321      56.29487156      99.65961101
H      86.16488012      56.77675177     101.42650511
H      86.33495550      54.61301515      98.82813143
C      92.14397418      64.36967209      87.03434951
O      93.32694285      66.24617032      87.58803932
N      92.35373380      62.97505408      85.00100400
H      91.38619392      61.33477163      84.86305398
C      93.95244227      64.03519055      82.82970846
H      95.20911025      65.53374351      83.47221541
C      95.58705553      61.82799021      81.91130148
H      96.80970844      62.33065740      80.33338000
C      97.24812496      60.96627500      84.17141415
H      98.85061286      59.92503580      83.40418526
H      96.27491589      59.63779741      85.40918488
H      98.16842167      62.50262251      85.18430745
C      94.20188613      59.66047412      80.65463348
H      92.69577426      60.53163795      79.55292304
H      93.45733397      58.40002668      82.10027411
C      95.73634390      57.88791084      78.89151883
H      97.34261126      56.98084221      79.81181554
H      96.54892621      59.01229801      77.36650969
H      94.67620744      56.46116747      77.85216936
C      92.39908723      65.26162292      80.69620746
O      93.44032644      66.77340396      79.16930860
N      89.89708960      64.77596325      80.54124990
H      89.33773060      63.06954040      81.18375684
C      88.17554892      66.33309773      78.94065171
H      89.11096345      66.34443610      77.10572746
C      85.53938071      65.00650986      78.85183457
H      84.67577579      65.57909693      80.63384649
H      85.84929583      62.97127463      78.76112771
C      84.06161474      65.91168876      76.42731572
O      85.28426766      66.33120802      74.42798528
O      81.74103082      66.12144838      76.70132603
C      88.01303246      69.08075980      79.69276278
O      88.52703801      70.80419020      78.23767352
N      87.51414471      69.53996328      82.16641453
H      87.17588370      68.08487403      83.35505238
C      87.10596383      72.05707874      83.15285166
H      87.72579405      73.58208787      81.91319120
C      84.17310860      72.41801647      83.69331339
H      83.96334898      74.01672493      84.97265810
H      83.45123313      70.66812990      84.50400598
C      82.51203917      73.13800219      81.25367672
H      80.61475394      72.42368565      81.61839390
H      83.23958379      72.15912395      79.59449702
C      82.35330215      75.86298754      80.64518485
O      83.21312762      76.74171027      78.62128796
O      81.49725613      77.43146038      82.16452480
C      88.61396543      72.45770072      85.64162122
O      89.35473814      74.64033461      86.25767200
N      88.92010108      70.49427508      87.28001393
H      87.79004475      68.96548650      87.09482075
C      90.24857868      70.86844088      89.78390130
H      91.68855013      72.32353015      89.55524441
H      91.27658980      69.21682010      90.46609249
C      88.28893250      71.96070270      91.68685569
O      86.92455011      73.75594270      91.08781245
N      88.36263182      70.97993475      93.99232179
H      89.56827721      69.54752219      94.36270815
C      86.69589321      71.53740400      96.14660979
H      84.83640253      71.59598552      95.26221788
C      86.72801856      69.43791807      98.25932381
H      88.72545927      69.30752696      98.74876292
H      86.28015343      67.70692877      97.23698187
C      84.97624228      69.85554758     100.54211320
H      85.83606775      71.53929373     101.36036469
C      82.32495625      70.28262573      99.66339046
H      81.83362741      68.70281454      98.43884781
H      82.26448501      72.05329929      98.61081290
H      81.09852387      70.29018464     101.31879071
C      84.84585115      67.67291370     102.43561896
H      83.50981465      67.97904936     103.97385618
H      86.66565759      67.06064237     103.18017113
H      83.95390033      66.03074152     101.56823458
C      87.42721730      74.00727629      97.50721274
O      89.51347516      74.13388796      98.67884305
N      86.00614311      76.12376977      97.10659076
H      84.54349494      75.91778960      95.89905564
C      86.75258500      78.74482017      98.01932857
H      88.81049696      78.67301056      97.97964431
C      85.82283967      80.73092252      96.18629404
H      85.73213279      82.62253856      96.99509691
H      83.92933389      80.22636558      95.55512546
C      87.79004475      80.70635608      94.00932933
H      87.99413519      78.70135646      93.58603064
H      89.66843270      81.25059726      94.65183628
C      86.83195352      81.93089873      91.58858992
H      84.80427718      81.69279321      91.31835906
H      87.77681667      80.81029102      90.14483902
N      87.46690155      84.57840529      91.28245426
H      88.40042636      85.48925338      92.67707228
C      87.07761794      86.04294318      89.28123410
N      85.97590750      85.23603005      87.23277077
H      85.58662387      86.44545489      85.80791713
H      85.07072858      83.56173254      87.08915157
N      87.53304198      88.37486546      89.30013136
H      87.37430496      89.24980874      87.61071604
H      88.72356955      89.26681627      90.49443839
C      85.76992732      79.33630450     100.68951185
O      83.61563932      78.70324618     101.32634962
N      87.29493647      80.43423549     102.22774907
H      88.85396066      81.08619107     101.33390852
C      86.93399873      80.67234099     104.98297003
H      85.30883410      79.52527713     105.51776258
C      89.23757511      79.66889633     106.30388872
H      89.14119906      79.91645048     108.34668287
H      90.85140139      80.73092252     105.58957218
C      90.01992180      76.86643221     105.64626397
H      90.74746644      76.87210139     103.72063285
C      92.24790913      76.29762459     107.39992999
H      91.52603368      76.15967457     109.32556110
H      93.73890318      77.70169123     107.20150872
H      92.80348867      74.35498594     106.99552855
C      87.87697216      74.96158809     106.05066540
H      88.53648664      73.03406725     105.73130165
H      86.40865482      75.30173882     104.64848847
H      87.16832479      75.47937309     107.91393554
C      86.49936168      83.45401813     105.87681058
O      86.07795272      83.80172778     108.15771024
N      86.84140214      85.32862664     104.19873361
H      87.79571394      84.82784917     102.62459159
C      86.09684997      88.04794279     104.55589188
H      85.16710463      88.20667981     106.38892641
C      88.54026611      89.79782936     104.51620763
H      89.98212728      89.24602929     105.88247976
H      87.88453107      91.72723994     104.81667412
C      89.85173617      89.73168895     101.95751820
H      88.50058184      90.17199518     100.47030360
H      90.75124589      87.92700032     101.53044006
C      91.86429469      91.76314473     101.76665585
H      92.82994483      91.55527484      99.95818776
H      93.33261204      91.25480836     103.11969989
C      91.24068500      94.61096228     101.93862094
H      90.37519036      94.89631096     103.78677327
H      89.68921969      95.17032128     100.70651938
N      93.51024631      96.27770090     101.45863046
H      95.00124037      95.98290359     102.61325323
H      92.90931334      98.08994843     101.38682086
H      94.32093889      95.72968026      99.82023774
C      84.01248186      88.72257509     102.72663681
O      83.97846678      87.78527084     100.49864949
N      82.27393364      90.36852672     103.50898351
H      82.27582337      90.98646722     105.31367214
C      80.37664842      91.38519946     101.72697159
H      79.26359963      89.79027045     101.04478039
C      78.62865159      93.32405867     103.03088275
H      79.66233188      95.02481235     103.55622666
C      76.43845880      94.22545812     101.18839959
H      75.16667298      95.65598094     101.94995930
H      75.40477849      92.59084486     100.48164195
H      77.20190823      95.40842679      99.68417745
C      77.18679041      92.14486944     105.25320089
H      78.32251593      91.42299399     106.81033538
H      76.00004229      90.61230140     104.55589188
C      75.36320452      94.18388413     106.55144287
H      74.47125371      93.20311618     108.12558489
H      73.80229059      94.91520823     105.42138654
H      76.63310061      95.61062750     107.32623066
C      81.52560202      92.58706541      99.28544520
O      83.37186464      93.96845534      99.20229724
N      80.35208198      91.76503446      97.13304693
H      78.88376464      90.55371990      97.26721749
C      81.16088484      92.32061400      94.63293901
H      82.07551238      94.16687660      94.59892394
C      82.74069604      90.22868697      93.51989022
H      83.96901815      89.47846562      94.99387674
H      83.80272224      90.92977543      91.90417422
C      81.31962186      88.03282499      92.60526268
C      80.77349095      87.85141127      90.04468353
H      81.42544653      89.41232520      88.90328883
C      79.82673808      85.71602053      88.86927376
H      79.64154490      85.45712803      86.85482551
C      79.19179003      83.61842433      90.41318016
O      77.93512204      81.49437194      89.69508416
H      77.42111647      81.53783566      87.95653595
C      79.77193600      83.69401337      92.96431068
H      79.44312362      81.98192134      94.02822659
C      80.83396219      85.82940411      94.18129443
H      81.35741638      86.00703839      96.14660979
C      78.79305777      92.98012848      92.86226546
O      76.67278486      92.42265922      93.50477241
N      79.11998044      94.20467113      90.73254390
H      80.84530055      94.92654658      90.35459864
C      77.14332670      94.64497736      88.77289772
H      75.35564561      94.12719234      89.65917936
C      77.06962738      97.37752160      87.69197427
H      76.23436835      97.22634351      85.81547604
H      78.98769959      98.03325664      87.32347764
C      75.80540047      99.14630544      89.54957523
H      77.16600342      99.41842603      91.07269464
H      74.22747900      98.11262515      90.37538563
C      75.17045243     101.67475925      88.36282711
H      73.81173921     102.61206350      89.59492866
H      74.47314342     101.58972155      86.42774736
C      77.46646990     103.45866089      88.18519283
H      78.51715773     102.91630943      86.49766724
H      78.56440090     103.33582868      89.92374104
N      76.68034377     106.04002703      87.69386399
H      75.43312439     106.58993738      89.02612104
H      75.94901967     106.21010240      85.94019797
H      78.21480152     107.17386282      87.80346812
C      77.44757265      92.93288532      86.45042408
O      79.53005104      92.61163185      85.51878901
N      75.39344014      91.81416735      85.77579179
H      73.83630565      92.15431808      86.82458989
C      74.99659761      90.21923834      83.52890720
H      76.25137588      88.58840453      83.61961406
C      72.33019379      89.26303682      83.70276202
H      70.97337029      90.77859733      83.38717773
H      71.94468961      88.48446958      85.56981162
C      71.61020806      87.21079405      81.87539668
O      70.50282845      87.87597770      79.82504363
O      72.15255952      84.94312247      82.37617415
C      75.43501412      91.63842279      81.09493971
O      75.33674835      93.93255054      81.09871916
N      75.76382649      90.27593013      78.92931335
H      75.58619222      88.37486546      78.95954897
C      76.30428822      91.41354537      76.42542599
H      77.98992409      92.58706541      76.59550136
C      76.75971226      89.37075121      74.49223597
H      76.71246910      90.08695750      72.56093568
C      79.32596059      88.17833392      74.70766477
H      79.43934418      86.83473851      76.26290953
H      80.73947588      89.55405468      75.30103883
H      79.73792094      87.14843307      72.97100629
O      75.08352503      87.41110504      74.51491269
H      75.73359088      86.31317404      75.80559576
C      73.99315294      93.10674014      75.73378616
O      74.10653652      95.19866717      74.56404557
N      71.73492999      92.38108524      76.55203765
H      71.47603749      90.77103842      77.54225424
C      69.48804541      93.93066082      76.26668898
H      69.70725366      94.77347875      74.39774965
C      67.13155670      92.24313522      76.30448350
H      66.73282445      91.37386111      78.12995912
H      67.20903548      90.73702334      74.90230658
C      64.74672209      93.79460051      75.69788136
H      65.09065229      95.45189050      74.52058187
H      63.96248567      94.53348351      77.45343710
C      62.51117586      92.16943588      74.78892300
O      61.39434761      92.68911062      72.85006380
O      61.89323536      90.35718836      76.18165129
C      69.39733854      96.04904400      78.37373382
O      68.10476575      97.98601348      78.12806940
N      70.85242781      96.10195635      80.42975605
H      72.24704582      94.81694246      80.65463348
C      71.17368128      98.35262039      81.90563230
H      71.00360592      99.98156447      80.65274375
H      73.15033500      98.09750734      82.41963785
C      69.62599543      98.53214439      84.33015116
O      69.84142424     100.38596589      85.77768151
N      68.18602398      96.49312970      85.04824716
H      68.02917669      94.99457673      83.87661684
C      67.27517590      96.04337483      87.58992905
H      66.28117986      97.68176754      88.34204012
C      65.04151939      94.04593412      87.38016943
H      64.25350352      93.76247516      89.26233683
H      65.65568045      92.16565644      86.81136181
C      62.84376769      94.47868145      85.61516505
C      61.54363599      92.43021812      84.50400598
H      62.31842379      90.54238154      84.55124913
C      59.18903700      92.77225859      83.25867634
H      58.14401836      91.23969055      82.40829950
C      58.16291561      95.32149938      83.16607975
O      55.82154471      95.73534944      82.34593853
H      55.57965974      97.52869972      82.42908649
C      59.43659115      97.37374216      84.18842168
H      58.61833967      99.24268147      84.23188539
C      61.75150589      96.95989210      85.47154585
H      62.60377245      98.67387385      86.17641376
C      69.42190500      95.16843155      89.41729439
O      71.26438814      94.01191904      88.68408058
N      69.05907754      95.65976038      91.86637969
H      67.64745199      96.87107495      92.29912702
C      70.71825724      94.62230065      93.73153956
H      72.67034452      94.69222052      93.07580453
C      70.49904899      96.33250296      96.12393308
H      71.62910532      95.59739941      97.68106756
H      68.61310212      96.34951050      96.94974347
C      71.37210254      99.07071638      96.07480019
C      69.59387008     100.87351528      96.81935236
H      67.77028419     100.21400080      97.45241067
C      70.21936949     103.42842527      97.00832499
H      68.88333299     104.87028643      97.55445589
C      72.68357260     104.15408016      96.54534204
O      73.19001926     106.68442370      96.80612427
H      71.61776696     107.53480054      97.10470103
C      74.52038659     102.32860455      95.64583232
H      76.41011289     103.00512656      95.28111514
C      73.78906251      99.86251171      95.41906516
H      75.21013669      98.47545260      94.94852331
C      70.14944962      91.81605707      94.15672798
O      68.06130204      90.83906857      94.40428213
N      72.16956705      90.40821097      94.52900407
H      73.85898238      91.28693370      94.64805683
C      72.30184790      87.68322563      94.80112466
H      70.48204146      87.03127004      95.51166175
C      72.76105139      86.21679801      92.28211948
H      72.70058015      84.21746757      92.78667641
C      70.45558528      86.68733986      90.41884934
H      68.64522747      85.89554453      91.00466449
H      71.04140044      85.47224584      88.86171485
H      70.33653252      88.69611893      89.97476365
O      74.82463252      87.15410225      91.14072479
H      76.24948617      86.89898921      92.23298660
C      74.30684751      86.56261792      96.58691602
O      76.10964641      87.88353661      97.18406954
N      74.12354405      84.14187852      97.31257093
H      72.64766780      83.15355165      96.61148246
C      75.82051828      82.74159132      99.00387598
H      77.64032472      83.67700584      98.76766019
C      74.93612637      83.26882495     101.80822983
H      74.72636675      85.31350882     101.94051067
C      72.39066503      82.00648777     102.43939841
H      70.81841274      82.67923035     101.29422427
H      71.92201291      82.58852349     104.35936035
H      72.64955753      79.96369363     102.54144363
C      76.90900064      82.48836798     103.82456780
H      77.00348695      80.46258137     104.18361580
H      75.96602721      83.31228866     105.46107079
C      79.47146953      83.82251477     103.64315407
H      80.50703954      83.15922083     101.98964355
H      80.62420257      83.46346677     105.31178241
H      79.02171466      85.82940411     103.51276296
C      76.02271900      79.87676622      98.03633610
O      74.31629614      78.94324142      96.73998385
N      78.03527752      78.50104547      98.93773556
H      79.43745445      79.43834972      99.82968638
C      78.34519264      75.82897245      98.25365463
H      76.66900541      74.64600379      98.43506836
H      79.69067777      75.04095659      99.59725004
C      78.98958931      75.27150320      95.49465421
O      81.08907525      76.00471701      94.74065341
N      77.18112124      74.35309620      94.06224167
H      75.60886894      73.68602283      94.91450824
C      77.15655480      74.12632905      91.21631384
H      78.44534813      75.57385941      90.51900483
C      78.05039533      71.57708826      90.43207742
H      76.80128625      70.03507158      90.97442887
C      78.53605500      71.56008071      87.51811945
H      76.75026364      71.76984033      86.51278505
H      79.42233665      69.80452498      86.90773785
H      79.62264762      73.16067890      86.81703098
C      80.78482931      70.82686691      91.26733645
H      81.35930612      71.60543415      93.08525316
H      82.36841996      71.41457180      90.09003696
C      81.09852387      68.00928497      91.46764744
H      80.63932038      66.96048688      89.75555540
H      80.13098400      67.44425681      93.19674702
H      83.12053103      67.79952536      91.79645982
C      74.40889273      74.84253533      90.38105481
O      72.83286098      73.25516522      89.95586639
N      73.84197484      77.39555558      90.04657325
H      75.25360040      78.66545165      90.24877397
C      71.51950120      78.29317558      88.99588542
H      71.06596688      76.97792605      87.47843519
H      71.72548137      80.11487174      88.05858117
C      69.24616044      78.42734614      90.85348639
O      67.07864437      78.63521603      89.78957047
N      69.64678242      78.06640841      93.28367443
H      71.32863885      77.53917478      94.01688824
C      67.82886572      78.56151671      95.28678432
H      66.09787640      77.47114463      95.04300962
C      68.89467135      77.45980626      97.79256141
H      70.45180583      78.64844412      98.42939918
H      69.61465707      75.57952859      97.35225518
C      66.76117034      77.07997128      99.69551581
N      65.34954479      74.92379356      99.97708503
H      65.68213661      73.25705495      99.10781092
C      63.65068083      75.36598952     101.85925244
H      62.35432858      73.95058451     102.54711281
N      63.88500689      77.80940564     102.55467172
H      62.96093072      78.65411330     103.99653290
C      65.73504895      78.88654964     101.23375303
H      66.47204221      80.78194513     101.42272566
C      67.15612314      81.33941438      95.50410284
O      68.71325762      82.88898997      96.12582280
N      64.92813581      82.07073847      94.72175615
H      63.81130756      80.67612046      94.04901358
C      63.99839047      84.69556832      94.78411712
H      65.36088315      85.99570003      93.95263754
C      61.52473872      84.77115738      93.39894773
H      59.99972959      83.69401337      94.26822184
H      61.93480933      83.99825931      91.53567759
C      60.33610087      87.43189202      93.02856137
H      59.81453641      88.33329148      94.80679384
C      62.04252373      89.13453543      91.44119127
H      63.06486568      88.27282023      89.87460816
H      63.51462053      89.77137320      92.73187434
H      60.96726946      90.78237678      90.83269940
C      57.92481010      87.16922007      91.29946180
H      56.45649275      86.13931923      92.31424483
H      58.55597870      85.89932399      89.80279856
H      57.43348126      89.00981350      90.51900483
C      63.74516714      85.55728352      97.54689699
O      62.57353683      84.39888129      99.17206162
N      64.49160904      87.99880992      97.83413539
H      65.73693868      88.71690591      96.57746739
C      63.99461102      89.32350806     100.19440355
H      63.42013422      87.94022840     101.60980856
C      66.40779152      90.80316377     101.20540713
H      65.88055789      91.89920503     102.86836629
H      66.91990735      92.17699479      99.75787678
C      68.67924256      89.19689640     101.65705172
H      69.09309261      88.07628870      99.97708503
C      70.73715451      91.10740971     102.44317787
H      70.29306883      91.97290435     104.25920485
H      71.09242305      92.52092499     100.98997833
H      72.40767256      89.97357392     102.84946902
C      68.16334726      87.36386187     103.82267807
H      66.59109498      86.19412129     103.18206085
H      67.75138693      88.18778255     105.66327150
H      69.90945439      86.34529939     104.22896923
C      61.85733056      91.21134464     100.03377682
O      60.20382003      91.09985080     101.57390376
N      61.85355110      92.72501543      98.10625598
H      63.34454516      92.49257909      96.93651539
C      60.03752412      94.78292737      97.49398465
H      58.12701081      94.03648549      97.31068120
C      59.90524327      96.81438317      99.48197673