 %block lattice_cart
   140.777   0.000   0.000
   0.000 144.511   0.000
   0.000   0.000   162.462
 %endblock lattice_cart

 %block positions_abs
N      91.75185598      42.04255570      81.94531654
H      93.64347202      41.81011937      81.83949187
H      90.87880241      40.59502535      81.06281436
H      91.37957988      41.45296109      83.72165928
C      90.85234625      44.57100952      80.95698968
H      91.67815665      45.90515629      82.29302619
C      91.83500394      45.31934114      78.35861600
H      91.21517370      44.04377588      76.86384250
H      93.89102615      45.45162198      78.39641054
C      90.95439147      47.96306825      77.43265012
H      88.90403842      47.82133878      77.30036927
H      91.74618679      48.50164024      75.60717450
S      91.69894364      50.46695561      79.61717372
C      90.56510784      53.10690328      77.69154262
H      91.24729905      54.83978230      78.57026536
H      88.50908562      53.01052722      77.70855016
H      91.26808604      53.13146972      75.75457314
C      87.98941089      44.70895953      81.09871915
O      86.66471273      42.98930859      80.21243752
N      87.06533472      46.83301192      82.27223919
H      88.29365682      47.99519359      83.15474138
C      84.39137199      47.17127292      82.97710711
H      83.20084440      46.31900635      81.52768704
C      83.91894041      45.85602341      85.57170135
H      84.99608441      46.64592900      87.13828445
H      84.33656992      43.83779570      85.61138560
C      81.12781465      45.59335145      86.51089531
O      79.39493562      45.88247957      85.03123962
N      80.68750841      45.17383220      88.88628130
H      78.85447389      45.01698493      89.39461768
H      82.03110381      45.19272948      90.24310479
C      83.67138626      50.08334118      83.06592425
O      85.21151320      51.75952841      82.74467078
N      81.24875712      50.68616386      83.42875170
H      80.14137751      49.25564104      84.03913331
C      80.00153776      53.12580054      83.01301191
H      80.51743304      53.54531978      81.06470408
C      77.06868253      52.71950938      83.32292703
H      76.60192012      51.23040504      81.97744189
C      76.55089752      51.90881678      85.95531579
H      74.85392329      50.79576799      86.29924597
H      76.42428585      53.58500402      87.14395364
H      78.07779637      50.80710635      86.79624399
C      75.25454526      54.99851932      82.56136732
H      75.48131241      56.20983388      84.21298813
H      73.35914977      54.19349590      82.59349267
C      75.59280628      56.31754828      79.96299365
H      73.89961150      57.38524365      79.48111343
H      76.03878169      54.72828844      78.73089208
H      77.25576542      57.51941421      80.15574573
C      80.99175435      55.28575772      84.63250737
O      80.89537831      57.44760462      83.72354900
N      81.77221131      54.84167203      86.98710635
H      81.67394555      53.09178547      87.75055578
C      82.42416690      56.96194495      88.64061688
H      81.00120298      58.44915956      88.70675729
C      82.67739022      55.90558795      91.17473986
H      83.28777182      57.41547927      92.43329758
H      84.44617404      54.84923094      91.18796794
C      80.49853577      54.58088979      92.28211948
C      80.08090627      51.95228049      91.95708655
H      81.43395030      50.70506113      91.07080491
C      77.79622715      50.92804883      92.38416470
H      77.42962024      48.97407183      91.92307148
C      75.85925768      52.40014564      93.48776487
H      74.08291494      51.45717220      93.82980532
C      76.32602008      54.94560697      94.20964032
H      74.89549726      56.05109686      95.15639321
C      78.62770672      56.07944277      93.35359429
H      78.74298004      58.08822183      93.70130393
C      84.98852550      57.97105880      87.86015990
O      85.37969885      60.26518654      87.54268588
N      86.70817644      56.33833526      87.04001869
H      86.15070719      54.51285964      87.07592349
C      89.11190831      57.00918810      85.70209246
H      90.02086668      58.50207190      86.79246453
C      90.85045652      54.73773707      85.83059385
H      89.99818996      52.96706353      85.21643280
H      91.20950452      54.26152604      87.80346811
C      93.53764734      54.95505560      84.67030189
H      93.86079054      56.91848125      85.19942525
H      93.76252476      54.69049392      82.63884610
C      95.49918325      53.23162521      85.84382193
O      95.39902775      50.85434951      85.77390206
O      97.25851844      54.32010757      86.99844470
C      88.59601303      57.98239716      82.97710711
O      90.02275640      59.57732617      82.16830426
N      86.53621134      57.32477240      81.64485007
H      85.87858660      55.64858517      82.28168784
C      85.84646125      58.05609648      79.08994008
H      87.56989165      57.96349989      77.96933239
C      83.73374723      56.37612979      78.11862077
H      81.91205107      56.50463119      79.07104283
H      84.21940689      54.37679936      78.16775365
C      83.36525059      56.92604016      75.31804636
H      84.80900149      56.17581880      74.05570919
H      83.05155602      58.93859868      75.00624153
S      80.39082138      55.59000365      73.88563383
C      81.35836126      54.81899532      70.68065799
H      83.21029304      53.92515477      70.55782579
H      81.32056672      56.62179422      69.68288251
H      79.97697132      53.45650263      69.98901817
C      85.08490155      61.00406953      79.34316341
O      86.01275717      62.65002115      77.98256047
N      83.49186226      61.50295729      81.28391233
H      83.05722521      60.12534679      82.53302143
C      82.96840808      64.16936111      81.94342682
H      82.46574087      65.23894620      80.25401149
C      80.64404470      64.55675500      83.58370927
H      80.79900227      66.48427585      84.28668745
H      80.74608993      63.55520006      85.38083898
C      78.13448816      63.85188709      82.34404879
H      78.37637313      62.46104853      80.84360610
C      76.06523785      62.99395134      84.09960455
H      76.95529895      61.50673673      85.21265335
H      74.52889036      62.15113341      83.01679136
H      75.30367814      64.52085021      85.25233760
C      77.28411132      66.24994978      80.90218763
H      76.56601532      67.70503903      82.17208371
H      75.71941793      65.83609972      79.62851209
H      78.92817322      67.07764990      79.97811146
C      85.28143307      65.48650034      82.98844547
O      85.45150845      67.70503903      82.62939747
N      87.07478335      64.23172207      84.19787031
H      86.77053742      62.47049715      84.86305398
C      89.30655013      65.55453049      85.26745540
H      88.52420344      67.04741429      86.45420352
C      91.03753943      64.02952136      87.13261528
H      92.86112532      64.98950232      87.09860020
H      91.16037163      62.07932381      86.48254943
C      89.97929269      64.12967685      89.80657801
H      88.03854377      63.43803702      89.88027733
H      89.96228515      66.00995453      90.64561650
C      91.82177584      62.48750468      91.36560221
H      93.78898094      63.09788629      91.34670496
H      91.96917450      60.55242494      90.67396239
N      91.12824628      62.61978553      94.02255741
H      90.22117765      61.08532777      94.70663834
C      91.98996149      64.10700013      95.75354671
N      93.42237403      66.05341824      95.38316036
H      93.99874056      67.21371020      96.78533728
H      93.70772271      66.54663680      93.56335391
N      91.66303884      63.51929526      98.11570460
H      92.51152595      64.54541665      99.48008701
H      90.82589007      61.84688747      98.50309850
C      90.85612571      66.60143888      83.05080643
O      91.69705390      68.72549125      83.19064618
N      91.12446683      65.09910645      81.03446847
H      90.52731332      63.28874864      81.14596231
C      92.56443828      65.89090178      78.74600990
H      94.11401387      66.90190535      79.65307853
C      93.32032882      63.67992200      76.95643908
H      91.61957513      62.66702868      76.38952119
C      94.63557833      64.62478515      74.53380995
H      95.91303332      63.29441782      73.61729268
H      95.99240181      66.08554359      75.05348469
H      93.20127605      65.27107154      73.20344263
C      94.79620507      61.80153404      78.61183934
H      94.23117690      61.83176966      80.59416223
H      96.75585125      62.42703344      78.70443592
C      94.53164338      59.12379186      77.78413921
H      92.54554103      58.57388150      77.75957277
H      95.47650653      57.89546974      79.14096270
H      95.35745378      58.75907468      75.93409715
C      91.31721892      67.96582127      77.26824393
O      92.55687939      69.72137702      76.32904995
N      88.78687539      67.93180620      77.31737681
H      87.94216772      66.39734843      78.07515706
C      87.21084365      69.76295100      76.00023756
H      88.13869927      70.46781891      74.30137361
C      84.56144736      68.70848371      75.36528953
H      83.14226290      70.18435996      75.14041209
H      83.92460959      67.55764039      76.94888017
C      84.85813438      67.04741429      72.96722683
O      83.32556634      65.29374827      72.63463501
O      86.57778533      67.40268282      71.38363619
C      87.05777582      72.16479313      77.41564257
O      87.68327522      74.18869001      76.53314038
N      86.09779485      72.09676300      79.70977032
H      85.35891186      70.46781891      80.37873343
C      85.71984958      74.30774278      81.23100000
H      86.21306814      75.94991494      80.08960530
C      83.05344576      74.39844964      82.38184333
H      83.00620259      75.80062656      83.89173465
H      82.82478887      72.55407676      83.26812496
C      81.10135848      75.17512716      80.45054304
H      79.22297052      75.06363330      81.29336097
H      81.21285233      74.00916602      78.75923798
C      81.17694753      78.03995224      79.87417651
O      80.41538783      79.53094630      81.50501031
O      82.15393603      78.67490029      77.79736729
C      87.54154575      74.39089073      83.51756883
O      89.00797336      76.21447663      83.89551410
N      87.71729029      72.38400140      85.05391633
H      86.57400588      70.93836076      84.55313886
C      89.34434466      72.02873285      87.27245502
H      91.13958465      72.92068367      86.79813372
H      89.83567350      70.07286611      87.70142290
C      88.30121572      73.13044329      89.66106909
O      86.91037715      74.94836000      89.50233207
N      88.75097059      72.04574038      91.76622420
H      89.93582899      70.56041550      91.57914129
C      87.45839779      72.53140004      94.16428688
H      85.47796461      72.87910969      93.71642175
C      87.91382183      70.29963327      95.97653443
H      89.92449063      70.31286135      96.41495092
H      87.82500469      68.50439327      94.96742056
C      86.38503325      69.95192363      98.41239164
H      85.94661673      71.77550952      99.25898903
C      83.72051914      68.97304540      97.50721273
H      83.94917603      67.22882800      96.43762764
H      82.66416213      70.28451545      96.32046461
H      82.51676349      68.74627824      99.16450271
C      87.67571632      68.05463840     100.24164670
H      89.65614949      68.46281930     100.64415841
H      87.61713481      66.22349361      99.30056300
H      86.60802094      68.14345554     101.99909218
C      88.54121097      74.99938260      95.30001240
O      90.84667706      75.32630525      95.28489459
N      87.01242237      76.73037192      96.28267009
H      85.13403443      76.63021642      95.95196798
C      87.89303485      79.09819899      97.39382915
H      89.94338790      79.27394352      97.46752849
C      86.85935455      81.17878766      95.71386247
H      86.87447235      82.99859409      96.67951261
H      84.84679603      80.76304787      95.57969189
C      88.30688491      81.27327396      93.25910799
H      87.68327522      79.90133267      91.85693105
H      90.32511261      81.13343421      93.64461216
C      87.57934027      83.88109628      92.08369821
H      87.79476908      85.48169447      93.36493265
H      85.66315779      83.65621885      91.36938166
N      89.37647000      84.44612445      90.08247805
H      91.15848192      83.76204352      90.11271368
C      88.87758225      85.68956436      88.12661131
N      86.74597096      86.77804671      87.91874143
H      86.26031131      87.49803245      86.21987746
H      85.57056120      86.42655762      89.37949987
N      90.43282701      86.05617126      86.32003296
H      90.06810982      87.18622760      84.82525945
H      92.21861838      85.39476705      86.43908572
C      86.83478811      79.45346753     100.16605766
O      84.96584878      78.16089472     100.91249956
N      88.19350132      80.85186499     101.83657572
H      89.76386390      81.77216172     101.26209891
C      87.91004237      80.61942866     104.57667887
H      86.52676271      79.24181818     105.23808308
C      90.52353386      79.51015932     105.43083516
H      91.09612094      80.76115813     106.96340320
H      92.01641765      79.64244016     104.01731989
C      90.70872704      76.65478286     106.19806404
H      89.42938234      76.22014580     107.75330880
C      89.91126254      74.98993398     103.91716439
H      90.92604557      75.30929772     102.15216001
H      87.91760128      75.49071144     103.78677328
H      90.17771396      73.03028779     104.49353092
C      93.36379252      76.25227115     107.26764915
H      93.20316579      76.26927869     109.31989191
H      94.64124750      77.73192686     106.62325247
H      94.07810907      74.50616404     106.43616957
C      87.27131489      83.30095030     105.71051465
O      86.36802571      83.45968731     107.72685264
N      87.53776630      85.34374444     104.24030759
H      88.58845412      85.01871152     102.68317311
C      86.65715384      87.79094002     104.92627824
H      85.78599001      87.81739619     106.79332784
C      88.98718637      89.61263619     105.05855909
H      90.35723796      88.61486070     106.23018939
H      88.44861438      91.30961042     106.09223937
C      90.16826532      90.55560962     102.67750392
H      88.85490554      91.84818241     101.75720721
H      90.69360923      88.87564292     101.60980856
C      92.62868898      91.91243310     103.52032186
H      93.80976792      92.00502969     101.83657572
H      93.68693572      90.73135416     104.83746110
C      92.29420742      94.49190953     104.47463365
H      93.83622410      94.74513286     105.81822905
H      90.65581471      94.59206503     105.71996330
N      92.26019236      96.55927012     102.52254637
H      93.75685559      96.52714477     101.33957770
H      92.20728002      98.26191353     103.38426157
H      90.64258663      96.35140022     101.53421951
C      84.45940214      88.59029426     103.06489783
O      84.30444457      87.60196738     100.90116120
N      82.82667860      90.38553425     103.65638215
H      83.00053342      91.04315901     105.43839407
C      80.63648579      91.19433711     102.19562372
H      79.52721646      89.57862112     101.56256540
C      78.82990745      93.09351205     103.49386570
H      79.90327200      94.71867668     104.16849798
C      76.67939890      94.04026494     101.68350789
H      77.36725928      94.56938830      99.81645829
H      75.99342824      95.77503369     102.55845117
H      75.21486100      92.59084486     101.70996406
C      77.80189634      91.80849817     105.90893593
H      79.34202328      91.18299875     107.12780940
H      76.96474757      90.03782460     105.27209816
C      75.90650084      93.47901623     107.39804026
H      74.08669439      93.82105669     106.49853053
H      76.95151949      95.24024114     107.63236632
H      75.27155279      92.49446882     109.09123504
C      81.72874760      92.38486468      99.74464868
O      83.17816770      94.15742797      99.97708503
N      80.99175435      91.42299400      97.41839559
H      80.17917203      89.69956360      97.32390929
C      81.65882773      92.65509556      94.95041303
H      82.44117443      94.54293214      95.21497472
C      83.59390748      90.75214116      93.49910322
H      85.20395429      90.44600550      94.74632260
H      83.96618356      91.64220224      91.67740706
C      82.35802648      88.21612845      92.67518255
C      81.37347906      87.67188727      90.29223767
H      81.50953936      89.10807926      88.85037650
C      80.46830016      85.32295745      89.59303894
H      79.76910143      84.97713755      87.70709207
C      80.22452546      83.42189279      91.46575771
O      79.43461987      81.03327873      90.80435350
H      79.42139178      80.91800542      88.99399569
C      81.00687215      83.97180314      93.89027658
H      80.83112762      82.51671389      95.31135076
C      82.21818673      86.24514390      94.51577599
H      83.16116016      86.66277342      96.27511118
C      79.28911093      93.02359219      93.38571964
O      77.20285309      92.37163660      94.21719923
N      79.46674522      94.20278140      91.08592272
H      81.23741877      94.70544860      90.58514525
C      77.35970037      94.62419037      89.39650739
H      75.59658573      94.46167390      90.45286441
C      77.35781065      97.13941610      88.02267636
H      75.79500699      97.12807774      86.68286041
H      79.07179242      97.45311065      86.92285566
C      76.76065714      99.37685204      89.86515952
H      78.09669364      99.40141848      91.43363236
H      74.79156231      99.22189449      90.45475414
C      77.28978050     101.98656408      88.62171961
H      76.57735368     101.91475449      86.69230905
H      79.32123628     102.23789769      88.39306272
C      76.10303237     104.11061646      90.20342053
H      77.00254209     104.10116783      92.05535233
H      74.07157659     103.84038559      90.40562124
N      76.29389474     106.55970176      88.92974499
H      78.10425255     106.81670454      88.38739355
H      75.86114740     108.09226981      89.98232255
H      74.96730687     106.65796753      87.56347288
C      77.44095860      92.54738116      87.45953793
O      79.46296575      92.05416259      86.35971721
N      75.16194867      91.52314949      86.89639948
H      73.54812240      92.21289960      87.64662083
C      74.93518152      89.61641564      84.96131974
H      76.72664206      88.66399358      84.60794093
C      73.08136000      87.48669409      85.90051371
H      71.12171381      88.09140651      85.71343082
H      73.58780666      87.11063855      87.86204964
C      73.55757103      85.18311771      84.23755457
O      75.72697684      84.19857029      84.28668745
O      71.96075229      84.40266074      82.67286118
C      74.22842388      90.90709871      82.45932211
O      73.91283957      93.11051959      82.44798374
N      74.01677453      89.57295193      80.36172590
H      74.27377731      87.69267425      80.53936017
C      73.73520530      90.55183017      77.66319673
H      75.45107680      91.55716456      77.13029391
C      73.54434295      88.43155724      75.82260329
H      72.80357023      89.21201421      74.06704755
C      76.21452623      87.10874882      75.50890872
H      77.52977574      88.21045926      74.36562431
H      76.09169402      85.23980950      74.65097298
H      77.03655718      86.91977619      77.38729667
O      71.78311802      86.59663299      76.61817808
H      70.12204859      86.82151043      75.92086907
C      71.56579949      92.53982225      77.25690557
O      71.88327352      94.42954855      75.95866359
N      69.30757655      92.16376671      78.36428518
H      69.12427311      90.61230141      79.46032644
C      67.22131871      94.00624987      78.36050574
H      67.03234607      94.83772945      76.48589723
C      64.73632861      92.46990238      78.75167907
H      63.18486329      93.82105669      78.86695238
H      64.57948132      91.92377146      80.73211226
C      63.85571615      90.53482263      76.79581235
H      63.13384069      91.59684881      75.18387580
H      62.42519333      89.41043547      77.75957277
C      65.80780343      88.63375795      75.90575126
O      65.66040477      86.49647749      76.89407812
O      67.28934886      89.24980873      74.08783454
C      67.66729412      96.27770090      80.17086353
O      65.99866578      97.89908607      80.37873343
N      69.89528144      96.32305432      81.34816303
H      71.07258093      94.85662670      81.02313011
C      70.75321719      98.49623959      83.01301191
H      69.69119099     100.17431655      82.46310156
H      72.76199626      98.93087664      82.89584888
C      70.08425407      98.30159778      85.85516029
O      70.87982884      99.93054186      87.34426462
N      68.65184153      96.28714952      86.60349190
H      68.18507913      95.11551920      85.17296909
C      67.49721874      96.01124949      89.09793064
H      67.29501803      97.94632922      89.77823212
C      65.15962730      94.44466636      89.13761490
H      64.56814296      94.78292737      91.08025355
H      65.63772805      92.45667428      88.88628130
C      63.13195097      95.15142400      87.17040980
C      62.04535834      93.07083533      85.81736577
H      63.18486329      91.39275837      85.59059860
C      59.99311556      93.41287580      84.23944429
H      59.51879426      91.99747079      82.84671600
C      58.89518457      95.74101862      84.16574496
O      56.82404453      96.07738990      82.68230980
H      55.72233408      97.43610312      83.16607974
C      59.82870937      97.81971756      85.63406230
H      58.75534483      99.55070686      85.75689451
C      61.94898230      97.50413327      87.16096118
H      62.76912352      99.01780404      88.26267161
C      69.31513546      94.63552873      90.89317063
O      70.40172809      92.56627841      90.33948083
N      69.50599782      95.67109874      93.13816550
H      68.36460313      97.17721062      93.41406554
C      71.05935285      94.89631095      95.23954116
H      72.96041751      94.89820069      94.44585610
C      70.87793912      96.72178658      97.55445589
H      71.59414539      95.69188573      99.18717943
H      68.86349087      97.11107019      97.74531824
C      72.40294826      99.11795954      97.43351341
C      71.34848098     101.22689411      98.54089303
H      69.46442384     101.17587149      99.32701918
C      73.05868329     103.35283620      99.04356022
H      72.38027153     105.08193579      99.89204735
C      75.64571861     103.31693140      98.33113341
O      77.23875789     105.43909405      98.61459236
H      76.49231600     106.88473469      99.41772603
C      76.54144888     101.20421740      96.83258044
H      78.31212243     101.36484412      95.83102550
C      75.02588837      99.02536295      96.66061534
H      75.76288164      97.26413802      95.93873989
C      70.63227470      92.10896464      96.08046936
O      68.42507437      91.31716933      96.45463517
N      72.68829693      90.66143429      96.43573792
H      74.33046910      91.63275362      96.43951737
C      72.85648256      88.01392773      96.10314608
H      70.99888161      87.28638309      96.60770300
C      73.32135525      87.03315976      93.37249156
H      75.09202880      87.88542634      92.75266133
C      73.50843815      84.22880592      92.88872162
H      73.64260871      83.83574284      90.87238365
H      71.79067693      83.32740646      93.58414090
H      75.29422952      83.67511612      93.75610600
O      71.02155831      87.77393248      91.98543244
H      70.90439528      89.51626014      91.49788305
C      75.08258016      86.95190153      97.72642099
O      76.69640644      88.42210861      98.64671770
N      75.12415415      84.48391897      98.28389025
H      73.73709504      83.49937156      97.41650588
C      76.94585032      83.04583725      99.64260347
H      78.79211291      83.86030928      99.23820204
C      76.32035090      83.21024343     102.56223063
H      76.31090227      85.14721291     103.26142935
C      73.90906012      81.71924938     103.15560469
H      72.39727908      81.90066311     101.77043529
H      73.08136000      82.43923510     104.89793234
H      74.09992249      79.66700661     103.10836152
C      78.32346079      81.89499392     104.22141032
H      78.16094433      79.84653060     104.10613702
H      77.52410657      82.62442828     105.97507634
C      81.17694753      82.61497965     103.90393631
H      81.62481267      82.98725573     101.92728259
H      82.27865797      81.00871229     104.57289941
H      81.53977498      84.40644019     104.85635837
C      76.97041676      80.21691695      98.70718895
O      75.18273566      79.56685111      97.25776887
N      78.83557663      78.61820850      99.34213698
H      80.29822479      79.33630450     100.33424329
C      79.03399788      76.04818072      98.49553959
H      77.16505857      75.23181894      98.78844717
H      80.47018988      74.94269081      99.47063837
C      79.53099590      75.90267178      95.54567682
O      81.46229619      76.83619659      94.63671847
N      77.74520455      74.69135722      94.29089855
H      76.35814543      73.97704068      95.39071927
C      77.50142984      74.97859561      91.42418374
H      78.78077457      76.47525885      90.81947131
C      78.14582652      72.60698909      89.71965059
H      76.68317835      71.23126834      90.18452328
C      77.82079359      73.27784193      86.84726660
H      75.90461111      73.77861941      86.27656925
H      78.28755599      71.77173006      85.52067873
H      78.94329103      74.94269081      86.38617339
C      80.74797965      71.69803074      90.45853358
H      80.76876664      70.89111761      92.35392907
H      82.09157507      73.25894468      90.40751098
C      81.98008121      69.65334687      88.85982512
H      83.74319586      69.21493036      89.83114445
H      82.52243266      70.47159837      87.05135705
H      80.92939337      67.89779112      88.61794016
C      74.73487052      75.75716285      90.82891994
O      72.95663806      74.29451470      91.37127140
N      74.39660951      77.98326045      89.71776088
H      75.95752344      79.01694074      89.33792589
C      71.87949406      78.87710100      88.87116349
H      71.18218505      77.41445283      87.60126740
H      71.84169954      80.67234100      87.86582909
C      69.81213347      79.27583326      90.79112542
O      67.75989071      79.91456074      90.13728012
N      70.30724177      78.82607839      93.22698264
H      71.97964956      78.10609267      93.80145943
C      68.32680860      78.82607839      95.13560621
H      66.77534329      77.76783166      94.29089855
C      69.33214299      77.70736042      97.60358877
H      70.57936237      79.02638938      98.57490810
H      70.42440480      75.98015057      97.36359354
C      67.23265707      77.08941990      99.36670342
N      65.94197399      74.85576341      99.80889938
H      66.38228023      73.21359125      98.94340474
C      64.01823261      75.32819499     101.46618936
H      62.69731392      73.97704068     102.23719769
N      64.23933059      77.69413234     102.26365387
H      62.96376533      78.50860438     103.42772528
C      66.32180898      78.87521127     100.99564750
H      66.87171933      80.82918828     101.21296603
C      67.46887286      81.51893839      95.73842891
O      68.68396688      83.10819821      97.10092158
N      65.36182802      82.28427755      94.66884382
H      64.32436827      80.87832116      93.90350466
C      64.67207791      85.04894714      94.52333488
H      66.43141311      85.92578015      93.90539438
C      62.68597556      85.14532318      92.55235035
H      60.95687598      84.30817443      93.29879224
H      63.57036747      84.08707645      91.02356176
C      62.06614533      87.89487497      91.43741181
H      63.57603665      88.65076550      90.26011232
C      59.77201757      87.59818793      89.61193619
H      60.65074032      86.34718911      88.23243600
H      59.36761614      89.30272107      88.52723330
H      58.21488310      86.87631248      90.74955144
C      61.69386924      89.91688213      93.32902785
H      63.66674350      90.14931846      93.87704848
H      60.77357253      89.36508204      95.08647333
H      60.97010407      91.78015226      92.83014010
C      63.75556065      85.97491303      97.21808461
O      61.66174390      85.40610542      98.15727859
N      65.09726632      87.53771670      98.57679782
H      66.56936312      88.28982777      97.62815521
C      64.49255390      88.59785315     101.00320641
H      63.52690377      87.23536049     102.20885180
C      67.09281732      89.53704713     102.22396961
H      66.73376932      90.57261715     103.96818699
H      68.03768048      90.95812133     101.06934684
C      69.03734569      87.44889955     102.77576970
H      69.46442384      86.48702887     101.00509614
C      71.50154880      88.75659017     103.83023697
H      71.50154880      90.70678772     103.17072250
H      73.15694906      87.64921054     103.31245197
H      71.70941870      88.61297096     105.87303113
C      68.04712911      85.43634103     104.71840835
H      66.25566855      84.55005940     104.21574115
H      67.64272768      86.61364052     106.36058052
H      69.46631357      84.01526685     105.17950157
C      62.53668718      90.81072266     101.00320641
O      60.66207868      90.53482263     102.33546347
N      63.13950987      92.80627366      99.62559594
H      64.60026831      92.89509079      98.40105328
C      61.46521236      94.88308288      99.35914453
H      59.53958125      94.15553825      99.34213698
C      61.86016516      96.58572628     101.64571335