 %block lattice_cart
   140.777   0.000   0.000
   0.000 144.511   0.000
   0.000   0.000   162.462
 %endblock lattice_cart

 %block positions_abs
N      93.73228915      44.18645020      79.32426616
H      95.61634628      44.28660570      79.03891748
H      92.61168144      42.96757674      78.37373382
H      93.46961719      43.98235976      81.20643356
C      92.73262393      46.80372116      79.08238119
H      93.86456999      47.96212338      80.35416700
C      93.13891508      47.68622335      76.40274927
H      91.80287858      46.69033758      75.19143471
H      95.12312771      47.46134591      75.89441290
C      92.48884923      50.47734911      75.89630263
H      90.46117290      50.76647723      75.69221218
H      93.11812809      50.87419164      73.97634068
S      93.37702060      52.79226383      78.26035024
C      91.10934902      55.07505323      77.13974254
H      91.29454220      56.92131584      78.03358309
H      89.26119669      54.64041617      77.94476595
H      91.16793054      55.28103340      75.09127922
C      89.98685159      46.61474852      79.84583062
O      88.61491029      44.78360373      79.25623601
N      89.13836448      48.52715154      81.12328561
H      90.44605509      49.78004010      81.72232884
C      86.48140928      48.68966801      82.04169260
H      85.25497691      47.56717058      80.82470885
C      86.29999556      47.23457876      84.61927929
H      87.23352036      45.40154422      84.63817654
H      84.33090074      46.67333004      84.84604644
C      87.00864292      48.55549745      86.98332690
O      85.24741800      49.47012498      88.29101751
N      89.40481589      48.93155298      87.63339276
H      89.78465088      49.63075172      89.36816151
H      90.82400035      48.64620430      86.38806311
C      85.20395430      51.30315950      82.02657479
O      86.32456200      53.31760775      81.50123086
N      82.74731009      51.22379100      82.59916186
H      82.02921409      49.45500716      82.65207420
C      81.20151396      53.53870574      82.55569815
H      81.53410580      54.54970931      80.79258350
C      78.45763136      52.82816863      82.74467078
H      78.13070871      51.38630747      81.31036851
C      77.73764563      51.40520473      85.19753554
H      77.69796138      52.73368233      86.76978783
H      78.94896020      49.86507778      85.83059385
H      75.87815494      50.52837172      85.08415196
C      76.49231599      54.85206552      82.17775289
H      76.44318311      56.13141024      83.79157915
H      74.67250955      53.92232017      81.92830901
C      77.04789553      56.59061372      79.79669774
H      75.70430012      58.15152767      79.85338953
H      76.94018113      55.40197588      78.11862077
H      78.89037868      57.49768235      79.94787583
C      82.19739973      55.44354986      84.44731419
O      82.13125931      57.74145705      83.97110316
N      83.38981704      54.63474700      86.55435902
H      83.58445885      52.81683028      87.09671048
C      84.10413358      56.49045824      88.66329359
H      82.68872857      57.98523175      88.76911827
C      83.87925615      54.97300800      91.13883506
H      85.12836524      55.96133486      92.44274621
H      84.82978849      53.14942212      90.99332614
C      81.16938862      54.71222578      92.32936263
C      80.02421447      56.77202745      93.62382516
H      80.81978925      58.56915718      94.17373553
C      77.45607641      56.63596716      94.27200129
H      76.40727831      58.07593861      95.26788706
C      76.08602484      54.37207504      93.72776011
H      74.11693002      54.09050582      94.17751498
C      77.43717915      52.25747130      92.90005999
H      76.44318311      50.52081281      92.50699692
C      79.92594870      52.41620830      92.05724206
H      80.76120773      50.78537449      91.15773233
C      86.68927918      57.75657487      87.99433047
O      87.29966078      59.76724366      89.01100324
N      88.16893488      56.63596716      86.31247405
H      87.38280873      55.01080253      85.69831301
C      90.28920780      57.72633925      84.95376083
H      91.47595593      58.88852093      86.17263432
C      92.00318957      55.48323411      83.95976480
H      93.28442401      56.28636780      82.55947761
H      90.59912292      54.16042569      83.24166880
C      93.55843433      54.07349828      85.89106510
H      92.20728001      53.21745225      87.18741735
H      94.84155849      55.37362999      86.84348715
C      94.79998451      51.88519521      84.46810118
O      97.16214240      51.94755618      83.88984493
O      93.40536649      49.96145383      84.00133877
C      89.68449538      59.56504295      82.71065570
O      90.69360924      61.61539600      82.59160295
N      87.84768141      58.83182914      81.23477945
H      87.16549021      57.04792749      81.27824316
C      87.05210663      60.17164510      78.90663664
H      88.72073496      60.25479304      77.70477071
C      84.93750289      58.59183390      77.62540219
H      83.36903005      58.51435512      78.96143871
H      85.61024545      56.65864387      77.39107613
C      84.18350209      59.48378471      75.05726413
H      85.67071670      59.34394497      73.63618995
H      83.73563695      61.46421788      75.40308405
S      81.22230095      57.92098105      74.20121812
C      81.20340369      57.56760223      70.75624705
H      81.29977973      59.34205524      69.71311812
H      79.40438424      56.60762127      70.47845728
H      82.63959569      56.21266847      70.17421135
C      86.31322364      62.95143250      79.51890797
O      87.29777105      64.74100332      78.36239546
N      84.70695628      63.33504694      81.43131100
H      83.94539657      61.78925082      82.24956249
C      84.10035413      65.76712471      82.48010910
H      83.49753144      66.96899063      80.91919516
C      81.67016609      65.36083355      84.05992030
H      80.94829064      67.21843451      84.58337449
H      82.11425177      64.66919372      85.94964660
C      79.60280550      63.79047098      82.62183857
H      80.29633506      61.99145153      81.89807340
C      77.36725928      63.05536745      84.41140939
H      76.58869203      64.79958484      85.17674855
H      78.19873885      61.75145629      85.77390206
H      75.80256589      62.19743170      83.38150855
C      78.55589713      64.93186567      80.23133479
H      77.62237233      66.74411321      80.51479374
H      77.31623667      63.66952850      79.17308805
H      80.09413435      65.21154517      78.89151882
C      86.17527362      67.13906601      83.91441137
O      86.27542912      69.48421637      83.54213529
N      88.06688966      65.80491923      85.01234236
H      88.05177185      63.90196484      84.89328959
C      90.56510785      67.09182285      85.49233284
H      90.14747833      68.90973957      86.36349667
C      92.11657315      65.30036231      87.23843996
H      93.91370287      64.88462252      86.32381241
H      91.00541408      63.61661616      87.65040029
C      92.83466915      66.42852892      89.82547528
H      91.41548469      67.76645515      90.48687949
H      94.56376872      67.48866538      89.45886837
C      93.54142679      64.49533890      91.86071051
H      95.10423045      63.42575380      91.05379738
H      91.87468818      63.28780379      91.93063039
N      93.89102616      65.47043767      94.38160541
H      95.02108249      66.99544681      94.58002667
C      92.34900949      65.20776572      96.35070024
N      90.77864692      63.41441545      96.50376807
H      90.07755846      62.69820918      98.12704297
H      90.51219551      62.13318100      95.11481922
N      92.54554102      66.68742142      98.30845670
H      91.28131412      66.58915565      99.73142061
H      94.13669058      67.73244007      98.46341426
C      92.27719989      67.87794900      83.31914758
O      93.58678022      69.79980065      83.70276202
N      92.08822725      66.69687004      81.12139587
H      90.75785993      65.32681847      81.10249862
C      93.56221378      67.42252496      78.98600515
H      95.37635104      68.26723262      79.48489288
C      94.00252001      64.94509376      77.44209875
H      92.18271357      63.98133334      77.47044465
C      94.78108725      65.55736509      74.74545930
H      96.31932447      66.90096050      75.02135933
H      93.32221854      66.35671932      73.53036528
H      95.23084211      63.88873675      73.62485159
C      96.16247718      63.52024012      78.68175920
H      95.43304283      63.26890651      80.59227251
H      97.85000278      64.70131907      78.68364894
C      96.83710948      60.90107945      77.64052001
H      97.42859381      60.81226231      75.66953546
H      95.08911264      59.81637654      77.53847479
H      98.18259461      59.99968000      78.91041610
C      92.16759576      69.55035679      77.54981315
O      93.42615348      71.07158647      76.23267391
N      89.66370839      69.59004103      77.58949739
H      88.82844936      68.48833060      78.90663664
C      88.13680953      71.60826874      76.38952119
H      89.14781311      72.23754760      74.71144423
C      85.48174406      70.75600217      75.79614713
H      84.49530693      72.38116679      75.00246208
H      84.56522680      69.90562533      77.43076039
C      85.47229543      68.73588475      73.56627008
O      87.06155526      69.30091291      71.80315542
O      84.05122124      66.84993789      73.34328238
C      87.94216772      73.95719855      78.10350296
O      88.39570204      76.01511050      77.05092540
N      86.94817168      73.80979990      80.41463824
H      86.32645173      72.11660511      81.03824791
C      86.39448187      76.01133105      81.89429394
H      86.20550924      77.70830528      80.73967117
C      83.80555682      75.43496453      83.14340304
H      83.54288487      76.73131678      84.72132451
H      83.94350685      73.52445121      83.89929356
C      81.59079759      75.72598238      81.29903015
H      80.07334736      74.52978562      82.01145698
H      82.11425177      74.87560554      79.50001070
C      80.72908239      78.32435606      80.76045816
O      78.62581700      78.91961984      81.59004800
O      82.10858260      79.90416726      79.76079294
C      88.23885475      76.65572772      84.15251689
O      88.38436368      78.85347943      85.00667318
N      89.66559812      74.75844251      84.96509919
H      89.25741724      72.93296688      84.59282312
C      91.62335458      75.10804187      86.89073032
H      92.91970683      76.56313113      86.22743637
H      92.48129033      73.29201489      87.34615436
C      90.57266675      76.05290503      89.40406631
O      88.26909038      75.93763172      89.82736501
N      92.10712452      77.18296136      91.07836382
H      93.97606384      77.24154288      90.69285966
C      91.49485319      77.69507720      93.70697312
H      89.45961795      77.47397921      93.95263755
C      93.00852397      76.13227353      95.54189737
H      94.92092700      76.89950242      95.54567683
H      92.85545614      74.21987051      94.79734520
C      92.13358069      76.28912082      98.29144916
H      92.16570603      78.20719303      99.03789106
C      89.31032957      75.33858848      98.51065741
H      88.94750212      73.88916839      97.09147294
H      88.27098010      77.04312162      98.00421076
H      88.50152671      74.62994112     100.26810288
C      93.71150216      74.41640204      99.79945076
H      92.90836847      74.17640680     101.68161817
H      95.60878738      75.19307956     100.00732064
H      93.62079529      72.58903670      98.85647733
C      92.12035260      80.54856393      94.24176567
O      94.22739744      81.36303597      93.55957446
N      90.38180439      81.86381344      95.44930078
H      88.70939661      80.95296536      95.58158163
C      90.34023041      84.49431247      96.31857489
H      92.23373618      85.12737078      96.81557291
C      89.23285080      86.13459491      94.27767046
H      88.35979724      87.81078215      95.09592197
H      87.67193686      85.05745091      93.47642652
C      91.00541408      87.03788409      92.21408934
H      91.86146010      85.35224822      91.39394812
H      92.31310469      88.35880278      93.10037098
C      89.71473100      88.44573019      89.96720475
H      90.94683256      89.75153107      88.95809089
H      88.28987736      89.63625777      90.85537612
N      88.14058899      86.62970320      88.42896753
H      87.54910465      85.09146598      89.39083823
C      87.62658343      86.15160245      86.01956649
N      88.21050886      87.67094240      84.23755457
H      87.82878414      87.34024030      82.39507142
H      88.94939185      89.37547554      84.67786080
N      86.32267227      84.17494871      85.12383621
H      86.07700785      83.83668771      83.26056607
H      86.04488251      82.66883685      86.26334117
C      88.79443429      84.37148026      98.85269788
O      86.56266751      84.18439735      98.67317388
N      90.04165366      84.54155563     100.91060982
H      91.94649778      84.67005702     100.91249956
C      89.10812886      84.57179125     103.45796090
H      87.47540532      83.31512325     103.49386570
C      91.12824629      83.30567462     105.14548650
H      90.59534347      83.69684797     107.09757378
H      92.93860409      84.28644258     105.19083993
C      91.84634229      80.56557146     104.60124531
H      92.76096982      80.51454885     102.75687243
C      93.79087066      79.49787610     106.63270110
H      93.13324591      80.13660359     108.47707399
H      95.57855175      80.38037829     106.10924691
H      94.11212414      77.46642030     106.54766342
C      89.68449538      78.61348418     104.56723024
H      88.89458979      78.50010060     106.46640519
H      90.51030578      76.83336200     103.93606166
H      88.33334107      79.29756511     103.17450195
C      88.28042873      87.20418000     104.43872885
O      87.69461358      87.47252114     106.67616481
N      88.12358145      89.12225221     102.78332861
H      88.70372743      88.90493368     100.97675025
C      87.06722444      91.67149301     103.44473282
H      86.03354415      91.60535259     105.22485500
C      89.11757749      93.54988096     103.71685340
H      90.68038115      93.25130420     102.40916280
H      90.05677147      93.11524390     105.49886532
C      88.19539105      96.32210946     103.74897875
H      86.79888330      96.46383894     105.25698035
H      87.31666831      96.83611502     101.95562847
C      90.37235576      98.20994605     104.22518978
H      92.15436768      97.62791035     103.37481293
H      90.72006540      98.07955493     106.25097639
C      89.72228991     101.02941771     103.58079310
H      88.08956638     101.60389450     104.70140081
H      89.00230418     100.98217455     101.65138255
N      91.82933475     102.68481795     103.67716914
H      92.57766637     102.86056251     105.42516599
H      91.22273260     104.40068945     103.09891290
H      93.31843908     102.30309324     102.54333336
C      84.88459055      91.94550332     101.45107155
O      85.29088171      91.35212926      99.29867329
N      82.70573611      93.06989048     102.21074153
H      82.32023194      93.26453229     104.07023223
C      80.54955839      93.70861797     100.35692002
H      79.68784319      91.93605469      99.75031788
C      78.34991696      95.15992777     101.65138255
H      78.92061431      97.09122807     102.08412986
C      76.08980429      95.20717094     100.06401243
H      76.49231599      95.58511620      98.08168954
H      74.76888560      96.50919237     100.95596326
H      75.02966783      93.44594601      99.93362133
C      77.64126959      93.80121456     104.09668840
H      79.28155203      93.24752475     105.21540637
H      76.59436121      92.06833553     103.71874313
C      76.11059128      95.83078062     105.80878043
H      74.28700539      96.35045536     105.00186730
H      77.54867300      97.23295755     106.26042502
H      75.66083642      94.91048391     107.59646152
C      81.29977973      95.18260450      98.00987994
O      82.30700386      97.24807536      98.08168954
N      80.73475157      94.17349064      95.73464946
H      79.43273014      92.78076234      95.67417822
C      81.43206058      95.34323123      93.28934360
H      82.24842234      97.19516302      93.67673751
C      83.48052390      93.65381591      92.05157288
H      85.20206457      93.53665288      93.17596002
H      84.32901101      94.57600235      90.41695961
C      82.83234777      90.84757233      91.58670019
C      82.25598125      90.13325579      89.10926901
H      82.26731961      91.77920741      87.90362362
C      81.33568453      87.66149377      88.51778466
H      80.61380908      87.27976906      86.64695561
C      81.71740925      85.73964211      90.30546576
O      81.33946399      83.28488763      89.67240745
H      81.03332832      83.17717323      87.88850580
C      82.56589636      86.40104632      92.82447093
H      82.79077379      85.00831803      94.29845746
C      82.93250327      88.99375081      93.52366966
H      83.27076428      89.59090434      95.44363161
C      79.21352188      95.48118125      91.57725157
O      77.14427157      94.40403726      92.14605919
N      79.40438424      96.94382942      89.47209646
H      81.08813039      97.56932882      88.82581006
C      77.47875313      96.93438079      87.48599409
H      75.68162340      96.30510193      88.27400998
C      77.25387570      99.64424831      86.45042408
H      76.05767894      99.25118525      84.82148000
H      79.11714584     100.27730664      85.83815276
C      76.13893717     101.77585960      88.17952365
H      77.76221208     102.68481795      89.06202584
H      74.61581776     100.96894647      89.30958000
C      75.05045482     103.90180170      86.33515078
H      74.59503077     103.07599131      84.50400598
H      76.38082214     105.44192865      86.01389731
C      72.86593120     105.21894094      87.59181878
H      73.64260871     106.71560418      88.77100799
H      71.80201528     103.85266882      88.70675730
N      71.33903234     106.38868153      85.65106984
H      69.89339171     107.48283307      86.24444392
H      70.88360830     104.89579774      84.54935941
H      72.36515373     107.72849749      84.75911903
C      78.31590188      95.11079490      85.52067874
O      80.52310222      95.21472983      84.56069777
N      76.67183999      93.37980558      84.76856767
H      74.87093082      93.56877822      85.36950063
C      76.88159961      91.46929229      82.71254544
H      78.51054370      90.25230855      83.04324754
C      74.50810336      89.84979684      82.81648037
H      72.76199625      90.91182303      82.54624951
H      74.45897048      88.96918438      84.67786080
C      74.61581776      87.55566909      81.02501983
O      73.14750042      87.39882181      79.19387503
O      76.18051115      85.88893049      81.57493020
C      77.00632155      92.85824113      80.22377588
O      76.12381936      95.06355174      80.11417176
N      77.70929974      91.46362311      78.17342283
H      78.47274917      89.75342080      78.54191945
C      77.29544968      92.21573418      75.56560051
H      78.38960121      93.86168579      74.98545454
C      77.63749014      90.04821810      73.86295710
H      76.00098715      88.84257272      74.18987977
C      77.62804151      90.56033393      70.86585118
H      78.52377178      88.95217684      69.93799556
H      78.72597249      92.28754378      70.63908402
H      75.74587410      90.94016892      70.11751956
O      79.82768294      88.77643228      74.38452158
H      79.72941717      87.54622047      75.71488890
C      74.58369242      93.20784049      75.04781551
O      74.24732113      95.00685995      73.62485159
N      72.72420172      92.14014513      76.37440338
H      72.98120450      90.43372227      77.18887542
C      70.14850476      92.97351443      76.14574649
H      69.84803828      93.97884883      74.37507293
C      68.23043255      90.75119629      76.23078417
H      66.31802952      91.51653545      76.20054856
H      68.53656822      89.96507014      78.11106187
C      68.42129491      88.91438232      74.00846603
H      67.06258169      87.38559373      74.25035100
H      70.19007874      87.86747394      74.14263661
C      68.23421201      90.02932084      71.29292933
O      67.35737900      92.10801978      70.91876351
O      69.02600733      88.80288846      69.48068179
C      69.48143137      95.06922092      78.08271597
O      67.31391529      95.70227923      78.43798452
N      71.22564876      96.42793414      79.16174969
H      72.97364560      95.69094087      78.94632090
C      70.91762337      98.57655295      80.93431298
H      69.22064914      99.54598255      80.28613685
H      72.52011128      99.85589767      80.73967117
C      70.14472531      97.91703847      83.64795996
O      70.63038497      99.51574693      85.32792664
N      69.06002240      95.70605868      84.05425111
H      68.74065866      94.64970168      82.49900636
C      68.21342502      94.86513048      86.49010834
H      67.09659676      96.40336769      87.28190366
C      66.77345357      92.33856639      86.21042884
H      66.16496169      91.72251562      88.08125789
H      68.26444763      90.96473537      85.84571166
C      64.62294502      92.42171435      84.22621621
C      64.49255391      90.41482501      82.48955772
H      65.81536232      88.87091860      82.66152282
C      62.33637618      90.43372227      80.83793693
H      61.97165900      88.98430219      79.44898808
C      60.47121631      92.35179448      80.85872392
O      58.45109888      92.25730816      79.25056682
H      57.83882756      93.93538513      78.92364417
C      60.84727185      94.51931056      82.46499128
H      59.60383193      96.13502656      82.37428443
C      62.86738928      94.56088453      84.22054704
H      63.01100848      96.31455056      85.25233760
C      70.33558767      94.50041330      88.46298261
O      72.30090303      93.37413641      87.98677158
N      69.61938139      95.24874492      90.76088979
H      68.03201129      96.27108684      91.04056930
C      71.18596451      94.94071953      92.91328807
H      73.09647781      95.46795317      92.35203936
C      70.53400893      96.78887186      95.06379662
H      70.97620489      96.11612928      96.96108184
H      68.48554560      96.99485203      94.96553085
C      71.56768922      99.54976201      94.72931506
C      69.92551706     101.56798971      94.29278827
H      67.91673798     101.21461088      94.25121430
C      70.70786375     104.17014284      94.12460264
H      69.43229849     105.74995404      93.92618137
C      73.27789153     104.56131619      94.11137455
O      74.09614303     107.05575492      94.10948483
H      72.84325448     108.30864347      93.72020120
C      75.04856509     102.52230150      94.43262803
H      76.97608593     103.05898377      94.84080891
C      74.20196770     100.07321619      94.59892394
H      75.33013431      98.38380087      94.80301439
C      71.08958846      92.24030063      93.87137932
O      69.22631832      91.12158265      94.73120479
N      73.38371621      91.22551759      94.02255741
H      74.84069520      92.35368421      93.52555940
C      73.90150122      88.47029663      93.80712862
H      72.20641671      87.48196977      94.43262803
C      74.70085545      87.69172939      91.09159191
H      76.38082214      88.78399119      90.61916032
C      75.38304665      84.97241323      90.49821784
H      76.26932829      84.75887415      88.65195524
H      73.78244846      83.69306850      90.69096992
H      76.80223111      84.47541521      91.90606394
O      72.68073802      88.47029663      89.57036222
H      73.07380109      90.18049895      89.11493818
C      76.18429060      87.92794518      95.52677956
O      77.41828189      89.67594202      96.34125160
N      76.59247149      85.66027360      96.37148723
H      75.35470075      84.35447271      95.73464946
C      78.52377178      84.67572620      98.19318338
H      79.98453022      86.13081546      98.25176491
C      77.48253258      84.76265361     100.92572764
H      77.17828664      86.79410938     101.09013383
C      75.02966783      83.28677736     101.23375302
H      73.86748614      83.92739458      99.65961101
H      73.80512518      83.60236165     102.85702793
H      75.11092606      81.26665992     100.83691050
C      79.33257464      84.09180077     103.06678755
H      79.87492609      82.10758814     102.94962452
H      78.24787174      84.39415698     104.79021794
C      81.79110857      85.58279483     103.25764990
H      81.34324344      87.39126291     104.13448292
H      82.52432238      86.00798325     101.38115168
H      83.33123552      84.62281386     104.23274869
C      79.66327675      82.11325731      97.51099218
O      78.48219780      80.65060915      96.18629405
N      81.84591064      81.57468532      98.87726431
H      82.94384163      82.98631087      99.54055824
C      82.94951080      79.00276780      98.93773556
H      81.41316331      77.81224023      99.61803703
H      84.65971312      79.01599589     100.08668916
C      83.70729106      78.14861151      96.29022900
O      84.96773851      79.57157542      95.01088427
N      82.55644773      76.07558175      95.43985216
H      81.31867700      75.29323505      96.66250508
C      82.63770596      75.12126996      92.82447093
H      84.01720617      76.14361188      91.68496597
C      83.20651358      72.19219417      92.74510242
H      81.78354967      71.04135085      93.69374504
C      83.26698482      71.24355156      89.85949035
H      83.91894040      69.29524373      89.72909924
H      84.64837476      72.33959282      88.79368471
H      81.32812563      71.35126596      89.17540942
C      85.74441602      71.56480504      93.96019645
H      85.45528790      72.01833935      95.95007825
H      87.14470322      72.68541273      92.94730315
C      86.60613122      68.70186967      94.06791085
H      88.23885475      68.52612511      95.31135077
H      87.14848267      68.00267094      92.20842015
H      85.05466592      67.55669553      94.79545548
C      80.02610420      75.44441316      91.70575296
O      78.31023271      73.78901291      91.88527695
N      79.64437948      77.70641554      90.85726585
H      80.89915775      79.13693837      91.00844395
C      77.43906888      78.28656153      89.36816151
H      77.58079835      77.02233462      87.74866606
H      77.84913949      80.06290427      88.40818054
C      74.80668012      78.40372456      90.59648362
O      73.03222711      78.93095820      89.18107861
N      74.41739650      78.12782452      93.04934837
H      75.92161865      77.68940802      94.14161018
C      71.92673722      78.47364444      94.26633211
H      70.63416442      77.14327711      93.37438130
C      72.04390025      77.94074162      97.15950309
H      73.29111962      79.33346991      98.02310802
H      72.98309423      76.13416326      97.47508738
C      69.49654918      77.79523269      98.28389026
N      67.81091331      75.82802760      97.81334839
H      68.26444763      74.24443695      96.84769826
C      65.53568283      76.56313113      98.74687320
H      63.84437778      75.43874398      98.95852254
N      65.86260548      78.93662738      99.71063362
H      64.51145117      79.94385151     100.61203306
C      68.28712434      79.68684873      99.41016713
H      69.13561146      81.48586818      99.86181172
C      70.80801924      81.05879003      93.93563001
O      71.83792008      82.87481702      94.85970618
N      68.48554560      81.16839416      93.11737852
H      67.42918860      79.61314940      92.78289696
C      67.11549403      83.66283289      92.81880176
H      68.64239289      85.02154610      92.57124760
C      65.55080064      83.43984519      90.47365139
H      63.76500927      82.67450602      91.16340150
H      66.59203984      82.30978884      89.10359983
C      64.90640397      86.07034421      89.23966011
H      66.56747340      86.85269091      88.30424559
C      63.04691328      85.65271470      86.98143717
H      63.86894422      84.16738982      85.81358632
H      62.89195572      87.49708758      86.07814799
H      61.21009930      84.99320022      87.64284138
C      63.40974073      87.94495271      90.96875970
H      62.60849677      89.42838787      89.78579103
H      64.65318064      89.09390632      92.13850028
H      62.00000490      86.97174367      92.11204412
C      65.67741230      84.45462821      95.41528571
O      63.90862847      83.00898758      96.02566731
N      66.51267133      86.35947234      96.84391881
H      67.99232704      87.32701221      96.11826390
C      65.30513622      87.47252114      99.09836230
H      64.48499500      86.09869011     100.39471454
C      67.23832624      89.25453305     100.43817825
H      66.31425007      90.43750172     101.84791408
H      68.04334965      90.37325103      98.90561021
C      69.49465946      87.91093764     101.56634486
H      69.91984788      86.21963258     100.47030360
C      71.86059680      89.52665364     101.78933256
H      71.50154880      91.28598884     102.80033614
H      72.52011128      90.08034345      99.91850351
H      73.36103949      88.36069251     102.57923816
C      68.52334013      87.14370876     104.28566102
H      68.18885857      88.81800627     105.43839407
H      69.77622868      85.93617365     105.38548174
H      66.81691727      86.02121133     104.01354044
C      62.86738928      88.85202135      98.43695809
O      60.92853008      88.23786030      99.51221236
N      62.99778039      90.60757709      96.63604890
H      64.52656898      90.81922644      95.51166176
C      60.85483075      92.12124787      95.88204810
H      59.18242297      90.92127166      95.99543168
C      60.42397315      94.02987145      98.02688747