 %block lattice_cart
   140.777   0.000   0.000
   0.000 144.511   0.000
   0.000   0.000   162.462
 %endblock lattice_cart

 %block positions_abs
N      93.94582822      42.13420744      82.98277629
H      93.14080481      41.59941489      84.62872791
H      95.83744425      42.09263346      83.24733798
H      93.34111579      40.90399561      81.65618842
C      92.93293491      44.78927291      82.53680088
H      93.66992817      46.10452242      83.93897781
C      93.67748708      45.82295320      79.93086830
H      92.88947121      44.76848592      78.34727765
H      95.68815588      45.49036137      79.62284291
C      92.98395752      48.54604882      79.37150931
H      90.92793529      48.45345223      79.26946409
H      93.80031929      49.19611467      77.59516658
S      93.55843432      50.77214641      81.84138160
C      96.55365053      52.16676443      80.79447322
H      98.01818842      50.74757997      81.07793217
H      97.07710472      53.67287630      82.09838438
H      96.20027171      52.57872477      78.80837087
C      90.06433037      44.91777430      82.86561326
O      88.90025896      43.51181792      81.58626855
N      88.82278018      46.74136019      84.17519360
H      89.80732759      48.13030903      85.03879852
C      86.02220578      46.95678899      84.04102303
H      85.39292692      46.18200120      82.23822413
C      85.03387892      45.30894764      86.15562677
H      85.69150368      43.35875009      86.26334117
H      82.98163615      45.21068187      86.03090484
C      85.44394953      46.78104444      88.73888264
O      83.81311572      48.12841930      89.63083346
N      87.68705467      46.78104444      89.91996159
H      87.72106974      47.93188777      91.44308100
H      89.28009395      45.98169021      89.23399094
C      85.36458103      49.79704764      84.43030665
O      86.85368536      51.32016704      85.29958075
N      82.91927518      50.62096831      83.95976480
H      81.85535926      49.36430031      82.99033520
C      82.09724423      53.29871049      84.07692783
H      82.97407724      54.12074144      82.40263032
C      79.17761708      53.52547765      83.80291751
H      78.37070394      52.45400283      82.24200358
C      77.83213194      52.46534119      86.10838362
H      75.95752344      51.80960616      85.56792189
H      77.52221683      54.06404965      87.37261052
H      78.71274441      50.94033206      87.18174816
C      78.06456828      56.27502944      83.11505714
H      78.58991220      57.60350704      84.60038202
H      76.04256113      56.26369108      82.72199406
C      79.12848419      57.55815360      80.66597183
H      78.61825809      56.28636780      79.12962434
H      81.17883724      57.75279541      80.72077390
H      78.37070394      59.47055663      80.53369099
C      83.12525535      54.78214565      86.40129119
O      83.91894040      56.90241857      86.04035347
N      83.27265400      53.56894136      88.53668193
H      82.96462861      51.69244313      88.40062163
C      84.08901577      54.83694771      90.87616310
H      83.03076903      56.58116510      91.16340150
C      82.93250326      53.09273033      92.90761889
H      84.07956713      51.39008692      93.06446617
H      81.00120297      52.54093024      92.44841540
C      82.93250326      54.03192430      95.55512545
C      81.66071745      56.36195685      96.40361257
H      80.73853101      57.47122619      94.95797194
C      81.89504352      57.10272956      98.92828692
H      81.16182971      58.96599971      99.32135000
C      83.39548621      55.73834716     100.65738650
H      83.76776229      56.51313495     102.50742856
C      84.45751240      53.42532216      99.99031311
H      85.61213517      52.50313572     101.39626949
C      84.39326170      52.70722616      97.33146819
H      85.64615025      51.18410675      96.81368318
C      87.04265799      55.43032178      91.29001317
O      87.85901976      57.19532615      92.56179897
N      88.50908561      53.63886123      90.16562601
H      87.77020262      51.97023290      89.60437729
C      91.19816616      54.01491677      89.71209169
H      92.19216220      54.98434637      91.23332138
C      92.58144582      51.47323488      89.25288820
H      92.07310944      50.74569025      87.39339751
H      91.94460805      50.20522852      90.74577199
C      95.46138872      51.75858355      89.48343481
H      95.82799562      52.62218847      91.31835906
H      96.26641213      53.01147209      88.06047090
C      96.95427251      49.22635029      89.42107384
O      95.79776000      47.16654861      89.01100323
O      99.23328244      49.02037012      90.15617738
C      91.63469293      55.75724443      87.30080092
O      93.56788295      57.15375217      87.19308652
N      90.04354338      55.77425196      85.37139035
H      88.42404793      54.79726346      85.62650341
C      90.42715782      57.04981723      82.99222493
H      92.40192182      57.01769188      82.40263032
C      88.64514591      55.78748005      81.03446847
H      86.79888330      56.70021786      80.92864379
H      88.37680477      53.82216468      81.58815827
C      89.77709197      56.08605681      78.26601942
H      91.78209159      55.64008140      78.42286670
H      89.56733235      58.02113655      77.59138712
S      88.21050886      54.33428051      75.79803685
C      85.34379404      56.12007188      75.13474292
H      83.93783766      55.56260262      76.53125066
H      84.70506654      55.82338485      73.19777345
H      85.75197492      58.12129205      75.40119433
C      89.73740772      59.75212585      83.25678661
O      91.04887778      61.43776172      82.30247482
N      87.74752591      60.42486842      84.71187587
H      86.59101340      59.09639082      85.44697941
C      87.16171075      63.22355309      84.76100875
H      86.99163538      63.58260109      82.74278105
C      84.57089598      63.78480181      85.97610277
H      84.59924187      65.77279389      86.51467477
H      84.63703640      62.68498109      87.71465098
C      82.24464288      63.03835991      84.31881280
H      81.90071270      61.00690413      84.22810593
C      79.92027952      64.09471692      85.65295957
H      78.47085944      63.90574429      84.19976004
H      80.04878091      66.07326037      86.21042884
H      79.45351712      63.03269073      87.35560298
C      82.07645724      64.17786488      81.63351171
H      83.47674444      63.15552294      80.52046291
H      82.03299354      66.23388711      81.71288021
H      80.30011451      63.60149835      80.76990678
C      89.18749736      64.93942458      85.82114522
O      89.12891584      67.22788315      85.31658829
N      90.89014077      63.85472168      87.33292627
H      90.40070165      62.01979743      87.53512698
C      92.99529588      65.03769035      88.45920315
H      92.32822249      66.82159199      89.24154984
C      93.92882068      63.14607431      90.50577675
H      95.67114834      63.77535317      91.40528647
H      94.41825979      61.38862884      89.54957523
C      92.21294919      62.39774269      92.61849076
H      90.65392498      61.47177680      91.63772281
H      91.43249222      64.04369431      93.58036146
C      93.52063979      60.50612665      94.38160541
H      94.70927765      61.57193229      95.68551657
H      94.65825504      59.44410046      93.03423055
N      91.97673340      58.66931268      95.80078987
H      91.38713879      57.15186245      94.80490411
C      90.88636131      58.91686682      98.08357926
N      91.51941963      60.81604177      99.51032263
H      91.18493807      60.82360067     101.39060031
H      92.64569651      62.15963718      98.75254238
N      89.48229466      57.20288506      99.05300886
H      88.93427403      57.79625912     100.78210844
H      88.54121096      55.95944514      97.94940869
C      95.03809002      65.47421713      86.53168231
O      96.88435263      66.74411321      87.28568311
N      94.83966876      64.59360467      84.20542922
H      93.37324114      63.41063600      83.90874219
C      96.49884846      65.24178079      82.08137684
H      97.83110551      66.67797279      82.71065570
C      98.05031377      62.92308661      81.16485958
H      98.89691116      63.38040037      79.34505314
C     100.06098256      62.19176252      83.05269617
H     101.50473347      63.66385932      83.05269617
H     101.12867793      60.55148008      82.41396867
H      99.32209958      61.92909057      84.95754029
C      96.30420665      60.50045747      80.60361087
H      94.68471120      60.94265343      79.41119356
H      95.46705790      59.77480257      82.33837962
C      97.80086989      58.41608935      79.32615588
H      98.95549267      57.54114607      80.79069377
H      98.79297621      59.12851617      77.66886590
H      96.44971558      56.98745626      78.71955373
C      95.24218047      66.54002277      79.77969019
O      96.43081832      68.05747300      78.56459617
N      92.74585201      66.08459873      79.57182030
H      91.88224708      64.70509852      80.56770607
C      91.09045176      67.58315169      77.77658030
H      92.08633752      67.60960786      75.97189167
C      88.56577740      66.10727544      77.44587820
H      87.39603681      66.49088989      79.09749899
H      88.75286031      64.05503267      77.42509121
C      87.06722444      66.89718104      75.09505866
O      88.20861913      66.91985776      73.02202890
O      84.81089122      67.64551266      75.15741963
C      90.85801542      70.38372609      78.69120784
O      90.75597020      72.04290579      77.02635896
N      90.58211538      70.73143573      81.19509520
H      90.31944342      69.17808070      82.27412893
C      90.28731807      73.19563884      82.42719676
H      90.65014553      74.76411168      81.14407259
C      87.50564094      73.49232588      83.42119280
H      87.51508957      75.09859324      84.70998614
H      86.92549496      71.87660988      84.56069777
C      85.58000983      74.06302322      81.29147124
H      83.67894516      73.61893754      81.94909600
H      86.10913320      72.84981893      79.71354977
C      85.78221054      76.87871543      80.59605196
O      84.98474604      78.63805063      81.93397819
O      87.04076827      77.35114701      78.71577428
C      92.04854300      73.61326836      84.69486833
O      93.11623836      75.73732073      84.98399646
N      92.43593689      71.68385779      86.25389254
H      91.50619154      70.04168563      85.96854387
C      93.58300076      72.04479552      88.81636142
H      95.26107773      73.21831556      88.58581481
H      94.05732207      70.14751030      89.46075809
C      91.68949500      73.03879156      90.74766171
O      90.09645572      74.65639728      90.09381641
N      91.41548468      72.04668525      93.14572441
H      92.65325542      70.75789190      93.81657725
C      89.71095155      72.85359838      95.12804731
H      87.80043825      72.96509223      94.36459788
C      89.69016456      70.55569118      96.90816949
H      91.60634704      70.19286373      97.57335316
H      88.88325142      68.94942382      95.89905564
C      88.07633829      71.04890975      99.27410684
H      88.73396304      72.77989906     100.17739602
C      85.18505703      71.11127072      98.78088827
H      84.14759728      71.71031396     100.45518578
H      84.24964250      69.36327388      98.22341901
H      84.76931724      72.23754760      97.10470103
C      88.35601778      68.76234091     101.03155231
H      87.02942991      69.16296289     102.55467172
H      90.28164889      68.61305253     101.74208940
H      87.64737041      67.22221397      99.85803227
C      90.69738868      75.21008709      96.51321669
O      92.93482464      75.43874398      97.28800448
N      89.14025420      77.17540246      96.94029484
H      87.45083888      77.01855518      96.06346183
C      89.95283652      79.79645286      97.90027581
H      92.00318957      79.94574123      98.02121829
C      89.10434940      81.92806414      95.96330634
H      89.32544738      83.76676784      96.86092634
H      87.10690869      81.68239972      95.53055901
C      90.60857155      81.93751277      93.42540390
H      90.35345849      80.15928031      92.41817977
H      92.57577664      82.45718750      93.73720874
C      89.51819946      84.13148502      91.68496597
H      89.69772346      85.88326131      92.75077161
H      87.61146561      83.72330413      91.02356176
N      91.08100312      84.39793643      89.43430193
H      90.60479209      83.09402527      88.12283187
C      92.37168620      86.34813398      88.70486757
N      93.04442876      88.17738905      90.18452327
H      93.67748708      89.83089958      89.46831700
H      92.43971634      88.37770004      91.98165300
N      93.38457950      86.36136207      86.51278505
H      94.66014476      87.76542872      86.30869460
H      93.14080481      84.89304472      85.32036774
C      89.01931172      80.20274401     100.64982759
O      86.86502372      79.52055281     101.34524688
N      90.68416060      81.37059487     102.19184427
H      92.36412729      81.95829976     101.50587361
C      90.43471673      81.57468532     105.00375702
H      89.17048982      80.08180153     105.64815369
C      93.11623836      81.17595306     106.30388872
H      92.84222805      81.05501058     108.34101369
H      94.34078101      82.77088207     105.86169277
C      94.73384409      78.83269244     105.46673997
H      95.10612017      78.73631639     103.44284308
C      97.32276914      78.94796574     106.71773879
H      97.17159103      79.02166507     108.76998156
H      98.38101587      80.61281462     106.12436472
H      98.43014876      77.30579357     106.14893116
C      93.31654935      76.37793796     106.28499146
H      94.36345773      74.74332469     105.59713108
H      91.45894839      76.55179278     105.40815845
H      93.12001782      76.26077492     108.33156506
C      89.10056995      84.06534460     105.85980304
O      88.53932123      84.21274325     108.09345954
N      88.61680001      85.83790788     104.19873361
H      89.14970283      85.22563655     102.46963403
C      87.69650330      88.38903840     104.74297479
H      86.64770519      88.69139461     106.48908190
C      89.95094679      90.16538113     104.99241866
H      91.13013601      89.41138034     106.50608944
H      89.43505151      92.09290197     105.50831394
C      91.60445731      90.39970720     102.53577445
H      90.35534822      91.56944779     101.39060031
H      91.96350531      88.50809116     101.80256065
C      94.14235975      91.84723755     102.74931353
H      93.95338712      93.74830222     103.51843214
H      94.77541807      92.09857115     100.80478515
C      96.03586552      90.40537638     104.29510965
H      96.45160531      88.59501857     103.39937938
H      95.11367908      90.05199756     106.10168801
N      98.45471520      91.69983890     104.75620287
H      99.57154345      90.91938193     106.09034965
H      97.81031853      93.34390079     105.48374750
H      99.40902699      91.93416496     103.11969989
C      85.69717286      89.26587141     102.89860191
O      85.54788448      88.06967465     100.90494065
N      84.42727678      91.49007928     103.37859239
H      84.44050486      91.95495195     105.22863445
C      82.56778608      92.53509793     101.61547774
H      81.19017560      91.09512648     101.09580300
C      81.07679202      94.84812294     102.62648132
H      82.39393126      96.20116698     103.44473281
C      79.27210339      95.91392858     100.59313580
H      77.87370592      97.25563426     101.29044481
H      78.19117994      94.30010231      99.90905488
H      80.50042550      96.69249582      99.13615682
C      79.41950205      94.00719473     104.95651386
H      80.75742828      93.18327406     106.28688119
H      78.19495940      92.39336846     104.58045833
C      77.94173607      96.15581355     106.21507159
H      76.43184475      96.64336294     104.90171180
H      79.06423350      97.81877270     106.67805453
H      77.11781540      95.51897578     107.99141432
C      84.02287535      93.43838711      99.36292397
O      86.03732360      94.67237839      99.66716991
N      83.16871905      92.77698290      97.01210444
H      81.63237156      91.65070602      96.88738250
C      84.10791303      93.54421178      94.62160066
H      85.25497690      95.21850930      94.97497948
C      85.94472701      91.38425461      93.82791560
H      87.22596145      90.68883532      95.28300487
H      87.05966553      92.51998012      92.52211472
C      84.79388368      89.05611179      92.54857089
C      84.89970835      88.65548981      89.86515953
H      85.81055644      89.93672425      88.56313810
C      83.55800267      86.65237992      88.65006551
H      83.54099514      86.64104156      86.60916109
C      82.42794634      84.83635293      90.09192668
O      81.16560916      82.78788961      89.11115873
H      81.37158933      82.74820536      87.30835982
C      82.35046756      85.20673929      92.70730790
H      81.86669762      83.56645685      93.82035670
C      83.35013278      87.33268139      93.96208617
H      83.59579720      87.35346838      95.98787278
C      81.94039695      94.29821258      92.92462643
O      79.77099114      93.70861797      93.47831624
N      82.49030731      95.81566281      90.93096517
H      84.28176785      96.33344782      90.51333565
C      80.66861114      96.27297658      88.96942925
H      78.79589236      95.64558744      89.55713414
C      80.55711729      99.03197700      88.19275174
H      79.01510062      99.15669893      86.83214879
H      82.41849771      99.34189211      87.36127216
C      80.17539257     100.74217931      90.52656374
H      82.01031682     100.95004920      91.43741182
H      78.98108554      99.73306546      91.86637969
C      78.75242866     103.26118448      90.18830273
H      79.63304112     104.13234831      88.54235111
H      78.86770196     104.50084495      91.82858517
C      75.94240563     102.88701867      89.59681839
H      74.89738698     102.11412061      91.19552685
H      75.79878643     101.50373901      88.07747843
N      74.99376302     105.25484574      88.64628605
H      73.17584631     105.16791833      88.07369898
H      75.73642546     105.89924242      87.00978307
H      75.17706647     106.62489732      89.95964584
C      81.40182495      94.47584685      86.75844947
O      83.38603758      94.76497498      85.59059861
N      79.65004866      92.78454180      86.21231856
H      77.96063333      92.88847675      87.09104130
C      79.97886104      90.91938193      84.01078741
H      81.91205105      90.21073457      84.11661208
C      77.93795662      88.72163023      84.31314362
H      76.01610496      89.43594678      84.12606071
H      78.07401691      88.13770480      86.28412816
C      78.52566150      86.33679562      82.74656050
O      80.26609944      84.84391184      83.34182429
O      77.11592567      85.76420855      80.86250337
C      79.66894592      92.24596981      81.46154661
O      79.03210815      94.51553111      81.33115550
N      80.18106175      90.96095591      79.33938396
H      80.85380432      89.21295907      79.70032169
C      80.09224461      91.76408960      76.67675959
H      81.13348381      93.53854260      76.56715546
C      81.12781463      89.52665364      75.02135934
H      80.15460558      87.74086228      75.34828199
C      81.41883249      90.26553663      72.39275004
H      82.01409627      88.57990076      71.37040810
H      82.78699434      91.75275124      71.99779724
H      79.65382811      90.75497574      71.44599715
O      83.63737118      88.93138985      75.79236767
H      83.77532120      88.04888766      77.37217887
C      77.20852226      92.21195473      75.89252317
O      76.74742904      93.59334467      74.12562906
N      75.29800896      91.12536210      77.18131651
H      75.69107203      89.71940572      78.40963862
C      72.69585583      92.04376909      77.03769731
H      72.08736395      92.10801978      75.07049222
C      70.85526240      90.51875996      78.57026535
H      69.24143613      91.75086151      78.91797499
H      71.59414538      90.22207292      80.47321975
C      69.67985263      88.27376510      77.20588296
H      70.97809461      86.82056556      76.54447875
H      68.56302438      89.00697890      75.63741012
C      67.86760510      86.82245529      78.94443116
O      65.58103626      86.77899158      78.38696190
O      68.69530522      85.74909074      80.90596708
C      72.44074277      94.91804281      77.99767828
O      70.50188358      95.99329708      77.50445971
N      74.14905536      96.08967313      79.39985520
H      75.67595422      95.11457435      80.00078817
C      74.04512041      98.74284887      80.31637247
H      72.69207637      99.67259422      79.07293255
H      75.98397961      99.39858390      80.06692859
C      73.18907439      99.09811742      82.99978383
O      73.82591216     101.01052044      84.34337924
N      71.63760909      97.43704799      84.01834631
H      71.15572888      95.90825940      82.98844547
C      70.49432467      97.66381514      86.45987271
H      70.02000337      99.60267434      86.95876046
C      68.30224215      95.89503132      86.60916109
H      67.30635638      96.32021974      88.36093738
H      68.79546072      93.90703923      86.81514126
C      66.18007950      96.15959300      84.74211149
C      66.04968838      94.38513999      82.73711187
H      67.47454202      92.95650690      82.43853512
C      64.15051344      94.59112016      80.90974653
H      64.06547575      93.28531928      79.34127369
C      62.24377959      96.49974374      81.14218286
O      60.31625875      96.73595952      79.39985520
H      59.02179622      97.76019119      80.15763546
C      62.59148923      98.33466799      83.03568863
H      61.30458561      99.91825864      83.06592425
C      64.48310527      98.20616660      84.88195124
H      64.64751146      99.57810790      86.38050420
C      72.39916879      96.45628003      88.45920315
O      74.15094509      94.93127090      87.89417498
N      72.03256189      97.21217056      90.88561173
H      70.61904661      98.47261801      91.12371725
C      73.15505932      96.23140260      93.15895249
H      75.20730210      96.35423481      93.01722302
C      72.45397086      97.80554462      95.47197750
H      72.71097364      96.37691153      96.93273594
H      70.43952261      98.23640222      95.51166175
C      73.99598753     100.40580802      95.88015838
C      72.91506408     102.82276798      95.89905564
H      70.90628501     103.10433720      95.67606794
C      74.49487528     104.83532650      96.54156259
H      73.47442307     106.57387471      96.86659552
C      77.14427157     104.58021345      96.91761813
O      78.39904984     106.78741378      97.53555863
H      77.22552980     108.16313454      97.68862646
C      78.19306967     102.17648158      96.94596402
H      80.18862066     101.84200002      97.21241543
C      76.69829616     100.09778264      96.25999337
H      77.52032710      98.23640222      96.10125636
C      72.83002639      93.35901860      93.69941421
O      70.64928223      92.47840614      93.51989022
N      74.83313629      91.95306223      94.23798621
H      76.54144887      92.78076235      94.04901358
C      74.81612875      89.07122960      94.18129442
H      72.91695380      88.29644181      94.38916432
C      75.79689670      88.40415621      91.45441936
H      77.76977098      88.97485356      91.29001317
C      75.70996929      85.52799276      90.88750146
H      77.09324896      84.45651794      91.97409409
H      75.88949329      85.18217285      88.86549431
H      73.91472930      84.81556594      91.59992828
O      74.40794786      89.61925023      89.48721426
H      74.89360753      91.35212926      89.27178546
C      76.74553931      88.04888766      96.15983787
O      78.32535051      89.50586665      97.01399417
N      76.58680230      85.67161196      96.88738250
H      75.16572812      84.60391660      96.19952213
C      78.29322516      84.43006177      98.77899854
H      80.02799392      85.53744139      98.83191088
C      77.01577018      84.53588645     101.37926195
H      77.08002087      86.45584838     102.12570384
C      74.41550677      83.44740409     101.21863521
H      74.47219856      81.69562780     100.13393231
H      73.28734016      84.69840291     100.03566654
H      73.58780665      83.24331365     103.09324372
C      78.58046356      83.06378965     103.33323896
H      78.49920533      81.05123113     102.90238136
H      77.72630727      83.05623075     105.20595773
C      81.17694752      84.20140489     103.71685340
H      82.28054768      82.86725811     104.83179192
H      81.16182971      86.04577777     104.63337066
H      82.22196617      84.58123988     101.98208464
C      78.73731085      81.71641479      97.69807509
O      77.11781540      80.55612283      96.50754752
N      80.67994950      80.47108515      98.74120402
H      81.52276743      81.30823391     100.23408781
C      81.07679202      77.67429021      98.33869231
H      79.32879518      76.73698595      98.89049240
H      82.56400663      76.77289075      99.44418221
C      81.81945446      77.22264562      95.70441383
O      84.04366233      77.97475669      95.16017265
N      80.28688642      75.90928583      94.19074306
H      78.55589712      75.38016246      94.79356575
C      80.60813990      75.86204267      91.42985291
H      82.07078806      77.21508671      90.91962681
C      81.32812562      73.25611009      90.36971645
H      79.79744731      71.93330167      90.75333089
C      81.54166470      73.31280188      87.44442012
H      79.70485072      73.93641156      86.75467001
H      81.87614625      71.41740638      86.70931658
H      82.85880394      74.80568566      86.91718648
C      83.63926090      72.43974832      91.79645982
H      83.00053341      72.08447977      93.72209093
H      84.91293644      74.01766979      92.16306672
C      85.17560840      70.22309935      90.69285965
H      85.96551400      70.77111998      88.87116349
H      83.93216848      68.60171418      90.43774660
H      86.87258263      69.64106365      91.70575295
C      78.01543540      76.61604347      90.40184180
O      76.15405498      75.42362617      90.97064942
N      77.90772100      78.57191020      88.96187035
H      79.55934179      79.48464801      88.67274222
C      75.60792407      79.51488363      87.62772357
H      75.12982332      78.20719303      86.10838362
H      76.45641119      81.15138662      86.70931658
C      73.24576618      80.25187690      89.01289296
O      71.55068168      81.20240923      87.85260100
N      73.01710930      79.66606174      91.38449948
H      74.47597801      78.67584515      92.11393384
C      70.89116720      79.94196178      92.99643603
H      69.28489983      79.12560001      92.00055026
C      71.39761385      78.30923825      95.25843842
H      73.05868328      79.00087808      96.26377282
H      71.79256665      76.39494549      94.61026230
C      69.27356147      78.09191972      97.15194419
N      67.87327427      76.07369202      97.65839084
H      68.16429213      74.34270272      96.91005922
C      66.30102198      76.54612360      99.65016237
H      65.11994304      75.25921998     100.70462966
N      66.60148847      78.95930410     100.20007273
H      65.86827466      79.91739534     101.67972843
C      68.31735996      80.00810220      98.66183551
H      68.81246825      81.97719702      98.43884781
C      70.06535680      82.61403479      93.67106832
O      71.21053094      83.76865757      95.36426310
N      68.33247777      83.73275277      92.33692154
H      67.51422628      82.71796974      90.94230352
C      67.38194543      86.31033946      92.88305245
H      68.75766619      87.67094240      92.17818453
C      64.90451424      86.44262030      91.27300563
H      63.61383117      85.07067899      92.10259548
H      65.49221912      85.66972224      89.45508892
C      63.45509415      89.05044261      91.14639397
H      62.99967011      89.78176669      93.01722302
C      65.05758207      91.10079566      89.91240268
H      64.02201205      92.86013086      90.18452327
H      65.49599857      90.78899082      87.92441060
H      66.90195495      91.18772307      90.82325077
C      60.81136704      88.65737954      89.90295405
H      60.79058005      88.56667267      87.84693182
H      59.55469904      90.18616812      90.47743085
H      59.89107033      86.90371352      90.46987195
C      66.77723301      86.72607924      95.75165699
O      65.45442459      85.20107011      96.97619964
N      67.90728935      88.74430695      96.74943248
H      68.72554084      90.02176193      95.59103025
C      67.16840636      89.77987697      99.19095888
H      66.74699739      88.29077263     100.55156183
C      69.14128063      91.48818955     100.34747138
H      68.38916956      92.63147397     101.88570860
H      69.74032387      92.85635140      98.93017665
C      71.48265153      90.02365166     101.20351740
H      71.91350913      88.52509869      99.85614254
C      73.69174159      91.81889166     101.34146742
H      73.20797166      93.65381591     102.14460111
H      74.52889035      91.93416496      99.46307947
H      75.10336715      90.89859494     102.52632582
C      71.10281654      88.75375558     103.78866300
H      70.71542265      90.18805785     105.21540637
H      72.99443258      88.06778493     104.23274868
H      69.76300059      87.20984918     103.54299858
C      64.79679984      91.36346762      99.10214174
O      63.06770026      90.94961755     100.55156183
N      64.60593748      93.14358980      97.16328255
H      65.93252535      93.12280281      95.79134124
C      62.34204536      94.83678458      96.77210920
H      60.60160742      93.74263305      96.86659552
C      62.09638094      96.91548352      98.93206638