 %block lattice_cart
   140.777   0.000   0.000
   0.000 144.511   0.000
   0.000   0.000   162.462
 %endblock lattice_cart

 %block positions_abs
N      91.30871515      44.73352598      83.55158392
H      90.38463898      43.13292779      83.07915234
H      91.07438909      44.99619793      85.42808214
H      93.17576475      44.41038278      83.31158867
C      90.33550610      46.88781397      82.03035424
H      91.01958702      48.60368547      82.94498176
C      91.37863502      47.06166879      79.33749424
H      90.60573696      45.38548155      78.42475642
H      93.41764971      47.32812020      79.46032644
C      90.41676433      49.38036298      77.81626456
H      88.42877225      48.93060812      77.51768780
H      91.41453982      49.62602740      76.03236291
S      90.52447873      52.27920314      79.58315866
C      88.25113797      53.81933009      77.53847479
H      89.29615663      53.92704449      75.76402178
H      87.96767903      55.78464546      78.08082624
H      86.43511099      52.85556967      77.42509121
C      87.46312210      46.83679136      82.06247957
O      86.40676509      44.87714518      81.46910551
N      86.15354177      48.97218210      82.55191870
H      87.08517684      50.62191317      82.78624476
C      83.43989478      49.13847801      82.91663587
H      82.71046042      47.77220589      81.55603293
C      82.85030017      48.21629157      85.49233284
H      83.76492771      49.33123010      86.96253990
H      83.67989002      46.35113170      85.75689451
C      80.07240249      48.01031140      86.41073983
O      78.33763374      47.69094766      84.95754028
N      79.81728944      48.15204088      88.91273746
H      78.09952822      47.71740382      89.62138484
H      81.24403281      48.26542446      90.17318492
C      82.45156792      51.94283186      82.61994885
O      83.97279760      53.70216706      82.32893098
N      79.95901891      52.45305797      82.62372830
H      78.89888245      50.89025430      82.91285641
C      78.81762422      55.11190289      82.46499128
H      79.31273251      55.90936739      80.63195676
C      75.89043816      55.15725632      82.73333242
H      75.19501888      54.14814247      81.07604245
C      74.90022157      53.85145544      85.14273346
H      76.30239850      52.46250660      85.73232807
H      72.85742743      53.63980609      84.97265810
H      75.27060793      55.30843442      86.55057958
C      74.45802562      57.61390053      82.50278581
H      74.97959008      58.74017741      84.14873743
H      72.48893080      57.00729838      82.51412416
C      75.13265791      58.98584183      80.00456762
H      73.53394945      60.21038448      79.57559976
H      75.52761071      57.54020120      78.59294207
H      76.84852940      60.07810364      80.32393138
C      80.02326961      57.01674701      84.36038677
O      80.46735529      59.26363160      83.66874695
N      80.52215735      56.17959825      86.66774261
H      79.62642708      54.55632335      87.12694609
C      81.66355205      57.86334440      88.57258673
H      80.47491420      59.53764191      88.72565456
C      81.95645963      56.68982436      91.25410837
H      83.14698720      57.81988069      92.50132774
H      82.88242552      54.85112066      91.22576247
C      79.40721883      56.21739278      92.45786402
C      78.38865635      53.81933009      92.82825039
H      79.18423112      52.20928327      91.85693106
C      76.03405736      53.56232731      93.96586562
H      75.18368052      51.71039552      93.88082794
C      74.97392090      55.64102626      95.16395210
H      73.13332747      55.35567758      95.99543168
C      76.01516010      58.09578074      95.02411235
H      75.07407639      59.76062962      95.73842891
C      78.29228031      58.23939994      93.71264229
H      79.08596536      60.09322145      93.40272719
C      84.12964489      58.92348086      87.89417497
O      84.67955524      61.13446065      88.43085726
N      85.83795747      57.50996558      86.66774261
H      85.36174644      55.91125712      85.73988698
C      88.29460168      58.44726983      85.84760138
H      88.99757987      59.90991800      87.11749747
C      90.59439860      56.73139834      86.22176720
H      92.24601940      57.64413615      85.38839789
H      90.25046841      55.10434398      85.00856290
C      90.92510071      55.91692630      88.92407583
H      92.67120782      54.82655421      89.01856213
H      89.36607650      54.83033367      89.71965059
C      91.43343709      58.22995130      90.61160141
O      93.30048668      59.68693029      90.57569661
O      89.91787658      58.33955543      92.32747292
C      88.35885237      59.71716591      83.20954345
O      89.96511974      61.36500726      82.81837011
N      86.28771234      59.35244873      81.72232884
H      85.32017246      57.75751973      82.12106110
C      85.77370678      60.53730713      79.28647162
H      87.41776867      60.39746739      78.05437007
C      83.25659133      59.27685968      78.34916738
H      81.47646914      59.94582280      79.14285243
H      83.30950367      57.23595526      78.61939824
C      82.70101179      59.84944675      75.46922448
H      84.38475794      59.34866928      74.39208048
H      82.48936245      61.88090254      75.20466279
S      79.91933466      58.08444238      74.19176949
C      80.25003677      58.67025754      70.98490394
H      78.96124342      57.55909846      69.82272224
H      82.10007883      57.85389577      70.60128948
H      79.91366548      60.62234482      70.41987577
C      85.34473891      63.52496443      79.68898333
O      86.28015343      65.09343727      78.22822489
N      83.88209074      64.25817824      81.55981238
H      82.98825019      62.82576570      82.45176320
C      83.12997967      66.85655192      82.12295083
H      82.84652072      67.91479866      80.37873344
C      80.54294434      66.85088274      83.51567912
H      80.45223748      68.67824809      84.46054227
H      80.63176148      65.54130241      85.10304921
C      78.29605976      66.11388948      81.82437407
H      78.70990982      64.47738649      80.64329512
C      76.22491972      65.41091129      83.62528324
H      74.75282292      64.46604814      82.54058034
H      75.31407164      67.13245196      84.29424636
H      76.83341159      64.43203306      85.33359583
C      77.43245483      68.38911996      80.17275327
H      78.85352902      68.57242342      78.69120784
H      77.54016923      70.14467571      81.24422809
H      75.53894907      67.89401167      79.53213605
C      85.20300943      68.20959596      83.65551885
O      85.42977659      70.48104699      83.64418051
N      86.93021928      66.79230123      84.81014164
H      86.49747196      65.01595849      85.35816227
C      89.07505865      67.81086371      86.08192744
H      88.60640652      69.63822906      86.91151730
C      90.00291427      66.02318262      88.36660656
H      90.92888016      64.32620839      87.66173865
H      88.34940374      65.45437500      89.45508892
C      91.82461043      67.48772051      90.20719999
H      90.68510547      68.89556661      91.18796794
H      93.14930858      68.68958645      89.18485806
C      93.02458664      65.83987917      92.30101674
H      93.66898331      67.01906839      93.86004096
H      94.77447321      64.96871534      91.65473034
N      91.41831928      63.80086447      93.31391005
H      91.93421456      62.06231627      92.72620517
C      89.12608126      64.05597753      94.48931982
N      88.28137360      66.09121277      95.58536108
H      87.03226450      66.06097715      97.02533253
H      89.49835734      67.55764039      95.69118575
N      87.72201461      62.08688271      94.72364588
H      86.30283015      62.19459711      95.99543168
H      88.21334345      60.55620440      93.69752449
C      91.08005827      68.49494464      84.19409086
O      92.52758862      70.21081613      84.81014164
N      91.42209873      67.16646704      82.03035424
H      90.20889443      65.81153327      81.44831852
C      92.96978458      67.99794662      79.76835184
H      94.76124512      68.75950632      80.44298413
C      93.41953944      65.70003942      78.11106186
H      91.60162273      64.74005845      78.00712692
C      94.06582584      66.39545870      75.38796625
H      95.86673502      67.38756502      75.50134981
H      92.37830024      67.34410131      74.68687777
H      94.41731493      64.79486052      74.13885715
C      95.37351645      63.89535079      79.41497302
H      95.07682942      63.73850351      81.44831852
H      97.32371400      64.55108582      79.31292780
C      95.68154184      61.22894696      78.25846051
H      95.89319118      61.45004494      76.22133555
H      94.08283338      60.00251459      78.68175920
H      97.44276676      60.46360781      79.00301268
C      91.89075085      70.19191887      78.44932286
O      93.04915308      72.29707398      78.21877625
N      89.46623199      69.95948253      77.63485083
H      88.40987498      68.37589188      77.77091112
C      88.17743865      72.00038695      76.34794720
H      88.99002096      72.34242741      74.48467706
C      85.48646838      71.16134846      75.72244779
H      84.20145449      72.69580623      75.22733951
H      84.62475318      70.30530244      77.38729668
C      85.38253343      69.38878518      73.50957829
O      86.46534661      69.97082089      71.53481429
O      83.88964964      67.48583079      73.58327762
C      88.14909275      74.58364282      77.65185837
O      88.92765999      76.47525886      76.33660885
N      87.31194400      74.94836000      80.04236214
H      86.77526172      73.29295975      80.82848829
C      87.00391861      77.44846791      81.26312534
H      88.08106261      78.78828386      80.13117929
C      84.24113874      78.14766664      81.49745142
H      84.02004076      79.71424976      82.81648037
H      83.09974405      76.57541435      82.17775289
C      83.28871668      79.14166268      78.93120308
H      81.24403281      79.39110656      78.90852637
H      83.56272699      77.72247822      77.46288574
C      84.19767503      81.98192133      78.24145298
O      83.87642156      82.70001733      76.06259854
O      85.24080396      83.38220853      79.81559499
C      88.19633591      77.27461309      83.90118329
O      88.92199082      79.25315654      84.83281836
N      88.27570442      75.00505178      85.15785128
H      87.77681667      73.40634332      84.24511347
C      89.55882858      74.85198395      87.64851056
H      91.36162749      75.79684711      87.33103654
H      90.09362113      72.93391175      88.17763393
C      88.35507292      76.16534374      89.96909447
O      86.17621848      76.49226639      90.01255818
N      89.86496425      76.90611646      91.88905640
H      91.71878576      76.58864243      91.56024403
C      89.05427166      77.79239810      94.29467801
H      87.10029465      77.20847267      94.58191641
C      90.51314037      76.08219578      96.28455981
H      92.54648588      76.17857183      95.97086524
H      89.78181629      74.15845440      96.17684540
C      89.97267865      76.75115890      99.17395135
H      90.68699519      78.67301056      99.37237261
C      87.24391385      76.71147465     100.00732064
H      86.20645410      75.25638538      98.98308898
H      86.48613360      78.61442904      99.78055349
H      87.27225974      76.23904307     102.01232026
C      91.49579805      75.16189907     100.96352217
H      91.24635418      75.86298753     102.88159437
H      93.50079767      75.02583877     100.50998785
H      91.03848429      73.15312000     100.89927146
C      89.36418677      80.63832592      94.66317463
O      91.45611380      81.54728428      94.12082319
N      87.64453583      82.09908436      95.79323096
H      85.81150130      81.61720415      96.03133648
C      88.25302770      84.56139775      96.88360306
H      90.23724033      85.10563893      97.00832499
C      87.06816930      86.47002133      95.11859868
H      87.69555844      88.25959214      95.92362209
H      85.03671352      86.14876785      95.22820280
C      88.06972425      86.43033707      92.32936263
H      89.98023755      85.66310819      92.32369346
H      88.13775440      88.38242435      91.67551733
C      86.62786307      85.00359371      90.29034795
H      84.69278333      85.70468217      90.37349590
H      86.79037953      82.98914546      90.68530075
N      87.84106736      85.39098760      87.83748320
H      89.52103406      86.28860760      87.98677156
C      86.94722682      84.94312246      85.60004724
N      84.83262307      83.78472023      85.20509444
H      84.41877301      83.44267977      83.37394964
H      83.94445171      82.78316529      86.56569738
N      88.13586467      85.62153421      83.56859145
H      87.61996939      85.00548343      81.83760215
H      89.72512450      86.64198642      83.83882232
C      87.20611932      84.79761354      99.69929526
O      84.90821213      84.37053539      99.95062885
N      88.69522366      85.71602053     101.55689623
H      90.53014791      86.14876785     101.26398865
C      87.74847078      85.49492255     104.20818225
H      86.86218913      83.70157228     104.70518026
C      90.23913006      85.48925337     105.76909618
H      89.81772109      85.65743901     107.77976498
H      91.17265485      87.29772145     105.46107079
C      92.04759814      83.21024344     105.23997281
H      92.40475641      82.70190706     103.27654717
C      94.78770129      83.77149215     106.20562295
H      95.57193771      85.38720815     105.19650911
H      96.15964259      82.29561590     105.78610371
H      94.75557594      83.78283051     108.26542464
C      90.88163700      80.91611569     106.49853054
H      90.36196227      81.36587055     108.44116919
H      92.28381393      79.41189355     106.57600931
H      89.29804635      80.19424024     105.39682010
C      86.15921095      87.67944617     104.90549125
O      84.81939499      87.64165164     106.83868126
N      86.25936644      89.71846086     103.30489307
H      87.34784880      89.57673138     101.74208941
C      85.09529503      92.17510506     103.77354519
H      84.15043188      92.16187698     105.60468998
C      87.54060088      93.85885121     104.02865825
H      88.73490791      93.72468064     102.35625046
H      88.83317368      93.30894085     105.53854957
C      86.89053503      96.64808725     104.31589664
H      85.70945608      96.68210232     106.00153252
H      85.75103006      97.07705512     102.65482722
C      89.15442715      98.45277588     104.66171655
H      90.34117528      97.99735183     103.04033137
H      89.89331014      97.96711621     106.52309698
C      88.20389482     101.15886396     104.92438852
H      86.31038905     101.15319478     105.73508111
H      87.85429545     101.72578185     102.97608068
N      89.97834782     102.75001351     106.34546271
H      91.58272546     102.91819915     105.32690021
H      90.39975679     102.03002779     108.06133420
H      89.34906896     104.55092269     106.28877092
C      83.30572421      93.03115108     101.75720721
O      83.74792017      92.27148111      99.55378634
N      81.22891500      94.38797458     102.34869155
H      81.16466430      95.24780005     104.05133496
C      79.14454687      94.85284725     100.46274469
H      78.58896734      92.92154696     100.01487955
C      76.80884515      96.42698927     101.73264077
H      77.31151235      98.42442998     101.75531749
C      74.46936397      95.89408645      99.84858364
H      72.74782330      96.67454342     100.66305568
H      74.48637151      93.83239504      99.82968637
H      74.84164006      96.73501466      98.00421076
C      76.19090465      95.39330898     104.45762612
H      77.43812401      96.14353032     105.91271538
H      76.51782730      93.36374292     104.31211719
C      73.58308233      96.03014674     105.58390300
H      72.03350676      94.89820068     104.82801248
H      73.15222473      98.03514636     105.38548174
H      73.77016524      95.79015150     107.61913824
C      80.13854291      96.07738990      97.90216553
O      81.52938148      98.02569773      97.93996006
N      79.19934894      95.13252674      95.84614330
H      78.07685151      93.62452515      96.17117623
C      79.44690308      96.20778102      93.25532853
H      80.25570594      98.09372788      93.43863199
C      81.64276506      94.61474173      91.93629957
H      83.28682695      94.39931294      93.15895249
H      82.22858022      95.64842203      90.25444315
C      80.82451356      91.97857353      91.13127615
C      80.35775117      91.33228713      88.59715317
H      80.60341559      92.69289007      87.09671048
C      79.78516409      88.88887101      87.67685646
H      79.64154489      88.65832440      85.65295958
C      79.83240725      86.94434263      89.34548478
O      79.54138940      84.55005939      88.45353396
H      78.72313790      84.48958815      86.83592824
C      80.45223748      87.40921530      91.88527695
H      80.34830253      85.80861712      93.14950386
C      80.79994712      89.90932322      92.75455106
H      81.25348144      90.12097256      94.73309450
C      76.93545681      96.10195634      91.82291599
O      75.00226679      95.46700830      92.93218534
N      76.92789791      96.78036809      89.41729438
H      78.55495226      96.98445853      88.44030589
C      74.62810098      96.96367154      87.80157840
H      72.98403909      96.29281870      88.84848677
C      74.12354406      99.62818564      87.15529199
H      72.36609859      99.68487743      86.08192744
H      75.54272852     100.54092345      85.97610278
C      73.88732827     101.48389688      89.38894849
H      75.74681896     101.43854345      90.27523014
H      72.56263012     100.70532964      90.75900008
C      73.27883640     104.31470690      88.78045662
H      71.33619775     104.36006033      88.10204487
H      74.56762974     105.25201115      87.47465573
C      73.12198911     105.73956054      91.20119603
H      74.98525926     105.56570572      92.06291122
H      71.90311564     104.79658711      92.56746816
N      72.29050953     108.42675136      90.84025830
H      72.08641909     109.21476723      92.56557843
H      70.61054284     108.67808496      89.96720475
H      73.56607480     109.55869742      89.98421229
C      74.57140919      95.24968978      85.46587666
O      76.53294511      94.97001028      84.27156963
N      72.28484036      94.23679647      84.93297384
H      70.67668326      94.89253150      85.72476918
C      71.98248415      92.65320582      82.64640500
H      73.63221522      91.42677344      82.51034472
C      69.50883240      91.02237201      82.91096670
H      67.91579312      92.32061399      83.04135781
H      69.71670230      89.88853623      84.61927927
C      69.03829055      89.26492654      80.72455335
O      67.89311640      89.92066157      78.76112771
O      70.03984550      87.14843307      80.88140064
C      71.85965194      94.63174927      80.51479373
O      71.50627312      96.87485441      80.69620746
N      72.12043417      93.59051007      78.31704203
H      72.27539172      91.68944540      78.31137284
C      71.75004781      94.83583971      75.95110468
H      73.31663092      96.16242759      75.76402178
C      71.92012318      93.11618877      73.58705707
H      71.03006208      94.05916220      71.98834860
C      74.65833661      92.28470919      73.02580835
H      74.87754486      91.71023239      71.06049298
H      75.15344490      90.83717884      74.40152911
H      76.00193201      93.82861559      73.26013442
O      70.66912436      90.82584048      73.91775917
H      69.55229611      91.00158502      75.33505390
C      69.13088714      96.20778102      75.76213205
O      69.26316798      98.43765807      75.11584566
N      66.92935598      95.03804043      76.47455888
H      66.87833337      93.19555727      76.96777744
C      64.40657136      96.28337007      76.79203290
H      63.84343292      97.16587226      75.01757989
C      62.45070462      94.31238552      77.64240974
H      60.55908858      95.09284249      77.89563305
H      63.33698626      93.64909159      79.37717849
C      62.08031827      92.12786191      75.78480877
H      60.73483313      90.75970006      76.53503012
H      63.78107195      90.97134940      75.88496427
C      61.30742020      92.95178258      73.04281589
O      58.99628492      92.96879012      72.52503087
O      62.86644441      93.37508127      71.34395194
C      64.57097755      98.48301150      78.74789963
O      62.89668003     100.07983023      78.61183934
N      66.50983674      98.74001428      80.35983616
H      67.94224929      97.49846409      80.13306902
C      66.87077447     100.73934472      82.34026934
H      65.39678795     102.12262438      81.93964737
H      68.78695695     101.49712497      82.35349744
C      66.33598192      99.90597541      84.96320947
O      66.79329569     101.27791671      86.80191318
N      65.41568521      97.46255929      85.39784653
H      65.03962967      96.44588653      83.82937369
C      64.58231590      96.54415230      87.95275650
H      63.16313144      97.74979769      88.83336895
C      62.99683553      94.24813483      87.42363313
H      61.91591208      93.64909159      89.07147448
H      64.27051106      92.71556679      86.89450977
C      61.14679347      94.55993967      85.29958075
C      60.84443726      92.59273458      83.51000993
H      62.00661894      90.91654734      83.50623049
C      58.95471094      92.80438393      81.63162198
H      58.79030475      91.32283850      80.23700396
C      57.35789221      94.99835618      81.58059937
O      55.64580017      95.00591508      79.79669773
H      54.58755343      96.47801188      79.84205117
C      57.52607785      96.92020784      83.47032569
H      56.09555503      98.36584847      83.63473187
C      59.51029048      96.72745575      85.35627254
H      59.55186446      98.09372788      86.86994332
C      66.78762651      95.82416658      89.70264307
O      68.64900693      94.84528834      88.71809566
N      66.66668403      96.31171596      92.20275098
H      65.10199064      97.01091470      93.04367919
C      68.79262613      95.60873778      94.01499850
H      70.49149008      96.67454342      93.54256693
C      68.06130205      96.72934548      96.61715165
H      69.15734331      96.10573580      98.24609573
H      66.10921477      96.12652279      96.87982360
C      68.19169316      99.53936851      96.64171809
C      65.88433733     100.77147006      96.69085097
H      64.10043569      99.79070211      96.54723176
C      65.72749005     103.42842526      96.94218456
H      63.99083157     104.48856172      97.10848049
C      67.96303628     104.80603574      97.13493665
O      67.86099106     107.29480529      97.37871134
H      66.18291409     107.95998896      97.57524288
C      70.35542979     103.56259583      96.91005922
H      72.03917594     104.62840147      97.35414490
C      70.50849762     100.84705911      96.84013935
H      72.25649446      99.79637128      96.80045510
C      69.16679194      92.67588254      94.32302390
O      67.34887523      91.17921930      94.34570061
N      71.41556625      91.87085913      94.60459312
H      72.91222949      92.97445930      94.17373552
C      72.18657459      89.21768338      94.50443763
H      70.61810175      87.94778730      94.91072879
C      72.97836991      88.57706616      91.77000365
H      74.58085783      89.75436566      91.22765219
C      73.79284195      85.80672739      91.22576247
H      72.21869994      84.51793404      91.55079539
H      75.40099905      85.17177935      92.34637018
H      74.56762974      85.71413080      89.32091834
O      71.02061345      88.85674566      90.01633763
H      70.56707914      90.61230140      90.02200681
C      74.49393042      88.76036962      96.23542693
O      76.01516010      90.43277740      96.79478592
N      74.72069757      86.48513914      97.42973396
H      73.38655080      85.16611017      97.08391405
C      76.83719104      85.62342394      98.98875817
H      78.39810498      86.96701935      98.95474309
C      75.69390662      85.51004036     101.73264077
H      74.34653176      87.06528511     101.81578873
C      74.08008035      83.12898520     102.11058604
H      72.81774318      82.97213792     100.48920086
H      73.10309185      83.20079480     103.92094385
H      75.03439214      81.30350959     102.08224014
C      77.52505142      86.09018634     103.87559040
H      78.88943382      84.55572857     104.02298906
H      76.36286974      86.25459253     105.56878518
C      79.15399550      88.49013875     103.75464793
H      81.16466430      88.19156200     103.41638692
H      79.23714346      89.74680675     105.38359200
H      78.23747824      89.74113757     102.40160389
C      78.00315218      83.19134617      97.94373952
O      76.78238898      81.96113434      96.31668516
N      80.14232237      82.24081384      98.92450747
H      81.19678965      83.44834895      99.96007748
C      80.69223272      79.51393877      99.36292398
H      79.16155441      78.48403793     100.28133096
H      82.38542750      79.34197367     100.52132621
C      81.55772737      78.13443856      96.77966811
O      83.11297213      79.20213393      95.33024803
N      80.74703479      75.80818547      96.25621392
H      79.78894354      75.09764837      97.74720798
C      80.69790190      74.70269557      93.65595050
H      81.89787811      75.65700736      92.27645030
C      81.71646438      71.96826160      93.48020597
H      80.46168611      70.67379908      94.47987119
C      82.03582813      71.39189507      90.49065893
H      83.17344337      69.69681057      90.21097944
H      83.28682695      72.81674871      89.68752525
H      80.19901415      71.42779987      89.55524440
C      84.34318396      71.62244168      94.75010205
H      85.32017246      73.43468922      94.67451300
H      85.42032796      70.16357297      93.77122382
C      84.19011613      70.91379432      97.69429564
H      85.91543625      70.97426556      98.81868280
H      83.44556396      69.02028855      98.00799020
H      82.96935293      72.37455276      98.47853206
C      78.15810974      75.25638538      92.37849553
O      76.40255399      73.67468446      92.70730790
N      77.83118708      77.53350559      91.26922618
H      79.21446675      78.84686538      91.23143165
C      75.86776145      78.15711527      89.48532454
H      75.85831281      76.78706370      87.94708732
H      76.20980191      80.09408475      88.88250185
C      73.21647543      78.48781738      90.60404252
O      71.40044844      78.07207759      89.27934437
N      72.90656031      79.10953734      93.13816550
H      74.45991534      79.40811409      94.20586087
C      70.50849762      79.12087569      94.52900407
H      69.08364398      78.01538580      93.53122858
C      70.92423741      77.68090424      96.93840511
H      72.39066503      78.73537153      97.92862171
H      71.94468962      75.91023069      96.69085097
C      68.79262613      77.25193637      98.64104853
N      67.57186293      75.01450042      99.30434246
H      67.98382327      73.32508509      98.52010603
C      66.11110449      75.42079157     101.21107631
H      64.75995018      74.18491056     102.10869630
N      66.38889426      77.68468370     102.02743807
H      65.04907830      78.45569203     103.14993551
C      67.76461502      78.93757224     100.31912549
H      68.19736234      80.93123350     100.26243369
C      69.38977964      81.71924937      94.86537535
O      70.46314419      83.41811333      96.09747691
N      67.08242382      82.13309944      93.88460740
H      66.37377645      80.52872180      93.13249631
C      65.49505371      84.31384360      93.92429165
H      66.60999224      85.83129383      93.09092234
C      63.27462530      83.77149215      92.15739755
H      62.39023338      81.98381106      92.67329283
H      64.08909734      83.67889556      90.26767123
C      61.04663797      85.63854175      92.28211948
H      60.61200092      85.73302806      94.29467801
C      61.82142576      88.20479008      91.34670496
H      62.22015801      88.22368734      89.32469779
H      63.62422466      88.79249496      92.14794892
H      60.27751936      89.54460604      91.59236938
C      58.56542732      84.80139299      91.10670971
H      58.84321709      83.83952230      89.30580054
H      57.42025318      86.47380078      90.73821309
H      57.48828333      83.65243939      92.42951813
C      64.82987005      85.03193960      96.64360781
O      64.19681174      83.31417838      98.13460188
N      64.41979944      87.45645846      97.27288667
H      64.81097279      88.81139223      95.98598305
C      63.64879111      88.47502094      99.78244322
H      63.38989860      86.91221728     101.09958246
C      65.70103388      90.15876709     100.96541189
H      64.88089266      91.07906380     102.61514296
H      66.21125999      91.62897416      99.61425758
C      68.14445000      88.68100111     101.74586885
H      69.31041114      87.92133113     100.22652890
C      69.84898314      90.70300827     103.03088275
H      70.48960036      91.92755092     101.50776333
H      71.44958133      89.64098208     103.77543492
H      68.84364874      91.85952077     104.40660350
C      67.51895059      86.78560562     103.97763563
H      66.91234845      87.71913042     105.71051465
H      69.23671181      85.86341918     104.64092956
H      66.11677367      85.47224583     103.23308346
C      60.99183591      89.76948347      99.58213223
O      59.32698703      89.01170322     100.99564750
N      60.56664749      91.46078852      97.78311278
H      62.11622307      91.95211736      96.78155782
C      58.21771768      93.06327643      97.50343328
H      56.57176606      91.88408721      97.87948882
C      58.08543684      95.30071239      99.49898426