 %block lattice_cart
   140.777   0.000   0.000
   0.000 144.511   0.000
   0.000   0.000   162.462
 %endblock lattice_cart

 %block positions_abs
N      92.02775601      43.94645497      84.36794568
H      91.61012650      42.43845337      83.27757360
H      91.13580520      43.57984807      86.01389730
H      93.84945217      43.99180840      84.93864303
C      91.18493808      46.35963547      83.20765372
H      91.99374094      47.87897543      84.34148951
C      92.03720465      46.38798137      80.33715945
H      90.86557434      45.15210036      79.17686750
H      93.96661522      45.71901825      80.05747996
C      91.55343471      49.11296671      79.22222093
H      89.52953783      49.49847088      79.22222093
H      92.32444304      49.26792427      77.31926653
S      93.19560687      51.36363075      81.17241849
C      91.81421694      54.09239554      79.72299840
H      89.77331252      53.84862085      79.60961482
H      92.25263345      54.04137293      77.70855015
H      92.55687939      55.84228211      80.52046291
C      88.25019312      46.33884848      83.51189966
O      86.97840731      44.38487147      83.25678661
N      87.35635256      48.68399884      83.94464699
H      88.71695551      50.01247643      84.11472235
C      84.72207409      49.28682153      84.36605595
H      83.44272937      48.34195837      83.05647562
C      84.03988288      48.82761804      87.15907144
H      84.51798365      50.39609088      88.41007026
H      85.15482142      47.26481438      87.90362361
C      81.18072697      48.29849467      87.59937768
O      79.60091578      48.59140225      85.79657877
N      80.67617006      47.52181715      89.98043283
H      78.82990745      47.09284928      90.19586163
H      82.06700861      47.36496987      91.27678508
C      84.13625894      52.11763155      83.73488737
O      85.80110781      53.57650026      83.22466126
N      81.77788050      52.85462481      84.00511823
H      80.52877139      51.42410199      84.18842168
C      80.82734815      55.43221150      83.62528324
H      81.27710301      55.88007664      81.66374733
C      77.98142033      55.41520396      84.13928880
H      77.38615653      54.06215992      82.70687625
C      77.18773527      54.27947845      86.70742686
H      78.29322518      52.60896039      87.18552761
H      75.16761784      53.88641538      86.67530151
H      77.24253735      55.64953003      88.24377435
C      76.72097288      57.99657011      83.59315789
H      77.38426682      59.32882716      85.01801153
H      74.75376778      57.83594337      84.17897305
C      76.83435646      58.86584421      80.84171638
H      75.63249052      60.52124446      80.58849305
H      76.14082690      57.40130632      79.57559975
H      78.75809784      59.53669705      80.53747044
C      82.16905383      57.48256455      85.29580130
O      82.69817720      59.51402034      84.36227650
N      82.70573611      56.80982198      87.64284138
H      82.35613675      55.00702308      88.16062639
C      83.88870479      58.45766333      89.60815675
H      82.65471351      60.09038686      89.83681363
C      83.95106576      57.00824325      92.14794891
H      84.67105147      58.29325714      93.58414091
H      85.10190907      55.29993066      92.06291123
C      81.27899274      56.19566093      92.98887712
C      80.50798441      53.74279618      92.42006950
H      81.63237156      52.30282473      91.51111114
C      78.08913472      52.86218371      93.02478192
H      77.44473806      50.99891357      92.49754828
C      76.33924817      54.49868670      94.22853758
H      74.47975747      53.91665100      94.83513973
C      77.01577018      57.06493503      94.61971093
H      75.65705696      58.32916194      95.46819804
C      79.41572260      57.98523175      93.88082794
H      79.85602884      59.95999575      94.14538962
C      86.65337437      59.08127301      88.75022100
O      87.46784641      61.29036307      88.96187035
N      88.06688967      57.31248918      87.62583384
H      87.69839303      55.45110876      87.82425511
C      90.63313799      57.71500089      86.48821860
H      91.70083336      59.06426547      87.62016467
C      92.10712451      55.09772994      86.42963709
H      94.07810906      55.41142451      85.92696989
H      90.96384009      53.84862085      85.25800677
C      92.04287383      53.77114207      88.95242172
H      93.15214316      52.04393222      88.77856689
H      90.16070641      53.07005361      89.40595603
C      92.76663901      55.50969028      91.04056929
O      94.90391947      56.58494455      90.89506037
O      91.18115862      56.12574106      92.66384419
C      90.64447635      59.03969903      83.85016067
O      92.48884924      60.35683827      83.09615987
N      88.45617329      58.78269625      82.52735225
H      87.06155526      57.60350703      83.08104206
C      87.94783691      60.11495330      80.18031217
H      89.42182342      59.81070737      78.77246607
C      85.56678175      58.89796956      79.03702775
H      83.93216849      59.43465183      80.16897381
H      85.83134343      56.86084459      79.17308805
C      84.97151797      59.76157448      76.31960131
H      86.57778532      59.08505246      75.22356005
H      84.66916176      61.79869945      76.28369651
S      82.02732436      58.26869070      75.53725462
C      82.38070319      57.71500089      72.12629862
H      83.31233826      55.88952527      71.91464928
H      83.52965679      59.16253124      71.21545054
H      80.44373371      57.68854472      71.43276907
C      87.49052314      62.96088113      80.49589647
O      88.36357669      64.61250193      79.15230106
N      85.94472701      63.58260109      82.41207895
H      84.86191383      62.29947692      83.31914758
C      85.24741801      66.23577683      82.95820985
H      84.94695151      67.29024411      81.21588219
C      82.60936007      66.26979191      84.22999566
H      82.22007645      68.09904698      85.09171086
H      82.59991143      64.95454239      85.81547604
C      80.27932752      65.91830281      82.41774813
H      80.48719741      64.27235119      81.19509520
C      77.97764087      65.30414176      84.12795044
H      76.36003516      64.79013620      82.96009958
H      77.70741001      66.99166736      85.27879376
H      78.29322518      63.57315246      85.19753553
C      79.97130214      68.03857573      80.51101428
H      81.65315856      68.63950870      79.48300316
H      79.48375275      69.80735956      81.45020825
H      78.24031283      67.76078597      79.43198055
C      87.15604158      67.68708664      84.53613132
O      87.40737517      69.92641232      84.33959979
N      88.94372268      66.14884942      85.49989174
H      88.61113083      64.27613065      85.34115473
C      91.33800591      66.87261460      86.46932134
H      90.89769967      68.51856622      87.62583384
C      92.64758624      65.00745473      88.12472159
H      94.66959339      64.88273279      87.76000441
H      91.73295871      63.18008938      87.86771881
C      92.11090397      65.70665346      90.87238365
H      90.11346325      65.95798706      91.29757207
H      93.04631849      67.44142222      91.47142689
C      93.15970207      63.64307233      92.57313733
H      93.72095078      64.50100808      94.35892870
H      94.77163862      62.85127701      91.56591321
N      91.33233673      61.57949120      93.26099771
H      91.16415109      60.08849714      92.07991876
C      90.19661122      61.39996720      95.47953640
N      90.17582422      63.31237023      97.05745787
H      89.53142755      63.07993389      98.83946979
H      91.37202098      64.77690812      96.80990373
N      88.95695075      59.35339360      96.08991800
H      87.72484920      59.27402509      97.54689699
H      89.24040971      57.80759748      95.00899455
C      93.19938632      67.74755788      84.37739431
O      94.11590358      69.90373561      84.37361486
N      93.59433913      66.15073915      82.63317693
H      92.74018283      64.44431629      82.67286118
C      95.13446607      66.74222348      80.35605672
H      97.01096431      67.28457494      81.00801230
C      95.48973462      64.34227107      78.66097222
H      93.61512611      63.54102711      78.37373382
C      96.60845260      64.85816635      75.90764098
H      98.36022888      65.88239801      76.27046843
H      95.38579968      66.15640833      74.87774014
H      96.97505951      63.14985376      74.81915862
C      97.32276914      62.54325162      80.04614160
H      97.06198692      62.58104614      82.08893575
H      99.23517218      63.28780378      79.87795596
C      97.45127053      59.99401082      78.76679689
H      98.47739191      58.70521747      80.00267790
H      98.36967751      59.81070737      76.93376237
H      95.54831613      59.20410522      78.72522291
C      94.04976317      68.96076217      78.72711264
O      95.52185997      70.50655830      77.75579331
N      91.58367032      69.25933893      78.61372906
H      90.31377425      68.03101683      79.33371478
C      90.33267152      71.17552141      77.07738156
H      91.43249223      71.44197282      75.35395117
C      87.57745055      70.50655830      76.32149104
H      86.52298326      72.13172293      75.61662312
H      86.48329902      69.76956504      77.90508169
C      87.46028752      68.63572925      74.05192974
O      89.34056519      68.47321279      72.50424389
O      85.44961871      67.37150235      73.93476671
C      90.51030578      73.72098276      78.46444068
O      92.26397180      75.22709463      77.92019950
N      88.60357194      74.16884789      80.08393613
H      87.70028276      72.60037505      80.68864855
C      88.41081985      76.52155715      81.57493019
H      88.64136647      78.26766427      80.50912455
C      85.73307766      76.93729694      82.76167831
H      85.81055645      78.14483206      84.42841692
H      85.03009948      75.21197682      83.63662160
C      83.77910065      77.56657580      80.70376636
H      81.95551477      77.58547307      81.65996787
H      84.15326647      76.46864482      79.00301268
C      84.16649455      80.37848856      79.87417651
O      85.09057071      80.73186738      77.69910152
O      83.44839855      82.11325731      81.28202261
C      90.23818519      76.67273526      83.78590998
O      91.52319909      78.53222595      83.95598534
N      90.63502773      74.69797126      85.16918964
H      89.62402414      73.12004979      84.80069301
C      92.18838274      74.78867812      87.52378862
H      93.95338712      75.68629812      86.96820909
H      92.68538077      72.92162853      88.23999490
C      90.97706818      76.37415850      89.63650264
O      88.88514115      77.43429496      89.31524917
N      91.87846763      76.34581261      91.89661531
H      93.65481037      75.69385703      92.14605918
C      90.76919829      77.52500183      94.16995607
H      88.71695551      77.36626482      94.09814647
C      91.90681353      75.97164680      96.36770777
H      93.95716658      76.06802284      96.18629404
H      91.14525382      74.08003076      96.08424882
C      91.14147438      76.77478048      99.07946503
H      91.37957988      78.80623627      99.31757054
C      88.43349656      76.24376739      99.60858839
H      87.76642317      77.03367298     101.38871058
H      87.96106498      74.26333421      99.28733492
H      87.38469846      77.47964839      98.33680259
C      92.62490952      75.44630288     101.07312629
H      91.79342995      75.97542625     102.88159437
H      94.59211461      76.02266941     100.86147694
H      92.48884924      73.39028065     101.11847972
C      91.17359971      80.34069403      94.71230752
O      93.16159181      81.44429420      94.29845746
N      89.29332204      81.80523192      95.56646381
H      87.56611218      81.00020852      95.46441859
C      89.28576313      84.51132000      96.56612903
H      91.18115862      85.27098998      96.30723653
C      87.65114988      86.23475040      94.85781644
H      87.11824705      87.89959928      95.94629880
H      85.99952907      85.07823790      94.43640748
C      88.50152671      87.25331288      92.34637017
H      90.29676672      88.24163975      92.55990925
H      87.17871829      88.76887339      91.90417422
C      88.54121097      85.26532080      90.20342053
H      86.89903879      84.06534459      90.51711510
H      90.11346325      83.93306375      90.25066369
N      88.32767189      86.41238468      87.63150302
H      88.88514115      88.19250686      87.23466050
C      87.21462309      85.38059411      85.70776164
N      86.13936883      83.21307803      85.60760614
H      85.29277143      82.72363891      83.96732370
H      85.74252630      82.43451079      87.30458037
N      87.18438747      86.62214430      83.53457638
H      86.49463737      85.80011335      81.95476518
H      87.88736567      88.39659730      83.54780446
C      88.31066436      84.54533508      99.30056301
O      86.39259214      83.39827121      99.81267884
N      89.66370840      85.93428392     100.97675025
H      90.90525858      87.25709234     100.38337618
C      89.66370840      85.63003798     103.66961024
H      88.76419868      83.79133428     103.89826713
C      92.45105471      85.43917562     104.69006245
H      92.41326018      85.38626329     106.74797441
H      93.37135143      87.07000943     103.83212670
C      93.99118166      83.07701773     103.67527942
H      93.33922607      83.03922321     101.72319214
C      96.88624237      83.45685272     103.91149521
H      97.46827806      85.32201259     103.26142936
H      97.92937129      82.23797925     102.61892241
H      97.49284452      83.06756910     105.84090578
C      93.20316578      80.55801256     104.99619811
H      93.51686034      80.80745643     107.01631554
H      94.43148788      78.98576027     104.49164119
H      91.23218123      80.14416250     104.56156106
C      88.03287459      87.47441086     105.15493512
O      87.34879367      86.83190392     107.22229571
N      87.45839779      89.60602214     103.84346506
H      88.11224309      89.76853861     102.05767370
C      85.74819548      91.62424985     104.50864872
H      84.72963300      91.00252989     106.18672569
C      87.12391623      94.30766121     104.57289942
H      85.68016533      95.54165249     105.36847420
H      87.22407173      95.12213325     102.68128338
C      89.77709198      94.50419275     105.68027904
H      91.10367985      93.54799123     104.42928022
H      90.01141804      93.65570563     107.53976973
C      90.39314275      97.45027607     106.02987841
H      89.02498090      98.38569059     107.25253133
H      90.43660646      98.68426735     104.38014734
C      92.94049383      97.96050217     107.32623066
H      94.50707694      97.12524314     106.27932228
H      92.92348628      96.84178420     109.05533023
N      93.34867470     100.62312655     107.64559440
H      94.83588932     100.93682112     108.80021718
H      91.78209159     101.58499724     108.16148969
H      93.78142204     101.35634036     105.93728182
C      83.69595270      91.72629507     102.44506759
O      83.88870479      90.54521612     100.43817825
N      81.71174007      93.21161995     103.25387045
H      81.65126883      93.86546525     105.04533100
C      79.29478011      93.40626176     101.79689147
H      78.81478963      91.54866079     101.05611875
C      77.13671267      94.56655372     103.24253209
H      77.58646753      96.37502180     104.11936510
C      75.11281578      94.96150652     101.26965782
H      73.46119498      95.86290597     102.10680658
H      74.52889036      93.30799599     100.18306519
H      75.74587410      96.60934786     100.21330081
C      76.15405499      92.75052673     105.31178241
H      77.72441756      92.10801978     106.47963327
H      75.14494113      91.26331212     104.30455828
C      74.41361704      94.22829271     107.04655116
H      72.54467772      94.59489961     106.25853529
H      75.25643498      95.88180323     107.93472253
H      74.28889512      93.03398568     108.72273840
C      79.91461034      95.10890517      99.46685892
O      80.76687691      97.26886234      99.56701442
N      79.33068491      94.11868858      97.22564351
H      78.70707524      92.31777940      97.31446065
C      79.81823431      95.01252913      94.59136503
H      80.61002962      96.90981434      94.71797670
C      81.62670239      93.19272269      93.32524840
H      83.39926567      92.93760963      94.34381089
H      82.05000109      94.16593174      91.55646458
C      80.88026050      90.36191267      92.51266609
C      80.06956790      89.79688450      90.08814723
H      79.89760281      91.40882105      88.85037649
C      79.54233426      87.24008480      89.31335944
H      79.00565199      86.81300665      87.38961805
C      79.79744731      85.26343108      91.07458437
O      79.60091578      82.85780948      90.56624799
H      79.43839931      82.64616013      88.77100799
C      80.70451594      85.92861474      93.55390529
H      80.91994474      84.35447272      94.83513973
C      81.26009548      88.50620143      94.28333964
H      81.73252706      88.87091861      96.23542693
C      77.37859764      95.26953190      93.07013535
O      75.43784872      94.31522012      94.03956495
N      77.64504904      96.13124710      90.64750622
H      79.31745684      96.62824512      89.87082870
C      75.38304664      96.22384369      88.95053199
H      73.72008750      95.64369771      90.01822736
C      74.92006371      98.82221737      87.90929279
H      73.51032788      98.89024752      86.40696037
H      76.58113314      99.38535581      86.82836934
C      74.28889512     100.61934710      89.99366091
H      75.85736796     101.09744785      91.23899055
H      72.98120450      99.72361682      91.30891043
C      73.26277373     103.06465295      88.99777515
H      71.75099267     102.68103850      87.65229001
H      74.81612875     103.95093459      87.97543321
C      72.29334413     104.70304566      91.17851931
H      73.82969162     104.92603336      92.52967363
H      70.61337744     103.93959623      92.09314685
N      71.40517275     107.12000561      90.18641300
H      69.89717117     106.93481243      89.03367995
H      72.70719418     107.90235231      89.02990049
H      71.33147343     108.44848321      91.55646458
C      75.46808434      94.25663860      86.76222892
O      77.42395106      93.70294879      85.74177671
N      73.22497920      93.46673300      86.04224319
H      71.83603036      93.88625224      87.28568311
C      72.88293873      91.78298686      83.73299764
H      74.55912598      90.74363738      83.13773385
C      70.81746788      89.92160644      84.30369499
H      69.14694981      91.07433949      84.65518408
H      71.22186930      88.73107886      85.93452879
C      70.27511642      88.26431646      82.06625903
O      68.33436750      88.67438707      80.83226775
O      71.74532349      86.55222442      81.25556644
C      72.29712358      93.40626176      81.30091987
O      71.73209542      95.64936689      81.42753154
N      72.33113866      92.33289721      78.97655651
H      72.84703393      90.49797296      79.08994009
C      71.48643099      93.49318917      76.48400750
H      72.76388597      95.09189763      76.24023281
C      71.65083719      91.53354298      74.24657155
H      71.79256666      92.56911300      72.47022881
C      74.22653415      90.14648387      74.39397020
H      74.79345204      89.31311457      72.59684048
H      74.17173209      88.61580556      75.76969096
H      75.91405975      91.19717170      74.93632165
O      69.52111562      89.88192219      73.83839066
H      70.13149723      88.26431646      74.39774965
C      68.70097440      94.51742083      76.59928081
O      68.07925445      96.40525742      75.22167033
N      67.02856661      93.47618163      78.31704203
H      67.50099819      91.80944303      79.12017571
C      64.43964156      94.41915506      78.92553390
H      63.62139008      95.48307098      77.36461996
C      62.69353445      92.31022050      79.79102855
H      60.98711160      93.15303843      80.57904442
H      63.58737500      91.12914155      81.22155137
C      61.95654119      90.55844421      77.75579331
H      60.67719648      89.09390631      78.43987424
H      63.68564077      89.70617764      77.03013841
C      60.63562251      91.91715743      75.48245256
O      58.65140987      93.19650214      75.86039782
O      61.62394937      92.20061637      73.38674608
C      64.51901007      96.32021973      81.09116025
O      62.56503307      97.24807535      81.99066998
N      66.68463643      97.36901784      81.70343158
H      67.93563525      96.62635540      80.46944030
C      67.34793036      99.40614280      83.25867633
H      66.28212472     101.01052044      82.52735225
H      69.38883479      99.65180722      83.16419002
C      66.80368918      99.05087426      86.13106033
O      67.36871736     100.75540739      87.63339275
N      65.83425958      96.84934310      86.83592825
H      65.29379787      95.52842441      85.56981162
C      65.22009854      96.04242997      89.41729439
H      64.29791210      97.62602062      90.35837809
C      63.28312906      93.90892896      89.27178546
H      62.76912350      93.47429191      91.21820357
H      64.28279428      92.25730816      88.55179974
C      60.80191841      94.32088930      87.75811469
C      59.63784700      92.17604993      86.58270492
H      60.56759235      90.38458939      86.28601789
C      57.32671172      92.48407532      85.25989650
H      56.41397391      90.90237440      84.34904842
C      56.10594852      94.83111540      85.35060336
O      53.74568036      94.97662433      84.26023128
H      52.74034596      96.38258070      84.81581082
C      57.16608499      96.82288693      86.58081519
H      55.98878550      98.48395636      86.45231380
C      59.55658878      96.73784925      87.89228525
H      60.38239917      98.28175565      88.94108336
C      67.33848174      95.21472984      91.09915081
O      69.18096489      94.29065367      90.14672875
N      67.02289744      95.39047439      93.52177994
H      65.46198351      96.29754302      94.13972044
C      68.89372649      94.49474412      95.40583707
H      70.62471580      95.42071001      94.77844794
C      68.28901407      95.49440934      98.26688271
H      69.53245398      94.38702972      99.48197673
H      66.44653091      94.76686471      98.82813143
C      68.66506960      98.33844744      98.69774031
C      66.51078161      99.85589767      98.78655745
H      64.74388751      98.86190163      99.03411160
C      66.51456106     102.42970490      98.63159989
H      64.71743134     103.39724478      98.58435673
C      68.77845318     103.62401193      98.24420600
O      68.71420249     106.21104726      98.00987993
H      66.95486729     106.65324321      98.05712309
C      71.10092683     102.26529872      98.14405050
H      72.75443734     103.37456806      97.70185454
C      71.01588913      99.63290996      98.17995530
H      72.59381061      98.42915430      97.70563400
C      69.37182724      91.68283136      95.34347611
O      67.44619614      90.28821334      95.32646857
N      71.79445637      90.79843945      95.43796242
H      73.09269835      92.18927801      95.31513021
C      72.27822631      88.04888766      95.22442335
H      70.72487128      87.00953819      96.09558718
C      72.38405099      87.31378413      92.41817977
H      73.88449368      88.40982539      91.53000841
C      73.06813191      84.57935015      91.75299611
H      71.56202004      83.37559449      92.47676129
H      74.88604863      83.98597609      92.52400445
H      73.07380109      84.30345011      89.71209169
O      70.12015887      87.87692257      91.19552685
H      68.83136552      88.00542396      92.46353321
C      74.72731162      87.56322800      96.67762288
O      76.27499746      89.24886387      97.19540789
N      75.11281578      85.37870438      97.74153880
H      73.95063410      83.88582060      97.50532301
C      77.29355995      84.67005701      99.43851303
H      78.81289990      85.99664489      99.02277324
C      76.41294749      84.91572144     102.31278675
H      76.03311249      86.91694160     102.63215050
C      74.28700539      83.26032119     103.14237660
H      72.67506884      83.75731921     101.95940793
H      73.96953136      83.57968493     105.15115567
H      74.76699587      81.28177774     102.83435121
C      78.66928071      84.66816729     104.20818224
H      79.67650484      82.93906771     103.72819176
H      78.02677377      84.57179125     106.16215925
C      80.80278171      86.64104156     104.01731988
H      82.13881822      86.11002847     105.49319613
H      80.17161312      88.54210623     104.49920009
H      81.70040171      86.53899634     102.16538810
C      78.30078407      82.03955799      98.86592595
O      76.77577494      80.42762144      98.20074229
N      80.78577418      81.71641479      99.17395134
H      81.64370992      83.40205066      99.43284385
C      82.23708398      79.38260279      99.07379585
H      81.15993998      78.14483206     100.31723576
H      84.14003838      79.42039732      99.86181172
C      82.60180116      78.42073210      96.37904613
O      83.71862941      79.70952544      94.77844794
N      81.60213595      76.27778246      95.65717067
H      80.64782415      75.16662339      96.87982360
C      81.31867700      75.25733025      93.04745864
H      82.25220180      76.37226877      91.58858992
C      82.69061831      72.69864082      92.99265657
H      82.02165519      71.56480503      94.57624722
C      82.33346002      71.37016322      90.50199729
H      83.06667384      69.44642184      90.47554112
H      83.23296975      72.35471063      88.93163473
H      80.32279123      71.21142621      90.08625750
C      85.50631051      73.19185939      93.38194019
H      85.96551401      74.30868764      95.05245825
H      86.32456201      74.16128899      91.75677556
C      86.74030178      70.50655830      93.61626626
H      87.38847791      70.11160550      91.70197350
H      85.66126807      68.93241628      94.39105404
H      88.47696027      70.66340558      94.71608697
C      78.43117519      75.36693438      92.42951813
O      77.00065238      73.56602520      92.50699691
N      77.34080310      77.65917239      91.89850504
H      78.29700462      79.30512401      92.00810916
C      74.90494589      77.79145324      90.64939594
H      74.58747188      76.09636873      89.52311906
H      74.78400340      79.29000620      89.24343957
C      72.69018666      78.25821563      92.43329758
O      70.59636989      78.35837113      91.33347687
N      72.89616682      78.24876700      94.98442811
H      74.68573763      78.29789989      95.64583232
C      70.75132745      78.05601492      96.71352768
H      69.36993752      76.65383800      96.11637417
C      71.49021045      77.26988877      99.41961576
H      72.90750517      78.65694789      99.97897475
H      72.42184552      75.43307480      99.41016713
C      69.25466421      77.21319698     101.08068519
N      67.38194544      75.29134532     100.93706599
H      67.59548451      73.73610057      99.85236309
C      65.69064038      75.89605774     102.75309298
H      64.23366140      74.58269796     103.32190060
N      66.27078636      78.08814027     103.91527466
H      65.12750195      78.94229656     105.18328102
C      68.46853806      79.04056233     102.87403546
H      69.39828342      80.80367698     103.30489306
C      69.23576696      80.49943104      96.73053522
O      70.14094585      82.52332792      97.44107231
N      66.91896249      80.38415774      96.05779265
H      66.28401446      78.85347942      95.10915004
C      65.15962730      82.46096696      95.89905564
H      66.12338772      84.04455761      95.00143564
C      62.87872763      81.50854489      94.23987594
H      61.92441584      79.94007205      95.17340074
H      63.65729487      81.00020852      92.40117224
C      60.84916157      83.61936918      93.87515876
H      60.09327105      84.06345487      95.74031863
C      61.78646583      86.25364767      92.85848600
H      63.19431193      85.77554691      91.43174264
H      62.78235160      87.31000467      94.32113417
H      60.14807311      87.32323276      92.21975851
C      58.90085374      82.59135807      91.94007902
H      59.64162647      82.24553816      90.04846298
H      57.38340351      83.91416649      91.49599333
H      57.99378512      80.93784755      92.76399969
C      64.37728060      83.32457188      98.65238688
O      64.38861895      81.92050523     100.50431867
N      63.92374629      85.76231882      98.83569033
H      64.37350115      86.85836009      97.33902709
C      63.31336468      86.89048543     101.41894620
H      62.89195572      85.45051398     102.83057176
C      65.51678556      88.51753979     102.28444085
H      65.00278001      89.77042833     103.83401643
H      66.10449045      89.67972147     100.68762212
C      67.74666261      87.05111217     103.29166498
H      68.84459361      86.10435929     101.82901681
C      69.62883002      88.89170560     104.35558089
H      70.22598354      90.34490513     103.02332384
H      71.28045083      87.85613558     105.02454401
H      69.12805255      89.93483452     106.05822430
C      66.87360906      85.15949613     105.42138653
H      65.81914177      86.18561752     106.85946826
H      68.49121478      84.17683845     106.23585857
H      65.60938215      83.67039180     104.76376178
C      60.80191841      88.25864728     101.42461538
O      59.35438807      87.93172463     103.16694304
N      60.24633889      89.85735574      99.50654317
H      61.43497673      90.25419827      98.06657172
C      57.86906318      91.31244501      99.24765067
H      56.21933210      90.08412290      99.14182600
C      57.61583985      93.16626652     101.43406401