 %block lattice_cart
   140.777   0.000   0.000
   0.000 144.511   0.000
   0.000   0.000   162.462
 %endblock lattice_cart

 %block positions_abs
N      91.65925939      43.67433438      81.94626142
H      93.54520625      43.88409400      82.14657241
H      91.38335933      42.85797261      80.24172827
H      90.85612570      42.47057872      83.18970133
C      90.38558385      46.17444230      82.13901350
H      90.90903804      47.04371640      83.93236377
C      91.44383059      47.93188776      80.00173304
H      90.01141803      47.89787270      78.52207734
H      93.34489526      47.27237329      79.56142680
C      91.67815665      50.63419640      80.68203451
H      92.98773697      50.66632173      82.27129434
H      89.73929745      51.22757046      81.04486196
S      92.89891984      52.83761727      78.35956087
C      95.79587029      53.96200443      79.75795835
H      95.37257159      54.76324838      81.60611067
H      96.54420190      55.58149988      78.73183696
H      97.19426775      52.46345147      79.96582824
C      87.44705942      45.96846213      82.03129910
O      86.35290790      44.55116739      80.70471122
N      86.42093805      47.51803770      83.80953156
H      87.58311972      48.23991315      85.14178861
C      83.79610820      48.11519121      83.88134116
H      82.71707446      47.65031855      82.18625666
C      82.57156554      46.44278343      85.95059147
H      82.83801696      44.43211464      85.59532293
H      80.52310221      46.66199169      85.91468667
C      83.60146639      47.12308490      88.53762680
O      84.57278571      49.09406945      89.17824402
N      83.51453897      45.33162436      90.26672636
H      84.69750765      45.58106824      91.74449234
H      83.00053342      43.52315628      89.93980371
C      83.43517046      51.05182591      84.11188777
O      85.33056595      52.40864941      84.64857004
N      81.04466669      51.95889453      84.25361725
H      79.66516648      50.65687311      84.06464460
C      80.09224461      54.60073193      84.76951252
H      80.79144336      55.88196636      83.32009245
C      77.20096337      54.49112779      84.72604881
H      76.50365436      53.39508654      83.12923009
C      75.97264126      53.12485568      86.98427177
H      76.38271187      54.03759349      88.78518093
H      76.89482770      51.33906430      87.43591636
H      73.93929575      53.16642966      86.65734912
C      75.81390425      56.98367681      84.64857004
H      76.19184950      58.02680573      86.38333880
H      73.79378682      56.58494455      84.73171799
C      76.64538383      58.51435512      82.31097860
H      75.13549251      59.90708342      82.15413131
H      76.96285785      57.53925634      80.52518722
H      78.26676901      59.70677242      82.75695400
C      81.03143859      55.72889853      87.30552524
O      81.20529341      58.01546738      87.71748557
N      81.92716886      54.08861610      88.97226385
H      81.84024146      52.23668430      88.52628843
C      83.08557110      54.89741896      91.21158953
H      82.12559014      56.67376169      91.62354987
C      82.27865797      53.20422417      93.44335631
H      83.32745607      51.44866844      93.18635353
H      80.28877615      52.71856451      93.19769188
C      82.75108955      54.07538800      96.13621629
C      82.00842711      56.55470893      96.74659790
H      81.23930849      57.77925158      95.30851618
C      82.24275317      57.38051932      99.22213937
H      81.59835649      59.22867166      99.80228535
C      83.53721569      55.95188624     100.82840674
H      83.55611296      56.79281445     102.68789743
C      84.79010424      53.60106670     100.18023061
H      85.78221054      52.69588780     101.71468838
C      84.26665005      52.68643916      97.74248367
H      84.89592891      50.77592587      97.38910485
C      85.90126331      55.47756494      91.30607585
O      86.71951480      56.92509528      92.93690965
N      87.42627244      54.45711273      89.54107147
H      86.55699834      53.37618928      88.22771168
C      90.08889681      54.81616073      89.12722141
H      90.88258186      55.96133486      90.64467164
C      91.42682304      52.13841853      88.98360220
H      93.37324115      52.38597268      88.35999252
H      90.58211539      50.99324440      87.49260815
C      91.53642718      50.89308890      91.66701357
H      89.75819472      50.43388540      92.60053837
H      92.48695951      52.13463909      93.00493979
C      93.07277466      48.37219400      91.51016628
O      92.04665328      46.40876835      92.13566570
O      95.32532843      48.57061525      90.82041618
C      90.59156401      56.40542055      86.81608612
O      92.56632802      57.52413852      86.63278267
N      88.87569253      56.41864863      85.02651531
H      87.80043825      54.85584497      85.22682630
C      88.96073021      57.82460502      82.59632726
H      90.83344898      57.67909608      81.74972987
C      87.05588608      56.77391719      80.48928242
H      85.14915224      57.04414805      81.22249624
H      87.60201699      54.81238127      80.17558786
C      87.29777105      58.02680573      77.93815190
H      89.20450490      57.66964746      77.24651207
H      86.78565522      59.96566492      78.40302458
S      85.23230019      56.58872401      75.69693650
C      82.12559014      57.36351179      76.83833119
H      81.84591063      56.29959587      78.57876913
H      80.90482693      56.54526030      75.39458029
H      81.88748462      59.37040113      77.23517372
C      88.69427880      60.65919449      83.03096432
O      90.40448111      62.03491523      82.50939985
N      86.61180039      61.65508024      84.22527134
H      85.26820499      60.48911911      84.91691117
C      86.25275240      64.35927861      84.58998852
H      86.13369965      65.09816159      82.67191632
C      83.83957190      64.85438690      86.03184970
H      83.76965202      66.83293034      86.60065733
H      83.77910066      63.73566892      87.75905956
C      81.48119346      64.08337857      84.50495084
H      81.64937911      62.07648921      84.06464460
C      79.06234378      64.47644164      86.07720314
H      78.68817796      62.98166812      87.44347525
H      77.45418668      64.39707313      84.79029952
H      79.32879518      66.26601245      87.05986082
C      81.07112284      65.44587123      81.92925388
H      79.35147191      64.56147931      81.21304760
H      82.56400663      64.84493826      80.64235025
H      80.86514268      67.46409893      82.28830188
C      88.45995274      65.77279388      86.04696752
O      89.05143707      67.88739762      85.23816466
N      89.86401939      64.42163958      87.60788145
H      89.53331728      62.54136189      87.57386638
C      92.26775126      65.15485338      88.85132137
H      91.85201147      66.78757692      90.03617976
C      93.10301029      63.03458045      90.49160380
H      94.84722767      63.64874151      91.40056216
H      93.56599324      61.42075418      89.30107623
C      91.05454697      62.34294062      92.47959589
H      89.52764810      61.30737061      91.56118890
H      90.24385438      63.90385457      93.54729124
C      92.34145058      60.49856775      94.40144754
H      93.78709122      61.41319529      95.55040115
H      93.05198767      58.97355862      93.21469941
N      90.53487223      59.33449633      96.21558481
H      89.13269530      58.45388388      95.26694219
C      90.72195514      59.10394972      98.76860506
N      92.46617252      60.00723890     100.39376969
H      91.97673341      60.00534917     102.23814257
H      94.03464536      60.88596164      99.75315246
N      88.94372266      57.71878034      99.77204973
H      89.33300629      57.52035908     101.62965069
H      87.99885951      56.39030274      98.77994340
C      94.43715707      65.85972129      87.02017656
O      95.97161482      67.38850988      87.60977118
N      94.30865568      65.09627187      84.64668031
H      92.76474928      64.04180458      84.25550697
C      95.88657714      65.85216239      82.52262794
H      97.27552599      67.12583792      83.35788697
C      97.53630821      63.60149836      81.59666205
H      98.89691117      64.37628614      80.26062554
C      99.17092148      62.74545233      83.94748157
H     100.74506350      61.67208779      83.16513489
H      97.94259938      61.57760147      85.12100161
H      99.99484215      64.25534366      85.07942764
C      96.20027172      61.20910484      80.49684133
H      94.66392422      60.58927460      81.71949426
H      97.57410275      59.67464707      80.53652559
C      95.21194486      61.54358640      77.79831216
H      96.78986632      61.81570699      76.50007018
H      93.89669534      63.11772842      77.64524433
H      94.36912692      59.91086286      76.86478736
C      94.38424473      67.37906125      80.44770845
O      95.59177984      68.87950394      79.13245894
N      91.91626217      67.11260984      80.17747759
H      91.18115862      65.65752059      81.17336336
C      90.44983455      68.35038058      78.30097935
H      91.60256760      68.41652099      76.59455650
C      88.12547118      66.75545157      77.67170049
H      86.76297851      66.72899540      79.21749662
H      88.73207333      64.87895334      77.07832644
C      86.93305388      67.53401881      75.19048985
O      84.60302133      67.47543729      74.96183296
O      88.35979724      67.70976335      73.36312450
C      89.84134267      71.13961661      79.14001784
O      89.96039543      72.95375387      77.72083337
N      89.59945770      71.57047421      81.60233123
H      89.38213917      70.06247261      82.74939509
C      89.01742200      74.07814104      83.03096432
H      89.38591863      75.70141593      81.81776002
C      86.16582499      73.94019101      83.78874457
H      85.72173930      75.48787686      85.07186874
H      85.75764410      72.13928183      84.70337210
C      84.28554730      74.10081775      81.53052163
H      82.77376625      72.79690659      82.04074773
H      85.26064608      73.59626083      79.78819397
C      83.33690470      76.88060515      81.37178461
O      84.45373295      78.34325331      79.85244465
O      81.26954412      77.61570869      82.31475805
C      90.62368936      74.43151985      85.43280646
O      91.02998052      76.53100578      86.28885249
N      91.17359971      72.37927707      86.73860735
H      90.69549897      70.66529531      86.04696752
C      92.60034308      72.53801409      89.14800840
H      94.21416935      73.77578483      88.81730629
H      93.39213842      70.69175147      89.60532215
C      90.91470721      73.43563408      91.29284775
O      88.77175758      74.34459244      90.80151892
N      91.60823677      72.96887168      93.67768236
H      93.37513087      72.29234966      93.92712624
C      90.16259615      73.61137863      95.95669229
H      88.15192734      73.78334372      95.54284224
C      90.43471673      71.17174196      97.63665898
H      92.43782663      70.95442343      98.06373713
H      89.72984881      69.55413624      96.57463281
C      89.09679051      71.09237346     100.23692240
H      89.28576313      72.91217989     101.18178556
C      86.29999556      70.81836314      99.71346820
H      85.19261593      70.45364596     101.40855271
H      86.08456675      69.03257177      98.70624409
H      85.49875160      72.31124692      98.53994816
C      89.89803446      68.81714297     101.95468362
H      88.90592814      67.04646942     101.60697398
H      90.06810982      69.23855194     103.96157296
H      91.87090872      68.50722786     101.44823697
C      90.87502296      76.04345639      97.21336030
O      92.92159656      76.17762697      98.36609334
N      89.43505151      77.99743340      97.13399180
H      87.73429782      77.77066625      96.29306358
C      90.10023517      80.62226325      98.01271453
H      92.11468343      80.95107563      98.28483512
C      89.11001859      82.51009983      96.00204573
H      89.19505627      84.32801655      96.96580615
H      87.16926967      81.96585866      95.59008540
C      90.80699282      82.37970873      93.71358717
H      90.89580996      80.47108514      92.94257882
H      92.73451366      82.87859647      94.24082080
C      89.89803446      84.38848779      91.75772043
H      90.41959893      86.26309629      92.43046299
H      87.84201222      84.35258299      91.62732931
N      91.14903327      83.81779044      89.43146734
H      92.74396229      84.83446320      89.18013373
C      90.14369888      82.71230055      87.50772595
N      87.94972663      81.49342708      87.55307939
H      87.41871353      80.60525571      85.95059147
H      87.08045252      81.00776742      89.18013373
N      91.35501344      82.52899711      85.40446057
H      90.44983455      81.51988325      84.05897544
H      93.09356166      83.25276228      85.09454546
C      88.87569253      80.92461946     100.70368480
O      86.84423674      80.01566110     101.30272804
N      90.54810030      81.70507643     102.40254875
H      92.20916973      82.30600939     101.68067330
C      90.60668183      81.61625929     105.24091768
H      89.23663025      80.23486936     105.91554996
C      93.16348153      80.65438860     106.06672808
H      93.04064931      80.10258851     108.04527153
H      94.60345298      82.09436005     105.75114378
C      94.13291112      78.21475193     104.65321279
H      94.88313247      78.63238144     102.78049402
C      96.38735461      77.17351273     106.09885342
H      95.74862713      76.77100102     108.01503591
H      98.00118088      78.44151908     106.26136989
H      97.22828283      75.57858373     105.10296766
C      92.06744027      76.12660435     104.47557852
H      90.88447160      75.91495500     106.14798631
H      93.14458426      74.42018149     104.05794900
H      91.00541408      76.30612835     102.72002278
C      90.03598447      84.16361036     106.53726993
O      89.89047555      84.34691381     108.83328739
N      89.79220979      86.00042434     104.80817035
H      90.23818519      85.79633389     102.96379746
C      88.73207333      88.60635693     105.35052180
H      87.84579168      88.53832678     107.20812276
C      90.79187501      90.69072504     105.38642660
H      92.08066834      90.27687498     106.93978163
H      89.87724747      92.45950887     105.91743969
C      92.06744027      90.98552236     102.68789743
H      90.69171951      91.85101700     101.42178080
H      92.60979172      89.13548029     101.96602198
C      94.40125227      92.72596028     102.98836390
H      95.77697302      91.77542795     104.19022985
H      93.76819395      94.35679409     104.07495653
C      95.43304283      93.26642201     100.29928337
H      94.04787344      94.11868859      99.03694619
H      95.99807100      91.45984366      99.49237023
N      97.59866919      95.01441886     100.54116834
H      97.08466362      96.46194920     101.67689385
H      98.06921103      95.63046963      98.79695095
H      99.14257559      94.18671872     101.30272804
C      86.84801619      89.16949536     103.29260985
O      86.60046205      87.92983490     101.32729448
N      85.45906734      91.26331212     103.53449482
H      85.74630575      92.15148348     105.20123342
C      83.49186226      91.86235536     101.78460825
H      82.36558537      90.17482976     101.43311915
C      81.63237156      93.78987620     102.97891528
H      82.82100941      95.35267986     103.60063523
C      79.68406373      94.68371674     101.07407115
H      78.46708000      96.09534231     101.94334525
H      78.69384715      93.06611102     100.27093747
H      80.63837553      95.61913128      99.50559832
C      80.12059052      92.43872188     105.20123342
H      81.69284280      91.93416496     106.43333498
H      79.18517599      90.80599835     104.36219494
C      78.45763135      94.19427763     106.56372610
H      76.75120850      94.66481948     105.51303827
H      79.42328151      95.96684091     106.97190697
H      78.04189157      93.21350967     108.32684074
C      84.52176310      92.68438630      99.09552771
O      85.96740372      94.46828795      99.00482084
N      83.55800268      91.50141763      97.17367605
H      82.35613675      90.02932083      97.35320005
C      84.19861990      91.96251085      94.60931744
H      85.47040570      93.57066794      94.42223454
C      85.66882696      89.88381191      93.31674464
H      87.16360048      89.28476867      94.59986880
H      86.65904356      90.55277503      91.64055740
C      84.10413358      87.56511772      92.64589179
C      83.32178688      87.21362863      90.13255580
H      83.25564647      88.86335970      88.93446932
C      82.20117919      84.95918514      89.40123172
H      81.68528391      84.70029263      87.44536498
C      81.83079283      83.03166430      91.26072240
O      80.88215021      80.72808792      90.68624562
H      80.61002963      80.44840843      88.91557205
C      82.63959568      83.37370476      93.74004333
H      82.50920458      81.81090110      95.04584422
C      83.95862465      85.59602290      94.52616948
H      84.72585353      85.91916611      96.38943963
C      81.88937434      92.86013085      93.23359669
O      79.71996853      92.22707254      93.79106594
N      82.33723947      94.37758108      91.28339913
H      84.13625892      94.99930104      91.12466212
C      80.56089675      95.13725107      89.42579815
H      78.72786222      95.02575721      90.35554350
C      81.03143859      97.92270765      88.74927614
H      82.71518475      97.90003093      87.56252801
H      81.44717839      99.04709481      90.42357365
C      78.63904508      99.13780166      87.36410676
H      77.34080310      99.61212297      88.89100561
H      77.60914425      97.84144941      86.13578465
C      79.39304588     101.54153353      85.90523803
H      80.91616530     101.26185404      84.54841454
H      80.16027476     102.87379058      87.27528962
C      77.19529418     102.85678305      84.57865016
H      75.35470076     102.52419122      85.44036537
H      77.00821128     102.26907816      82.61333481
N      77.49387093     105.56665058      84.24983778
H      76.07657621     106.35655619      83.24450339
H      79.17005818     106.05797942      83.48449864
H      77.50898875     106.39435070      85.96759900
C      80.71963375      93.21917885      87.16001632
O      82.51109431      93.10957473      85.70492705
N      78.93006293      91.51842517      87.18836221
H      77.59780589      91.79999439      88.52628843
C      78.38393204      89.79688450      85.08131737
H      80.11303161      88.93894875      84.35944192
C      76.59814066      87.80700269      85.95626065
H      74.67817873      88.47596581      86.28696276
H      77.14994075      86.93961831      87.74016228
C      76.42428585      85.72830375      84.01929118
O      78.21385667      84.13526446      83.67536098
O      74.38716089      85.73208320      82.81553552
C      77.40316408      91.12158264      82.70026222
O      76.93073250      93.50452753      82.65301906
N      77.34647229      89.91971671      80.47227489
H      77.98519978      88.12258698      80.56298175
C      77.03844689      90.83056480      78.04964576
H      78.53511013      92.24785953      78.02696904
C      77.75276344      88.83690353      75.97094682
H      77.78110933      89.69483929      74.09822804
C      80.28877615      87.66716295      76.45471674
H      81.53788525      89.30366593      76.51140854
H      80.58735291      86.38403879      74.87112610
H      80.08846517      86.55033469      78.17436770
O      76.15216525      86.72607924      76.16747835
H      74.46274994      87.34779921      75.93126256
C      74.49865474      92.17416020      77.35800593
O      74.64983284      93.69350016      75.52875085
N      72.38972016      91.53921216      78.58821776
H      72.48042703      90.33545650      80.06409401
C      70.00110610      93.02075759      78.28964099
H      69.78189786      93.37791586      76.27141330
C      67.56524889      91.47874092      78.77152120
H      67.17974473      91.60724231      80.79352837
H      68.01878321      89.52665364      78.29908963
C      65.25789307      92.08345334      76.92903806
H      64.91207314      94.11112968      76.84589010
H      63.63083871      91.06867031      77.68303886
C      65.81536232      90.90426412      74.31743628
O      67.19108309      91.88692181      72.70738947
O      64.77034367      88.87469806      73.85634307
C      69.98031912      95.54543194      79.83732685
O      67.97531951      96.76241570      80.31731733
N      72.20641671      96.29565329      80.72738795
H      73.52733541      94.96150651      80.39290639
C      72.75065789      98.25529948      82.55097384
H      71.78500775      99.99951686      82.02940938
H      74.80479039      98.39513922      82.56987109
C      71.96453175      97.96428162      85.37800440
O      72.26310850      99.80298534      86.79907859
N      71.01210969      95.73062512      86.20570453
H      71.31257616      94.11868859      85.22682630
C      70.16740203      95.37346685      88.79462958
H      69.49654918      97.21217056      89.44091597
C      67.72776536      93.62735973      88.70203299
H      67.07769950      93.18327405      90.60498738
H      68.52900931      91.90770879      87.90078903
C      65.51678556      94.53442836      87.07119918
C      64.09760110      92.62013561      85.96004011
H      64.72876970      90.67749696      85.96570929
C      61.89795968      93.23996585      84.57298099
H      60.80758760      91.76408960      83.68103016
C      61.22710684      95.76086075      84.05708571
O      59.13329009      96.25029987      82.62656288
H      58.66652769      98.00207615      82.69459303
C      62.74833652      97.62035143      85.27217973
H      62.04913778      99.53464419      85.18714204
C      64.68719572      97.08177944      86.89356491
H      65.64717669      98.67670845      87.73260339
C      72.08925368      94.37002218      90.72592986
O      73.86181697      93.02831649      90.04562840
N      71.66595499      95.10134626      93.08241858
H      70.34503629      96.35990399      93.64177756
C      73.36103949      94.21695434      95.02505722
H      75.28100142      94.55143590      94.35798383
C      73.17017713      96.02542243      97.21713974
H      74.57424378      95.39425384      98.58719133
H      71.30690699      95.77597855      98.06184742
C      73.99598754      98.76930504      96.72581091
C      72.20074754     100.79509164      96.98281368
H      70.35448493     100.56454503      97.82752135
C      72.95852779     103.23850776      96.30251222
H      71.68863171     104.83154704      96.40266770
C      75.33013432     103.80353593      95.31040590
O      75.91783919     106.08821504      94.44491125
H      74.53078009     107.22960974      94.19924683
C      77.01199073     101.75696233      94.90033528
H      78.86203280     102.17081240      94.14066532
C      76.32790980      99.30976676      95.56740867
H      77.75843263      97.87546449      95.32174425
C      73.06813192      91.45228475      95.65055664
O      71.09714737      90.41482500      96.26093823
N      75.29045006      90.15404277      95.74315323
H      76.98364484      90.97229427      95.42756893
C      75.37359801      87.41960880      95.76582993
H      73.71252859      86.55411414      96.62376569
C      75.55123228      86.60135730      92.95202746
H      77.39749489      86.98119229      92.12243761
C      75.34525213      83.94818156      92.59297946
H      73.89394232      83.15449651      93.81941183
H      77.02521882      83.05623074      93.38666452
H      75.40761309      83.12993007      90.70325315
O      73.50465869      87.74842117      91.68780055
H      74.00543616      89.27343031      90.84498263
C      77.62237233      86.54655524      97.29650826
O      79.43839931      87.98274724      97.80106518
N      77.28033186      84.36014190      98.47380775
H      75.91405975      83.18284241      97.85019807
C      79.02265952      82.98820059     100.18589979
H      80.89537831      83.77621646      99.84574905
C      78.31401216      83.64771509     102.96568720
H      78.23086420      85.69995785     103.12631393
C      75.69107203      82.58946835     103.43055987
H      75.31879596      82.69718274     105.45445675
H      75.49454051      80.63171189     102.82395772
H      74.11693002      83.65527398     102.63498508
C      80.33601932      82.74820535     104.85163406
H      80.73097212      80.72619820     104.91021557
H      79.59902605      83.17528350     106.72813229
C      82.85313476      84.20707407     104.51526277
H      83.98319109      84.17494872     106.23491372
H      82.22196618      86.06467503     103.88787364
H      84.02098563      83.45118354     102.99403308
C      79.19840408      80.15928030      99.47158323
O      77.87181621      79.08024658      97.83130080
N      81.09568929      78.77411091     100.49203544
H      82.32212166      79.95518986     101.34997120
C      81.99897846      76.13605298      99.80039561
H      80.74231048      74.69419181     100.56762450
H      83.95862465      75.89605774     100.39565941
C      82.21251754      75.90928582      96.96013697
O      84.10413358      76.67273525      95.83197037
N      80.35869603      74.38049725      95.86598543
H      78.86392252      73.89294785      96.94690888
C      80.17728231      74.17829652      93.05785214
H      81.14293245      75.84314541      92.32463833
C      81.46985510      71.74621876      91.87866292
H      79.96563295      70.35726992      92.11109925
C      81.63426130      72.19408389      88.98549193
H      83.10635809      73.62271698      88.80974739
H      79.94862542      72.88383400      88.02551097
H      82.07267780      70.40640280      88.05574659
C      83.91138150      70.73332545      93.08241858
H      83.19517523      69.85649245      94.80395925
H      84.99797413      72.38494626      93.66445427
C      85.58000983      68.97587998      91.48559984
H      85.77276191      69.60893830      89.53351256
H      84.73341244      67.10505093      91.63299850
H      87.41115464      68.64517788      92.36621231
C      77.27277297      74.16884789      92.36621231
O      75.72508712      72.59848532      93.00305008
N      76.57924340      76.17762697      91.11143404
H      77.89638264      77.54389908      90.91490250
C      74.02811289      76.76533184      90.23271130
H      73.22686892      74.96631239      89.63555779
H      74.37393280      78.04278684      88.65478983
C      72.31035167      78.09758890      92.26416708
O      70.64172333      79.53756034      91.48371012
N      72.95096889      77.98609504      94.68301677
H      74.48920610      77.02233462      95.27261137
C      71.04801449      78.48309306      96.58786088
H      69.28301011      77.68751828      95.88299298
C      71.78122830      77.16406410      99.15599895
H      73.21931001      78.33191496     100.05361894
H      72.47097840      75.23276380      98.97836468
C      69.41907040      76.72942704     100.75470741
N      68.08492363      74.46931437     100.88698824
H      68.50066342      72.88761345      99.90244084
C      65.97598906      74.78489867     102.40254875
H      64.56058405      73.36949366     102.80317073
N      66.04968838      77.04501134     103.41544205
H      64.84026354      77.70830528     104.73447103
C      68.06224692      78.35270196     102.34585696
H      68.43074355      80.35014266     102.52538096
C      70.63605415      81.29122636      97.13399180
O      72.18185028      82.56301217      98.28294539
N      68.44775107      82.08113196      96.51794102
H      67.19864198      81.16272497      95.40678195
C      67.33281256      84.62470358      96.67667803
H      68.59703946      85.71507567      95.46914290
C      64.68908545      84.73997688      95.42189975
H      63.47210169      83.62692809      96.65400131
H      64.75144642      84.03132952      93.48870974
C      63.44753526      87.32512248      94.99860106
H      63.22454755      88.19061713      96.85242256
C      64.91207314      89.17705427      93.28839875
H      64.99711084      88.45706854      91.36087791
H      66.85849125      89.21673852      93.96114132
H      64.14673400      91.08378812      93.43579740
C      60.89262528      87.02276627      93.55107071
H      59.59249357      86.02877023      94.79829007
H      60.87939720      86.18372779      91.67079302
H      60.00256419      88.85391107      93.22792750
C      67.00777963      85.68672977      99.29772842
O      65.82292123      84.39982615     100.87942935
N      67.72398591      88.13581507      99.67378396
H      68.75577646      89.13925974      98.41900569
C      67.02100771      89.31878374     102.14743569
H      66.19897676      88.06022602     103.55717153
C      69.51922590      90.44128118     103.26615367
H      69.13372173      91.38803405     105.05572450
H      70.14283559      91.78487658     101.83185141
C      71.52800497      88.45517882     103.71968800
H      71.78878721      87.48385949     101.92255827
C      73.94118547      90.04254892     104.44912235
H      73.51032788      91.23496622     106.07050752
H      74.73487052      91.12725183     102.88631869
H      75.41517200      88.77643229     105.13131354
C      70.82124733      86.73930732     105.86263763
H      70.19196847      87.79188489     107.51803788
H      72.32735920      85.43161671     106.38420210
H      69.21875941      85.59413318     105.25981494
C      65.01411837      91.41449022     101.58618698
O      63.13950987      91.43149776     102.91088513
N      65.33915129      92.88847675      99.64543807
H      66.70731315      92.69194521      98.33018854
C      63.43619690      94.80843868      99.06529208
H      61.48410962      94.18860845      99.28261061
C      63.85382642      97.19516301     100.82462727