 %block lattice_cart
   140.777   0.000   0.000
   0.000 144.511   0.000
   0.000   0.000   162.462
 %endblock lattice_cart

 %block positions_abs
N      91.37391071      43.62520149      81.95476518
H      91.41170523      42.25514992      80.62817731
H      90.02653585      43.08662951      83.19442564
H      93.10112055      43.90110155      82.71632489
C      90.58778456      45.91366007      80.60361087
H      91.60256760      47.43111029      81.55981238
C      91.33422645      46.09885325      77.87295634
H      90.76163938      44.37542285      76.89974729
H      93.39024869      46.00436692      77.93720704
C      90.41392975      48.41376797      76.55014793
H      88.40893013      48.35329674      76.08716498
H      91.34556482      48.42132688      74.71144422
S      91.33044700      51.30693897      78.18287146
C      89.56733235      53.65964822      76.59550136
H      89.90181391      53.67098658      74.56215584
H      90.00952832      55.51346974      77.37595832
H      87.53020739      53.38185845      76.73534110
C      87.73807729      46.23302381      81.07037327
O      86.39826132      44.48313724      80.23700396
N      86.72329426      48.30794330      82.22499604
H      87.93460882      49.58539830      82.96387903
C      84.04366235      48.75769816      82.55758787
H      83.19706496      47.63520073      81.05147600
C      82.91738546      47.62953155      85.18241772
H      83.26320538      49.00147286      86.68097069
H      84.00586782      45.90610116      85.46209722
C      80.33979877      46.72435266      85.02934989
O      79.03966707      47.04749585      83.20198455
N      79.42139178      45.66610592      87.10993856
H      77.58835726      45.13887227      87.04757759
H      80.63459607      45.53004562      88.57825591
C      83.42194238      51.49024241      82.04169259
O      85.03387893      53.12863513      81.94720628
N      80.83868652      52.11763156      82.01145697
H      79.52721646      50.74002106      82.17964261
C      79.75587334      54.65742371      81.67697541
H      80.39271111      55.28481285      79.81937445
C      76.80979002      54.31349352      81.56359183
H      76.31846118      52.80360221      80.25212177
C      76.09169402      53.51980848      84.14306825
H      74.07724577      53.10595842      84.27912855
H      76.44318312      55.04859706      85.47910475
H      76.98742429      51.80582671      84.85171562
C      75.25265554      56.68132060      80.94187188
H      75.38871582      58.00034956      82.51790362
H      73.23631755      56.26747054      80.83982666
C      76.02366387      58.07971806      78.50601466
H      77.95118471      58.70899692      78.85372430
H      74.80101095      59.72755942      78.31137285
H      76.04823032      56.91564666      76.80715070
C      80.71396458      56.65864389      83.52134829
O      81.14293245      58.79970379      82.82592901
N      81.28844137      55.96700404      85.87783701
H      81.08624066      54.12641062      86.33893023
C      82.46007170      57.69988308      87.77134277
H      81.33946399      59.42709292      87.82425511
C      82.46007170      56.42242810      90.45286441
H      82.54888883      57.72444952      92.04779342
H      84.10224386      55.18087791      90.41695961
C      80.10736243      54.84261689      90.96309052
C      79.75398362      52.28392747      90.27523014
H      81.41505303      51.16898894      89.87271843
C      77.53922438      50.93088343      90.84781721
H      77.46174559      48.89186874      90.76844870
C      75.63626998      52.25747130      92.16873590
H      74.02811289      51.12363550      92.71297708
C      75.63815970      54.85206553      92.52211472
H      74.13204783      55.80637731      93.51800049
C      77.99086897      56.05771092      92.04779342
H      78.05889910      58.02113655      92.60148323
C      85.03387893      58.75057091      86.85671524
O      85.56111258      60.94265343      86.49955696
N      86.61935931      56.88541104      86.03657402
H      85.95228592      55.09772994      86.03279456
C      89.02876036      57.52980772      84.61927928
H      90.18716259      58.76568871      85.79090960
C      90.48384961      55.04292788      83.97677234
H      92.19783139      55.68921428      83.03568863
H      89.53898646      53.85051058      82.59160295
C      91.18493807      53.39130708      86.30491515
H      89.63158305      53.50091122      87.65229001
H      92.68160131      54.43443600      87.25733722
C      92.13736013      50.83450738      85.40162598
O      90.54810031      49.11863589      85.51311983
O      94.35778856      50.54159981      84.46999090
C      88.55632877      58.93009491      82.15129672
O      90.11724272      60.60439243      81.54658430
N      86.54943944      58.58049555      80.78313487
H      85.51953860      57.06682476      81.31792741
C      86.13369965      59.67086762      78.20176872
H      87.70406221      59.48756418      76.88085003
C      83.66382735      58.32160303      76.98478498
H      82.18984083      59.31181962      78.02791390
H      83.73941641      56.32227260      77.47044464
C      83.30099990      58.85072641      74.19743867
H      85.08490154      58.52758320      73.22422961
H      83.05533547      60.88974110      74.04437083
S      80.43050564      57.28225357      72.96911656
C      81.02010025      57.53169743      69.54871194
H      79.73697608      58.84694695      68.61707686
H      80.50609468      55.69110400      68.77770360
H      83.02132041      57.91720161      69.25769408
C      85.77087220      62.55647971      78.64396468
O      86.82533947      64.03235595      77.11895555
N      84.12870003      63.21977363      80.36361563
H      83.31989717      61.82704535      81.38406783
C      83.66571708      65.77846306      80.89840817
H      83.57123076      67.05591805      79.28458190
C      81.14671191      65.92397200      82.33460017
H      81.08057149      67.83448529      83.09804960
H      81.20340369      64.73344441      84.01645659
C      78.60691973      65.48555548      80.78691432
H      79.02076981      63.87550866      79.57182030
C      76.41672694      64.86383553      82.43664539
H      76.83813591      63.25378871      83.65173941
H      74.89738698      64.06259157      81.29903015
H      75.74020493      66.40585220      83.62528324
C      77.85480867      67.73999897      79.20332367
H      75.94996455      67.46787839      78.47010986
H      79.14549174      67.93086133      77.60839466
H      77.99653814      69.47098828      80.30881356
C      85.88236604      66.77623855      82.58971322
O      86.45495311      69.02690259      82.38562278
N      87.23918954      65.36650273      84.06181002
H      86.59857232      63.59204972      84.36605596
C      89.63158305      66.17719531      85.20320471
H      88.99852474      67.68519691      86.45609326
C      90.86368461      64.06637102      86.79624399
H      91.59500869      62.55081053      85.60949587
H      89.52953783      63.35394421      88.19653119
C      92.97828835      64.96021158      88.48376959
H      92.29798687      66.05436310      90.09003696
H      94.44471597      65.92964118      87.41040505
C      94.43904679      62.70009891      89.65162045
H      96.04153471      63.61283672      90.56624799
H      95.06076674      61.52657887      88.07558871
N      93.01986232      60.90674863      91.28245426
H      93.42804322      59.04725794      91.14261451
C      91.43249223      61.52846858      93.17029085
N      91.00541408      63.89629566      93.81846697
H      89.77331252      64.32715325      95.21308499
H      92.58711501      64.94509376      93.63327380
N      89.85079131      59.98267246      94.08491838
H      88.97017884      60.64218694      95.64394259
H      89.82433514      58.09861534      93.77878272
C      91.43627168      67.05780778      83.13395440
O      92.59845336      69.01367451      83.68953394
N      91.59500869      65.78224251      80.90218762
H      90.77297774      64.06826075      80.75478897
C      93.32788772      66.55136112      78.94254144
H      95.17792977      67.04080024      79.70977032
C      93.87212890      64.16652652      77.24178776
H      92.02208684      63.33504695      76.87329113
C      95.45760928      64.66163481      74.84561479
H      95.14391471      63.15363321      73.47934267
H      97.43426300      65.06603624      75.25757513
H      94.87368385      66.38128577      73.87240574
C      95.17415032      62.01223853      78.65908249
H      94.34833993      61.71555149      80.52235264
H      97.19048831      62.38451460      78.86506266
C      95.15525307      59.32693744      77.35139188
H      93.40158705      58.33105167      77.77469058
H      96.67837246      58.35372838      78.34349820
H      95.60311820      59.21544359      75.34639226
C      92.28097934      68.79068680      77.28714119
O      93.81354738      70.39506444      76.72022329
N      89.76575361      69.16485262      76.92242401
H      88.70372743      67.84015447      77.79358784
C      88.67538154      71.21898512      75.43709913
H      90.03409476      71.55535640      73.92531808
C      85.97685236      70.45364596      74.76435656
H      85.05088646      72.25266541      74.37696267
H      85.27576390      69.77334449      76.57849382
C      85.56300230      68.55825047      72.63085555
O      83.72618833      67.15796328      72.91242477
O      86.91793606      68.82092243      70.68821690
C      88.62435892      73.69452659      76.88273976
O      89.28009396      75.59370153      75.77158068
N      88.02342595      73.60570945      79.31481752
H      87.55666356      71.90495577      80.04236215
C      87.63414234      75.83180705      80.90218762
H      87.98374170      77.55523744      79.83260253
C      84.71829464      75.92629336      81.42753154
H      84.48774803      76.89383323      83.23222017
H      83.98886028      74.11026638      82.07570767
C      82.97596698      77.03934216      79.36017095
H      80.99553380      76.48565235      79.48489289
H      83.50131089      76.34770233      77.49312136
C      83.06100466      79.87960081      79.49812097
O      85.10757825      81.07957702      79.50379015
O      81.00120298      81.11359210      79.34316342
C      88.93427404      75.79779197      83.35883183
O      89.96795434      77.78389433      84.12984017
N      88.96261993      73.64350398      84.67975052
H      88.07444857      72.20164280      83.80291752
C      90.20417012      73.35248612      87.14017418
H      92.24129509      73.65862179      87.14017418
H      89.86590911      71.42118583      87.77323250
C      89.01553227      74.87749526      89.32280808
O      87.79665880      76.65761745      88.84848677
N      89.31788848      73.96475745      91.63772281
H      90.77486746      72.78178878      91.98165300
C      88.10657392      75.16284393      94.02633687
H      86.05622087      75.33858848      93.97342453
C      88.74530140      73.68696768      96.41306120
H      88.35601779      74.70930962      98.15916831
H      90.76730857      73.36004503      96.19952213
C      87.48674368      71.07347619      96.33180297
H      87.94405746      70.11727468      94.56679859
C      88.56199796      69.29335400      98.21963956
H      88.84923636      70.09648769     100.09235833
H      90.52731332      69.12138891      97.63004495
H      87.56800191      67.49055510      98.30656697
C      84.69372820      71.25866937      96.89116196
H      84.39326171      71.96731674      98.79978554
H      84.00586782      69.32547935      97.05556815
H      83.57878967      72.21676061      95.44741106
C      89.13647475      77.92184435      94.37971569
O      91.36824154      78.35270196      93.93940946
N      87.39225737      79.66417201      95.19796718
H      85.58189956      79.08402603      95.35859392
C      87.62469370      82.42695188      95.82346659
H      89.63347278      82.87859647      95.86693030
C      86.11291266      84.02566034      94.06602112
H      85.58378928      85.87381267      94.81246301
H      84.52365282      82.79544851      93.62193544
C      87.79854853      84.23541996      91.68685569
H      88.28231847      82.37592927      90.95175216
H      89.57300154      85.24264409      91.97787355
C      86.60991068      85.74531128      89.46453755
H      86.28487775      87.68417048      90.07869860
H      84.78632479      84.85713992      89.10171010
N      88.19728077      85.68672977      87.20064543
H      89.54087619      87.03221490      87.33670572
C      87.80043826      84.73052825      84.94053276
N      86.13936882      82.94095744      84.70053751
H      85.71229067      82.32301693      82.94687150
H      85.16427004      82.05656552      86.08381717
N      89.09112133      85.50531605      82.94876122
H      88.55443906      84.83635293      81.24422809
H      90.51030579      86.76198404      83.17552838
C      86.76864768      82.54789436      98.61459236
O      84.58979325      81.74098123      99.13615682
N      88.48640890      83.62881781     100.20763164
H      90.16637560      84.25998640      99.56134524
C      88.46940137      83.48897807     103.07056700
H      86.90470798      82.35136283     103.77732464
C      90.85990516      82.13215458     104.02109934
H      90.74085239      81.90538743     106.06389348
H      92.52475404      83.30756434     103.71874313
C      91.55532444      79.67551037     102.77199024
H      92.18082384      80.14227277     100.86714612
C      93.81354738      78.59836637     104.12881374
H      95.36879214      79.94574123     104.03432742
H      94.29920705      76.71808869     103.45040199
H      93.35623362      78.47931361     106.13381336
C      89.32166793      77.83491694     102.80033614
H      87.73051838      78.76844174     101.88381888
H      88.91726651      77.38894154     104.77132068
H      90.02653585      76.22864957     101.72319214
C      87.97807253      86.03443941     104.38581652
O      87.36391148      86.08357229     106.62514220
N      88.01586706      88.10746918     102.95718342
H      88.69994798      88.06589520     101.17706124
C      86.89525934      90.50364215     103.50331433
H      86.08456675      90.52064968     105.40059955
C      89.00986310      92.61446643     103.29355471
H      88.11224309      94.25852833     104.14960073
H      89.37647000      92.90737401     101.28855509
C      91.63469295      92.03054100     104.47085420
H      92.77608764      90.62458463     103.48819652
H      91.23407097      91.27654020     106.34357298
C      93.18615825      94.46828795     104.35747062
H      93.24285004      95.25441410     102.45640595
H      95.16281197      93.90325978     104.47652338
C      92.27908962      96.48084647     106.28499146
H      91.35690318      95.43771754     107.80244169
H      90.94494284      97.87168504     105.56122628
N      94.46928241      97.82066242     107.30355394
H      95.62390519      96.72840062     108.35991095
H      93.87968781      99.18315510     108.50353015
H      95.49918325      98.77308449     106.00909142
C      84.78443506      91.08756757     101.56445513
O      85.09246045      90.11813797      99.40827741
N      82.76998681      92.42927325     102.39971416
H      82.77376625      93.05099321     104.20251306
C      80.76498718      93.08878774     100.56667964
H      79.74831443      91.36913679     100.06590216
C      78.61447864      94.80465923     101.82523736
H      79.73319663      96.30510192     102.68695256
C      76.74364959      95.96684091      99.87503981
H      77.48820177      97.17815548      98.38404575
H      75.32446513      97.21972947     100.68573240
H      75.76666109      94.41159616      98.94151501
C      77.39938463      93.23429666     103.97385618
H      78.78833346      92.51809040     105.31556186
H      76.43751393      91.59401422     103.18017113
C      75.76477137      95.02197776     105.62358725
H      75.82335288      94.36813245     107.57756426
H      73.82024298      95.37157713     105.04155155
H      76.73420097      96.80965885     105.94673045
C      81.78732913      94.28876395      98.10436625
O      83.61469447      95.67960251      98.11381488
N      80.50231523      93.62547001      95.95763716
H      79.07368214      92.37636093      96.16172760
C      81.02387970      94.64781195      93.34792512
H      82.15015658      96.36746289      93.48965460
C      82.74542037      92.82989523      91.77756256
H      84.52176310      92.39147873      92.72620517
H      83.16304988      93.95428239      90.10137532
C      81.56623115      90.52631886      90.83269940
C      81.01065160      90.34301540      88.22298736
H      81.22230096      91.96062113      86.99655498
C      79.80878567      88.23597057      87.30080092
H      79.37981781      88.24352947      85.30336021
C      79.48564247      86.05522640      88.94108336
O      78.20440804      83.86125415      88.17574420
H      78.10236281      84.32045764      86.42207818
C      80.09224463      86.26309629      91.53756731
H      79.84091102      84.82501457      92.96431068
C      81.01821051      88.53643705      92.49754828
H      81.53221608      88.67816652      94.46853283
C      78.48786699      95.32244424      91.85315161
O      76.33168926      94.66292977      92.48620992
N      78.73164167      96.32399919      89.51178071
H      80.41916728      96.90225544      88.83525869
C      76.75309823      96.93438078      87.80157839
H      75.05801372      96.44872112      88.86927376
C      76.90049688      99.78975724      87.04190842
H      75.60603435     100.01841414      85.45453831
H      78.85258416     100.17526141      86.51278505
C      75.74965356     101.18059581      89.30013136
H      76.84380509     101.20327253      91.04434875
H      73.82402244     100.57966285      89.71398142
C      75.60036518     103.96794212      88.27778942
H      74.44007322     104.00762638      86.57514602
H      77.51465792     104.64068469      87.92819006
C      74.40605815     105.67247526      90.33948083
H      75.65138778     105.90113214      91.96653519
H      72.67884829     104.65391277      90.81191241
N      74.07913550     108.26706948      89.24154984
H      72.99443258     108.27084894      87.66929755
H      75.71752821     109.10988742      88.74644155
H      73.51032788     109.57476009      90.50766647
C      76.64349409      95.17693531      85.53957600
O      78.64849372      94.75174689      84.36983541
N      74.31724100      94.57789207      84.79502383
H      72.75254763      95.06166201      85.77579179
C      73.57079911      93.67649262      82.29491592
H      74.42495540      91.86613481      81.80358708
C      70.69652540      93.02831650      82.23066522
H      69.54757180      94.71395237      81.95287545
H      70.07669517      92.20817528      84.01645659
C      70.01811364      91.15181827      80.23133478
O      69.93685541      88.84068299      80.81337049
O      69.89717117      91.58078614      77.99389883
C      74.03189234      95.89881076      80.40329988
O      73.90528068      98.07955493      81.09304998
N      74.23031360      95.21472984      77.99389883
H      74.69518627      93.40248232      77.61595357
C      73.84858888      96.78131295      75.65819711
H      75.14872059      98.37624196      75.56182106
C      74.01677453      95.15992778      73.35084128
H      72.89049765      93.45539464      73.61918241
C      73.13994152      96.35045535      70.91309433
H      74.24732113      98.07388575      70.68254772
H      71.13683163      96.82288693      70.81482857
H      73.34214224      94.98985242      69.38052629
O      76.60380985      94.38136054      73.09761795
H      76.87970989      93.15114871      71.79370680
C      71.37115769      98.08144466      75.76969096
O      71.08769874     100.22439430      74.99490317
N      69.51922590      96.95138832      76.98289525
H      69.79323622      95.08433872      77.27013365
C      67.10793513      98.20994605      77.25123639
H      66.75833576      99.30598731      75.54481353
C      64.84404301      96.25974849      77.30036927
H      63.12439206      97.36145894      77.56871041
H      65.21442936      95.08811818      78.95576952
C      64.90451425      94.84245376      74.81915862
H      66.43897201      93.47240218      74.96088810
H      65.25222389      95.98951763      73.14297138
C      62.37228099      93.42515902      74.38452157
O      62.41007551      91.00064016      74.51869214
O      60.43531152      94.69127565      73.81949340
C      67.10226594     100.13746688      79.40741411
O      65.08025879     101.02563825      80.16708409
N      69.28489984     100.69871560      80.54691908
H      70.85904186      99.91258945      79.80992582
C      69.61938140     102.13679732      82.92041533
H      68.58570110     103.90558115      82.71821461
H      71.59225567     102.67536932      83.17552838
C      68.71420249     100.94626975      85.31658829
O      69.57780741     101.83822057      87.41985368
N      67.38005571      98.85434272      85.10493894
H      66.57692203      98.44616183      83.42308253
C      66.47865627      97.30854659      87.32158791
H      65.24466498      98.52930979      88.43463671
C      64.80435875      95.22039902      86.56947684
H      63.97476890      94.44183178      88.28534833
H      65.96654044      93.71239742      85.78146096
C      62.62361459      95.92337721      84.70809642
C      61.81670145      94.07522487      82.94120232
H      62.76156461      92.26675679      82.85238518
C      59.95532103      94.60245851      81.20265411
H      59.50367645      93.30421654      79.69465251
C      58.69487358      96.88335817      81.57681992
O      56.65963834      97.22539864      80.13306902
H      56.10405881      98.95260849      80.16708409
C      59.34493943      98.64458310      83.40229554
H      58.25078790     100.34344705      83.68764421
C      61.39718221      98.24774057      84.87817179
H      61.95654120      99.73306545      86.15751650
C      68.62160590      96.47328756      89.13383544
O      70.25999862      95.06355173      88.34015039
N      68.41940519      97.12713288      91.54890567
H      66.91329332      98.15325427      92.11960302
C      70.20708627      96.37880125      93.54067721
H      72.11382013      96.74162870      92.84903738
C      69.94630405      97.89436175      96.01243922
H      70.86849048      96.96839586      97.60358878
H      67.97531951      97.82822133      96.60392356
C      71.07825010     100.43604364      96.09180773
C      69.72142662     102.68481795      96.61904137
H      67.78634688     102.61300835      97.26910722
C      70.85148295     105.02618886      96.78344756
H      69.72898552     106.62867677      97.35981408
C      73.54434295     105.25673547      96.40928175
O      74.83691574     107.50173033      96.74943249
H      73.66906489     108.80375177      97.22942297
C      74.89927672     103.11756528      95.89149674
H      76.91939415     103.16669816      95.60992752
C      73.71630805     100.68548752      95.72898028
H      74.68195819      98.97906465      95.15828293
C      70.07669517      93.51397616      93.96208617
O      68.01500376      92.52753902      94.03011632
N      72.24043178      92.19683692      94.40428213
H      73.86181697      93.20406104      94.31924445
C      72.68262774      89.52098446      94.23798622
H      71.01966860      88.47785553      94.85781645
C      73.48954088      88.85958025      91.42418374
H      75.25832472      89.81200232      90.98009805
C      73.26088400      86.21774286      90.32625275
H      73.73331558      86.32545726      88.32503258
H      71.37115769      85.40705027      90.46231304
H      74.57802324      85.06500981      91.41284538
O      71.69808034      90.05577700      89.84815199
H      71.91539887      91.85479645      89.93885885
C      74.92573289      88.62336446      95.81212823
O      76.55467696      90.14459414      96.33936188
N      75.14872059      86.09113120      96.33369270
H      73.58024775      85.08768653      95.90472482
C      77.43528943      85.01398720      97.44863122
H      79.04155679      86.02688051      96.64549754
C      77.39560518      85.36169684     100.39471454
H      76.66239136      87.26654097     100.67628376
C      75.46430488      83.45496299     101.62870583
H      75.87815495      81.45941201     101.33768797
H      73.63504980      84.24675832     101.10147218
H      75.19218430      83.73653221     103.65260271
C      80.11681107      85.01965638     101.47752772
H      81.57756951      86.09491065     100.50053922
H      80.55522756      83.02032594     101.72130241
C      80.30767343      86.14215382     104.07968085
H      79.54044454      88.05077739     104.01165071
H      82.31078332      86.35002371     104.51053845
H      79.38548697      84.92139061     105.45729134
C      77.60536480      82.20207445      96.72486604
O      75.91783919      81.27799828      95.44174188
N      79.72563772      80.88304548      97.16328255
H      81.23363932      81.71074561      97.99098267
C      79.98830968      78.13160397      96.68707152
H      78.17228268      77.36059563      97.27099695
H      81.42072222      77.40783879      97.97775459
C      80.67428033      77.29067576      93.99988070
O      82.36180592      78.34892250      92.90761889
N      79.07935131      75.68251867      93.18162921
H      77.97197170      74.79434730      94.45530474
C      78.58802248      75.30457341      90.50577675
H      79.60847469      76.65005854      89.32658753
C      79.34202328      72.67218465      89.49666290
H      78.58235330      71.37772213      90.90639873
C      78.23653339      72.11093594      86.92474538
H      79.03399788      73.52445122      85.65673903
H      76.18618034      72.29423939      86.94364265
H      78.67494989      70.23443771      86.19342130
C      82.27865797      72.67785383      89.33036698
H      83.10257864      73.32225050      91.10670971
H      83.07234302      73.66618069      87.71087153
C      83.38792732      70.03223699      88.86738403
H      82.20873810      69.20831632      87.39528724
H      83.16493961      68.91351902      90.58325553
H      85.35513241      70.16262811      88.27589970
C      75.92728783      75.99999269      89.86515953
O      74.02811289      74.67529454      90.75333089
N      75.40572337      77.99176422      88.46487233
H      76.95151949      78.99142944      87.96220513
C      72.87160038      78.99520889      87.72598934
H      71.80012555      77.78767378      86.44664463
H      73.30056826      80.76399272      86.75655974
C      71.02344805      79.59614186      89.80279856
O      68.93719019      80.38415773      89.09037174
N      71.64138855      79.34480826      92.20086125
H      73.36481894      78.73631639      92.74888188
C      69.91984788      79.56968569      94.21908895
H      68.22476338      78.68529378      93.45186007
C      70.72865074      78.15428069      96.60581329
H      72.28200577      79.15016645      97.52233055
H      71.23698712      76.19841395      96.20141185
C      68.62727508      77.86704229      98.54089303
N      67.23076733      75.78267416      99.07757530
H      67.25344405      74.27089311      97.91161417
C      65.57914654      76.10959681     100.88226393
H      64.40184705      74.57702878     101.54177842
N      65.62638970      78.45852662     101.60035993
H      64.02957095      79.25977058     102.26554359
C      67.48965983      79.68117955     100.16416793
H      68.03579075      81.64649491     100.24353644
C      68.99955117      82.24553815      94.72175615
O      70.48865550      83.85369525      95.61181725
N      66.79046111      82.92583963      93.77878272
H      65.71709656      81.76176822      92.71108735
C      65.52623420      85.32768177      94.05279304
H      66.64873163      86.81300665      93.17218057
C      63.14895850      84.88359610      92.40873114
H      62.06425560      83.36047668      93.27422580
H      63.75934010      84.46218712      90.48687948
C      61.29513699      87.20229027      92.01944752
H      60.26712588      87.69172939      93.73531902
C      62.27023577      89.72129545      91.11804807
H      63.67808187      90.60757709      92.32936264
H      60.68853484      91.03843469      91.02734121
H      63.05258246      89.75720026      89.21131422
C      59.32415245      86.30467027      89.97287393
H      57.88229127      87.66338349      89.40973549
H      58.28858243      84.64171113      90.61349115
H      60.19342655      85.79444417      88.17763393
C      64.91585260      86.05711614      96.70407905
O      64.50011281      84.43384122      98.36325876
N      64.91396288      88.53643705      97.20296680
H      65.32592322      89.73641326      95.77811316
C      64.54924569      89.67783174      99.60102949
H      63.91051821      88.20951440     100.89360229
C      66.95486730      90.93827919     100.57234882
H      66.67140835      91.89826016     102.37325799
H      67.61060233      92.43305271      99.31757054
C      69.20931079      89.04288370     100.78588789
H      69.51166700      88.24352947      98.91127939
C      71.55257142      90.11057907     101.74208940
H      72.09870231      91.66582382     100.50809812
H      73.16072851      88.83879326     101.95373875
H      71.04234530      90.99497098     103.53166022
C      68.63105454      86.87725735     102.63592995
H      70.16551230      85.61303044     103.17261222
H      67.13439130      85.70751676     101.84035517
H      68.07925445      87.68606021     104.44817748
C      62.32503783      91.61858067      99.65583155
O      60.52034920      91.22551759     100.94273517
N      62.41007551      93.62358028      98.06468200
H      63.86516478      93.90325978      96.86092634
C      60.19531628      95.11457434      97.49587438
H      58.87817704      93.54421179      97.28233531
C      59.57737577      96.96083695      99.65205210