 %block lattice_cart
   140.777   0.000   0.000
   0.000 144.511   0.000
   0.000   0.000   162.462
 %endblock lattice_cart

 %block positions_abs
N      86.05055169      42.16633278      79.11072708
H      85.21718237      42.89954659      77.55926178
H      84.68805901      41.00226138      79.76835184
H      87.54910465      41.18934428      78.44365369
C      87.11068814      44.02204402      80.91541571
H      88.24641365      42.94867948      82.25523166
C      88.70939660      46.05161008      79.71166005
H      87.67004714      47.47079455      78.64018523
H      90.15881669      45.39020587      78.40585916
C      89.97173378      47.89220351      81.59193773
H      91.47784565      46.66199168      82.27601865
H      88.64703563      48.29660494      83.11505714
S      91.05832641      50.77970532      80.02346489
C      92.89136093      52.31605281      82.72199406
H      91.70461282      52.87352207      84.31125389
H      94.15936729      53.80326742      82.06814876
H      94.31810431      50.97812658      83.36639074
C      84.85435492      45.29005038      82.35538716
O      82.70384639      45.62075248      81.56170211
N      85.24363854      45.46579493      84.76478821
H      86.91982579      44.73069139      85.30713966
C      83.43517046      46.19900874      86.69419877
H      81.61347430      45.31461682      86.32192269
C      84.49719665      45.75681278      89.34737452
H      86.27542911      46.79238280      89.40973548
H      84.74664053      43.71212891      89.39272795
C      82.77754570      46.72246293      91.39772757
O      80.62892689      47.65976718      91.11993780
N      83.77721093      46.76781636      93.68807586
H      82.73219228      47.42355139      95.14505484
H      85.58000983      46.29916423      94.10570537
C      82.80967105      48.96556806      86.10649389
O      84.74286107      50.34317854      86.04035347
N      80.38326247      49.69500242      85.68886437
H      79.03021843      48.35329673      85.58114997
C      79.69162264      52.33683980      85.23721979
H      80.89537830      52.81872001      83.63662160
C      76.86837153      52.54470970      84.22810593
H      76.85703317      51.25780608      82.61994884
C      74.89738698      51.73401711      86.19153157
H      72.96986614      51.54126502      85.48477393
H      74.43251432      53.20611391      87.55402424
H      75.39816445      50.06538877      87.29135229
C      76.39782967      55.28103340      83.41552362
H      78.05511965      55.95188624      82.39129196
H      76.19373923      56.51313495      85.05391633
C      74.15850400      55.75913415      81.66563705
H      74.41928622      54.87663197      79.82315390
H      73.72764639      57.75090569      81.36895002
H      72.50499347      55.04670733      82.66719200
C      80.40215973      54.16798460      87.49733246
O      81.05789477      56.34494931      87.08726185
N      79.93728706      53.15698102      89.80468828
H      79.50642946      51.30315951      89.95964584
C      80.74986938      54.34183942      92.11771329
H      79.73697608      56.13141024      92.20464070
C      79.87303637      52.94344195      94.69341026
H      81.03521804      51.25780608      94.93718495
H      77.94740525      52.33872953      94.28144992
C      80.06956790      54.65175453      97.08958322
C      78.79967183      57.04225832      97.21808461
H      77.69796138      57.71500089      95.64016314
C      78.77888483      58.39719209      99.44418221
H      77.70363056      60.11117385      99.71063362
C      80.04689118      57.57894059     101.65894145
H      80.07334735      58.47089141     103.49197597
C      81.22041122      55.21111352     101.53421951
H      81.97441202      54.34561887     103.22174511
C      81.29789000      53.72200919      99.25520957
H      82.24653261      51.92110001      99.41205686
C      83.56556158      55.04670733      91.94952765
O      84.18161236      56.79848363      93.28556415
N      85.23796936      53.65775849      90.55301990
H      84.47640967      52.09495483      89.76311430
C      87.90626292      54.40042093      89.94641776
H      88.49585753      55.59094851      91.52244950
C      89.57489125      52.05149113      90.13916984
H      91.51186073      52.51258435      89.61193620
H      88.95884048      50.56238679      88.85982513
C      89.66748784      51.01214166      92.91328807
H      87.71540056      50.76080806      93.52744912
H      90.54243112      52.39353159      94.16617661
C      91.11123876      48.48935703      93.14383468
O      89.86968857      46.46168069      92.93029561
O      93.42237404      48.43266524      93.31391005
C      88.24641365      55.71000127      87.39150778
O      89.45205904      57.71311116      87.22710159
N      87.05399635      54.97489773      85.27123486
H      85.85402014      53.50280094      85.46020749
C      87.14281349      56.27313971      82.77679613
H      88.94750212      55.88574582      81.86216859
C      85.13592415      54.92954430      81.11005752
H      83.17249850      55.49646220      81.37650893
H      85.42127283      52.89808852      81.31036851
C      85.48552351      55.59661769      78.32649066
H      87.42627244      55.23567997      77.73500632
H      84.82033986      57.53736661      78.15074611
S      83.64304037      53.77303180      76.34416776
C      80.50798441      55.06560460      76.63896506
H      80.61758853      57.08383230      76.23267390
H      79.71429935      54.78214565      78.51924274
H      79.23241914      54.39853121      75.16497854
C      86.58912369      59.14552371      82.69553789
O      87.81933552      60.52124446      81.22155137
N      84.92805425      59.97133411      84.36227650
H      83.88681505      58.79214489      85.44319995
C      84.37247471      62.57537696      84.56447722
H      84.02665480      63.28780378      82.66341255
C      81.78921884      62.94198387      86.04224319
H      81.85913872      64.74478277      87.03623924
H      81.66260718      61.44154118      87.44819957
C      79.48942193      62.78135713      84.29235663
H      79.73319661      61.08816236      83.14529276
C      77.23686817      62.27302075      85.88728564
H      77.06868251      63.88117785      87.16285090
H      77.42206133      60.72533490      87.23277077
H      75.48698160      62.12940156      84.81014164
C      79.21163216      65.08304378      82.75600914
H      80.95395982      65.42130479      81.70532131
H      78.75620811      66.58159675      84.09204564
H      77.46741477      64.82037182      81.69398295
C      86.45117366      64.07770938      85.89295482
O      86.77620658      66.34349123      85.55091435
N      88.11035336      62.77379823      87.31591873
H      88.18972188      60.87462328      87.14206391
C      90.33456123      63.78102235      88.58392509
H      89.52197892      65.43075342      89.50989098
C      91.36257235      62.24656459      90.81191241
H      92.69482940      63.35583393      91.92307148
H      92.20916974      60.41919924      90.38105481
C      89.14403366      61.70799259      92.59014487
H      87.81555606      60.59305406      91.47898580
H      88.30877462      63.50512231      93.14761413
C      89.84701184      60.01290808      94.86159590
H      91.19060726      61.06170619      96.01432895
H      90.70872705      58.22711672      94.30223691
N      87.70595194      59.22678194      96.36959750
H      86.36613598      58.45577360      95.25276924
C      87.43194161      58.69387912      98.85080814
N      89.22718161      59.40252649     100.33424330
H      89.30655013      58.78458598     102.13893193
H      90.69738868      60.44187596      99.69929526
N      85.62536327      57.62807348     100.00165147
H      85.68772424      57.36351179     101.88948806
H      83.95295547      57.78870021      99.09647256
C      92.46239307      64.62950947      86.90773785
O      93.96472549      66.26034328      87.46142766
N      92.61168145      63.33693667      84.77234711
H      91.31532920      61.94609810      84.60227174
C      93.90047479      64.11550391      82.53491116
H      95.18926813      65.62728496      83.08482151
C      95.45571954      62.01790770      81.37461920
H      96.47050257      62.86450509      79.79480800
C      97.40213764      60.88596164      83.19442564
H      98.64179810      62.36939680      83.90874219
H      98.62668029      59.39118813      82.48010909
H      96.33822174      59.96566493      84.69864779
C      93.86268026      59.71811078      80.28613685
H      92.29231769      60.49478829      79.20521339
H      93.06710548      58.53514211      81.77335145
C      95.31210035      57.84539200      78.53436055
H      95.95460730      58.61829007      76.73534110
H      94.09889605      56.23156573      78.13373857
H      96.93537525      57.24256931      79.64929908
C      92.42270881      65.57815208      80.53180127
O      93.56788296      67.00678517      79.02946885
N      89.92638035      65.34004656      80.20676834
H      89.10245968      63.98133334      81.26312535
C      88.56766713      66.88206323      78.41719752
H      89.19694599      66.80458445      76.45755133
C      85.86913795      65.87294938      78.45499205
H      84.75041998      66.33782205      80.11984093
H      85.81055645      63.81503743      78.44365369
C      84.33845965      66.47010290      76.05314990
O      85.42505227      66.57781730      73.93854616
O      82.07267780      66.56647894      76.17409239
C      88.63002810      69.56169514      79.34694287
O      88.48451918      71.27378718      77.82004401
N      88.52798289      70.14184112      81.66374733
H      88.64892536      68.70753885      82.91852560
C      88.08578692      72.68730247      82.75789886
H      88.90214869      74.07625131      81.47855415
C      85.20962348      73.10682171      83.13962358
H      85.10946798      74.42207122      84.72132450
H      84.15515620      71.42496529      83.69331339
C      83.90004314      74.45986575      80.91730543
H      81.85157981      74.36726916      81.11950615
H      84.37625417      73.45453135      79.18442640
C      84.51798365      77.34736755      80.56203689
O      84.17027400      78.85347943      82.26279057
O      85.43828036      77.98420532      78.48522767
C      89.64670086      73.28634571      85.08604168
O      91.25485794      74.96631240      85.03690880
N      89.56355290      71.62149683      86.98899608
H      88.26909038      70.22498908      86.86616387
C      90.78620582      71.89172769      89.54579578
H      92.64947596      72.75533261      89.70642252
H      91.06966477      69.95097876      90.17129519
C      89.09490077      72.73076617      91.66228925
O      87.52831767      74.42207122      91.37694058
N      89.50308166      71.70275506      93.94507864
H      90.84856679      70.35915965      94.10570537
C      88.05177185      72.29990857      96.10692554
H      86.07322840      72.40951270      95.54189737
C      88.22373694      70.23065826      98.11003543
H      90.15125778      70.13617194      98.83191088
H      87.90626292      68.36549839      97.29745311
C      86.12425101      70.35538020     100.27944124
H      85.76331328      72.34526200     100.67061458
C      83.56934103      69.32358963      99.75598705
H      82.46574087      69.84137464     101.41516675
H      83.62981227      67.27323658      99.55000688
H      82.55644773      70.22120963      98.20263202
C      87.07289361      69.13650672     102.69073201
H      88.72262469      70.19475346     103.32379033
H      87.84012250      67.29213384     102.18617509
H      85.68772424      68.95509300     104.20440279
C      88.94372266      74.88316444      97.06879623
O      91.02053188      75.35748575      97.81523812
N      87.25430735      76.88438461      96.91950785
H      85.46473652      76.46675509      96.40550229
C      87.69272385      79.37504389      98.01932857
H      89.71851046      79.69251791      98.22908819
C      86.96328949      81.57279559      96.34503105
H      87.15415185      83.21874721      97.56957370
H      85.04710701      81.41405858      95.60614806
C      88.74152195      81.86759289      94.09625674
H      89.38591863      80.01755083      93.45374979
H      90.31566397      83.09591500      94.60459312
C      87.23352035      83.21307803      91.96653519
H      87.02376073      85.21807765      92.39550306
H      85.28899198      82.53466628      91.89472559
N      88.63758701      83.40771984      89.63272319
H      90.29487699      84.35636245      89.62516428
C      87.78154098      82.63860123      87.30269065
N      85.79732836      81.30445445      86.83025907
H      85.58567901      80.63738106      85.05580606
H      84.73908162      80.55990229      88.23432572
N      88.99663501      83.38693285      85.39217734
H      88.16326571      83.30945407      83.67630585
H      90.30243588      84.75698443      85.62839313
C      86.59101340      79.54322953     100.59313580
O      84.90537753      78.18262658     101.46618936
N      87.75130536      81.29122637     101.91783395
H      89.06277542      82.20774363     100.87848448
C      87.85713003      81.41972776     104.79588712
H      86.60991067      79.95896932     105.54421874
C      90.63124826      81.06445921     105.46107079
H      90.68605032      81.03989277     107.51898274
H      91.86901900      82.57246081     104.79777685
C      91.95972586      78.73253694     104.36125007
H      92.14680877      78.72119858     102.31089702
C      94.65636532      78.40183484     105.22674472
H      95.84878262      79.79267340     104.28377129
H      95.29698253      76.48754208     104.80911521
H      94.80187423      78.73631639     107.25442106
C      90.58967429      76.34014343     105.16816321
H      88.72640415      76.13605299     104.31778637
H      90.44227564      76.27211328     107.22229571
H      91.68382582      74.66017674     104.69384190
C      87.07289361      84.06534460     105.70862493
O      87.15415185      84.46785630     107.92527390
N      86.52865245      85.85680514     104.00787125
H      86.66660246      85.33335095     102.17861618
C      85.47418516      88.32289798     104.67305491
H      84.50475556      88.37770004     106.48719217
C      87.63414233      90.17671949     104.78454877
H      89.16482064      89.36980636     105.90515647
H      86.97651758      91.84723755     105.79366262
C      88.81711101      90.87213878     102.23341824
H      87.43383135      91.72062589     100.96541189
H      89.46906658      89.11280358     101.37926195
C      91.13013602      92.59178972     102.58868679
H      92.51908486      91.90581907     103.94740001
H      90.46873181      94.37380163     103.37859239
C      92.69482940      93.05666239     100.16794738
H      91.55721415      93.35145970      98.47664233
H      93.55465487      91.23685595      99.72953088
N      94.65258586      94.95583734     100.67250431
H      95.14391471      94.87646883     102.51309774
H      93.82488573      96.66414993     100.47975223
H      96.08121895      94.96717570      99.40638768
C      83.43894991      88.99375082     102.63970940
O      83.18950605      87.69928830     100.68951185
N      81.78921884      90.93261002     103.27843690
H      81.87614625      91.69228000     105.02832346
C      79.81067540      91.66771355     101.37359277
H      78.82423827      89.98396741     100.71029884
C      77.88882374      93.66704399     102.38648608
H      79.16438899      95.16748669     102.99497795
C      76.10681182      94.73473936     100.30967686
H      77.12915376      95.67582306      98.79033690
H      74.91439453      96.33155809     100.83502077
H      74.83502601      93.33823161      99.48764591
C      76.48286737      92.56533355     104.91871934
H      77.94551553      92.30833077     106.34735243
H      75.75154328      90.71907094     104.37447816
C      74.38338142      94.19049818     106.09790855
H      75.16950757      96.03109161     106.57789904
H      73.69741077      93.10957473     107.71362455
H      72.73176062      94.43805233     104.89037344
C      81.06545368      92.81099797      98.94907391
O      82.72841282      94.42104479      99.20418696
N      80.43995426      92.07967389      96.61148246
H      79.21352189      90.61702572      96.56990848
C      81.40749413      92.88091785      94.18507388
H      82.33534975      94.68560648      94.53089379
C      83.31233826      90.96851482      93.13438605
H      84.73908162      90.70206341      94.59703421
H      84.19673017      91.87747317      91.51111114
C      82.25976069      88.37581032      92.12149274
C      81.66638663      88.09235137      89.56658277
H      82.07078807      89.47941048      88.12283187
C      80.61191935      85.78310581      88.78612580
H      80.38893165      85.33713041      86.80758235
C      80.23964328      83.84802607      90.47743085
O      79.39682534      81.68050999      89.49288344
H      79.06990269      82.00176346      87.73543797
C      81.03710777      84.13715420      93.03989973
H      80.57412482      82.61025534      94.31546499
C      81.95362504      86.42183331      93.85815123
H      82.34479839      86.81300666      95.82346659
C      79.28722120      93.12847199      92.29912702
O      77.00632155      93.05855212      92.95864150
N      79.86547746      93.96751048      90.02578626
H      81.66260718      94.53631810      89.72154033
C      77.87559565      94.14136530      88.06802980
H      76.11815019      93.67082345      89.03179022
C      77.62804150      96.87957872      87.04190841
H      76.07846593      96.84367392      85.68697465
H      79.24753696      97.48429115      85.92508016
C      77.19718391      98.90536533      89.06013612
H      78.75620811      98.86946053      90.40562125
H      75.53422475      98.45750020      90.19019245
C      76.89482770     101.57743834      88.00755856
H      75.41895145     101.76452124      86.58648437
H      78.67683962     102.21427611      87.19119679
C      76.53388997     103.50684890      90.16751574
H      77.89260319     103.07788103      91.65473034
H      74.69896572     103.20827215      91.05568710
N      76.78900302     106.22427534      89.25855738
H      78.48219780     106.48316785      88.41762917
H      76.53011052     107.31653715      90.80057405
H      75.49076104     106.66458157      87.93196951
C      78.34046833      92.17038075      86.02712538
O      80.36625494      92.15148349      84.81581082
N      76.22964403      91.17638471      85.19375608
H      74.65361230      91.36913680      86.25389254
C      76.04067140      89.71562627      82.76545777
H      77.65449768      88.46462745      82.48955773
C      73.87504504      88.02054177      83.33615511
H      72.23476261      89.23563579      83.59504762
H      73.99409780      86.58434977      84.81014164
C      73.41773129      86.35758261      81.06470409
O      74.07346632      84.10313912      81.18375684
O      72.17240164      87.26654097      79.24300792
C      76.16161388      91.38236488      80.41841769
O      75.42651036      93.52909397      80.66786156
N      76.61703793      90.50931132      78.14696666
H      77.27088323      88.72918914      77.91075087
C      76.56223587      92.14392458      75.88118481
H      78.06456828      93.55366041      75.88685399
C      77.05167499      90.42049419      73.49823993
H      75.33580348      89.55122008      72.76691585
C      78.15716487      91.96440058      71.36851837
H      79.97130214      92.69761439      72.01291505
H      76.84947426      93.52720425      71.07183134
H      78.45196218      90.75497574      69.72823593
O      79.01699034      88.58556994      74.02169412
H      78.22708474      87.20984918      74.90041685
C      73.89583203      93.18516378      75.33127445
O      73.78622791      95.18449422      74.05004001
N      71.84925845      92.16093212      76.44243352
H      72.20074754      90.62647436      77.51957752
C      69.24332585      93.22484804      76.39708009
H      68.63861343      93.96373102      74.57160447
C      67.52178518      90.96662509      77.05470485
H      67.60493314      90.41860446      79.03891748
H      68.13216678      89.32067347      75.97945058
C      64.75900531      91.26709158      76.37818283
H      63.98232780      92.93760964      77.30036927
H      63.80658325      89.64759613      77.22100077
C      64.11460865      91.51653545      73.59461597
O      63.43997634      89.61358105      72.53825896
O      64.47554636      93.60279330      72.50424389
C      68.92207239      95.56054976      78.08271596
O      66.94163921      96.67926774      78.09216460
N      70.92896172      96.28242521      79.47733398
H      72.51255237      95.22984765      79.30536889
C      70.88360830      98.61056803      81.12139588
H      70.27889587     100.29620390      80.10472312
H      72.89616682      98.77686394      81.52201785
C      69.32269436      98.35167552      83.55158391
O      69.44174711     100.05998811      85.05391633
N      68.33436750      96.20305670      84.20731894
H      68.47987643      94.66859894      83.08293179
C      67.44430640      95.60779292      86.77545700
H      66.74321794      97.29720824      87.71843043
C      64.93286013      94.10546050      86.42207818
H      64.18263878      93.87491389      88.32692231
H      65.25978278      92.22140336      85.65862875
C      62.66896801      95.06733119      84.96887865
C      60.97766297      93.37413641      83.75000518
H      61.49733769      91.40315187      83.86149903
C      58.70621193      94.19805709      82.60483103
H      57.55914807      92.80343907      81.65240897
C      58.00323374      96.66414993      82.74089133
O      55.64296558      97.28964933      81.86405832
H      55.30281485      99.05276398      82.12862000
C      59.59816275      98.38380087      83.91441137
H      59.02557568     100.33399843      84.07881756
C      61.81103227      97.57688773      85.15974101
H      62.94864750      99.06221262      85.97421305
C      69.42096012      94.44939069      88.60282235
O      71.06502202      92.90359456      87.89228525
N      69.18096489      95.36023877      91.05379738
H      68.06224692      96.87390955      91.36749194
C      70.71164321      94.45505987      93.15139358
H      72.61837705      95.01252913      92.60715241
C      69.95197322      96.12368820      95.53622819
H      70.39983835      95.14292024      97.29178394
H      67.90350990      96.31833001      95.60992752
C      71.20864122      98.63891392      95.83291522
C      69.82158211     100.90847522      96.01810840
H      67.79957495     100.66092108      96.13716116
C      71.13683162     103.20827215      96.05023375
H      70.28834450     105.05642448      96.22219884
C      73.81079435     103.22527968      95.89716592
O      75.07313154     105.51751770      95.86504057
H      73.92795738     106.91780490      95.73842891
C      75.17895621     100.99729236      95.84425358
H      77.19151473     101.10689649      95.52488983
C      73.82213271      98.71828243      95.83291522
H      74.95974795      97.03264656      95.67228849
C      70.62282606      91.57700669      93.67484777
O      68.60270863      90.41671473      93.83547451
N      72.80168050      90.29955170      94.24932457
H      74.49487527      91.18394362      94.23231704
C      72.94718943      87.45173415      94.22097868
H      71.09336792      86.68639499      94.68774108
C      74.04134097      86.73741760      91.59425910
H      76.00287687      87.34401975      91.73787830
C      73.65961624      83.87637197      91.02734121
H      74.94651986      82.68584439      92.11015439
H      74.05645877      83.44362464      89.05257721
H      71.75855157      83.20929858      91.45441935
O      72.80545996      88.01865204      89.42674302
H      72.67128938      89.80822286      89.70831224
C      74.93707124      86.72985870      96.31857488
O      76.64538382      88.19817604      96.80423455
N      74.76510615      84.37714944      97.24265105
H      73.14750041      83.52488287      96.69085097
C      76.53955915      83.22630611      99.04167050
H      78.30834298      84.24486860      98.75443210
C      75.59469599      83.50976506     101.84224490
H      75.37737746      85.55255920     101.98208464
C      72.98120450      82.00932237     101.90271614
H      71.74154404      82.62915260     100.37959673
H      71.90783996      82.39293681     103.61858763
H      73.27222235      79.97408713     102.03688671
C      77.30111885      82.87670675     104.19873361
H      77.54489354      80.84525096     104.43872885
H      76.29389473      83.46063218     105.89759757
C      79.82768293      84.07857268     104.08723976
H      80.67617004      83.56456712     102.28255113
H      81.12781463      83.45496300     105.55933656
H      79.56879043      86.11191819     104.29510965
C      77.19529418      80.45785706      98.10625598
O      75.87815495      79.42228705      96.47542217
N      79.11903557      79.23709387      99.27032739
H      79.88248499      80.11959605     100.77832898
C      79.63304113      76.51777770      99.03789105
H      77.98331006      75.32725013      99.36481370
H      81.04088723      75.83747623     100.37959673
C      80.23586382      75.85448377      96.26188310
O      82.01220656      76.93540722      95.26977678
N      78.60880946      74.25388558      95.06190689
H      77.14994074      73.47342861      96.01432895
C      78.63337590      74.06491295      92.26133249
H      79.82957267      75.61070907      91.61504609
C      79.50831919      71.41551666      91.26733645
H      78.39338066      69.85460272      92.01377834
C      79.15305064      71.37583240      88.30802504
H      77.29922912      71.90117632      87.58237014
H      79.52154728      69.48421637      87.57670096
H      80.63648579      72.43596887      87.35182353
C      82.32590113      70.87694466      92.16873590
H      82.47329978      70.71253847      94.21719922
H      83.54666432      72.43596887      91.60181801
C      83.32367661      68.52801485      90.96498024
H      85.27009471      68.38628538      91.62260500
H      83.52776705      68.78690736      88.92974500
H      82.11236204      66.88584268      91.25599809
C      75.94618508      74.52978562      91.36938167
O      74.26243894      72.95564360      91.60181801
N      75.43406925      76.75021404      90.30924521
H      76.70774479      78.16939850      90.27145068
C      73.08135999      77.52311210      88.99966487
H      72.43318387      76.15306052      87.60315713
H      73.24576618      79.29567538      87.96220513
C      70.79857061      77.90861627      90.76844870
O      68.70097440      77.53822991      89.65917936
N      70.98376380      78.54545404      93.16840112
H      72.72609146      79.01599589      93.78823135
C      68.65184153      78.54734376      94.80112466
H      67.16084745      77.30579357      94.11893346
C      69.64205810      77.52122237      97.25587914
H      71.21431040      78.64749926      97.96452650
H      70.44519179      75.69007758      96.76077084
C      67.61060233      77.20185863      99.28355547
N      65.83614932      75.29134533      99.36103425
H      65.87772329      73.65862179      98.37459711
C      63.90673874      75.86015295     100.82557214
H      62.20220561      74.81891375     101.25076056
N      64.36027307      78.16372932     101.75153803
H      63.22643728      79.28622675     102.80033614
C      66.74321794      78.96686300     101.03344204
H      67.15895774      80.95296536     101.25454001
C      67.73343454      81.24020376      95.02222263
O      68.96742581      82.87670675      96.21086048
N      65.64150750      81.83357782      93.78445190
H      64.73821832      80.44840843      92.83202984
C      64.69853407      84.42628232      93.60303817
H      66.22543294      85.51476468      92.75077161
C      62.29858165      84.23164051      91.84937215
H      61.11750272      82.80111769      92.74321270
H      62.79368994      83.71007605      89.91807186
C      60.48255467      86.56167306      91.59992828
H      60.17452927      87.25709234      93.51422104
C      61.55591921      88.74241722      90.18641300
H      61.61639046      88.40226648      88.15873667
H      63.33793112      89.34146046      91.03112066
H      60.29547177      90.36569212      90.33759110
C      57.95032140      85.80578253      90.39050344
H      56.51979859      87.25331289      90.06169106
H      57.29836583      84.28455285      91.61504609
H      58.09772006      84.83446321      88.58014563
C      63.87083395      85.42972699      96.18062486
O      62.74833651      84.10691858      97.67539838
N      64.68908544      87.73708282      96.96675101
H      65.94386371      88.69328434      95.89527619
C      64.11838810      88.85958025      99.40827741
H      63.37383593      87.60858143     100.86336667
C      66.43519256      90.23530101     100.62337143
H      65.64528695      91.31811419     102.18617509
H      67.23265706      91.65070602      99.35536507
C      68.56869356      88.46840691     101.45863046
H      69.29245875      87.57267663      99.75220760
C      70.66817950      90.18616812     102.46585458
H      70.26188834      91.05922168     104.28755075
H      71.18029533      91.31433473     100.81990296
H      72.30279275      88.98997137     102.83813066
C      67.57469753      86.68072581     103.43717391
H      66.56747340      85.08957626     102.60191488
H      66.32936788      87.63881705     104.76565150
H      69.10915528      85.87003323     104.54833298
C      61.82992953      90.59623873      98.92261774
O      59.76067921      90.13136606      99.81645829
N      62.18519808      92.42927326      97.28044558
H      63.90295930      92.66737877      96.48109135
C      60.29736149      94.39458862      96.79478592
H      58.48133450      93.57822686      97.33146819
C      60.47310604      96.54509717      98.72419648