 %block lattice_cart
   140.777   0.000   0.000
   0.000 144.511   0.000
   0.000   0.000   162.462
 %endblock lattice_cart

 %block positions_abs
N      89.07978296      41.05517371      76.93754182
H      90.80132363      40.23503249      76.84305550
H      88.49207808      41.57673817      75.19899361
H      87.85335059      39.68701186      77.45154738
C      89.11946722      43.22457952      78.67042085
H      90.02464612      42.64821299      80.42786632
C      90.57644620      45.36185998      77.44398847
H      89.47851522      45.84751964      75.77158068
H      92.49829786      44.80250099      76.95643908
C      90.43471673      47.77881993      79.09938872
H      90.89580995      47.32906507      81.05714518
H      88.43160684      48.23424397      79.24867710
S      92.17137521      50.44333403      77.48367272
C      95.35178460      49.64586953      78.65719276
H      95.24218047      49.77815037      80.70754581
H      96.68593137      50.90631698      77.71988851
H      95.97161483      47.75047404      78.13940775
C      86.41337914      44.07684608      79.24111819
O      84.96206933      44.50014478      77.48367272
N      85.80677699      44.26770844      81.69209322
H      87.20517446      44.28471598      82.99222493
C      83.39737594      44.92344347      82.77490640
H      82.03299354      44.08062554      81.48233360
C      83.04777657      43.35308091      85.07470332
H      83.76398284      41.43500870      84.84037726
H      81.04466668      43.28505076      85.54524517
C      84.37625417      44.30928242      87.35938244
O      83.38036840      46.08562515      88.57258673
N      86.48707846      43.35686036      88.16062639
H      87.28832242      44.17511185      89.68752525
H      87.23352036      42.05672865      86.97954745
C      82.88148066      47.78259938      83.10371878
O      84.73719190      49.22824001      83.19253592
N      80.39271110      48.51014401      83.09238042
H      79.17005818      47.04749585      82.99033520
C      79.71618908      51.20678346      83.21143318
H      80.36625493      51.87952603      81.37650893
C      76.88726879      51.43921980      83.01112219
H      76.21830568      50.37530388      81.37839865
C      75.57579873      50.43577513      85.41485406
H      76.51688243      48.93344271      86.46932134
H      73.71063886      49.86696751      84.74967040
H      75.26588362      51.98913016      86.73199330
C      75.57390900      54.09428527      82.54624952
H      76.01988441      55.33772518      84.12795044
H      73.51977650      53.94688662      82.55947760
C      76.33546871      55.48512384      80.13117929
H      78.37259367      55.77803141      80.09527449
H      75.30934732      57.27280493      80.11417175
H      75.95185427      54.42687710      78.40774889
C      80.97474681      52.94722140      85.20509444
O      82.22763535      54.75002030      84.46999090
N      80.82545843      52.20455896      87.61449549
H      80.12625969      50.44522376      87.83559347
C      81.83646201      53.43099133      89.87649788
H      81.07112285      55.32638682      90.12027258
C      80.78388445      51.70000203      92.07613931
H      81.59268731      49.81972435      91.84181325
H      78.76376702      51.31449786      91.99110163
C      81.31678727      52.47856927      94.83702946
C      81.22419068      55.08828131      95.56835354
H      80.74231047      56.62273908      94.31168554
C      81.59835649      55.66653756      98.23097791
H      81.32812563      57.57327141      98.90749993
C      81.94228668      53.86751811     100.05267408
H      82.14259767      54.46656135     101.99342300
C      82.22196617      51.33150540      99.28355547
H      82.33912920      49.98602026     100.81423378
C      82.09724424      50.63041694      96.67006398
H      82.53188129      48.69533719      96.19007350
C      84.76175834      53.79381878      89.82736500
O      85.65937834      55.19410598      91.49599333
N      86.16393526      52.34817816      88.23999490
H      85.36080158      50.83639711      87.39717696
C      88.96639938      52.72045424      87.75811469
H      89.76764334      53.59350780      89.44186083
C      90.32133315      50.18633125      87.48221465
H      92.29420742      50.52648199      86.99844471
H      89.45016932      49.09217972      85.97043360
C      90.06055092      48.75958789      89.98988146
H      88.13869926      48.66132212      90.72687473
H      91.34367509      49.84051134      91.18418849
C      91.24540932      46.22735463      89.97665338
O      93.06710548      45.55461206      88.57636618
O      90.20039067      44.79116263      91.55268512
C      89.54276591      54.06404965      85.28257322
O      91.39847715      55.58905878      85.38083899
N      88.11791227      53.71256055      83.22466126
H      86.57211615      52.62974738      83.51378939
C      88.27286983      55.41709369      80.90596708
H      90.11346326      55.39063752      79.98378064
C      86.27353939      54.33239078      78.95387980
H      84.34412882      54.50624560      79.65685798
H      86.47196065      52.30093500      78.66853112
C      86.75541960      55.36796080      76.27613761
H      88.30121572      54.27569899      75.46355530
H      87.48485396      57.27658438      76.53880957
S      83.86413834      55.48134438      74.50924351
C      84.29688567      52.55982750      72.97289601
H      84.35924663      50.96489849      74.27491744
H      86.12236128      52.69021862      72.02803286
H      82.86447312      52.47478982      71.49701976
C      87.73240810      58.30648522      81.45020825
O      89.18560764      59.89952450      80.47888893
N      86.06377977      58.83749831      83.20009482
H      84.92994398      57.41264467      83.77268189
C      85.52142832      61.35083431      84.16574497
H      85.22474128      62.60372286      82.55947760
C      83.05911493      61.20154593      85.75878425
H      83.01943068      62.95143250      86.84537688
H      83.31800744      59.64252172      87.07970294
C      80.58735291      60.90296917      84.03346412
H      80.86325295      59.22867166      82.86561326
C      78.20062858      60.47211158      85.59059861
H      78.94329102      59.34205524      87.14584336
H      76.74931877      59.46110800      84.53613132
H      77.54300382      62.30892555      86.25011309
C      80.09224462      63.09883115      82.16074535
H      78.42361628      62.80214412      80.99289449
H      81.68150445      63.40874627      80.88518009
H      80.08468571      64.90540951      83.15096194
C      87.84201223      62.63017902      85.42430269
O      88.14625816      64.89785060      85.14840265
N      89.65614949      61.21099456      86.48443915
H      89.28576313      59.36095250      86.76789810
C      91.76697378      62.43364749      87.84126265
H      91.12257711      64.03613540      88.96187035
C      92.89136094      60.50045747      89.78201157
H      94.51274611      61.50390214      90.56057881
H      93.61890557      58.97355861      88.60660180
C      91.10367984      59.70488269      91.81346736
H      89.33111656      59.09261137      90.95553161
H      90.64069690      61.28658362      93.04934836
C      92.27719989      57.53547688      93.39705801
H      93.79842957      58.17231465      94.63482874
H      93.17104043      56.16353558      92.14605919
N      90.34400987      56.27691916      94.85781645
H      89.07033433      55.51913891      93.65784024
C      89.85268103      56.25235272      97.25587914
N      91.11879766      57.61862484      98.87537459
H      90.42148865      57.79625912     100.64415842
H      92.28475879      59.03025040      98.33491286
N      87.85524031      55.05615596      98.21963956
H      87.53587657      55.21678270     100.09424806
H      86.91226688      53.77303180      97.16706200
C      93.81732683      63.29725241      85.96098496
O      95.40280721      64.86950471      86.58648437
N      93.84378300      62.29947692      83.65362914
H      92.52097458      60.92942534      83.52890720
C      95.35556405      63.18008938      81.49556169
H      96.64246767      64.53313342      82.36105634
C      97.09789171      60.98989658      80.73589171
H      98.26007339      61.71177204      79.19954422
C      98.66069537      60.11117385      83.15474139
H     100.12712299      58.74868118      82.66908173
H      97.37757120      59.15875179      84.45487309
H      99.64902223      61.76279465      83.88795520
C      95.55776476      58.55403937      79.65496826
H      94.35967828      59.22867166      78.11862076
H      94.23495635      57.79058994      81.03635819
C      97.10734034      56.46589179      78.48711740
H      95.87334906      55.22623133      77.40052477
H      98.09377748      55.43410122      79.97244228
H      98.63045975      57.22367204      77.32493571
C      93.96283576      64.48022108      79.28269217
O      95.35178460      65.77468361      77.91642005
N      91.44194085      64.30447654      78.98033596
H      90.45928317      63.15363321      80.14251765
C      89.80732759      65.72555073      77.28336173
H      90.72195513      66.02223776      75.46166557
C      87.39792654      64.29124845      76.77124590
H      86.25464213      64.22699776      78.48522767
H      87.79665880      62.32404336      76.31393214
C      85.90126330      65.43642260      74.64719353
O      83.62603282      66.03924529      75.10828675
O      86.73274288      65.24744997      72.51369252
C      89.47284604      68.42785935      78.18854064
O      89.79032006      70.18719455      76.67864931
N      88.58467467      68.75856146      80.57715470
H      88.43349656      67.18252971      81.64107061
C      88.39948149      71.23032347      81.97933162
H      88.96261993      72.64194903      80.58849306
C      85.61024545      71.89550714      82.42719676
H      85.30977897      72.69864082      84.29991553
H      84.49341720      70.17207674      82.58404404
C      84.72585354      73.70208549      80.32015192
H      82.73030255      73.53767930      79.83827171
H      85.30222006      72.90084154      78.51168384
C      85.51575914      76.43840919      80.58282388
O      87.21084364      77.30201412      79.26946409
O      84.74664053      77.71019500      82.41018922
C      90.05110229      71.75188794      84.47377036
O      90.54810031      73.91184511      84.96320947
N      90.44227564      69.73932941      85.94208770
H      89.98118241      67.95731750      85.43186160
C      91.24162987      69.97932466      88.51967439
H      92.93104519      71.13016798      88.77667717
H      91.78020186      68.05180382      89.01289296
C      89.55788372      70.75978162      90.74577199
O      87.93460882      72.37171817      90.49254866
N      89.67504675      69.52201089      92.93974424
H      90.91092776      68.06692163      93.02667165
C      88.88136170      70.58970625      95.39449872
H      86.92171551      71.18308032      95.16584183
C      89.15348229      68.55069156      97.54311754
H      91.14714355      68.06881135      97.73586962
H      88.19728078      66.85749679      96.86470579
C      88.01019787      69.16296289     100.21330082
H      88.97017884      70.82781177     100.95974271
C      85.18883648      69.62783556     100.01487955
H      84.32523156      68.16518740      98.85080814
H      84.86947274      71.47409817      99.15505408
H      84.16838428      69.40862731     101.78933256
C      88.30688490      66.98977763     101.88381888
H      86.88203126      65.53279864     101.57579349
H      87.94405745      67.60204895     103.81700890
H      90.20228039      66.19987203     101.72697159
C      90.19094204      73.20130802      96.07857964
O      92.43026772      73.39783956      95.53811792
N      88.63191783      75.01922473      97.18406954
H      86.77242714      74.67529454      97.43351341
C      89.36891109      77.54767854      98.03822583
H      91.41926414      77.61759841      98.23664709
C      88.53743151      79.53945007      96.03700566
H      88.73396305      81.48775790      96.67384343
H      86.57967505      79.05756986      95.61181724
C      89.81677623      79.24843222      93.42351417
H      89.39725698      77.40216961      92.61093186
H      91.87279845      79.38638224      93.49532377
C      88.73018360      81.30823390      91.69252487
H      89.63158305      83.09024582      92.19708180
H      86.70817644      81.67484081      91.83803380
N      89.55221454      81.00398797      89.18107860
H      91.32288810      81.60492093      88.80313334
C      88.28609791      79.92684397      87.28379338
N      86.09590512      78.77789037      87.52378862
H      85.42316255      77.93129298      85.94964661
H      85.28710225      78.52844650      89.23588066
N      89.23096107      80.07991180      85.05202661
H      88.07822802      79.34102881      83.72165928
H      90.72195513      81.21374759      84.67975052
C      88.25208284      78.00121285     100.78588789
O      86.45306339      76.70675033     101.67405926
N      89.41615425      79.77377614     102.17861618
H      90.73518321      80.61092489     101.08257492
C      89.37835972      80.07613235     104.93761660
H      88.09145610      78.74576502     105.83901605
C      92.11846287      79.58102405     105.84090578
H      92.01263820      80.01944056     107.85157457
H      93.32221854      80.90383247     104.81667411
C      93.20316578      76.93351749     105.44784270
H      93.47717609      76.59336675     103.43339445
C      95.91303331      76.58013867     106.61380384
H      95.91303331      76.10581736     108.61691373
H      97.24718009      78.09947862     106.22829967
H      96.85411702      74.93229732     105.81444961
C      91.39091824      75.01544528     106.66104700
H      91.04887778      75.49732549     108.63203154
H      91.85957037      73.01044566     106.69695180
H      89.57489126      75.09481379     105.68594822
C      88.32200271      82.62159369     105.92594346
O      87.20706419      82.92206017     107.98385542
N      88.55443905      84.47541520     104.18928498
H      89.22718162      84.04833706     102.45451622
C      87.54910465      87.03410463     104.56156106
H      86.60991067      87.26276151     106.37947778
C      89.78087143      88.85958025     104.53321517
H      91.26052713      88.05077739     105.71429411
H      89.10245968      90.62080517     105.35524611
C      91.01486271      89.44728513     101.88948806
H      89.51630974      90.37136130     100.82179269
H      91.13769492      87.66149377     100.87281530
C      93.52441925      91.06111140     101.89893669
H      95.10045100      90.08223317     102.79466696
H      93.05765685      92.87524866     102.75309298
C      94.59211462      91.68283136      99.22686368
H      93.16348153      92.63903287      98.09302789
H      94.95494207      89.81956122      98.42939918
N      96.78041769      93.29854736      99.17395134
H      98.33188299      92.44439106      99.88637816
H      96.64057794      94.75363662     100.40227345
H      97.25851845      93.98829746      97.46185930
C      85.43639063      87.66527322     102.68128338
O      85.26442554      86.47663537     100.65738650
N      84.04555207      89.76475915     103.02710330
H      84.00775754      90.48474488     104.79399740
C      82.14637712      90.62836408     101.21485576
H      80.85191460      89.17327482     100.54778237
C      80.31901178      92.67115822     102.26932305
H      81.33568453      94.44372150     102.54711281
C      78.55967658      93.47618163     100.06779189
H      77.20474281      94.91804281     100.64226869
H      77.17828664      92.07211498      99.46307947
H      79.49509110      94.15081393      98.36136903
C      78.63337591      91.89070125     104.59935559
H      79.95618432      91.32567309     106.07334211
H      77.40505380      90.24852909     104.40660351
C      77.14049212      94.03743035     105.94295100
H      78.33101970      95.68149224     105.60468999
H      77.06490307      93.54043233     107.94039171
H      75.26966307      94.17915982     105.09068443
C      83.64681981      91.28787856      98.78655745
O      85.59134819      92.55588492      98.89805130
N      82.69439775      90.54899557      96.61148246
H      81.11836601      89.47185157      96.67573316
C      83.92271986      90.66804833      94.20586087
H      85.22663101      92.26108761      94.23420676
C      85.36458103      88.22463221      93.70130394
H      86.50219627      87.88826092      95.38316036
H      86.76864768      88.72163023      92.27834003
C      83.97185274      85.90026884      92.75644079
C      83.34068415      85.63192771      90.21664862
H      84.01720617      87.00197928      88.86360458
C      81.95173531      83.55133904      89.35682315
H      81.71929897      83.40394038      87.33481599
C      81.25064685      81.60114148      91.03301039
O      80.06578845      79.45252266      90.24310479
H      80.09035489      79.46575075      88.42896753
C      81.81945447      82.04522716      93.64083270
H      81.29789001      80.78288999      95.15828293
C      83.31800744      84.05400623      94.47798146
H      83.75642394      84.21841242      96.46219409
C      82.01409628      91.03843469      92.11015439
O      79.81634458      90.38647911      92.36148799
N      82.87770120      92.26864652      90.01633763
H      84.70884600      92.80154934      90.08814723
C      81.18450643      92.88469730      87.82803456
H      79.20974243      92.66737877      88.37227574
C      81.46040647      95.73062512      87.36505161
H      83.40682457      96.14258546      86.83025907
H      81.00498243      96.60556841      89.17351970
C      79.67083565      96.68493691      85.30336021
H      77.83024222      96.14447519      86.05169183
H      80.13759805      95.69472032      83.55725309
C      79.67272538      99.53275446      84.90084850
H      78.91872458     100.45305118      86.58270492
H      78.47841835     100.13557716      83.33237566
C      82.24275316     100.84233480      84.46621145
H      83.24052866     100.59289093      86.25200282
H      81.91016133     102.85111387      84.14684770
N      83.68272461     100.19037922      82.14184809
H      84.52176310     101.69838082      81.33304522
H      82.53944019      99.39858390      80.83226775
H      85.06411455      98.96961602      82.63128720
C      81.28844137      90.93638947      85.62083423
O      83.22919030      90.54521612      84.48699844
N      79.17761708      89.91593726      84.82525945
H      77.59402643      90.54710585      85.68697465
C      78.75809784      88.29833153      82.65774337
H      80.57223510      87.43283688      82.20420905
C      77.20285309      86.07223394      83.44009006
H      75.32824458      86.62214429      84.09204564
H      77.89638264      85.38059411      85.25233760
C      77.25576542      83.99920417      81.55603293
O      79.13415338      82.55356354      81.43509044
O      75.37926719      83.77054729      80.11984093
C      77.97197170      89.86113519      80.22377588
O      77.77355043      92.13825540      80.39385125
N      77.74709426      88.56478294      78.06192898
H      77.83402167      86.66182855      77.95988375
C      78.04756075      89.86302492      75.66575601
H      79.79744731      90.95339700      75.65630738
C      78.05889911      87.99219587      73.51902692
H      76.15594471      87.36291701      73.04281589
C      79.21730134      88.99186109      70.98868339
H      81.23930849      89.31689402      71.18899438
H      78.38960121      90.66426888      70.11751956
H      79.11336639      87.40827044      69.67721332
O      79.68217401      85.84735651      74.06326810
H      81.32245645      86.39159768      73.51146801
C      75.93484673      91.70928753      75.16686826
O      76.12003991      93.24941447      73.42076115
N      73.51032787      91.29354774      76.04181155
H      73.19474358      89.64570640      76.95076990
C      71.36170905      92.83178496      75.26702376
H      71.34470152      92.91682264      73.20911180
C      68.94285937      91.43905667      76.18732047
H      69.09970666      91.60346286      78.23578380
H      68.95608746      89.51342555      75.45977584
C      66.50700215      92.51809039      75.36717925
H      66.34448569      94.55899481      75.59961559
H      64.99144165      91.97006976      76.64652397
C      65.90040001      91.67149300      72.68565762
O      64.27712511      89.96695987      72.11684999
O      67.00400017      93.04910348      71.14175122
C      71.53556387      95.44905590      76.75990755
O      70.21275545      97.27642125      76.15330540
N      73.33080387      95.59078538      78.62506742
H      74.30023347      93.99774609      79.03891748
C      73.75032311      97.99829670      80.13873819
H      72.71475309      99.55543118      79.27702299
H      75.74398437      98.38569059      79.78724910
C      73.06624219      98.06254739      82.97332766
O      73.40828265     100.08266482      84.18275250
N      72.16295301      96.05565805      84.16385524
H      71.92484749      94.52120028      83.05458589
C      70.90250556      95.93282584      86.67530151
H      70.78534253      97.86601586      87.37827970
C      68.36649285      94.64025304      86.18397267
H      67.25911323      94.46261877      87.91118252
H      68.51389150      92.62958424      85.76445343
C      66.76400493      95.90070049      84.29991553
C      65.78890616      94.46639822      82.20987823
H      65.96087125      92.43683216      82.10783301
C      63.94642300      95.64747717      80.57715470
H      63.01667765      94.62513523      79.07482228
C      63.13006123      98.12301864      81.13273423
O      61.20443012      99.07544070      79.62284291
H      60.76034444     100.76107657      80.13117929
C      64.15051344      99.44960651      83.15852084
H      63.63272843     101.41492187      83.34371402
C      65.89662056      98.29309400      84.74211149
H      66.70164396      99.46850377      86.20475966
C      72.55790581      94.61001742      88.68219085
O      74.07913549      92.93571991      88.20220037
N      72.07035642      95.14292024      91.13883506
H      70.64172333      96.33155809      91.57347211
C      73.69741078      93.99963582      93.17784975
H      75.65327751      94.01286390      92.53534281
C      73.70874913      95.60401346      95.59480971
H      74.99943221      94.82733595      96.99698663
H      71.85303789      95.58511620      96.48865025
C      74.26054922      98.46127965      95.28489459
C      72.33491810     100.34533678      95.32457884
H      70.40172809      99.79542642      95.66850903
C      72.79034215     102.90780566      94.62349038
H      71.12738299     104.07187707      94.84269863
C      75.33958294     103.58810713      94.13027181
O      75.91405974     105.98428010      93.58792036
H      74.38149170     106.87056174      93.99043207
C      77.29544968     101.72483699      94.13594099
H      79.14549174     102.30687269      93.50666213
C      76.65105300      99.26441333      94.71986642
H      78.10047308      97.83200078      94.59325476
C      72.89049764      91.18016416      93.66161969
O      70.68707676      90.48285515      93.86004095
N      74.89171781      89.61358105      94.08680811
H      76.61325848      90.15971195      93.46697788
C      74.63471503      86.79410939      94.03578550
H      72.71286337      86.17616888      94.44774584
C      75.44918707      86.00798324      91.37127140
H      77.45418669      86.07601339      90.89695009
C      74.57046433      83.29811571      90.83458913
H      72.53144964      83.07323828      91.02545148
H      75.68162340      82.11325731      92.09692630
H      74.98998357      82.73686699      88.89761965
O      74.01488480      87.54244101      89.62705401
H      74.81801848      89.16193646      89.78390130
C      76.33735843      85.79066472      96.18629404
O      78.11748062      87.08890669      96.88360305
N      75.83091178      83.52488287      97.21619488
H      74.15661427      82.82568413      96.62282082
C      77.49576066      82.08869087      99.10592120
H      79.39682534      82.84836085      98.87537459
C      76.46585982      82.66316767     101.90460587
H      75.90083166      84.63793167     102.07657096
C      73.89583204      81.17595306     102.36569909
H      72.54467772      81.71452506     100.90494065
H      73.23442783      81.60492093     104.26865348
H      74.46463966      79.20307879     102.21074153
C      78.29889435      82.01121209     104.14204182
H      78.25732037      79.98164603     104.48597201
H      77.75465317      83.05812047     105.83145715
C      81.09002011      82.63482177     103.75842738
H      81.36214070      84.58879878     103.16316359
H      81.93661750      81.44051474     102.30711757
H      82.23897371      82.25687651     105.42516599
C      77.72630727      79.19740961      98.54845193
O      76.36003515      78.16561904      96.92139758
N      79.37225889      77.92751353      99.83346583
H      80.33979877      78.73820612     101.26587837
C      79.79744731      75.21764600      99.45552056
H      78.10614226      74.20286297     100.04700490
H      81.40749413      74.88127471     100.69518103
C      80.40027001      74.52789589      96.82502154
O      82.58479363      74.91340006      96.19385295
N      78.69951633      73.63783480      95.28111514
H      76.99120374      73.32414023      96.07668992
C      78.96407801      73.36949366      92.48998938
H      80.17161312      74.90773088      91.84559270
C      79.78043978      70.82214259      91.45063990
H      78.33857860      69.53145952      92.15550782
C      79.83146239      70.90529055      88.58959427
H      78.01732513      71.41362693      87.75622496
H      80.13192887      69.02690259      87.80157839
H      81.08435093      72.22242979      87.62394412
C      82.35424702      69.82247737      92.50132773
H      82.09157506      69.51445198      94.51955544
H      83.77721093      71.30969198      92.43329759
C      83.64681981      67.67763801      91.20308576
H      84.22696579      68.21998946      89.30202109
H      82.42038744      66.02223776      91.21064466
H      85.34946322      67.29024411      92.29723729
C      76.35058652      73.96097800      91.48843443
O      74.53078008      72.62116204      92.06669068
N      76.10681182      75.83936595      89.98988146
H      77.79055797      76.57069004      89.46453755
C      73.74087448      76.57446949      88.72565456
H      73.00199149      75.07024734      87.52945780
H      74.39283006      78.05601492      87.45008930
C      71.42973920      77.48720730      90.30924521
O      69.31324573      77.74798953      89.24532930
N      71.76800021      77.76499707      92.72620516
H      73.46308471      77.41161824      93.52933885
C      69.65339647      78.04467656      94.61404175
H      67.99610649      77.08658532      93.85248205
C      70.13716640      76.45541673      97.06879623
H      71.72453650      77.31335248      98.05901282
H      70.82691651      74.58269795      96.55668040
C      67.82792085      76.16817833      98.80356499
N      66.04023976      74.42018149      98.42373000
H      66.10638018      73.02934292      97.11792912
C      64.03901959      74.97576103      99.90905488
H      62.59904814      73.57358410     100.26243370
N      64.46042856      77.07146751     101.22430439
H      63.52879349      77.46264086     102.84379984
C      66.82447618      77.90294709     100.54211319
H      67.75611125      79.65283365     101.02588313
C      69.08647857      80.88493521      94.87482398
O      70.53589865      82.36081146      95.94818853
N      67.05124333      81.73153260      93.61248681
H      65.80402397      80.51265912      92.83769902
C      66.50889188      84.46596657      93.43863198
H      68.29657297      85.43161672      93.10226070
C      64.47365664      84.94217760      91.28623371
H      62.83337420      83.76865756      91.70764268
H      65.22576771      84.26943503      89.49099372
C      63.41540991      87.64826568      91.12749670
H      62.97510368      88.33045688      93.02100247
C      65.31647458      89.47752075      89.80279856
H      64.99711083      91.36157789      90.57191717
H      65.17096565      89.59468378      87.75055578
H      67.27234131      88.97107410      90.20908972
C      61.00978831      87.78621570      89.32091835
H      59.65863400      86.48419427      90.17507464
H      61.35371850      87.02465600      87.44064067
H      60.42397315      89.75908997      89.37949986
C      65.44308624      85.50909550      95.98031388
O      63.98232780      84.28833230      97.21997434
N      66.11771853      87.91282737      96.42439956
H      67.59737424      88.60824665      95.43607270
C      65.49032940      89.24508442      98.83191088
H      65.00466974      87.93928353     100.35125084
C      67.86004619      90.54521612      99.87126035
H      67.24399542      91.42771831     101.62870582
H      68.67262851      91.87558344      98.52577522
C      69.95764240      88.73863776     100.73486528
H      70.38850000      87.43661634      99.19662806
C      72.20830644      90.32978732     101.15816397
H      71.98153928      91.68661081     102.69073201
H      72.78089351      91.34834980      99.46307947
H      73.70307995      89.02020699     101.70429488
C      69.47387247      87.26276151     103.17450195
H      71.06502202      85.98719625     103.46174035
H      67.84492838      86.03254968     102.90994027
H      69.05813268      88.59879802     104.68439327
C      63.22265782      91.05355250      98.72230676
O      61.57481648      91.19906142     100.34936111
N      63.39651264      92.82611578      96.92328731
H      64.97443411      92.75052673      95.85181249
C      61.69764869      94.87835856      96.05968238
H      59.78713539      94.15459338      95.78756179
C      61.43875618      97.05154382      98.03066692