 %block lattice_cart
   140.777   0.000   0.000
   0.000 144.511   0.000
   0.000   0.000   162.462
 %endblock lattice_cart

 %block positions_abs
N      90.43282701      42.16444306      81.00801229
H      90.82777981      42.05861838      82.87317216
H      92.00885876      42.01137523      79.94409638
H      89.10056995      40.81706820      80.78880405
C      89.05143707      44.67022015      80.51290400
H      90.37046603      46.18200120      80.97777668
C      88.41648903      45.07084213      77.68776317
H      86.57400588      45.97980048      77.54792341
H      88.33901026      43.37386790      76.52558149
C      90.30810507      47.00025269      76.49345614
H      89.80921732      47.28371164      74.51491269
H      92.19216220      46.17444229      76.58416299
S      90.30054617      50.02948397      78.16964337
C      88.12925064      52.12519045      76.53503012
H      88.24074448      53.94499689      77.49690080
H      86.19795034      51.44677871      76.78069454
H      88.45995274      52.28770692      74.50924351
C      86.86313401      45.08218048      82.28168783
O      85.54032559      43.33229392      82.94498176
N      86.47007092      47.34418288      83.15096193
H      87.61524507      48.76147762      82.58026459
C      84.62380831      48.05471997      85.12950538
H      83.02321013      46.76025745      85.10115949
C      86.10535375      47.83551172      87.62583384
H      87.71162112      49.10729753      87.39528724
H      86.91037715      45.94011623      87.62583384
C      84.75041999      48.27959741      90.11649313
O      83.72618833      50.28648675      90.50577674
N      84.84490630      46.46546015      91.78323173
H      84.23452470      46.89442802      93.54067721
H      85.51575913      44.74391947      91.30891044
C      83.64304036      50.70033681      84.60983065
O      85.27954336      52.29904527      84.09960455
N      81.16371944      51.04993618      84.75344986
H      80.19240011      49.60618528      85.53957600
C      79.82957267      53.45555778      84.54557995
H      79.94862542      54.08105719      82.58782350
C      77.04411608      53.25902624      85.39406708
H      76.25610020      51.57528010      84.50778543
C      76.53200025      53.15131184      88.25511270
H      77.19340446      54.80482236      89.28879301
H      77.54111410      51.67921504      89.28501354
H      74.55723625      52.69777753      88.62738880
C      75.11281579      55.22623133      84.28101828
H      75.34525213      57.10839874      85.08415196
H      73.20230248      54.79915319      84.92352522
C      75.10903634      55.74401634      81.42942127
H      76.90994550      56.46022261      80.73400198
H      73.80512518      57.28414329      81.00990203
H      74.57802323      54.14530788      80.24456287
C      81.06167422      55.60795605      86.07814799
O      81.23174958      57.63185293      84.97076838
N      82.01031682      55.16576009      88.45920316
H      81.74953460      53.38941736      89.10548955
C      83.11958617      57.04792750      90.22231780
H      81.95929421      58.74868118      90.17318492
C      82.82856832      55.91220198      92.90572916
H      83.46729581      57.36351179      94.21908895
H      84.07200823      54.27758872      93.03612029
C      80.18862067      55.14119365      93.64083271
C      79.71807882      52.56171723      94.03956496
H      81.04655640      51.01025193      94.03389577
C      77.26332433      51.66220751      94.64238765
H      76.80412083      49.72145858      95.07891442
C      75.36792884      53.47256531      94.90316988
H      73.49898952      52.76202822      95.31324048
C      75.76855081      55.97078350      94.53845269
H      74.20952661      57.28792274      94.60459313
C      78.25354092      56.83816788      93.82791560
H      78.65416290      58.83371886      93.69941421
C      85.88992494      57.95688585      89.41918412
O      86.60235177      60.15463756      89.91618213
N      87.16926967      56.46211234      87.81291676
H      86.18283253      54.85962443      87.48410437
C      89.55032482      57.20855423      86.61294054
H      90.36101741      58.65419486      87.83748320
C      91.41737442      54.98812582      86.09893498
H      93.13135619      55.80637731      85.29958075
H      90.56510784      53.71067083      84.72888341
C      91.93515942      53.53870573      88.62171961
H      90.56132840      52.01180687      88.77667718
H      91.67248746      54.79159428      90.23365616
C      94.65636531      52.23668431      88.61227099
O      96.50073819      53.64642013      88.70486758
O      94.65825505      49.91043121      88.86927377
C      89.00230419      58.45955305      84.08826619
O      90.25519274      60.28880812      83.45142842
N      87.23729982      57.47311592      82.52357280
H      86.21873733      55.94432733      83.04702699
C      86.66660247      58.48411950      79.92519913
H      88.11602254      57.93231941      78.56837562
C      84.11358222      57.41453440      79.17686750
H      82.52999156      57.79814884      80.43542522
H      84.20428907      55.35662245      79.17308804
C      83.25564647      58.02302628      76.54258903
H      84.61624941      57.09706038      75.30292855
H      83.13848344      60.07904850      76.47833833
S      80.05445009      56.88163158      75.69410190
C      79.67839456      57.91909133      72.48912608
H      77.72819700      57.61106594      71.90142120
H      81.16560917      57.30304055      71.20222247
H      79.77099115      59.97322383      72.58928158
C      86.15448664      61.37540075      80.08960532
O      87.43572108      62.94009414      78.75167909
N      84.61624941      62.11995292      81.93397820
H      83.88492533      60.64218695      82.89962833
C      83.64304036      64.70320879      82.64262555
H      82.87581148      65.76712471      81.05525546
C      81.28844137      64.22132858      84.33204088
H      80.76309747      66.01467885      85.20320471
H      82.06133944      63.20654555      85.94775688
C      78.90171704      63.10450033      83.09238042
H      79.45729658      61.28280417      82.30436454
C      76.73798042      62.56781806      85.11249785
H      75.81579397      64.23833612      85.88917536
H      77.66016685      61.51901995      86.62805836
H      75.25454526      61.44343090      84.23566485
C      77.89638264      64.68620126      80.87573145
H      79.43461987      65.00745473      79.54536413
H      77.19340446      66.49277961      81.57870965
H      76.40916803      63.69598467      79.84772034
C      85.62536327      66.38128576      84.01645658
O      85.37402966      68.78879708      84.04102303
N      87.55855328      65.07359515      84.99344509
H      87.70028275      63.18197911      84.77234712
C      89.75819472      66.39262412      86.03468430
H      89.03065008      68.08203944      86.96253992
C      90.65203526      64.72966496      88.15873666
H      91.67626692      63.09694143      87.43119204
H      88.97962748      64.02668677      89.13383544
C      92.41892936      65.96743570      90.00121982
H      91.11312847      67.14284546      91.07647410
H      93.69449463      67.35071536      89.16029162
C      93.83622410      64.24589502      91.82102627
H      94.99651606      65.20587599      93.22509292
H      95.12879689      62.98922703      90.82703022
N      91.98051286      62.52057490      93.08147371
H      91.87279846      60.76501916      92.34259073
C      90.44416537      62.85883591      94.94852331
N      90.47062153      64.92052732      96.31479544
H      89.38213917      64.94698349      97.88137854
H      91.99752040      66.06381174      96.36392832
N      88.92293568      61.10705962      95.52488984
H      87.85524032      61.18264867      97.10281130
H      89.28387341      59.37796004      94.79923493
C      91.75374569      67.09938176      84.15062715
O      92.51341568      69.25178003      84.40007103
N      92.33200196      65.50445275      82.30814401
H      91.61957513      63.76023536      82.63317692
C      93.75685559      66.01467885      80.14629709
H      95.66358944      66.67230361      80.56014716
C      94.04787344      63.60527780      78.46822013
H      92.11468343      63.05914690      78.00901663
C      95.24407020      64.31959435      75.80370604
H      96.62546013      65.83137540      76.01346566
H      93.71150216      65.08115405      74.65853189
H      96.37223681      62.90796879      74.81726890
C      95.61256682      61.39618774      79.56993058
H      95.08155373      61.06926509      81.53335621
H      97.62323563      61.84405288      79.50756960
C      95.04564894      58.78647571      78.33027011
H      95.38202022      59.04536821      76.31582187
H      93.07655411      58.26113179      78.63451604
H      96.10200595      57.13296518      78.95576952
C      92.39436291      68.19353329      78.68931811
O      93.61512612      69.83570546      77.68587343
N      89.89236529      68.35604976      78.90096745
H      89.12702613      66.69309060      79.44142919
C      88.28609791      70.34404184      77.57815905
H      88.97206857      70.44986651      75.63929985
C      85.42316254      69.92074314      77.40808368
H      84.50853502      71.71976259      76.99612333
H      84.62758777      69.34248689      79.22033121
C      84.57467543      67.73999898      75.50134983
O      83.10824781      65.93908980      76.07960607
O      85.66126807      67.73621952      73.45288650
C      88.88892061      72.96320251      78.87451129
O      89.40103644      74.77922949      77.37406860
N      88.45617329      73.35437585      81.39162673
H      87.74563618      71.89361741      82.39507141
C      88.82278018      75.74865909      82.92041532
H      89.79787896      77.08091614      81.68831378
C      86.11102293      76.75966267      83.51945857
H      86.24897294      78.07302246      85.09926977
H      85.04143784      75.07780625      84.04480248
C      84.52176310      78.18829576      81.45776717
H      82.50542512      78.16939850      81.88484530
H      84.88081110      77.18863054      79.69276279
C      85.30977898      80.95674481      81.32926578
O      87.49430259      81.21752704      80.30881357
O      84.13436921      82.55545327      82.56136732
C      90.52353386      75.36504465      85.31091911
O      92.54176158      76.44407837      85.44319996
N      89.60890634      73.83247661      87.07592349
H      87.92704991      72.99532785      86.73955220
C      91.03753943      73.34303750      89.50233207
H      92.97072944      73.92129375      89.09415119
H      91.12446683      71.33425842      89.95019722
C      89.94527762      74.91528979      91.85315160
O      88.53932123      76.68407362      91.60937692
N      90.46684207      74.11026638      94.10570538
H      91.77264296      72.74021480      94.36081842
C      89.62213442      75.54456865      96.43006873
H      87.56422247      75.62204743      96.36959749
C      90.15314752      74.12916364      98.98119926
H      89.27442477      75.14961585     100.53833374
H      92.18460329      74.32569518      99.25331986
C      89.32355766      71.24733101      99.06245749
H      89.50497139      70.37994664      97.20296680
C      90.97517845      69.83759518     100.89171257
H      90.64825580      67.80802912     100.76888035
H      90.45172426      70.14373085     102.85891765
H      92.88758148      70.51411720     100.53644402
C      86.62124904      70.96954125     100.00921038
H      86.26787021      68.95320327     100.23030836
H      85.26820499      71.60070983      98.59380537
H      86.26409076      71.81991809     101.85358325
C      90.41770920      78.41506292      96.30345708
O      92.59278418      79.02733424      95.93873989
N      88.71884524      80.17628784      96.66817425
H      86.91604634      79.57913433      96.85903662
C      89.25741723      82.76521289      97.43729286
H      91.28509357      83.12426089      97.39004970
C      88.06122049      84.55478371      95.45308023
H      88.16515542      86.35758261      96.44140709
H      86.24330377      83.83668771      94.80112465
C      89.64292141      84.71541045      93.05312782
H      89.72228992      82.99575950      91.92307149
H      91.61768541      85.24642354      93.29879224
C      88.45806301      86.75064569      91.29190289
H      89.38969808      88.47785554      91.91362285
H      86.39637161      86.78844021      91.32969741
N      89.13080558      86.38592851      88.68786003
H      90.55943866      87.47819032      88.05291199
C      87.89870401      85.25398245      86.90206867
N      85.94850647      83.86503361      87.27245502
H      84.96395906      83.22252666      85.76823289
H      85.49875160      83.17339378      88.99210597
N      88.55065960      85.42972699      84.52290325
H      87.80799716      84.29211175      83.18119756
H      90.20228040      86.38970796      84.50400598
C      87.97051362      83.30567462      99.99787202
O      85.73874685      82.83324304     100.32290495
N      89.29710149      84.28644257     101.99531273
H      91.14714356      84.63604194     101.68350789
C      88.31444380      83.87448224     104.52943572
H      86.88203126      82.39860599     104.43116994
C      90.31944343      83.04867184     106.38703668
H      89.49363303      83.16016569     108.27109382
H      91.85012174      84.41872342     106.27365310
C      91.48540457      80.40494473     106.07523184
H      92.82522052      80.57690982     104.52187682
C      92.98584726      79.60559050     108.47896371
H      93.96094604      77.82924776     108.11802599
H      92.06744026      79.81535012     110.31199824
H      94.53164338      80.96430372     108.58289866
C      89.46150769      78.57568966     105.34957693
H      90.33456123      76.74832431     105.73508111
H      88.80010348      78.74765475     103.40504856
H      87.79854853      78.90072258     106.52120726
C      86.80266276      86.09680038     105.47429887
O      85.62725299      85.93428392     107.57378481
N      86.87636209      88.08668219     104.01920961
H      87.87224786      88.03188013     102.39215526
C      85.53654613      90.51309078     104.64659875
H      84.16838427      90.00853385     106.09979828
C      87.53587656      92.53509793     105.36847420
H      88.62813837      91.76597932     106.93505731
H      86.63825657      94.25096942     106.06956267
C      89.51442002      93.39303368     103.44284308
H      88.39570205      94.06766597     101.84980380
H      90.71061678      91.76219987     103.06111838
C      91.05076751      95.54354222     104.54455352
H      92.32444305      94.67993730     105.91460510
H      89.93393926      97.03642601     105.41760708
C      92.83088969      96.56588416     102.58301761
H      91.74429707      97.66759460     101.22430439
H      93.68693572      95.02575721     101.51910169
N      94.84722767      98.12868782     103.67149997
H      94.31810430      99.65180722     104.69384190
H      96.08310869      98.80143038     102.38459636
H      95.87145933      97.02886710     104.84879947
C      84.01720618      91.28787856     102.39215526
O      84.15515619      90.34490513     100.27188233
N      82.47329978      93.33823161     102.84568957
H      82.47896895      93.97884883     104.64281930
C      80.43050564      94.05254816     101.03344204
H      79.67839456      92.21573418     100.48164195
C      78.48030808      95.94227447     102.17483674
H      79.46674522      97.64869733     102.77765942
C      76.54522833      96.79454104     100.17550629
H      77.66772577      97.91514874      98.86214650
H      74.99376302      97.97561999     100.84257967
H      75.81390425      95.13347161      99.20040751
C      77.03844689      94.76497498     104.45762612
H      78.43684437      94.15648311     105.84468523
H      75.95185427      93.23051721     103.61291845
C      75.36792884      96.77375405     105.82011879
H      73.37237785      96.71517253     105.30989268
H      75.95374399      98.74095914     105.64437424
H      75.48131241      96.34100672     107.83267732
C      81.63993047      95.03709557      98.61081290
O      83.30099990      96.70572390      98.50309850
N      80.54766867      94.26986669      96.53211395
H      79.41194315      92.74296782      96.65872562
C      81.36214071      95.07677982      94.01877796
H      82.47329978      96.78320268      94.31924445
C      83.26887455      93.25697338      92.88872162
H      84.89781863      92.82422606      94.07546976
H      84.09090550      94.09412214      91.19741658
C      82.36369565      90.53576749      92.24999414
C      81.92149969      90.08601263      89.73476841
H      81.97063257      91.53165326      88.29479696
C      81.06545368      87.64448623      88.85604567
H      80.85947351      87.28732796      86.85860497
C      80.66861114      85.74342156      90.61916032
O      80.52688167      83.38882257      89.74799649
H      80.02421448      83.33779996      88.00566883
C      81.52087772      86.10435929      93.11170934
H      81.52276743      84.43762068      94.29089856
C      82.50542512      88.48730417      93.95452726
H      82.89470875      88.72163023      95.94251934
C      79.11714585      95.69849978      92.24243523
O      76.99687292      94.66859894      92.73376408
N      79.53666509      97.23106782      90.25444315
H      81.22419068      97.99073780      89.78201157
C      77.76599153      97.51641649      88.19653120
H      75.85169877      97.12146369      88.84848677
C      77.93606690     100.22817375      87.50111190
H      76.85514345     100.64769299      85.79657878
H      79.91650007     100.67981834      87.15529199
C      76.72286260     101.84766920      89.53067796
H      77.93984636     101.91947880      91.18985768
H      74.89738698     101.03886634      90.03523490
C      76.57168449     104.57454427      88.84470731
H      75.24698635     104.63690524      87.26678584
H      78.45196219     105.39090604      88.64250660
C      75.22997882     105.98994928      90.94230352
H      76.39782967     105.61389374      92.60148323
H      73.30434770     105.35878069      91.31646933
N      75.16383839     108.62422776      90.39428290
H      76.84569482     109.35555184      89.85949035
H      74.26810812     109.73727656      91.66039953
H      74.21519578     109.06831344      88.79935388
C      78.61636838      95.73062513      86.16507541
O      80.92561392      95.47929153      85.73421780
N      76.77199548      94.23585161      85.20698416
H      74.96730686      94.69316538      85.63028285
C      77.24820651      92.37258147      83.16607974
H      79.22297052      91.84156837      83.40418526
C      75.76288164      89.88381191      83.69898256
H      73.79000737      90.41104555      83.98622097
H      76.28633583      88.93516930      85.45075887
C      75.95374399      87.82967941      81.45587743
O      74.30212320      88.02432122      79.82126418
O      77.47875312      86.04955722      81.54469457
C      76.91750441      93.63869810      80.47133002
O      75.86870631      95.76086075      80.28991630
N      77.61481342      92.45572942      78.43609478
H      78.80156154      90.97418400      78.64963385
C      77.27277297      93.24941448      75.79614713
H      78.24220257      95.02764694      75.42387104
C      78.38960121      91.18394362      73.97823042
H      77.11970514      91.22173814      72.35873496
C      81.04466669      91.80188412      73.11651521
H      81.58512841      90.45639899      71.65386704
H      82.31267303      91.96251086      74.73223122
H      81.12781465      93.69538989      72.30582262
O      78.55022794      88.75564530      75.12907373
H      76.88915852      88.51753979      75.82071357
C      74.51755199      93.89381115      75.12340456
O      74.13015810      94.79710033      72.92565286
N      72.74309898      93.08122883      76.73534111
H      73.21553056      91.66771355      77.92775840
C      70.09181298      93.56121932      76.32527050
H      69.62316085      93.47240218      74.32216060
C      68.57247301      91.60157313      77.76902140
H      68.79735045      91.95495195      79.78535938
H      69.23387723      89.68539065      77.40619395
C      65.80402396      91.55055052      77.09438911
H      64.82325601      93.33256243      77.41564257
H      64.88561698      90.22207292      78.37562354
C      65.13884031      90.57167229      74.34672704
O      65.68497122      91.89259098      72.45700074
O      64.16185180      88.50242198      73.97634068
C      69.35859917      96.24274096      77.32304598
O      67.57847698      97.54476239      76.48967669
N      70.84203432      97.06666163      79.18820586
H      72.13460711      95.71928677      79.58693812
C      70.65684115      99.29464895      80.65841294
H      69.41718067     100.57399367      79.62473263
H      72.50121402     100.20738676      80.74534034
C      69.87260473      98.98662356      83.33993456
O      69.90850952     100.77430465      84.80069300
N      69.09214775      96.70383418      84.13739907
H      68.97498472      95.03331612      83.22277153
C      67.91673798      96.25029986      86.59026382
H      67.15328856      98.04365013      87.25544748
C      65.63583833      94.49852357      86.23877473
H      64.46798746      94.76497498      87.91307224
H      66.55802476      92.67493768      85.97799251
C      64.03146068      95.25441409      84.10338400
C      63.13384069      93.26264256      82.50278582
H      63.67808187      91.33701145      82.90907696
C      61.43119728      93.91837759      80.56770607
H      60.75845471      92.40092736      79.38095795
C      60.49011358      96.42037523      80.19731971
O      58.98589143      97.01563902      78.11484132
H      58.72132974      98.78442285      77.81248511
C      61.44442537      98.39702895      81.71665967
H      60.76034444     100.30376280      81.46343634
C      63.22454756      97.82066243      83.65173942
H      63.85004697      99.32299485      84.88573070
C      69.68552182      95.26197300      88.58959426
O      71.40139330      93.81066319      87.92819005
N      69.06191214      95.91203885      90.89695009
H      67.76367015      97.28209043      91.16718095
C      70.56235482      95.23362710      93.20997511
H      72.54845718      95.64747717      92.84525792
C      69.46631357      96.50352319      95.47386722
H      70.44330207      95.66448470      97.08202432
H      67.43485778      96.32210946      95.75354671
C      70.14094585      99.33244348      95.70252411
C      68.11515925     101.06532251      95.64961178
H      66.18385896     100.42470529      95.50410285
C      68.60270863     103.70527017      95.76677481
H      67.00588991     104.94682035      96.03133648
C      71.05179394     104.63312579      96.06913102
O      71.56957894     107.24661728      95.98031388
H      70.01622392     108.18392153      95.95007825
C      73.11537508     102.83788579      96.13149198
H      74.99376302     103.62968111      96.21275021
C      72.65806130     100.23951211      96.04834403
H      74.22842388      98.93938040      96.13338171
C      70.57180346      92.38014037      93.62193544
O      68.72365113      90.99308126      93.57658201
N      72.85648256      91.43527722      93.87326903
H      74.26432868      92.69194521      93.59358954
C      73.48009225      88.74619667      94.05090331
H      71.80957420      87.61614034      94.46475337
C      74.49487529      87.99786505      91.47331661
H      76.35814543      88.86713916      91.35615358
C      74.62337668      85.05745091      91.28245427
H      72.89994627      83.98408636      91.62449473
H      76.04823032      84.18250763      92.48620992
H      75.11470551      84.73241798      89.30958000
O      73.02466821      88.63470282      89.22832175
H      73.16639768      90.43750172      89.07147448
C      75.72130766      88.32289798      95.91417345
O      77.31812640      90.07467427      96.29022900
N      75.72886657      86.16105108      97.22564352
H      74.41928623      84.80422758      96.93462566
C      77.81701413      85.11603243      98.79033691
H      79.46674522      86.21774287      98.23475737
C      77.25954487      85.72263457     101.64949282
H      76.65672219      87.69172939     101.58713184
C      75.09391852      84.24486859     102.75120326
H      75.75721246      82.43451079     103.47685816
H      73.37237785      83.95196102     101.65894145
H      74.32668964      85.16138586     104.42928023
C      79.76721170      85.78499554     103.22741429
H      81.02387970      87.06622998     102.22019016
H      80.66105225      83.93306375     103.09891290
C      79.59524660      86.62025457     106.01665033
H      78.49164644      85.31445369     107.16749365
H      79.01888007      88.59879802     106.07523184
H      81.50198045      86.73363815     106.78954838
C      78.16094433      82.17939773      98.33302313
O      76.45641120      80.99831879      97.11981884
N      80.25476109      81.07201812      99.17773080
H      81.66260719      82.19262582      99.81456857
C      80.59302210      78.32246633      99.12859792
H      78.89037869      77.22831479      99.50465345
H      81.99708875      78.02388957     100.60825361
C      81.54355442      77.47019976      96.51510642
O      83.41060402      78.36970949      95.46063914
N      80.17539257      75.68062894      95.38505008
H      79.02265952      74.54490343      96.39605367
C      79.93539734      75.21764600      92.64683666
H      80.96151872      76.69163252      91.63961253
C      81.14104273      72.59470588      92.03267561
H      80.19617956      71.20386731      93.22131346
C      80.69695705      71.93519139      89.19241695
H      81.46418593      73.37894230      87.93952842
H      78.66739098      71.78968247      88.86927377
H      81.72118871      70.28735005      88.50077713
C      83.90571232      72.37171817      92.75077161
H      84.30633429      72.89706209      94.70096917
H      84.76175835      73.98932389      91.80212900
C      85.53465640      69.99255274      92.09503657
H      85.28521252      69.75255750      90.06358080
H      84.85624466      68.24266618      92.94352370
H      87.48674368      70.15884866      92.72809489
C      77.24064762      75.49732549      91.77567282
O      75.60414463      73.98365472      92.47487157
N      76.53955916      77.59114225      90.67774184
H      77.80945524      78.95552464      90.26200206
C      74.23787251      78.05790465      89.27178546
H      73.92606767      76.26266465      88.31180449
H      74.74242943      79.36748498      87.76189415
C      71.89461188      78.74576502      90.88183229
O      70.21842463      79.99298439      89.93885886
N      71.97775984      78.36593004      93.42729363
H      73.69174159      77.93885189      94.14727935
C      69.87449445      78.94040683      95.15639321
H      68.35893395      77.79523269      94.35703897
C      70.36582329      77.91806490      97.75854634
H      71.93807559      78.91584039      98.64104853
H      70.78345280      75.91495501      97.52044083
C      68.08303391      78.24876700      99.45174112
N      66.00811441      76.65194827      99.73897952
H      65.82859042      75.01733501      98.77143964
C      64.32436827      77.88404983     101.28666537
H      62.35905290      77.41350797     101.56256540
N      65.55269037      79.85125492     102.30144839
H      64.78735122      80.97564207     103.64126434
C      67.89784073      80.24998717     101.17706123
H      69.10726557      81.88460043     101.37170305
C      69.09781693      81.71641479      95.27355624
O      70.24866026      83.33779996      96.42628928
N      66.86605016      82.19640527      94.32302390
H      65.87772330      80.60714544      93.94696837
C      65.71331711      84.62470358      93.99232180
H      67.02100771      85.98152708      93.16084222
C      63.54013185      84.32234737      92.04023452
H      62.17008027      83.37370476      93.25154908
H      64.16563125      82.85403003      90.73821309
C      62.25889740      86.46151756      90.71364665
H      60.47877521      85.72641402      89.98610202
C      61.58804457      88.69706379      92.41440033
H      60.19720600      89.92916534      91.52622895
H      63.22454756      89.87247355      92.83958874
H      60.84538213      87.99219587      94.20397114
C      63.77256819      87.83345886      88.49321822
H      62.64062213      89.32256320      87.63150303
H      64.28657374      86.39537714      87.10993856
H      65.50544722      88.67060762      89.22832175
C      64.83081492      85.61303045      96.61526191
O      63.90295930      84.14471310      98.25932381
N      65.51111639      88.07345410      97.04989897
H      66.38605967      88.95595629      95.60236861
C      64.67774708      89.55499953      99.14182600
H      64.00878398      88.13581507     100.47597278
C      66.86793988      90.95339701     100.36258919
H      66.10638017      92.02676155     101.94806958
H      67.81280304      92.13447595      98.96041228
C      68.78223263      89.09012686     101.50776335
H      69.80268485      87.89770956     100.17172683
C      70.81935760      90.84946206     102.57167925
H      70.15984312      92.52375957     103.57701366
H      72.03445163      91.34268063     100.98052971
H      72.07224615      89.82334067     103.84346507
C      67.94130442      87.49897731     103.78110409
H      66.48621517      88.25864728     105.02454402
H      69.65717593      86.99819983     104.80722549
H      66.90006522      85.85302569     103.11592043
C      62.22677206      91.02331688      98.59002592
O      60.23311080      90.23341128      99.52355071
N      62.42897277      93.09634664      97.11603940
H      64.21287442      93.40626176      96.51510642
C      60.23122108      94.48151603      96.11637418
H      58.82337496      93.04721376      95.66095012
C      58.98400171      96.41470605      98.02499775