 %block lattice_cart
   140.777   0.000   0.000
   0.000 144.511   0.000
   0.000   0.000   162.462
 %endblock lattice_cart

 %block positions_abs
N      87.79476907      42.45168145      78.88868424
H      89.50875084      41.81673342      78.34444306
H      87.03698882      43.92944744      77.94571081
H      86.58912368      40.97769494      78.75640340
C      87.76453345      43.21891034      81.51729354
H      88.45050410      41.54839227      82.50939985
C      89.58056044      45.43366958      81.85555455
H      91.25485795      44.79116263      80.84455097
H      90.13802970      45.57350933      83.83409800
C      88.80766238      48.17566246      80.75951329
H      87.27320461      48.88997901      81.93114360
H      87.99508006      47.83362200      78.89813287
S      91.16226136      50.60962995      81.02029552
C      93.18426852      50.22223606      78.31798689
H      94.85856603      51.34662322      78.74695476
H      92.52286431      50.84962520      76.47172428
H      94.06488098      48.36463509      78.22728003
C      85.19639539      43.72724671      82.64923960
O      83.45406773      44.31306188      81.25273186
N      84.97718714      43.75559261      85.19848040
H      86.43227640      43.34552200      86.36444153
C      82.65849295      44.61730782      86.50428128
H      81.04466668      43.59496587      85.73894212
C      82.83423750      43.79905632      89.27273033
H      84.53877064      44.56061603      90.14389416
H      83.26887455      41.78649780      89.32942212
C      80.47396934      44.57951328      90.83175454
O      78.74486976      45.66610592      89.88500165
N      80.39649056      44.07117691      93.26194257
H      78.82234854      44.33762832      94.31263040
H      81.85724900      43.06773224      93.97436939
C      82.28810660      47.48213291      85.98838600
O      84.16460483      48.86352283      86.07531341
N      79.90516172      48.42888578      85.36855577
H      78.34802723      47.35174179      85.12100162
C      79.49509111      51.10095880      84.97927215
H      80.55333784      51.75858355      83.33898971
C      76.69262698      51.68110477      84.38022890
H      76.01421524      50.80049230      82.64734987
C      74.99943221      50.50002583      86.51750936
H      75.62493162      50.86663273      88.44691993
H      74.77833423      48.47234949      86.23216069
H      73.00388122      50.91576561      86.22271206
C      76.41672694      54.56860658      84.22149189
H      77.03277772      55.62496359      85.87689214
H      74.39283006      54.94088266      84.14023366
C      77.64504905      56.11440270      82.04830663
H      79.64815894      56.39597192      82.43381080
H      76.47530846      57.80003858      81.87256209
H      77.50520930      54.95411075      80.34944268
C      80.55333784      52.75635905      87.14300877
O      81.49064209      54.88986004      86.56475252
N      80.69317759      51.87385685      89.38422418
H      80.51743304      50.01625588      89.78106671
C      81.79866748      53.27225432      91.63299849
H      81.23930849      55.25457722      91.68213138
C      80.44751317      52.08550621      93.77405841
H      81.03332832      50.11074221      93.84775773
H      78.43873410      52.19133087      93.33753163
C      80.81600980      53.10028923      96.46691840
C      80.28688643      55.57961015      96.97714451
H      79.41005342      56.83816788      95.62976965
C      80.72719266      56.57738564      99.47536269
H      80.61191936      58.55214965      99.97614017
C      81.64370992      54.92387513     101.28383077
H      81.74764487      55.67031702     103.18111599
C      82.30511413      52.44077474     100.66778000
H      82.78321489      51.07261289     102.10397199
C      82.05378053      51.58850818      98.16389263
H      82.29944495      49.58350857      97.86342615
C      84.87136247      53.40642490      91.73126426
O      85.99952908      54.70277714      93.25060422
N      86.05433114      52.11196237      89.87555302
H      85.13403442      50.97245741      88.65101037
C      88.70183770      52.37652405      89.19336182
H      89.73173854      53.29304132      90.72404014
C      89.89425501      49.75358393      88.66045900
H      91.87090873      50.02003534      88.14834317
H      88.96639939      49.15643042      86.92191079
C      89.48985358      47.86007816      90.79584974
H      87.50753067      47.54638360      91.26828131
H      90.30621534      48.60652006      92.53250822
C      90.67660170      45.30516818      90.45947845
O      92.26019235      44.40187901      91.90133963
O      89.90181391      43.78204879      88.77762203
C      88.74719113      54.22656612      86.93891833
O      90.47818044      55.73834717      86.75939433
N      86.94817168      54.20955858      85.17958313
H      85.53087695      52.93021386      85.24572356
C      87.10312924      55.62118414      82.66057796
H      89.03442953      55.52102864      81.95571004
C      85.32489678      54.38530313      80.66880643
H      83.50509034      55.34906354      80.62534272
H      84.96395906      52.38975214      81.03541333
C      86.27353939      54.60073192      77.88901902
H      87.91193210      53.35729200      77.78319435
H      86.87447236      56.49801714      77.35044702
S      84.31767266      53.58972834      75.42481591
C      81.67583527      55.89708418      75.55331730
H      80.75553856      55.80637731      77.39391072
H      80.36814466      55.09584022      74.17570681
H      82.27298879      57.84161255      75.23584328
C      86.51731408      58.44443525      82.87411703
O      87.82311497      59.88629642      81.44548394
N      84.85813438      59.27591483      84.42180288
H      83.69028352      58.08349751      85.34965850
C      84.71640491      61.97822344      85.06053038
H      84.90348781      63.04780855      83.31064381
C      82.11425178      62.66041465      86.28129357
H      82.26920933      64.44998546      87.28851770
H      81.63426129      61.25256855      87.70614721
C      79.88248500      62.87773318      84.44636932
H      80.05256037      61.57571174      82.85899922
C      77.38048736      62.30892556      85.68414006
H      77.40127435      60.50045747      86.66490802
H      75.92917755      62.66419410      84.26684533
H      77.08380033      63.64874151      87.22048755
C      79.71051991      65.46476850      83.37867396
H      79.11714584      66.78757692      84.84321185
H      78.29700462      65.56681371      81.88390044
H      81.57567978      66.18475423      82.89301430
C      86.84045728      63.16875102      86.33798536
O      87.41682381      65.39106917      85.85988461
N      88.43538629      61.71744122      87.71181639
H      88.14625817      59.83338408      87.59087391
C      90.80321336      62.65096602      88.93446932
H      90.37802494      64.26479228      90.14389416
C      91.89925462      60.48533966      90.62766409
H      93.69638435      61.13918496      91.39111353
H      92.36223757      58.82049078      89.50705639
C      90.21172903      59.47244636      92.89155622
H      88.59412330      58.71466610      91.86543483
H      89.79409951      61.05981646      94.13688586
C      91.88602654      57.54303580      94.28617424
H      93.27308565      58.53514210      95.44268674
H      92.89136094      56.42242808      92.88210759
N      90.20228040      56.06526982      95.89433133
H      88.70750688      55.26780532      95.01560859
C      89.90937282      56.41864864      98.43979267
N      91.16604081      58.07026944      99.66622505
H      90.64825581      58.33672085     101.48414176
H      92.43026772      59.03402985      98.60986804
N      88.18783215      54.98245663      99.55284147
H      88.13114036      55.19410599     101.44823696
H      87.38847792      53.49146257      98.67033928
C      92.61168144      63.61094698      86.91246216
O      94.29164814      65.08304379      87.55685884
N      92.38302456      62.96655031      84.41424398
H      90.84856679      61.91775220      83.97771720
C      94.28786868      63.70732303      82.41869299
H      95.69382506      65.08304379      83.02529514
C      95.87145933      61.40185693      81.56264697
H      97.02419239      62.13885019      80.02252003
C      97.52308013      60.67998147      83.84543636
H      98.35078026      62.35427899      84.71282073
H      99.04619954      59.52913814      83.06875884
H      96.38357516      59.73322858      85.27595918
C      94.28786868      59.06804493      80.88234550
H      93.01608288      59.45921827      79.31009321
H      93.09356165      58.50868594      82.46593615
C      96.05476279      56.87596241      80.08866045
H      97.46071916      57.46933646      78.70538079
H      94.88502220      55.42843205      79.20426853
H      96.81065331      55.77614168      81.65713329
C      93.10867946      64.87328417      80.08110154
O      94.32377348      66.28113027      78.62034310
N      90.53487223      64.97910884      80.02440975
H      89.63536250      63.73944838      81.16391472
C      88.99663501      66.47199262      78.15547043
H      90.07188928      66.72143650      76.41692222
C      86.57022642      65.08115405      77.64902378
H      85.65559889      64.68620126      79.44993295
H      86.94250251      63.17630993      76.96116340
C      84.90726727      66.33404261      75.68559814
O      85.75197493      66.61939127      73.50107452
O      82.73786146      67.05591806      76.21472151
C      88.40893012      69.09871220      79.30442403
O      88.20106023      70.96009262      77.99295397
N      88.22184722      69.24044167      81.87067236
H      87.97240335      67.64551266      82.88923484
C      87.84012250      71.80480028      83.06497939
H      88.14814789      73.23154365      81.61366958
C      85.05088647      71.75188793      84.13456448
H      84.93939261      73.32791968      85.45548318
H      84.61435969      70.02656782      85.17013450
C      83.06667384      72.25077569      82.19570529
H      81.39993523      71.16796251      82.73049783
H      83.67327598      71.23977211      80.50628996
C      82.71140529      75.12882887      81.64768466
O      81.22608041      76.49321126      82.90246293
O      84.03043426      76.09258929      79.81465013
C      89.70528237      72.22431952      85.27406945
O      90.69927842      74.34648216      85.38367358
N      90.20983930      70.30813704      86.74049707
H      89.54465564      68.58281691      86.26617576
C      91.70839227      70.34215210      89.10454469
H      93.51875007      71.28890499      88.83809328
H      92.13547041      68.43163881      89.74516191
C      90.21172903      71.74243931      91.20969980
O      88.37302532      73.17485186      90.73348877
N      91.14903328      71.46087008      93.49248919
H      92.64947597      70.32325484      93.80807348
C      89.74496663      72.26778323      95.72992514
H      87.75697455      72.62305176      95.32930316
C      89.79787896      70.08325960      97.68768160
H      91.72162035      69.39539923      97.94468438
H      88.73207332      68.61872172      96.70691364
C      88.26531092      70.81647342     100.18778951
H      88.75852949      72.71564835     100.81139920
C      85.44394954      70.41207198     100.01015524
H      84.70695628      71.69330643      98.57396324
H      84.31011375      70.82781178     101.67878357
H      84.99419468      68.42785935      99.68890177
C      89.23663025      68.97965944     102.17578159
H      91.25107850      69.21020605     102.54616795
H      88.91159732      67.11638930     101.35941983
H      88.33712052      69.10627111     104.02582365
C      90.73518322      74.83781101      96.60864788
O      92.97828835      75.09670352      96.86754038
N      89.07033433      76.65383800      97.28139044
H      87.21273337      76.31935644      96.99226232
C      89.62402414      79.27299867      97.88421314
H      91.64414157      79.66039256      97.98058918
C      88.55065960      80.89816330      95.81496282
H      88.52420343      82.82946358      96.53305882
H      86.71195590      80.20652347      95.19702232
C      90.18338313      80.92084001      93.31296519
H      90.11913244      79.06512878      92.42290409
H      92.13547041      81.44240448      93.71736662
C      89.03631926      82.91261155      91.46481285
H      89.18938709      84.73430771      92.41723491
H      87.07289362      82.42884161      91.06230115
N      90.48951879      82.89560400      89.11588304
H      91.53831690      84.46974603      88.85510081
C      90.35912768      81.04178250      87.31686359
N      88.96639939      79.00087808      87.31119442
H      89.63914195      77.56468607      86.24916823
H      87.73240810      78.67206570      88.73037888
N      91.72539980      81.00776742      85.38556330
H      91.60634705      79.65850284      84.04196789
H      92.94427328      82.45907723      85.15879614
C      88.42782739      79.59992132     100.43912311
O      86.15826609      79.04245205     100.86809098
N      89.73173854      80.54667421     102.41199738
H      91.60445732      80.70919066     102.08129528
C      88.91726650      80.96430371     104.92533338
H      87.33178613      79.73976106     105.40532386
C      91.21706343      80.20085429     106.60530007
H      90.32700233      80.12715495     108.45912158
H      92.27908961      81.96018949     106.76592681
C      92.60601227      77.57791416     106.08373561
H      93.36568224      77.71208474     104.17322231
C      94.73195437      77.19996889     107.89220369
H      95.70705314      75.41984672     107.55016323
H      94.14424948      77.52500183     109.84051152
H      96.10011622      78.66261707     107.40843375
C      90.59912292      75.46897960     106.08562533
H      89.71473101      75.53134057     107.94511603
H      91.65925938      73.73799030     105.73224651
H      89.29521176      75.91873446     104.55683675
C      88.05177185      83.75353976     105.59240677
O      87.55666356      84.33368574     107.80338655
N      87.91382183      85.53744140     103.75559279
H      88.82466991      85.13870915     102.12664871
C      87.36202175      88.22841166     104.28093671
H      86.50786545      88.12825616     106.15365548
C      89.83378376      89.79310505     104.36030521
H      91.03375997      89.50019748     106.00814656
H      89.06844461      91.68661081     104.63620525
C      91.44194086      89.61925023     101.89988155
H      90.24007492      89.55688926     100.22747376
H      92.51719513      87.86558421     101.81673359
C      93.00663424      92.09668142     101.47658286
H      93.39402814      93.12091308     103.22268997
H      92.09578616      93.54232205     100.32384981
C      95.58233121      91.29543747     100.38054160
H      95.28564418      90.31089006      98.59475023
H      96.58388615      89.98963658     101.61831233
N      97.32465887      93.43271793      99.92700728
H      97.73850893      94.07333515     101.67689385
H      96.49128956      94.93694007      99.09552770
H      99.00273583      92.87335893      99.20702156
C      85.30977897      89.12225220     102.50648370
O      84.97907687      88.00353424     100.48825600
N      84.09090550      91.18016417     102.96946664
H      84.00586781      91.96062113     104.70612513
C      82.11803123      92.08345334     101.12320404
H      81.03332832      90.44506062     100.50148408
C      80.07145763      93.87113444     102.41388711
H      81.17316807      95.23551683     103.49670029
C      78.34046833      95.22417848     100.56384505
H      77.59024698      93.82200155      99.25426471
H      79.47997330      96.40714714      99.31851541
H      76.83813591      96.38258070     101.37075818
C      78.67494989      92.25730816     104.31495178
H      80.09035489      91.21417924     105.39020605
H      77.48442231      90.87780795     103.35497081
C      76.77388521      93.69916934     106.07428698
H      74.98431440      94.04498926     105.11430601
H      77.64504905      95.36401822     106.91899464
H      75.99153852      92.59745890     107.62953173
C      83.24997729      93.23429667      98.77805368
O      84.93939261      94.77253389      98.73458998
N      82.40904908      92.31588967      96.65211158
H      81.02576942      91.00630935      96.78250270
C      82.79266352      93.30988572      94.09342215
H      83.50320062      95.24118601      94.18979819
C      84.70506655      91.57322724      92.64400207
H      86.47574011      91.71495671      93.68713100
H      85.15860087      92.23274172      90.74482713
C      83.69028352      88.85013161      92.47959588
C      82.41282853      88.12825616      90.24027020
H      82.19362028      89.55688926      88.80029875
C      81.69662226      85.59035372      89.99838523
H      80.58168374      84.85902965      88.45258911
C      81.94417641      83.86881306      91.95047251
O      81.20907287      81.39327158      91.88622182
H      81.09002011      80.62982215      90.24404965
C      83.16682933      84.66816728      94.16145230
H      83.15738070      83.37559450      95.74126350
C      84.15137674      87.09646561      94.39199891
H      85.15671114      87.83345886      96.00582518
C      80.30011452      93.84845771      92.65534043
O      78.31779161      93.27020146      93.75138169
N      80.48530769      94.84245375      90.28562363
H      82.21251754      95.42071001      89.71681601
C      78.38015258      95.58700592      88.59809803
H      76.54144888      95.40937166      89.51083584
C      78.66739098      98.48017692      87.88000204
H      77.50331957      98.86946054      86.22460179
H      80.67239060      98.82410710      87.55874856
C      77.65260795     100.27541691      89.99649551
H      78.41794711      99.66314558      91.80685331
H      75.60225490     100.22628402      90.20058595
C      78.49164643     102.96071799      89.59398380
H      80.52310222     103.28764066      89.52973311
H      78.00598677     103.96038322      91.33064228
C      77.72630728     104.24006272      87.09576562
H      78.18551077     102.97394608      85.53674141
H      78.67683961     106.02396436      86.70648200
N      74.92951233     104.75595800      87.17891357
H      74.18496017     104.93737173      85.43091673
H      74.67061983     106.27529795      88.30519046
H      73.79000737     103.45393657      87.98582671
C      78.54833822      93.86357553      86.29641139
O      80.64971388      93.42137958      85.30808452
N      76.23720294      93.44783573      85.13045025
H      74.76888560      94.29632285      86.00161408
C      75.57390901      91.93794442      82.95537526
H      77.06301334      90.53576750      82.70971084
C      72.81679832      90.90237439      83.54685960
H      71.57335840      92.54076711      83.60922057
H      72.59381061      89.74775161      85.23627492
C      72.06846670      89.22429743      81.29052638
O      72.94529970      87.05678135      81.26029076
O      70.48109659      90.07845373      79.87512137
C      75.68918231      93.78042758      80.60644546
O      75.73264602      96.08778340      80.91258112
N      75.74965355      92.73162946      78.28397182
H      76.08035566      90.86080041      78.10444782
C      75.31312678      94.25285915      75.97850572
H      76.44696256      95.95550255      76.20905233
C      76.32790981      92.73351919      73.75807730
H      75.27722198      90.96284564      73.67681907
C      76.32413035      93.78609674      71.16915225
H      74.44007322      93.40815149      70.42460008
H      77.84536003      93.07178020      69.97673495
H      76.57924340      95.80999363      71.44883174
O      79.01132117      92.16849102      74.24562669
H      79.26265477      90.55844421      73.45383136
C      72.71097364      95.18071477      75.44182344
O      72.61648733      97.14414041      74.23050888
N      70.64172333      94.13380640      76.53219553
H      71.08013983      92.50108286      77.41658744
C      68.16996131      95.38480521      76.76274214
H      67.66918384      96.35990399      75.01852475
C      66.11771854      93.39681312      77.30887304
H      66.10638018      93.07366993      79.34221855
H      66.79990973      91.76408960      76.25440576
C      63.35871812      93.85601662      76.23550849
H      62.92975025      95.85723678      76.46794483
H      62.08126313      92.78643152      77.44493334
C      63.28123934      93.04910349      73.48595671
O      63.83303942      90.83056480      72.85856757
O      62.89195572      94.65537086      71.79465166
C      68.15862295      97.40303291      78.82821300
O      66.47109736      99.02630781      78.76963148
N      70.12582805      97.35012058      80.37022967
H      71.34092207      95.87991351      80.27763308
C      70.93841036      99.31921540      82.08799089
H      70.01811365     101.10122730      81.62311821
H      72.97742505      99.61779216      82.04074773
C      70.44519179      98.89780642      84.97549269
O      70.97620489     100.59856011      86.47593538
N      69.17718544      96.78131296      85.54807977
H      68.55168603      95.62669018      84.16102065
C      68.34003668      96.05754778      88.02929041
H      67.49721874      97.54665212      89.17446456
C      66.17063087      94.09412214      87.88756094
H      65.15962730      93.96940020      89.67713176
H      67.00022072      92.23274172      87.58709446
C      64.19397715      94.38891944      85.69736814
C      63.33982086      92.33667666      84.29897067
H      64.12405728      90.53765721      84.85643993
C      61.43308701      92.51620066      82.48672314
H      60.78680061      90.84001342      81.52107299
C      60.32759711      94.96906542      82.04074773
O      58.53802629      95.04087503      80.16613923
H      58.06181526      96.68682664      79.57465489
C      61.09860545      97.05154382      83.46749109
H      60.50145193      98.96772630      83.10655337
C      63.09982561      96.82666638      85.17580368
H      63.67430241      98.42726457      86.30019084
C      70.50377331      95.00308050      89.59776325
O      72.33491811      93.82389127      88.68313572
N      70.16362257      95.31677507      92.07330472
H      68.54790657      96.12746766      92.68746578
C      71.87382489      94.23207215      94.06318653
H      73.69552105      94.93316062      93.40556177
C      71.11226518      95.49251960      96.60108897
H      72.17996055      94.43616261      98.00893507
H      69.10537584      95.04087503      96.72581091
C      71.66784472      98.26474812      96.82974585
C      69.68552181      99.98817851      97.26816236
H      67.77311879      99.27386196      97.24170619
C      70.35637466     102.58466246      97.51193705
H      68.89372649     103.99628802      97.71413777
C      73.00199149     103.27819202      97.47225280
O      73.58402720     105.79152801      97.54406240
H      72.01933381     106.69859664      97.41556101
C      74.88415890     101.47728285      97.09430754
H      76.81356947     102.12923842      97.23414728
C      74.14716564      98.91481397      96.83163558
H      75.51154804      97.43704799      96.49337457
C      71.98909819      91.38425460      94.30507150
O      70.07858489      90.08790235      94.06696598
N      74.08480467      90.21451402      94.78128253
H      75.71941793      91.18205389      94.97403461
C      74.48731638      87.44417524      94.39199891
H      72.78656269      86.45962784      95.00615996
C      75.15061031      86.84702173      91.61977041
H      76.94018113      87.80889242      91.27206077
C      75.38493637      84.02377062      91.16434637
H      76.76254686      83.13181979      92.40589656
H      76.33546871      83.77243701      89.35398856
H      73.56701966      83.16961432      91.61977041
O      73.23631756      87.67472186      89.87933247
H      73.15127987      89.47374131      89.65634477
C      76.48475709      86.58246005      96.16834164
O      78.26487928      88.03188013      96.80895886
N      76.24854130      84.23353024      97.19635276
H      74.96352741      83.09780473      96.36109373
C      78.11181144      83.02977458      98.92734206
H      79.89571308      84.04455760      98.75915642
C      77.05734416      83.58724383     101.69390138
H      77.13482294      85.64137634     101.81673359
C      74.52889036      82.40994434     102.31373161
H      73.20797166      83.28866709     101.00037183
H      73.64638817      82.77844097     104.13920723
H      74.47408829      80.35959130     102.12097953
C      78.81289991      82.42695188     103.66677565
H      78.86581224      80.38982692     103.37575780
H      78.13259843      82.98631088     105.53004580
C      81.52843662      83.38126367     103.57795852
H      82.03110382      83.60803083     101.59374589
H      82.89848820      82.14727238     104.49636551
H      81.46607565      85.18784202     104.56439565
C      78.39149094      80.23297964      98.15444400
O      76.86081263      79.31646238      96.58219171
N      80.36625494      78.94607602      99.20135238
H      81.68150445      79.99865356     100.09897238
C      80.88026049      76.24565712      99.17678593
H      79.20596298      75.16284393      99.69457094
H      82.58857308      75.83936596     100.25015048
C      81.37347906      75.46897960      96.42723415
O      83.44272937      76.05290503      95.38410522
N      79.45351713      74.32002599      95.29906754
H      77.90961073      73.84570469      96.31385057
C      79.21541161      73.80035127      92.68746578
H      80.46452070      75.04190146      91.61788068
C      80.18295148      71.03568166      92.04117938
H      78.86959170      69.67885818      92.86132060
C      79.79177814      70.71064875      89.09320633
H      81.38103797      71.57614340      88.10676919
H      78.21763612      71.69708587      88.20503496
H      79.64815894      68.70375940      88.66423846
C      82.94573135      70.52545557      92.88399731
H      82.95329026      70.34215210      94.93624009
H      84.00586781      72.19975308      92.32463832
C      84.25720141      68.09904698      91.91456771
H      85.49497215      68.44864635      90.30452090
H      82.79455325      66.67230362      91.64055740
H      85.44961872      67.56803389      93.50571727
C      76.45074202      74.27089312      91.89189100
O      74.84069520      72.89139291      92.67045824
N      75.94051591      76.11904544      90.20436540
H      77.46552505      77.00154763      89.47115159
C      73.62182172      76.51399824      88.86832890
H      73.27411208      74.95686376      87.56819719
H      73.79189709      78.09758890      87.56252801
C      71.17462615      76.97131201      90.38766885
O      69.03734569      76.90895104      89.44091597
N      71.44674674      77.47019977      92.93690965
H      73.23820728      77.40783880      93.59075495
C      69.25844367      78.01255122      94.74726746
H      67.46698312      77.26610933      94.06129681
C      69.79134649      76.59525647      97.15288905
H      71.57146868      77.29823466      97.91822821
H      70.09559242      74.62427193      96.64266295
C      67.83359003      76.92595859      99.15977840
N      65.89473083      75.20630764      99.55851065
H      65.74922190      73.48476697      98.74592834
C      64.59270940      76.07558174     101.59752534
H      62.99211121      75.16662338     102.48191726
N      65.43552734      78.38482729     102.03783157
H      64.68152654      79.63771585     103.26426395
C      67.53690300      78.87804587     100.66211082
H      68.63672371      80.59580709     100.61675739
C      68.98443335      80.93595783      95.10253600
O      70.69274594      82.15672102      95.92456695
N      66.77534329      81.95829975      94.29562287
H      65.35993828      80.74698518      93.87043445
C      66.15362334      84.73997689      94.34853520
H      67.71642700      86.02121132      93.95358241
C      64.17130043      85.00831802      92.15078350
H      63.09226671      83.25465200      92.09031226
H      65.23899580      84.99886939      90.38766885
C      62.37417071      87.21173891      92.45691917
H      61.10616435      86.86969844      94.04428927
C      63.76500928      89.73452353      92.98604253
H      62.49133374      91.34457036      92.85376169
H      65.03490536      89.86680438      91.37032654
H      64.82325601      89.82334067      94.75104691
C      61.17986368      87.55944854      89.98893660
H      59.73044360      89.00508917      90.20814485
H      60.31247930      85.77365719      89.44847488
H      62.49889265      88.17171987      88.52817816
C      65.12939167      85.51854413      97.01871849
O      63.09037698      84.64927003      97.85775697
N      66.29913226      87.38937318      98.25270977
H      67.86760510      88.07912328      97.40989183
C      65.46198351      88.71785078     100.62998547
H      64.78924094      87.06622997     101.65988631
C      67.72398590      89.70428791     102.17956105
H      66.90762413      90.82300589     103.70457018
H      68.88238813      91.00252989     101.07596088
C      69.50221836      87.81456160     103.52882563
H      69.78378758      86.23475040     102.23625284
C      71.86815571      89.16571592     104.29416479
H      72.78845242      88.02243150     105.73980542
H      71.46564400      91.05166277     105.01604024
H      73.03222712      89.60413241     102.65388235
C      68.23988119      86.43128194     105.78137940
H      66.79802001      85.12170160     105.11241628
H      67.41218106      87.78621571     107.09473919
H      69.53623344      85.08012763     106.63742542
C      63.29446742      90.63214353     100.35030598
O      61.39340275      90.23341129     101.62209178
N      63.57792637      92.54076711      98.87820918
H      65.30702595      92.69005549      98.08263440
C      61.52757332      94.38136053      98.20924606
H      59.97988747      93.07178020      97.84074943
C      60.86616911      96.21061561     100.42589503