 %block lattice_cart
   140.777   0.000   0.000
   0.000 144.511   0.000
   0.000   0.000   162.462
 %endblock lattice_cart

 %block positions_abs
N      90.67565684      42.67939347      81.97177272
H      90.00291427      41.65705154      80.50723482
H      90.11062867      41.84791390      83.59693735
H      92.57861123      42.77010034      81.86405831
C      89.78370602      45.30611305      81.65429869
H      90.29771157      46.54010433      83.21899208
C      90.86462947      46.27554265      79.19387504
H      90.46022804      44.95651368      77.66319673
H      92.92065170      46.37380842      79.16363942
C      89.85362589      48.92493894      78.22633516
H      87.82028038      48.90226222      77.90319197
H      90.66242875      49.40492942      76.39519037
S      90.64920067      51.60079140      80.18787108
C      93.51024631      52.66470731      78.58727289
H      93.30804559      52.92171009      76.55203765
H      94.94076913      51.18127216      78.59672152
H      94.05826694      54.43916032      79.47922372
C      86.88108640      45.26642880      81.50123086
O      85.90787735      43.56945457      80.49589647
N      85.82850884      47.20717772      82.59349267
H      87.11730219      48.27865254      83.50434076
C      83.19045091      47.88747919      82.86372354
H      82.21913159      47.17694210      81.19320547
C      81.90543702      46.26042484      85.10682868
H      82.95612485      44.52376635      85.45264859
H      79.96090864      45.79933162      84.60605120
C      81.91677538      47.50197502      87.72032017
O      80.65065875      49.34823763      88.19086201
N      83.36430573      46.60057557      89.53067796
H      83.56650645      47.72307300      91.06324600
H      84.38097849      44.99241848      89.38516904
C      82.84652072      50.82411388      83.09049069
O      84.65120935      52.14314285      83.47221541
N      80.53916489      51.96361885      82.93931258
H      79.01982494      50.88836458      82.51979334
C      80.10074839      54.80198777      83.16041056
H      81.30261432      55.47284061      81.62595280
C      77.34363770      55.56543720      82.78624475
H      76.67656431      54.46183703      81.17997739
C      75.79595185      54.97584259      85.27123486
H      73.82496730      55.43504609      84.88762042
H      76.43467934      56.28164347      86.73010358
H      76.05295463      53.00674777      85.81358631
C      76.64065951      58.36979105      82.35160770
H      77.59308157      59.45827341      83.81614559
H      74.66211606      58.91214250      82.16074534
C      77.67433980      59.48850903      79.90819158
H      77.14899589      61.47650111      79.77969020
H      76.78805816      58.66080890      78.24334271
H      79.71524422      59.22016789      79.80992581
C      81.39143146      56.06999413      85.41485405
O      82.71612961      58.00129442      85.09926977
N      81.30261432      54.85490011      87.69197426
H      80.47302447      53.13713889      87.77134277
C      82.53282615      55.95661055      89.98988146
H      81.90732675      57.91436701      90.15050820
C      81.51804312      54.37490962      92.10448521
H      82.33818434      52.51730866      91.75677556
H      79.46580035      54.29932057      91.96464547
C      82.05472540      54.83411312      94.77277876
C      81.00025811      56.93548878      96.06346183
H      79.82673807      58.29420200      95.08836306
C      81.33284995      57.18115320      98.61837180
H      80.53916489      58.72505960      99.69551580
C      82.61030493      55.33489059     100.05645354
H      83.12997967      55.70716668     101.99531273
C      83.30572422      53.13713889      98.94151500
H      84.04838666      51.58756331     100.04322545
C      83.14509748      52.93682790      96.24487555
H      83.79705306      51.20961805      95.37371172
C      85.52048346      55.89802903      89.79523966
O      86.78093091      57.31910322      90.99710558
N      86.63353225      54.24451851      88.20031065
H      85.52993209      53.03887312      87.21387350
C      89.37741486      54.20483426      87.48788382
H      90.46967667      54.79064941      89.13194572
C      90.22023280      51.42882630      86.93041456
H      92.20255570      51.56488660      86.38050420
H      89.26403128      50.66159742      85.27501431
C      89.96134029      49.56933561      89.07147448
H      88.06594480      49.33689927      89.84815199
H      91.01769730      50.20428365      90.72120555
C      90.83817330      46.87647561      88.35337847
O      89.45489364      45.41949663      87.19497624
O      92.97923321      46.11113646      88.95053200
C      90.19566635      56.05865577      85.39217734
O      92.30460092      56.95249632      85.21265334
N      88.47601541      56.67470655      83.62906270
H      86.76770282      55.83566806      83.75756408
C      88.78404080      58.04853758      81.21588220
H      90.60384724      57.36823610      80.52613209
C      86.64109116      57.20005046      79.28836135
H      84.90821213      58.27152528      79.59827646
H      86.48046442      55.17615358      79.63985044
C      87.48957827      57.65169505      76.63140615
H      89.46056282      57.05643126      76.62195752
H      87.62752829      59.66992275      76.24590199
S      85.48457866      55.97172836      74.32027088
C      82.47991382      57.50240667      74.71900313
H      81.45001298      56.63880175      76.27802734
H      81.26859925      57.25296280      73.07116179
H      82.77471112      59.53386246      74.88340931
C      88.54971474      60.90958321      81.55603292
O      90.06149579      62.34010603      80.53558071
N      86.69211377      61.83365938      82.90151807
H      85.40521015      60.64691126      83.66496749
C      86.14409314      64.55864473      83.20954346
H      86.25369726      65.54508186      81.40485483
C      83.58540371      65.11800371      84.62494847
H      83.54005028      66.99450194      85.47154584
H      83.47390986      63.79708502      86.20286993
C      81.26293007      65.03863521      83.05269617
H      81.28560679      63.49850826      81.68453431
C      78.94990507      64.72116119      84.92352521
H      79.01037631      62.92592119      85.93263907
H      77.22647467      64.80052969      83.80102779
H      78.85730848      66.19136826      86.36349666
C      80.75648342      67.52173558      81.55036374
H      82.45156792      68.07164594      80.51668346
H      80.51459845      69.27351188      82.60483104
H      79.12375989      67.09654716      80.37117453
C      88.30027086      66.07798468      84.60227174
O      88.42877225      68.38534051      84.21676758
N      89.99724509      64.64557214      85.97610278
H      89.81583136      62.76151500      86.19531102
C      92.10617966      65.70192914      87.43686121
H      91.50146724      67.22504855      88.68219086
C      93.12474214      63.53252334      89.20186560
H      94.61762593      64.46982759      90.26578150
H      94.04881831      62.00751420      88.16629557
C      91.27847953      62.29664233      90.99710558
H      89.95378139      61.09855585      89.96909448
H      90.23535061      63.88212271      91.80023927
C      92.68821536      60.73761812      93.04556892
H      93.87118403      61.81287239      94.34570061
H      93.96378062      59.30709530      92.28967839
N      90.75313562      59.17481446      94.31357526
H      89.72512450      58.07310402      93.14383467
C      90.28448349      58.98962128      96.81179346
N      91.32383296      60.28030435      98.64293826
H      91.08005827      59.58488507     100.40227345
H      92.77325304      61.40658124      98.11948406
N      88.47601541      57.38524364      97.34847573
H      87.98090712      57.28130869      99.18906915
H      87.63130775      56.52730790      95.86504057
C      94.07527447      66.71104300      85.54524518
O      95.69476992      68.29274392      86.24066446
N      93.98645734      66.11955866      83.13395440
H      92.81293730      64.70604338      82.61994884
C      95.57760689      66.96237660      81.12706506
H      96.72467077      68.48549600      81.91130148
C      97.35772908      64.78541188      80.28613685
H      98.38574019      65.54886131      78.67420030
C      99.20588141      64.13534603      82.42530704
H      98.34416622      62.82387597      83.75945380
H      99.58949586      65.90224013      83.41363390
H     100.93498099      63.38323496      81.59382745
C      95.85917611      62.36845193      79.21655175
H      94.26613683      63.05631231      78.10539268
H      94.89730542      61.28941820      80.68297938
C      97.57315788      60.65258044      77.71610906
H      96.43554264      59.35055901      76.59739108
H      98.91486356      59.80976250      79.03513802
H      98.79014163      61.71460662      76.43865408
C      94.23968066      68.23605213      78.88773937
O      95.47934113      69.69870030      77.51768780
N      91.79815427      67.83165070      78.68553866
H      91.25391309      66.35955390      79.77024156
C      90.16354101      69.08453924      76.86384250
H      91.11974252      68.99005293      75.04214633
C      87.74658105      67.47260270      76.57660409
H      86.54660484      67.77873836      78.22066598
H      88.37963937      65.51484624      76.46511025
C      86.25180754      67.64267807      74.16342359
O      87.28548783      67.41213146      72.03181231
O      83.92177499      68.10188156      74.35617568
C      89.76669848      71.86810610      77.77280085
O      90.25424787      73.60854404      76.36117529
N      88.88419629      72.27628699      80.15196627
H      88.69522366      70.68324771      81.18564657
C      88.22090236      74.78206408      81.14029313
H      88.73679764      76.29006568      79.83638199
C      85.57906497      74.81229970      82.03602342
H      85.00647790      76.46958968      83.12072631
H      85.18411217      73.15123027      83.18686673
C      83.73847154      74.87277094      79.78346964
H      81.88465003      74.23026400      80.41463823
H      84.19767504      73.50271936      78.31704202
C      83.49280712      77.67712479      78.86317293
O      84.57184085      78.25916049      76.90163702
O      82.24180830      79.35331203      80.09716421
C      89.90653823      75.30173881      83.50434076
O      90.71723082      77.42201174      83.77835108
N      90.35251364      73.37232825      85.10115950
H      89.42654774      71.74716362      84.72132450
C      91.73579330      73.63122075      87.40473586
H      93.13041132      75.14489153      87.38961805
H      92.74112770      71.85298829      87.66362838
C      90.14653347      74.48915650      89.62516428
O      88.47034623      76.01605536      89.28312383
N      90.84573221      73.47248374      91.82102627
H      92.36129271      72.31786097      91.92307148
C      89.63441764      74.13766741      94.34381088
H      87.63130775      74.36254484      93.92051220
C      89.98590673      71.73771499      96.00488031
H      92.00602416      71.81708349      96.40172284
H      89.53237242      70.04074076      94.92773632
C      88.64798050      71.64322867      98.48798070
H      89.14308880      73.48949128      99.26087875
C      85.82283967      71.58653688      98.27822108
H      85.01970598      71.58464716     100.17550630
H      85.04994160      70.14656543      97.01966334
H      85.24458341      73.36665907      97.41839559
C      89.59284366      69.62689070     100.20196246
H      88.68766476      69.58720644     102.05011479
H      91.63185835      69.84987840     100.38148646
H      89.24891347      67.75039247      99.42339521
C      90.63408286      76.57730408      95.48898503
O      93.00568938      76.88721919      95.24898979
N      88.95978535      78.12687965      96.62471054
H      87.12297137      77.68657342      96.90816949
C      89.56638749      80.73470196      97.50343328
H      91.59406383      80.98414584      97.77744359
C      88.75947436      82.49781661      95.33969665
H      86.72234939      82.57340567      95.05623771
H      89.59473339      81.69468293      93.63516352
C      89.73457313      85.18311771      95.26977679
H      91.73768303      84.89021013      95.65528095
H      88.80860724      86.46246242      96.59069548
C      89.50024707      86.27915897      92.54101198
H      87.49902691      86.42844735      92.07613932
H      90.32605747      85.06784440      91.09537135
N      90.49046366      88.89642991      92.20842015
H      91.41076037      89.81672662      93.60492790
C      90.58306025      90.12664174      90.02200681
N      89.73079368      89.29516216      87.85827018
H      90.02181153      90.41576987      86.34081996
H      89.28481827      87.46023791      87.58803932
N      91.48068025      92.40943113      89.89728487
H      91.22556719      93.47334704      88.33448121
H      92.19121734      93.09162233      91.53189814
C      88.41365444      81.34130411     100.07724052
O      86.21590274      80.75926841     100.77832899
N      90.07283414      82.17845287     101.80256064
H      91.70933713      82.69812760     100.97297079
C      89.75724985      82.16711451     104.58234805
H      88.30971949      80.75737868     104.97541112
C      92.24223995      81.45657742     105.87303112
H      91.64886589      81.40177535     107.84401567
H      93.52725384      83.04772697     105.64059479
C      93.76913881      79.16055995     105.24186253
H      94.42487384      79.48370315     103.31434169
C      96.15964260      78.79395304     107.03521281
H      97.16497700      80.58730331     107.12591966
H      97.54859144      77.52216723     106.20562295
H      95.75713089      78.23270433     108.97596173
C      92.07972349      76.79273288     105.33067967
H      90.73423835      76.81540959     103.76976573
H      91.04604319      76.78895342     107.11458131
H      93.11718323      75.02772850     105.11903032
C      88.81616615      84.68989914     105.84468522
O      87.80894202      84.76170874     107.91771499
N      89.12608126      86.78182617     104.27621238
H      89.98779646      86.60986107     102.58112789
C      88.47790514      89.42555328     104.99241867
H      87.94311259      89.25736764     106.97474157
C      90.96100551      91.06205627     104.85824809
H      92.61262631      90.23813559     105.77665509
H      90.29771157      92.69100035     105.93161263
C      91.50713642      91.74235774     102.20696207
H      90.21645334      93.29949222     101.80256064
H      91.41076037      90.10963420     100.95596326
C      94.16976079      92.68533117     101.91027505
H      94.19621696      93.50925184     100.02432819
H      95.49067948      91.13386586     102.22019017
C      94.77447321      94.97567946     103.53543967
H      94.97100475      94.31616498     105.47618859
H      93.16253667      96.24935499     103.38993075
N      97.08182904      96.17565567     102.65482721
H      97.54859144      97.58161204     103.85669314
H      96.82104681      96.95422291     100.93139681
H      98.63140462      95.06071714     102.62081213
C      86.18944657      90.17010545     103.29544443
O      85.74914034      89.10241008     101.18084068
N      84.90254295      92.23179685     104.01731989
H      85.24836287      93.22957235     105.60657971
C      82.85974881      93.30516140     102.36380936
H      81.58040409      91.82739542     101.71752297
C      80.99458894      95.26291786     103.68661778
H      82.06417403      96.91453866     104.29510966
C      78.99525850      96.20589129     101.84035517
H      80.01571071      97.31705036     100.43817825
H      77.74614940      97.37752160     102.98552931
H      77.97669601      94.63741845     100.97675025
C      79.64721407      94.02136767     105.79744207
H      80.98136085      93.09351205     107.06544842
H      78.48125294      92.48502018     105.07178717
C      78.02582890      95.72779053     107.49441631
H      79.09919344      97.43232367     107.91771499
H      77.58552267      94.79048628     109.27453848
H      76.26082452      96.12652278     106.50797916
C      83.98413596      94.45033554      99.93173160
O      85.97212804      95.69944464     100.08479942
N      82.63298165      94.08939782      97.77933332
H      80.95679441      93.18043946      97.77744359
C      83.03738308      95.22890279      95.25465897
H      83.72713318      97.16776198      95.33402747
C      84.84207171      93.62263542      93.76744437
H      86.27637398      93.08595315      95.14694458
H      85.59607251      94.51647597      92.07047013
C      83.79516333      91.13764532      92.89439081
C      82.49503163      91.04315900      90.59081443
H      82.26259529      92.74769214      89.49288345
C      81.30072460      88.96446006      89.67429716
H      80.51648818      88.71690591      87.80535785
C      81.24403281      86.86497412      91.30135153
O      79.81162026      84.80139299      90.74388226
H      78.84030094      85.11130811      89.24343957
C      82.74258578      86.75348027      93.51044158
H      82.63676110      85.03382933      94.60459312
C      83.87642156      88.94934225      94.32302390
H      84.91199158      88.91910663      96.08235910
C      80.51459845      95.62007613      93.76744437
O      78.53227555      94.62985954      94.44963556
N      80.56373134      96.79548590      91.48465497
H      82.30227954      97.35862434      90.93285490
C      78.37920772      97.53625861      89.78768075
H      76.68601294      97.28114556      90.93096517
C      78.47180431     100.21589053      88.96942925
H      76.62365197     100.43509878      88.08503733
H      80.16121963     100.67131457      87.87905717
C      78.55684199     101.82593734      91.32213852
H      80.17255799     101.44610236      92.54101198
H      76.95057463     101.55759621      92.57880651
C      78.50015020     104.63973982      90.52278429
H      76.92222873     105.02713372      89.25477792
H      80.26515458     105.13484812      89.58359031
C      78.17889673     106.32159624      92.87927299
H      79.74170039     105.86239275      94.13972044
H      76.35153138     105.67908930      93.57658201
N      78.18834536     109.10327338      92.34825991
H      77.46269046     110.06514407      93.82980534
H      77.21135686     109.56247687      90.77411788
H      80.03082852     109.58515359      92.47487157
C      78.12031521      95.83928438      87.29135229
O      80.06484359      95.32716855      86.12917060
N      75.90933543      94.83017053      86.59215355
H      74.39188520      95.19677744      87.69008455
C      75.53705934      92.94422367      84.53046215
H      76.83719105      91.34740494      84.56636694
C      72.86687606      92.01636805      85.03312935
H      71.53083956      93.56405390      84.78179574
H      72.77427947      91.48724469      87.02112143
C      72.03917594      89.78649100      83.35694211
O      71.33241830      89.91121294      81.08171162
O      71.73870945      87.74180713      84.39440185
C      75.67878882      94.40876157      81.95854463
O      75.94335050      96.72934548      81.83949187
N      75.42934494      93.03870999      79.83638199
H      75.30651273      91.14898368      80.06692859
C      74.97203118      94.00247041      77.17375761
H      76.67278486      94.83394999      76.35928556
C      73.94402006      91.88408721      75.48245255
H      73.50560356      92.70611816      73.64374885
C      75.54650798      89.46334780      75.21978060
H      77.38710140      89.96790473      74.43932363
H      74.57896810      88.32384284      73.80626532
H      75.82240802      88.45990313      76.99612333
O      71.65178204      91.00347475      76.49345614
H      71.91067455      90.13231092      78.06192898
C      72.99726718      96.10384607      76.90352674
O      73.18057063      97.61184767      75.17631689
N      71.21147581      96.27392144      78.65341331
H      71.50060394      95.43866241      80.34471837
C      69.21403510      98.10317651      78.60428042
H      69.64300297      99.49023562      77.14163226
C      66.66857376      96.99768661      77.76524194
H      65.25505847      98.47923204      78.00145774
H      66.06386134      95.35740417      78.85561402
C      66.59676416      96.15486868      74.99112372
H      67.74949721      94.45789445      74.79837163
H      67.48682525      97.45500038      73.66453585
C      63.90768361      95.78259259      74.09539344
O      63.32375818      93.60751761      73.19210426
O      62.45637381      97.63074493      74.39208048
C      69.16868167      99.56960413      81.09871917
O      67.30730125     101.03225229      81.52390759
N      71.16045320      99.56015549      82.61050022
H      72.75160276      98.67198413      82.03980286
C      71.86154167     101.41208728      84.75156012
H      71.15289430     103.30370332      84.34526897
H      73.88732827     101.44232290      85.12005675
C      70.64833737     100.90942008      87.35560299
O      71.04140045     102.38718606      89.13761489
N      69.26694744      98.78347798      87.62205439
H      68.96837068      97.64019356      86.12161170
C      68.43168841      98.01057992      90.11271367
H      67.94413902      99.70755415      91.17096041
C      66.24527506      96.19077348      89.73476842
H      65.47048727      95.73156998      91.58858992
H      66.79518542      94.36340813      88.95809089
C      64.07208980      97.34350653      88.09826542
C      63.20848488      95.89408645      85.97421304
H      63.99461102      94.05538274      85.56414243
C      61.21671334      96.89186194      84.41896829
H      60.31153444      95.80148986      82.95254067
C      60.15279743      99.23512257      85.02179098
O      58.01929642      99.92109322      83.85016067
H      57.63568198     101.60672909      84.40574021
C      61.05797633     100.68076320      87.16096117
H      60.55719886     102.58371760      87.70142289
C      63.15557254      99.66786989      88.56313809
H      64.00405966     100.89430227      89.95397666
C      70.51794626      96.65186670      91.64339198
O      72.20736158      95.45755967      90.58703497
N      70.26661266      96.88808249      94.14349990
H      68.95514260      98.07672034      94.85781644
C      72.20547185      96.04337483      95.91984263
H      74.04417556      96.61218245      95.18284938
C      71.80296015      97.14508527      98.55790056
H      73.10876103      96.10006662      99.75976651
H      69.84709342      96.66698451      99.00198624
C      72.30562735      99.88707815      99.16639244
C      70.28362019     101.54058867      99.67094936
H      68.38444525     100.79792623      99.71819252
C      70.77305931     104.12573427     100.11314533
H      69.15734331     105.36728445     100.24164672
C      73.24293160     105.14996593      99.90338571
O      73.64733303     107.64818411     100.17172684
H      72.12610335     108.61005481     100.40038372
C      75.29895383     103.54180884      99.48197674
H      77.26804865     104.07093220      99.57079387
C      74.81140444     100.90564063      99.05867803
H      76.34397248      99.56771440      98.88860268
C      72.12610335      93.18610864      96.10125636
O      70.19102360      92.00313997      96.78344755
N      74.23692764      91.96156599      95.61370697
H      75.73359088      93.11618877      95.35292474
C      74.65455716      89.26492654      95.65528095
H      73.09553295      88.66777303      96.86092634
C      74.51660713      88.00825854      93.03423055
H      75.23659286      86.08073770      93.12115796
C      71.93524099      88.05172225      91.71709132
H      72.34342187      87.18622760      89.89350543
H      71.37210255      89.93766911      91.10859944
H      70.46503392      87.06717484      92.77344833
O      76.13610259      89.31405943      91.40906592
H      77.07907602      90.48946919      92.42006951
C      77.09986300      88.38242435      97.01021472
O      78.76093243      89.83751361      97.60169905
N      76.95435408      85.95601577      97.67350866
H      75.41422713      84.98091699      97.10659075
C      78.95368452      84.60486145      99.07757530
H      80.77916014      85.40232596      98.54845194
C      78.51715774      85.02627042     101.83846544
H      78.46046595      87.08040292     101.99153327
C      75.94335050      84.09463535     102.90049163
H      75.72792170      82.12743026     102.32790456
H      74.34464204      85.03760878     102.01232026
H      75.68067854      84.37431484     104.92438852
C      80.57129024      84.15510659     103.66394107
H      82.37597887      84.24014428     102.67183474
H      80.31239774      82.21057821     104.29510966
C      80.89254372      85.89365480     105.97129689
H      82.71423988      85.57618078     106.88025525
H      79.39777020      85.58940886     107.35835601
H      80.77538068      87.76826330     105.12469950
C      78.86864683      81.71546992      98.22152929
O      77.13576780      80.95957940      96.81179346
N      80.78482932      80.26982929      99.14749518
H      82.09629938      81.15800066     100.21330081
C      81.16655403      77.53161586      98.50498823
H      79.55839694      76.34108829      98.99442735
H      82.77471112      76.91367536      99.62937539
C      81.64843424      77.04406648      95.67984739
O      83.54194001      78.10987212      94.70285888
N      80.00626207      75.71180942      94.18696361
H      78.45101732      75.17134770      95.15450347
C      79.77949492      75.86865671      91.44497073
H      80.97002249      77.32752542      90.60971170
C      80.74136561      73.40445360      90.31302467
H      79.57540447      71.88889309      91.07269464
C      80.61097449      73.69925090      87.41607423
H      80.63176148      71.90023145      86.41073982
H      82.02448978      74.98426479      86.64695561
H      78.96691260      74.67812913      86.65640425
C      83.41343862      72.76005692      91.29001317
H      83.39832081      72.16857259      93.26288743
H      84.66821689      74.34742703      90.89883982
C      84.84207171      70.68513743      89.88216707
H      83.60430097      69.04296527      90.00310955
H      86.74313638      70.23727230      90.54168155
H      85.00080872      71.21237107      87.89795444
C      77.16033425      76.41100816      90.59081443
O      75.36887370      74.99938260      90.87616311
N      76.88443421      78.73537153      89.57225195
H      78.42645088      79.85408950      89.49477316
C      74.44857699      79.57629973      88.47432097
H      73.61331796      78.01160635      87.42741258
H      74.71880785      81.06540407      87.07781322
C      72.58908630      80.62698756      90.52845346
O      70.75983122      81.98192133      89.75177595
N      72.90845004      80.21691695      93.02289219
H      74.63754962      79.65188879      93.60303817
C      70.83353055      80.19612997      94.85214726
H      69.27450634      79.29662024      93.85059232
C      71.49493476      78.66734138      97.26910722
H      72.76861030      79.76716209      98.45396562
H      72.59475547      77.00249250      96.75699140
C      69.24427072      77.88310496      98.76954991
N      67.81563763      75.71558888      98.72608621
H      68.32586373      74.07908589      97.88704773
C      66.01283873      75.72314778     100.57990772
H      64.96593035      74.14144686     101.33390852
N      66.13000176      77.97003237     101.83279626
H      64.96404062      78.45947148     103.26142936
C      68.09342740      79.27583325     100.63470978
H      68.60554323      81.19390546     101.11470026
C      70.06063249      82.76237830      95.63449397
O      71.52328066      84.07195863      96.80612428
N      67.62288555      83.45401813      95.19040827
H      66.56463881      81.98948024      94.57246777
C      66.33409220      85.80861711      95.88582756
H      67.51706087      87.35819269      95.22064389
C      63.70359317      85.84452191      94.73309450
H      62.54141149      84.52927240      95.81023851
H      64.05508227      85.22847114      92.80179422
C      62.17291486      88.32573256      94.63104929
H      62.63400808      89.38964848      96.33180296
C      63.06675540      89.72790949      92.22542769
H      62.75117111      88.51281547      90.59270415
H      65.07931393      90.05483214      92.52211472
H      61.94803743      91.37575083      91.70764268
C      59.23439044      87.87786743      94.75388150
H      58.57109651      86.85174604      93.09470180
H      58.16858480      89.54460604      95.33024803
H      58.94904177      86.61364052      96.35447969
C      66.18102437      86.07884798      98.93962529
O      65.18513860      84.62564844     100.33046384
N      67.20903548      88.14809829      99.74842815
H      68.31074592      89.21390393      98.61081291
C      66.52117510      89.41232519     102.31089703
H      66.07708942      87.91188250     103.65071298
C      68.91167889      90.89198090     103.08379509
H      68.33342264      92.10896464     104.64281929
H      69.59198036      92.23368658     101.67783870
C      71.27761623      89.33106696     103.89448767
H      71.93335127      88.18400309     102.31278676
C      73.43190423      90.85418637     104.95651387
H      72.67412398      92.13353108     106.38136751
H      74.46180507      92.04471395     103.62614654
H      74.72447703      89.72035058     106.09034965
C      70.24204621      87.66999753     105.95995853
H      71.84264440      86.79694398     106.91616004
H      69.01939329      86.20734937     105.17572211
H      69.07419535      88.74714153     107.27331833
C      64.03051582      90.75403088     102.03499698
O      62.02551621      90.17388490     103.08379509
N      64.16657612      92.79871475     100.45140634
H      65.82575582      93.12185795      99.56512469
C      62.08976690      94.65442599      99.98086448
H      60.37578513      93.65665049      99.41961577
C      61.79496960      96.44588653     102.36569909