 %block lattice_cart
   140.777   0.000   0.000
   0.000 144.511   0.000
   0.000   0.000   162.462
 %endblock lattice_cart

 %block positions_abs
N      92.82616538      43.24820109      80.15007655
H      91.86996386      41.87437007      79.23166957
H      93.20033119      42.72663663      81.94720628
H      94.50235262      43.30300315      79.24300792
C      91.49768779      45.68972749      80.02913407
H      92.34995435      47.04088180      81.33115550
C      91.78681590      46.98230030      77.38540696
H      90.60195752      45.84846450      76.13818759
H      93.81071280      47.14481676      77.04147677
C      90.60951642      49.72618290      77.47989327
H      88.56861199      49.47106984      77.40052477
H      91.23879528      50.68994332      75.77158069
S      91.53548230      51.64236537      80.09338476
C      94.46833754      52.96139434      78.71577428
H      95.41509043      54.16703973      80.09527449
H      93.85606623      54.17459863      77.16808843
H      95.80626377      51.48551809      78.19609955
C      88.67443668      45.09824315      80.55825744
O      87.68422008      43.14048669      79.84394089
N      87.44044539      46.82545300      81.87917613
H      88.16043111      48.55266286      82.24956249
C      84.68711415      46.59490639      82.66530228
H      83.61374961      45.61980761      81.20076438
C      84.64554018      45.03588218      85.06336497
H      85.78315542      45.83334669      86.58270492
H      85.71134581      43.28221617      84.90084850
C      82.00937196      44.25920467      85.96665414
O      80.21791143      44.65037802      84.56825667
N      81.74670001      43.57134429      88.35526820
H      80.01004152      43.04789011      88.95242172
H      83.05061116      44.10046766      89.64784100
C      83.51170439      49.25186160      83.05269617
O      84.99324982      50.94694610      83.09615988
N      80.94356633      49.57878425      83.17363865
H      79.84563533      48.03676757      82.92608451
C      79.52816132      52.03353872      83.27001470
H      79.59052228      52.90092310      81.40107537
C      76.65577733      51.61024003      83.57804009
H      75.91500461      50.34223367      82.13428918
C      76.07563135      50.33656449      86.11972198
H      74.23503791      49.45217258      85.85516029
H      76.17389711      51.64425510      87.71087153
H      77.24348220      48.65470807      86.34081995
C      74.97014144      54.04042807      83.48544350
H      75.50115454      55.44260499      84.89517933
H      73.15411446      53.29587590      84.10905318
C      74.93612637      55.28008853      80.83415748
H      73.45458095      54.53364663      79.61339428
H      76.74648418      55.20638921      79.85149980
H      74.35598039      57.24540389      81.03635819
C      80.59207724      53.85901434      85.40918488
O      80.81884439      56.19660579      84.94242248
N      81.28371706      52.91037173      87.61260576
H      80.68467383      51.11324201      87.83370374
C      82.27960283      54.38057880      89.73287869
H      80.80561631      55.76763792      90.11838285
C      82.17377816      52.71950938      92.00055026
H      82.72935770      53.81177118      93.65784024
H      83.66477221      51.30221464      91.90228449
C      79.66422162      51.55543796      92.66573392
C      79.03872220      49.04210198      91.79457009
H      80.41255323      47.72496273      91.05001793
C      76.48759168      48.12369499      92.27456058
H      75.79028267      46.25664538      91.83803380
C      74.62999071      49.74696988      93.24021072
H      72.75916166      48.95517457      93.43485253
C      75.24037232      52.21684217      94.05846222
H      73.71347346      53.26375056      94.91639796
C      77.70835487      53.15225670      93.72209093
H      78.12598439      55.11568234      94.09058756
C      84.94600665      55.45016389      89.47587591
O      85.60174169      57.16414566      90.80057405
N      86.41621373      54.38813771      87.70709208
H      85.55260881      53.06910875      86.63372753
C      88.92954972      55.27063989      87.11749747
H      89.68544024      56.37612979      88.68219086
C      90.74935616      53.16170534      86.45798299
H      90.11062867      51.90503733      84.95376084
H      90.93832879      51.94094214      88.10582433
C      93.52725384      53.97428764      85.83059385
H      94.37007177      55.17804331      87.27434475
H      93.49512849      54.94371724      84.01456686
C      95.35839864      51.71606471      85.51311983
O      97.64118802      52.05243598      85.87783701
O      94.50802179      49.63925548      84.92163549
C      88.86151957      56.82777438      84.64384573
O      89.88764097      58.86867880      84.60794093
N      87.42343786      55.92826465      82.85994409
H      86.57495073      54.23884933      83.12072632
C      86.83573297      57.25296280      80.42597660
H      88.31538868      56.79564903      79.06915310
C      84.35452233      56.27408457      79.29592026
H      82.85974881      56.37990925      80.70943554
H      84.94033748      54.35412263      78.83482704
C      83.60241125      57.49862722      76.86006304
H      84.97435255      56.99784974      75.40875323
H      83.47202014      59.55464945      76.84116578
S      80.66010737      56.14369345      76.07771635
C      80.56940052      57.13391005      72.81037955
H      82.14165281      56.24195922      71.82205269
H      80.83396219      59.17292473      72.69888570
H      78.88943382      56.35912225      71.90520065
C      86.47101579      60.15180297      80.71510472
O      87.78059612      61.60500251      79.46977508
N      84.74758539      61.01162843      82.35727689
H      83.81595032      59.64346658      83.30591950
C      84.15043188      63.70448843      82.98277630
H      83.93311335      64.50195293      81.09493971
C      81.74103082      63.91424806      84.53613133
H      81.98480553      65.74161340      85.45453831
H      81.96401854      62.41002591      85.92319044
C      79.21068729      63.67992200      83.10749823
H      79.40910855      62.04152927      81.87539668
C      77.23214384      62.88812667      84.94053276
H      77.74048022      61.09855584      85.82303494
H      75.43312439      62.53096839      84.00700796
H      76.87498558      64.38290018      86.31058433
C      78.66455640      66.23861143      81.87539668
H      80.35019227      66.77340396      80.81903967
H      78.20157345      67.57275819      83.37583937
H      76.94112599      66.23672169      80.74723007
C      86.32550686      65.24650510      84.21109840
O      86.33495550      67.55386094      84.17330387
N      87.94311258      63.88968162      85.55091436
H      87.75413995      61.99050666      85.57170135
C      90.42999241      64.93658999      86.45987271
H      90.01992180      66.71860190      87.40851532
C      91.62240972      63.19615205      88.35148875
H      93.33639149      63.98605765      89.17351970
H      92.34617489      61.42169904      87.59748795
C      89.78181629      62.74828692      90.63616786
H      88.01870164      61.96594022      89.91618214
H      89.21111895      64.53407828      91.49032416
C      90.79470960      60.76785374      92.49565856
H      92.47467628      61.53886207      93.40272719
H      91.33328159      59.17670418      91.30324125
N      88.93332918      60.11967762      94.47987118
H      87.40076114      59.17481446      93.84492314
C      89.33962034      60.40691602      96.96675101
N      91.02147676      61.88468200      97.90405526
H      91.51280560      61.76751897      99.74464869
H      92.26113721      62.74828692      96.73620440
N      87.96012013      59.17481446      98.52577522
H      87.78437558      59.62456932     100.37203783
H      86.54093567      58.10900882      97.81901758
C      92.21200433      65.22949757      84.25834156
O      93.55937919      67.13056224      84.43597583
N      92.16854062      63.78196722      82.15507617
H      90.99313086      62.28341424      82.02846451
C      93.55748947      64.57376254      79.74189567
H      95.26580205      65.47894145      80.45432249
C      94.39463822      62.08877243      78.28869614
H      92.83183457      61.66925319      77.01313087
C      96.70955295      62.66324923      76.51424313
H      97.41253115      60.92470102      75.65630738
H      98.20810593      63.51551580      77.64429946
H      96.15208369      63.99172684      75.04214633
C      95.11273421      59.71716591      79.84394089
H      95.67587266      58.33199653      78.43042561
H      93.52536412      59.02930553      80.96643832
C      97.51835582      59.73795291      81.59949664
H      98.21188538      57.81610124      81.84705078
H      96.96655573      60.72816949      83.32103731
H      99.14541017      60.72439003      80.81526022
C      92.03248032      66.62222587      78.20365845
O      93.12285242      67.91479865      76.69565685
N      89.58150531      66.79230123      78.68931811
H      88.62908325      65.34477087      79.49434152
C      88.11129823      68.45715012      76.96399799
H      88.82372506      68.39289942      75.03269770
C      85.59229305      67.11355470      76.69187740
H      84.47546481      67.16835676      78.42097698
H      85.90976707      65.08776810      76.49534586
C      83.92177499      68.11133019      74.49790515
O      81.71268493      68.92769196      74.98734427
O      84.76648266      67.81464316      72.30771235
C      87.94878177      71.20859162      77.92208923
O      88.25680715      72.75627748      76.26857871
N      87.45367347      71.60354442      80.45810194
H      87.12675082      70.07097638      81.55036375
C      87.35918716      74.11121124      81.61839390
H      88.16610030      75.34709224      80.18220190
C      84.72112922      74.58175309      82.25334194
H      84.52837715      75.43212993      84.11850181
H      83.44934341      72.96225764      82.27412893
C      83.71012565      76.47525885      80.29558548
H      81.67678014      76.28817595      80.56014716
H      84.00303322      75.44157857      78.53814001
C      84.72112922      79.21347228      80.50912455
O      83.31895231      80.63643620      81.74878501
O      86.69022405      79.91267102      79.32426615
C      89.06561002      74.39089073      83.93330863
O      89.72134504      76.55084791      84.70431697
N      89.79126493      72.29707398      85.01423208
H      89.18277305      70.66246071      84.23755457
C      91.08194800      72.12699862      87.58614959
H      92.83939347      73.19658370      87.46142766
H      91.40509120      70.15034488      88.07558871
C      89.65331491      73.45547620      89.72720951
O      88.00925301      74.97670589      89.40406631
N      90.46022804      72.93391175      92.00243999
H      91.78492618      71.56008071      92.09503658
C      89.00702850      73.26839331      94.30601636
H      87.01147751      73.27028303      93.80712862
C      89.43032719      70.94969912      96.03322621
H      91.46367270      70.69458606      96.24676529
H      88.83506340      69.26973243      95.00143565
C      88.02815028      71.13678203      98.59191564
H      88.38152909      72.98871381      99.41961577
C      85.13308957      70.78907238      98.28389025
H      84.33751478      72.21959521      97.03289143
H      84.16932915      70.83820526     100.10369669
H      84.64931963      69.03918581      97.30879148
C      88.89175520      69.30563722     100.53266457
H      87.97523793      69.83098114     102.30144839
H      90.91754181      69.00328101     100.74809337
H      87.88642079      67.52173559     100.31723577
C      89.82150054      75.81574437      95.63449396
O      92.13074610      76.21258690      96.22975775
N      88.14909275      77.45224737      96.39227421
H      86.32739660      77.04784593      95.98787278
C      88.71223119      79.95424501      97.35414491
H      90.74746644      80.08085666      97.64138331
C      88.12263659      82.09152547      95.35481447
H      89.15064771      83.76393325      95.97464470
H      86.07039381      82.26160083      95.27922542
C      89.02781549      81.81562541      92.67896201
H      88.75758462      79.84842032      92.12527220
H      91.06305073      81.98003160      92.41251060
C      87.92043588      83.73369763      90.92529599
H      88.27570442      85.61397530      91.69252487
H      85.87008282      83.55228390      90.92907544
N      88.98435179      83.34819346      88.23810517
H      90.85896028      83.55228390      87.95653595
C      87.62941803      82.90599751      86.19531103
N      85.26348068      82.41466865      86.22743638
H      84.43767027      81.69468294      84.66652244
H      84.64365044      81.71546992      87.89228526
N      88.62152434      82.89465914      83.94086754
H      87.47823991      82.16711451      82.59916185
H      90.52069927      82.87576187      83.75945381
C      87.67477146      80.39266150     100.05078436
O      85.40709988      80.36809506     100.16983711
N      89.23379567      80.96713830     101.85736271
H      91.04793292      81.20146436     101.31690099
C      88.51758939      81.29973014     104.48786174
H      86.92832956      80.04306213     104.85824810
C      90.88163700      80.24148340     106.06011403
H      90.64353149      81.10697805     107.91393554
H      92.62396466      80.87454171     105.16249403
C      91.00257949      77.32752543     106.30199900
H      89.29993609      76.73226164     107.29788477
C      90.99124113      75.83275192     103.85102397
H      92.34050572      76.65667258     102.53010528
H      89.09584563      75.58519777     103.08001564
H      91.83216935      73.99404820     104.23841787
C      93.37985520      76.58675272     107.80811087
H      93.23056682      74.82741751     108.87013706
H      93.51402576      78.11932076     109.18005217
H      95.19777190      76.74926917     106.85379908
C      87.72579407      84.07573808     105.28343652
O      86.55605347      84.40644020     107.22985462
N      88.07917288      86.04672263     103.71118422
H      89.26403128      85.67822600     102.26176414
C      87.20233988      88.72446482     103.74708902
H      86.34251441      89.08540254     105.58390300
C      89.39253268      90.46490275     103.32945951
H      88.82939422      92.44155647     103.21229648
H      90.35062391      90.11908284     101.53988869
C      91.28603843      90.55749934     105.34201803
H      91.37674530      88.71501618     106.25853529
H      90.62841367      91.84062350     106.81411483
C      93.90330937      91.20378575     104.40282405
H      93.76724909      92.93099559     103.28788553
H      94.51558070      89.68444578     103.15560469
C      95.61162197      91.58551046     106.77821003
H      95.67209321      89.73546839     107.68338893
H      94.79337047      92.88753189     108.14637188
N      98.22133400      92.67966200     105.99019416
H      99.40997186      92.87808325     107.46796013
H      98.04936892      94.22167866     104.87714536
H      99.19076361      91.54582620     104.79966658
C      85.09340531      89.22524230     101.72130242
O      85.25403205      88.44100588      99.60669867
N      83.48335848      90.97134940     102.37892717
H      83.52493247      91.81983651     104.08723976
C      81.36686502      91.88030776     100.60258444
H      80.26515457      90.21734860     100.08668916
C      79.65288326      93.76814434     101.96318738
H      80.71112998      95.19488771     103.00820604
C      77.95401929      95.14197538     100.03755627
H      76.79183761      96.64997698     100.82179269
H      76.62554170      93.90231492      99.06434722
H      79.02738385      95.97534468      98.48798069
C      78.08630013      92.29604756     103.93039248
H      79.13509824      91.41732482     105.47051942
H      77.04884039      90.86174528     102.87592519
C      76.00382175      93.81916696     105.29477487
H      74.43534891      94.39742322     104.08912949
H      76.84097049      95.46889803     106.19995378
H      75.16478326      92.64753665     106.76687167
C      82.73691659      92.99524628      98.24987518
O      84.81372581      94.16120743      98.29333888
N      81.74292056      92.60218321      96.05968238
H      80.52026764      91.13386587      96.06346184
C      82.43833983      93.59617925      93.70697312
H      83.86319348      95.07772468      93.83736424
C      83.93311335      91.36441247      92.38038525
H      85.42221768      90.73513361      93.65784024
H      84.73246758      92.06739067      90.61727060
C      82.47046518      88.90209909      91.69063515
C      81.93756236      88.31061476      89.07903338
H      82.23991857      89.75058621      87.66551810
C      80.93222797      85.88609589      88.37416547
H      80.52593680      85.63287257      86.38995284
C      80.63365121      84.11920179      90.32814248
O      79.63587571      81.73058774      89.83870336
H      79.14832632      81.52838701      88.10204488
C      81.40465954      84.53494158      92.80368395
H      81.28182734      82.96457901      94.10192592
C      82.16432952      87.00103443      93.42729363
H      82.63487137      87.46023791      95.35859392
C      80.17444771      94.37474649      92.03078588
O      78.02015972      93.44878060      92.57880651
N      80.71679916      95.87518918      90.08058833
H      82.46668573      96.63107971      89.98988147
C      78.76093244      96.16431732      88.06991953
H      76.83719104      96.06983100      88.80691279
C      78.74014544      98.75135264      86.76222892
H      77.53261033      98.86851567      85.09926977
H      80.60152586      99.10095200      85.95153633
C      78.38298718     101.21933520      88.37983465
H      79.70768531     101.17020231      89.95775612
H      76.46113551     101.30059343      89.11115873
C      78.87053656     103.46999924      86.61860972
H      77.46269046     103.40763827      85.11627730
H      80.80183686     103.23756291      85.93830825
C      78.69668173     106.05136538      88.01511747
H      79.43745445     107.63873548      86.93230429
H      79.56973529     105.70176602      89.84626227
N      76.09263888     106.73166686      88.49510795
H      76.12287450     108.50800958      89.19430669
H      75.06462777     105.56759544      89.60437730
H      75.18368052     106.79591754      86.81892071
C      79.28249690      94.00436013      86.30113570
O      81.28371706      93.92877108      85.15029238
N      77.49481581      92.18644342      85.97232332
H      75.97736557      92.43021812      87.10804884
C      77.28316645      90.22868696      83.98244152
H      79.08407564      89.27626491      83.67441613
C      75.37643260      88.10085514      84.77801629
H      73.53583918      88.92666553      85.18808690
H      76.11909504      87.29016255      86.51845423
C      75.08163530      85.99570003      82.80703175
O      77.00348697      85.22280197      81.57115074
O      73.15222474      84.73336285      82.86561327
C      76.79939652      91.57984127      81.27824316
O      76.41389236      93.87396902      81.11761643
N      76.74648418      90.15309792      79.25623601
H      76.91844928      88.25392297      79.34316342
C      76.73514582      90.95434187      76.59739108
H      78.61353378      91.65165088      76.11551088
C      76.60097526      88.74903126      74.79459218
H      76.68034377      89.43311218      72.85384326
C      78.94234615      87.11819746      75.08749976
H      78.83841122      85.43256159      73.91020027
H      79.00659685      86.51159531      77.05470485
H      80.55050325      88.21990789      74.41853665
O      74.59786536      87.12197690      75.30292856
H      73.06151787      87.95534620      74.81726890
C      74.96069281      93.02548190      75.75835260
O      75.67500936      94.21411975      73.97256124
N      72.63255001      93.30705113      76.61061917
H      72.10153690      92.19022288      78.06192898
C      70.87699425      95.27992539      75.85472864
H      71.25682925      95.71645218      73.87618519
C      68.02350752      94.52781432      76.24023281
H      66.70636828      96.05471318      75.81882384
H      67.79674037      94.06672110      78.23578380
C      67.20336631      92.27904001      74.67931888
H      67.42068482      92.61352157      72.65920145
H      65.17757969      92.08439820      74.99301345
C      68.38633497      89.78271155      75.47867311
O      70.03417633      88.80194359      74.12562907
O      67.86666023      89.07217447      77.60650494
C      71.37021283      97.72145179      77.40997340
O      70.70313943      99.85306307      76.62573698
N      72.44735682      97.52492025      79.68520388
H      73.38844052      95.92243235      80.12173066
C      72.77050002      99.47322809      81.47666443
H      72.14122116     101.33649823      80.86628283
H      74.76983047      99.28992463      81.93964737
C      71.40800734      99.11606982      84.02023604
O      71.24171143     100.93587625      85.33926501
N      70.58408668      96.79926536      84.83281836
H      70.70880862      95.19488771      83.80669697
C      69.37844129      96.46289407      87.34048517
H      68.83986929      98.29781832      88.10393460
C      67.05407793      94.90386987      86.90584812
H      66.26606205      94.48813008      88.76344909
H      67.72304103      93.13130659      86.09704526
C      64.88089267      95.83361521      85.20131499
C      63.36533216      94.19144304      83.75000518
H      63.82075621      92.22045850      84.02212577
C      61.57954079      95.10418085      82.13239946
H      60.27562964      94.01947794      80.99856367
C      61.07498388      97.68932644      82.04547205
O      59.22872126      98.65308686      80.52424236
H      59.38745828     100.44265769      80.27857794
C      62.34865940      99.39385959      83.63662160
H      61.71560109     101.33460850      83.64229078
C      64.43113780      98.49057040      85.12950539
H      65.52528933      99.87951924      86.14806787
C      71.24738061      95.31394047      89.28690328
O      72.73648495      93.60751761      88.68030113
N      70.95258330      96.18510430      91.63772281
H      69.70536395      97.59672985      91.93818929
C      72.39255475      95.37819117      93.82224643
H      74.40322356      95.44811105      93.38760938
C      72.02972730      97.13752636      96.04834402
H      72.70624932      96.21911937      97.76421552
H      70.01716878      97.47011819      96.33558242
C      73.25049050      99.68298771      95.75165699
C      71.79162179     101.94687984      96.39983312
H      69.78851189     101.86373187      96.78722701
C      72.87443497     104.32226581      95.90094537
H      71.98437387     106.04002703      96.54723177
C      75.47091893     104.54147405      95.23765144
O      76.69924102     106.84694016      94.94474386
H      75.41611686     108.10549788      95.19229800
C      76.83341160     102.23033877      94.79167603
H      78.77038107     102.40797305      94.17751497
C      75.74492924      99.91731377      94.99765619
H      76.80128625      98.20333200      94.65561573
C      71.83886495      92.64942638      94.57435750
O      69.62032626      92.05416259      95.16206238
N      73.78339332      91.16221176      94.55923969
H      75.39721959      91.84251323      93.80145944
C      73.70969400      88.37675517      94.70285889
H      71.79162179      87.81739618      95.20363636
C      74.32763450      87.46968655      92.06480096
H      76.20413274      88.11975239      91.52244950
C      74.23692765      84.68045050      91.66795843
H      75.87721007      83.63165240      92.33881127
H      74.21047147      84.31951279      89.64028210
H      72.42279038      83.93400861      92.29534757
O      72.65144727      88.53360247      90.38672399
H      73.45458095      89.91499239      89.52689852
C      75.72036279      87.37331050      96.63982836
O      77.55717677      88.70367782      97.17840036
N      75.24037232      85.05650604      97.48264630
H      73.74559880      84.07573808      96.81746263
C      77.14710616      83.61464487      98.86970541
H      78.79305779      84.85619506      98.80734444
C      76.38743619      83.59952705     101.71752296
H      75.77327514      85.53460680     102.06901206
C      74.08574953      81.95924462     102.19373399
H      72.50404861      82.62442828     101.05422903
H      73.59064125      82.16144533     104.18361580
H      74.65644689      80.03361351     101.74397913
C      78.53794472      83.04772698     103.55433694
H      79.85697369      81.61531442     102.88159437
H      77.64977336      82.39010221     105.29288515
C      79.99681344      85.44012048     103.96062810
H      80.75459370      86.06939934     102.15216002
H      81.55394792      84.97902726     105.22863445
H      78.80817559      86.82906932     104.91305016
C      77.64788363      81.00115338      97.76799497
O      76.07563135      79.78039017      96.52266533
N      79.86075314      80.05817994      98.31034642
H      81.12309032      81.29595068      99.03222187
C      80.54294434      77.35209186      98.28389025
H      79.07840645      76.17101292      99.12481846
H      82.33818435      76.99115414      99.22686368
C      81.07017798      76.45447187      95.63638369
O      82.85596935      77.30673843      94.54223215
N      79.46580034      74.72537229      94.59136504
H      78.18456590      73.70114064      95.56835354
C      78.99336877      74.11499070      91.84559270
H      80.34263336      75.13922236      90.67396239
C      79.50359488      71.34654165      91.17662959
H      78.04850562      70.03885103      91.82480572
C      79.53194077      71.17268682      88.21731818
H      80.07618195      69.28296051      87.60126741
H      80.62609230      72.70525487      87.38394888
H      77.64410419      71.56763962      87.49544273
C      82.10385829      70.47159836      92.16117700
H      82.23046995      71.14245121      94.10381565
H      83.57595507      71.55819100      91.21442412
C      82.66321726      67.58031710      92.14794891
H      82.15110143      66.93403070      90.25822260
H      81.38954173      66.43325323      93.28934361
H      84.58506894      67.01717867      92.62793940
C      76.34775193      75.05229494      90.95742134
O      74.62432154      73.51594746      90.82703022
N      76.14933067      77.38043776      90.26578151
H      77.64788363      78.53695027      90.49632812
C      73.85142347      78.26482968      88.92596555
H      73.23915214      77.08375073      87.35560298
H      74.35220094      80.04873131      88.02834555
C      71.39477927      78.71647427      90.42451852
O      69.35576457      79.11520651      89.45886837
N      71.62721561      78.65600303      92.99076685
H      73.32607956      78.02294471      93.58225119
C      69.55418583      78.99426404      94.71419725
H      68.11043494      77.86798715      93.77122382
C      70.26283320      77.62421245      97.27855585
H      71.60831834      78.78828386      98.31412587
H      71.01494428      75.73070669      96.96486129
C      67.89689587      77.03650758      98.80923417
N      66.78573678      74.69135721      99.00009653
H      67.17879987      73.05863369      98.09302790
C      64.53885220      75.09197919     100.22274945
H      63.23305131      73.60476458     100.71596802
N      64.41601999      77.49193161     100.86336667
H      63.04974787      78.29128585     101.92728258
C      66.38700453      78.79017359      99.87503981
H      66.60054360      80.81218074     100.05645353
C      68.71136791      81.81184597      95.13938567
O      70.02850714      83.09308040      96.58124684
N      66.74416281      82.61120019      93.95830672
H      65.70103389      81.38665754      92.93029561
C      65.82953527      85.23791977      93.90350466
H      67.47170743      86.42844734      93.54823611
C      63.74516715      85.42122322      91.97220437
H      62.33921077      83.95857505      92.31802428
H      64.32531313      84.92611492      90.05980134
C      62.55274985      88.05550170      91.77756256
H      61.74583671      88.72635454      93.55201557
C      64.54641111      89.97546363      91.03678984
H      65.88433733      90.32884246      92.56368870
H      63.56186369      91.76314473      90.74955144
H      65.75016676      89.44634027      89.45130947
C      60.56286804      87.98558184      89.68374580
H      59.54808500      89.77704237      89.67051772
H      59.27029524      86.38498364      89.61004648
H      61.54741544      87.57173176      87.92252088
C      64.68058167      85.97302330      96.53211396
O      63.41635478      84.48769843      97.80578950
N      65.43269274      88.15754692      97.52233055
H      66.83864912      89.02682103      96.56990849
C      64.74861182      89.10241009      99.98653366
H      64.10421514      87.67566671     101.32634962
C      66.99549640      90.53860208     101.16383315
H      66.32275384      91.50047277     102.85702793
H      67.57375267      91.75180638      99.60480895
C      69.08553371      88.62808877     101.88948806
H      69.83008588      87.81172700     100.15093985
C      71.24360117      90.47435138     102.82112313
H      70.65967572      91.77259336     104.31022747
H      72.04673485      91.43244262     101.18462014
H      72.85553770      89.51437042     103.67338970
C      68.37688635      86.65143505     103.85102397
H      67.05218819      85.28516292     103.06489782
H      67.55107595      87.60196738     105.48185778
H      70.10976537      85.81617603     104.58612751
C      62.52629367      90.93544461      99.92795215
O      60.45704336      90.44600549     100.97297080
N      62.76439919      92.77225859      98.18562448
H      64.42735835      92.98390792      97.27288668
C      60.81609136      94.54482187      97.28611476
H      59.07187398      93.59051007      96.75510167
C      60.39090295      96.75202219      99.20418697