 %block lattice_cart
   140.777   0.000   0.000
   0.000 144.511   0.000
   0.000   0.000   162.462
 %endblock lattice_cart

 %block positions_abs
N      92.02019711      44.27999166      81.76579255
H      91.08478258      42.70018046      81.24044863
H      91.59311896      44.58612732      83.60071680
H      93.84000354      43.84346488      81.38973701
C      91.29454220      46.67616462      80.65841293
H      92.14491904      48.32211624      81.55981238
C      92.03531492      46.67049545      77.92775841
H      90.96006064      45.12280959      77.09627883
H      94.05165289      46.32278580      77.68209399
C      91.44383058      49.21595679      76.64841369
H      89.45583850      49.62035822      77.01124114
H      91.57422170      48.90793140      74.61695791
S      93.02742123      51.89558870      77.79358784
C      96.32499365      51.73874143      76.41219790
H      97.24906981      50.11735624      77.28525146
H      97.27552598      53.51886360      76.82415824
H      96.19649226      51.24930231      74.41664692
C      88.45806301      47.07867633      80.96643832
O      87.16737993      45.42327608      80.03102379
N      87.66815741      49.00052799      82.31948236
H      88.89458978      50.39892546      82.74845023
C      84.98096659      49.32556091      83.02812973
H      83.78099038      48.48085325      81.58248910
C      84.62002886      47.98196551      85.54902463
H      85.89748385      46.38136732      85.78524042
H      82.68116967      47.32434075      85.76823288
C      85.27576389      49.82633840      87.85638046
O      83.58256912      51.11513173      88.79935389
N      87.65114987      50.01720075      88.65951414
H      87.87602730      51.13591872      90.18830273
H      89.00419391      48.99296908      87.78268113
C      83.93972739      52.07322298      83.07726261
O      85.34190432      53.86657324      82.67853036
N      81.49820099      52.51541893      83.69331339
H      80.34924740      51.00363788      83.88606547
C      80.27932752      55.08355699      83.43064143
H      80.83679678      56.03030988      81.68642404
C      77.45607641      54.73584735      83.57048118
H      77.33135447      53.10879299      82.31381318
C      76.58113313      54.00452327      86.22365692
H      77.72441755      52.45305796      86.95498100
H      74.58558214      53.48484853      86.24822336
H      77.18962500      55.46339198      87.54457561
C      75.87437549      56.89013535      82.45932211
H      76.05012003      58.64569109      83.52134829
H      73.88071423      56.39313733      82.60861048
C      76.70207561      57.33422103      79.73055731
H      77.37859763      55.66181324      78.73656127
H      78.51621287      58.30743009      79.78346965
H      75.31123705      58.44726984      78.69876674
C      81.33379481      57.08477716      85.23721979
O      81.48308318      59.25607270      84.50967515
N      82.23519426      56.34022499      87.50489136
H      82.16149493      54.51285964      88.04724281
C      83.63548145      57.95027182      89.14895325
H      82.56589636      59.70015837      89.33036698
C      83.94161712      56.73517779      91.88716668
H      85.23041046      57.97672798      92.90950862
H      84.96395905      54.94560697      91.89661531
C      81.81189556      56.38935787      93.55390529
C      81.80811611      57.75940945      95.85937139
H      83.40493484      58.95938566      96.28644954
C      79.72941717      57.44193543      97.45430040
H      79.68595346      58.63435274      99.11159038
C      77.70363056      55.75440983      96.96297156
H      76.05200976      55.71283585      98.15916831
C      77.96063334      54.25396714      94.68018217
H      76.46208037      53.00296832      94.08491838
C      79.86358773      54.71883981      92.97564904
H      79.82201375      53.78720474      91.15962205
C      86.16582499      58.79686921      88.16440584
O      86.94628195      60.99084144      88.40629081
N      87.65114987      57.05832099      87.02301115
H      86.87825181      55.31788305      86.90584812
C      89.97929269      57.50996558      85.77579178
H      91.14903327      58.64947054      87.03245978
C      91.23596069      55.02119602      84.76478821
H      92.53042321      55.57299611      83.26056606
H      89.84512212      53.73618213      83.95976480
C      92.53987184      53.65114446      86.88884058
H      91.25863740      53.26941973      88.45353397
H      94.10267550      54.73206790      87.68252563
C      93.64914119      51.17182353      85.77390206
O      92.18838275      49.37658353      85.71154109
O      95.91870249      51.16804407      84.83092863
C      89.65048031      59.19938090      83.29269141
O      91.10745930      60.86422978      82.73333242
N      87.60579644      58.69482397      81.88106585
H      86.45873257      57.21894772      82.26279057
C      86.81778057      60.02897075      79.66630661
H      88.34089997      60.04030911      78.27924750
C      84.78065560      58.57577122      78.30003449
H      82.97596697      58.80820755      79.26379491
H      85.17182895      56.55376406      78.27735777
C      84.12681030      59.67937138      75.70544026
H      85.66315779      59.34488983      74.37318321
H      83.97563219      61.71838608      75.96811222
S      81.28655165      58.25640747      74.50168460
C      81.73819624      58.79875892      71.23245808
H      82.45062306      60.72250031      71.04915463
H      80.09980352      58.22050267      70.12696819
H      83.31800743      57.68004094      70.52947989
C      86.00330852      62.72372048      80.26157040
O      86.84612646      64.54919609      79.13529352
N      84.24208360      63.01095888      82.07381794
H      83.70540133      61.42925795      82.99789410
C      83.33501497      65.60933255      82.77490640
H      83.11769644      66.57687243      80.97021777
C      80.74420020      65.37689622      84.20164977
H      80.41538782      67.25906362      84.97076838
H      80.89159885      64.01629327      85.73988698
C      78.56534576      64.60021871      82.50278581
H      79.16627872      63.11111437      81.21399247
C      76.37137351      63.96716040      84.33959979
H      75.82335288      65.78507710      85.13517456
H      76.83813591      62.51018140      85.71910000
H      74.75943696      63.35110961      83.21521263
C      77.86236757      66.85088275      80.84738556
H      77.34269283      68.44203230      82.04736177
H      76.12948854      66.09688195      80.02157516
H      79.35147190      67.31953487      79.50379015
C      85.43828036      67.16457732      84.15251688
O      85.45717762      69.50405849      83.90118328
N      87.26564570      65.84176890      85.62839313
H      86.64959492      64.19392755      86.36538639
C      89.38402890      67.27040199      86.86805359
H      88.69049934      69.03729609      87.66551810
C      90.56510784      65.56019968      88.78234635
H      90.77486746      63.67236309      87.98677157
H      89.29332204      65.30319689      90.38294454
C      93.18048906      66.41057652      89.90673350
H      93.09923083      68.46470902      90.04657325
H      94.58266599      65.69814969      88.57447645
C      93.95149740      65.22760784      92.48998937
H      92.84411778      66.27073676      93.87704849
H      95.95082784      65.65846544      92.74132297
N      93.62835420      62.44593071      92.88872163
H      91.87090873      61.70326826      92.83769902
C      95.63902299      60.90202431      92.92273670
N      97.84433360      61.52752372      92.28022975
H      99.20304682      60.19526667      92.13094138
H      98.14668981      63.23772603      91.48465498
N      95.15903251      58.67781644      93.58981009
H      96.55931971      57.39280254      93.76933409
H      93.35812333      58.37734995      94.15105880
C      91.39847715      68.17369116      84.97832728
O      92.46806224      70.15790380      85.42997187
N      91.93326969      66.83009576      83.00545301
H      90.93927365      65.25028456      82.60672076
C      93.50930144      67.80897398      80.86439310
H      95.26296746      68.77651385      81.34249385
C      94.17070565      65.46004418      79.17875723
H      92.38680401      64.43770224      79.28269217
C      94.99084687      66.16491210      76.48589723
H      95.36123323      64.58888035      75.21222170
H      96.41570051      67.65023697      76.49345614
H      93.31654936      66.89812591      75.53347517
C      96.20216144      63.95960149      80.45810194
H      95.99618127      63.66480418      82.48766800
H      98.08999802      64.71927146      80.14062792
C      96.30042720      61.27241067      79.27324354
H      97.63835343      60.13101597      80.34282863
H      96.92781634      61.30642574      77.30981790
H      94.55998927      60.20093585      79.52835659
C      91.96728477      69.78373798      79.45843672
O      92.79687462      71.83220130      79.03135857
N      89.49174330      69.38500573      78.99923323
H      88.79443429      67.62189108      79.22222093
C      87.99319033      71.35032109      77.59516658
H      89.11001858      71.56574990      75.87929508
C      85.45150844      70.35443534      76.65786232
H      84.05122124      71.83976021      76.39141091
H      84.51798364      69.38500573      78.21688653
C      85.66504751      68.71604261      74.22389483
O      87.29021214      69.18469475      72.57416376
O      84.01342672      67.04363484      73.86106738
C      87.67382659      73.91467970      78.89907773
O      87.52642793      75.79495739      77.61406384
N      87.85713004      74.06963727      81.40485482
H      87.70595193      72.48793634      82.45932211
C      87.40926490      76.53006092      82.75978859
H      87.38469846      78.11743103      81.44831853
C      84.89025973      76.46958968      84.00889768
H      84.91482617      77.99270909      85.39595680
H      84.59357270      74.62332707      84.86872315
C      82.69628748      76.86643220      82.12673027
H      81.05600504      76.83241713      83.37394964
H      82.41282853      75.17512715      80.98533558
C      82.60558061      79.22481064      80.53369099
O      83.35769169      81.30350959      81.32926577
O      81.49064209      79.10386815      78.47388931
C      89.37080081      77.09508908      84.70053751
O      90.05110229      79.35520175      85.00667318
N      90.45172427      75.29795936      85.88728564
H      89.93960843      73.48382211      85.59437806
C      92.20350056      75.53228542      88.12850104
H      93.70961243      76.82107877      87.56536260
H      93.12946645      73.79373723      88.72943401
C      91.03187024      76.64722395      90.53412264
O      89.38969808      78.21002762      90.50199729
N      92.03342519      75.84597999      92.62982912
H      93.64536173      74.83119697      92.51077636
C      91.54209635      76.92690344      95.05056853
H      89.56733235      76.44691296      95.39638844
C      93.15781235      75.60976421      96.95919211
H      95.12879689      76.05007044      96.55290095
H      93.03875959      73.55752143      96.82691126
C      92.82144106      76.51494311      99.79567130
H      93.16726098      78.54450918      99.81078911
C      90.16637559      75.81952383     100.92572764
H      88.76041922      76.80029178      99.78244322
H      90.07188928      76.54706845     102.85135875
H      89.77142279      73.80885503     100.70273993
C      94.85667630      75.09764838     101.34902633
H      96.67837247      75.09386893     100.38526591
H      94.39369335      73.12855355     101.73453050
H      95.31965925      76.02739372     103.12725879
C      91.81610666      79.92211965      95.06946579
O      93.72661997      81.10508832      94.20775059
N      89.99630022      81.21091300      96.22030912
H      88.45617328      80.21691695      96.74943248
C      90.18527286      83.70535173      97.25587914
H      92.18649302      84.17022440      97.38438053
C      89.07600351      85.68389519      95.43796242
H      88.47507054      87.34118516      96.50565779
H      87.40548545      84.93367384      94.50065817
C      90.86368460      86.55694873      93.33847649
H      91.42304359      84.86942314      92.29534756
H      92.48318005      87.19567624      94.43829720
C      90.04543311      88.87375320      91.78134201
H      91.70083336      89.91121294      91.12182752
H      89.17804873      90.22868697      93.06824563
N      88.51475479      88.26904078      89.55335468
H      87.57745054      86.63820696      89.23210121
C      87.94972663      89.99436091      87.94330787
N      88.55632877      92.44533592      88.12472159
H      88.22184722      93.66231967      86.69230905
H      89.64292140      92.93855450      89.61571565
N      86.64203602      89.42744300      85.94019797
H      86.15259690      90.76347952      84.66841217
H      86.29054692      87.60007766      85.51500955
C      89.02120145      83.80361751      99.88826789
O      87.14470322      82.50159608     100.53266456
N      90.34589959      85.21713278     101.46996881
H      91.83689365      86.03349454     100.60258444
C      89.89614473      85.49303283     104.16660826
H      88.90781787      83.81873531     104.85068919
C      92.43026772      85.85397055     105.53854957
H      91.96917449      86.35474802     107.48307794
H      93.39780759      87.48858381     104.74297479
C      94.44093651      83.61086542     105.73130165
H      95.41225584      83.49181265     103.91905412
C      96.49128956      84.04361274     107.71740400
H      95.47083735      84.15321686     109.50319537
H      97.54953630      85.76326368     107.31867175
H      97.72528084      82.39577139     107.74952935
C      93.00663424      81.16555956     106.27743255
H      91.93515942      81.26760479     108.03109857
H      94.34645020      79.70669086     106.84246072
H      91.61201622      80.60431085     104.86958645
C      88.03854376      87.72102015     104.80344603
O      87.09557033      87.81172702     106.90860114
N      87.79476907      89.73168895     103.19717866
H      88.56388768      89.64098208     101.45296128
C      86.16582499      91.93888928     103.68283833
H      85.22285156      91.70078377     105.49886531
C      87.92138073      94.29915744     104.08157058
H      89.16671037      94.32372388     102.44128814
H      89.04387816      94.01380876     105.78610371
C      86.49652709      96.64052835     104.40093433
H      84.91293644      96.44966598     105.70484548
H      85.60268655      97.18099008     102.62648132
C      88.26909037      98.98000952     105.15871458
H      88.77364730      99.03292185     107.15426556
H      87.33556558     100.80170569     104.91871934
C      90.60668182      99.04426022     103.39182047
H      90.14558860      98.80237525     101.40004894
H      91.88035736      97.59484013     104.11180620
N      92.03720464     101.49712496     103.60535955
H      92.90458902     101.69365651     105.29288515
H      90.89203050     102.99567794     103.30867252
H      93.35812333     101.70310513     102.24475660
C      84.40082061      92.42265922     101.51343252
O      85.11891661      91.81794679      99.38749042
N      82.30322440      93.63019432     101.94240039
H      82.10480314      94.19522249     103.75464793
C      80.26231999      94.37474650     100.01865901
H      79.17950681      92.72879488      99.41961576
C      78.43306491      96.35517967     101.36414414
H      79.63304112      97.72145180     102.33357374
C      76.75876740      97.67609837      99.37804179
H      77.84724976      98.78158826      98.02499775
H      75.62682134      99.10284173     100.33613303
H      75.60981380      96.30793651      98.35192040
C      76.58491258      95.09662195     103.24253210
H      77.76788125      94.11963345     104.61636313
H      75.41517199      93.81727724     102.13137302
C      74.91817397      96.97878936     104.65793710
H      73.51599705      97.85562236     103.42961500
H      76.13326799      98.33372313     105.62169752
H      74.03945124      95.93943988     106.20373323
C      81.43395030      95.61629669      97.65083194
O      83.00242314      97.34728598      97.91728335
N      80.49286660      94.85473698      95.48331585
H      79.24753696      93.40909634      95.43985215
C      81.43584003      95.70889328      93.16273194
H      82.55644773      97.41153668      93.44430116
C      83.55611295      93.92688136      92.05724205
H      84.88270082      93.74924709      93.62382516
H      84.49341720      94.79804519      90.44341578
C      82.75108954      91.21512409      91.58103102
C      82.11425177      90.70489800      89.04690803
H      81.87425653      92.29037837      87.78457086
C      81.42261194      88.20479008      88.36660656
H      80.76120773      87.86841879      86.46554189
C      81.68528390      86.16010621      90.10515477
O      81.17505779      83.84897094      89.25288820
H      80.55333784      84.00014903      87.55402425
C      82.48841758      86.73080355      92.61282159
H      82.55455800      85.20390470      93.96397590
C      83.14415261      89.25547792      93.35548403
H      83.96996301      89.68633551      95.17340074
C      79.25509586      95.97723440      91.28245426
O      77.35214146      94.62608009      91.52811868
N      79.41383287      97.53814834      89.36438205
H      81.05600504      98.49812931      89.24154984
C      77.67339494      97.72334152      87.21198378
H      75.76855081      97.27358666      87.86015991
C      77.61103397     100.52202619      86.33137132
H      76.30334336     100.67320430      84.74589094
H      79.31556710     101.11162081      85.33926501
C      76.52822079     102.29647919      88.32125313
H      77.97953060     102.64418885      89.74043759
H      74.89549726     101.40641811      89.20564504
C      75.73831519     104.80792547      87.01356252
H      74.81990820     104.24478702      85.25800677
H      77.42584079     105.76223726      86.31814324
C      74.26054922     106.49734079      88.88439157
H      75.64193915     107.47621903      90.06169106
H      72.83947503     105.38807145      89.87838761
N      72.77522433     108.49667124      87.80724757
H      72.01177490     109.60594058      89.15840188
H      71.33525288     107.87684100      86.71876521
H      73.89772176     109.69286798      86.83025907
C      78.56912521      95.99424194      85.14273347
O      80.64971388      96.24935500      84.01078741
N      76.91372496      94.14608961      84.52101351
H      75.39627473      93.88530739      85.64729040
C      77.29167022      92.47368182      82.26845975
H      79.21352188      91.73857828      82.15507617
C      75.48131241      90.24569450      82.46121183
H      73.51599705      90.82584048      82.65585364
H      75.96697208      89.15154297      84.13550934
C      75.75532273      88.11219349      80.47133002
O      74.37204307      88.45801341      78.53625028
O      77.39371544      86.45868297      80.76234788
C      76.98931401      93.91932245      79.59260729
O      76.44129338      96.23990636      79.86283815
N      77.39749490      92.88564217      77.27958228
H      77.66016685      91.00725421      77.07549184
C      77.46363532      94.67332325      75.16875799
H      78.51054369      96.30982624      75.85094919
C      78.76943620      93.41476553      72.87840970
H      77.90961073      94.01569850      71.10584642
C      81.52843662      94.19522249      72.82738709
H      81.49064209      96.16242758      72.21322604
H      82.55455800      93.22201344      71.32883412
H      82.23897371      93.97790396      74.74734902
O      79.02076980      90.68222127      73.12218439
H      77.54678327      89.97735336      72.33416852
C      74.96163768      95.58228160      74.32027088
O      74.92573288      96.96367155      72.54581787
N      73.03789629      95.01536372      75.69032245
H      73.25899427      93.84184368      77.17753706
C      70.45841987      95.97912414      75.29914911
H      70.23732190      96.56304957      73.33761319
C      68.60459836      93.78704161      75.83961083
H      66.81124809      94.66765408      75.33694363
H      68.38916956      93.09540179      77.76713167
C      68.87104977      91.33606658      74.25602018
H      67.27801049      90.17010544      74.84372506
H      70.53967811      90.18522326      74.60561955
C      68.63483398      91.87652830      71.44032797
O      66.74510767      93.23902098      70.81671829
O      70.15606366      91.10929942      69.90964966
C      69.77811840      98.06727172      77.27202338
O      67.70886809      98.95544308      77.21155213
N      71.46753373      98.68143277      78.94632089
H      73.11726480      97.73090042      78.80270169
C      71.07258093     100.72422690      80.83604720
H      69.43040876     101.82782707      80.25968068
H      72.79979078     101.75979692      81.26312535
C      70.17874038      99.66220071      83.30402977
O      69.95953213     101.10595162      85.19753553
N      69.41340122      97.24146132      83.34749347
H      69.75355196      96.12652278      81.83949187
C      68.21342501      95.95455770      85.43186160
H      66.88494742      97.33972708      86.17830349
C      67.08336868      93.53570801      84.45109364
H      66.31047062      92.67210309      86.15373705
H      68.65184152      92.39998249      83.75189490
C      65.10104578      93.50169293      82.22877550
C      64.83648409      91.27181588      80.72644308
H      66.25944801      89.85263142      81.07982190
C      62.76534405      91.19055765      78.96899761
H      62.30047138      89.48602453      77.94476594
C      61.32537260      93.29382305      78.40207971
O      59.45643328      92.98957710      76.59550136
H      58.26590570      94.35206977      76.47077942
C      61.56914730      95.40842678      79.85905870
H      60.26901559      96.94288456      79.51134906
C      63.33982085      95.44622132      81.81870489
H      63.41163045      97.15831335      82.92797423
C      70.07480543      95.36118364      87.56914206
O      72.14027629      94.36529787      87.21387351
N      69.27356148      96.09439744      89.86515953
H      67.53879272      96.82761124      90.18641300
C      70.77211444      95.83172548      92.30101674
H      72.75821680      96.26447280      91.95519683
C      69.68174236      97.81971756      94.11326428
H      69.37749642      96.78036810      95.86504057
H      67.76367015      98.38096627      93.61815598
C      71.16328779     100.32360492      94.24176567
C      69.84614855     102.54025390      94.13405127
H      67.84303866     102.79725667      93.83736424
C      71.16895697     104.77391040      94.55357051
H      70.25243971     106.59560656      94.45530474
C      73.79000736     104.78146931      94.90316988
O      75.12415414     106.97166209      95.50221312
H      73.85236833     108.26612463      95.50032339
C      75.07691098     102.46466484      94.90316988
H      77.08757978     102.30214838      95.21308499
C      73.79567654     100.21966998      94.58947531
H      74.65550202      98.40553273      94.97120002
C      70.84959322      93.04626889      93.34036622
O      68.93341074      91.71590158      93.63705325
N      73.07380109      91.93322009      93.49154432
H      74.56290543      93.03871000      93.04178946
C      73.60670391      89.15343269      93.75610600
H      71.89839132      88.11219349      94.24176567
C      74.26999785      88.29738667      90.94419325
H      75.93484673      89.34807450      90.33759110
C      74.65928147      85.50437118      90.55301990
H      75.60225490      84.48958816      92.07613931
H      75.83847069      85.20768416      88.89006075
H      72.96797642      84.48202925      89.96909447
O      72.23665233      88.91721691      89.20186559
H      72.14216602      90.72568498      89.29635191
C      75.73831519      88.71690591      95.61181724
O      77.25198597      90.44222604      96.18629404
N      76.19184951      86.31128431      96.42250983
H      74.99187330      84.97902726      95.77433371
C      78.54833822      85.55350406      97.73020044
H      79.99208912      86.81017206      96.97430992
C      78.19684913      86.16388567     100.57045909
H      77.54867300      88.11975240     100.55345155
C      76.49420572      84.13998878     101.74208940
H      76.56223586      84.05684082     103.79811163
H      77.00065237      82.31262344     100.93895572
H      74.57046433      84.70501695     101.26776810
C      80.74231047      86.08451716     102.12570384
H      82.34668811      86.79883370     101.05044957
H      81.30166946      84.14754769     102.54711281
C      80.33790904      87.63598246     104.52376654
H      82.08779560      87.80416811     105.59902081
H      79.06234378      86.53427203     105.70862493
H      79.76532197      89.55783412     104.05322468
C      79.72752744      82.83229818      97.08958322
O      78.42928546      81.43768016      95.78000289
N      81.77788049      81.99703915      98.24420600
H      82.56400664      83.30850921      99.38749042
C      82.84557586      79.51015932      98.07035118
H      81.47741401      78.14010774      98.77332937
H      84.49341720      79.37787847      99.29867328
C      83.39170676      78.72781262      95.36615282
O      84.27231922      80.18479161      93.84681287
N      82.59235253      76.39778007      94.77088903
H      81.74953459      75.30551827      96.08991800
C      82.50164567      75.36032034      92.22920714
H      83.85846916      76.47903831      91.15584260
C      83.45406773      72.62588636      92.09125712
H      81.98575038      71.40134370      92.85470655
C      83.72051914      71.97959995      89.26233683
H      84.09090550      69.97082088      88.99399570
H      85.34379404      73.09075903      88.65006551
H      81.97819148      72.40478838      88.24944353
C      86.14692772      72.26305891      93.38760937
H      87.09179088      74.08853453      93.48398542
H      87.27698406      70.91001486      92.32180373
C      85.78410027      71.29740877      96.14283034
H      87.60012726      71.28796012      97.11603939
H      84.89025973      69.45492560      96.38093585
H      84.55199872      72.66368088      97.07257568
C      79.76343224      75.67779436      91.28056453
O      78.18362104      73.94680505      91.55646458
N      79.24375750      78.01349608      90.43774660
H      80.61380908      79.31551751      90.70230828
C      76.80223111      78.76182769      89.19619641
H      76.63593519      77.38043777      87.67496673
H      77.10269759      80.61942866      88.35715793
C      74.37393279      78.74104070      90.85348639
O      72.17240164      78.51427355      89.89728487
N      74.46086020      79.10197844      93.33847649
H      76.18240088      79.27961271      94.14161017
C      72.23665233      79.12276543      94.92017741
H      70.88360829      77.68090424      94.34192116
C      72.96419696      78.48592765      97.63949358
H      74.28322593      79.86353813      98.41995054
H      73.93173684      76.67179039      97.71886208
C      70.74376855      78.24404269      99.51032263
N      68.95041828      76.36754446      99.63126511
H      69.09592720      74.81796888      98.52766494
C      66.97943373      77.28595144     100.95407353
H      65.21631908      76.35998556     101.40193867
N      67.63327904      79.70480112     101.65138254
H      66.49944325      80.96146913     102.53010528
C      69.94441432      80.39455123     100.60069471
H      70.80990897      82.24270356     100.65927623
C      70.85526240      81.60586579      94.84269863
O      71.83225090      83.32740646      96.12393307
N      68.93341074      82.05184120      93.22509291
H      68.07358527      80.40777931      92.78100723
C      67.51233655      84.45746281      93.08147371
H      68.76711482      85.97491303      92.47298184
C      65.61505133      84.00392848      90.91017818
H      64.35460388      82.45435291      91.40339674
H      66.87171933      83.43512086      89.37761014
C      63.72910447      86.18467265      90.40184180
H      62.74833652      86.87064330      92.07991876
C      64.87049917      88.34840929      88.97698816
H      63.57225719      89.94144857      89.14139435
H      65.17285538      87.87219826      86.99655498
H      66.57881175      88.96068060      89.95397666
C      61.60316237      84.93367384      88.69163949
H      60.28980258      86.38687337      88.05291199
H      60.60160743      83.61275514      89.91240268
H      62.35905290      83.81873531      87.13450500
C      66.25188910      85.36831088      95.46063914
O      65.33537184      84.00014903      96.97808937
N      66.44086173      87.76070440      95.98598305
H      67.55768998      88.83217921      94.86726508
C      65.51867529      89.01359294      98.22152928
H      64.54735597      87.62842355      99.39882878
C      67.73532426      90.36285753      99.77299459
H      66.90006523      91.24724944     101.43784347
H      68.63483398      91.91432284      98.76010128
C      69.98598830      88.82273058     100.75943172
H      70.69085621      88.01770717      98.99820680
C      71.98153928      90.52159454     101.86870107
H      71.26911246      91.32094878     103.62803626
H      72.51255238      91.88219749     100.41550153
H      73.66528543      89.55027521     102.54900254
C      69.25277449      86.84985632     102.86458683
H      68.82758607      87.78905030     104.64659875
H      70.78723225      85.60263696     103.43717391
H      67.79201605      85.46846638     102.42428060
C      63.22832700      90.78237677      97.70752372
O      61.37261576      90.58017606      98.93017665
N      63.13762014      92.52659417      95.97086524
H      64.73821832      93.01036409      95.04867880
C      60.99656022      93.91176354      94.87482398
H      59.31470381      92.72690515      94.98631783
C      60.46554713      96.22289882      96.51321670