 %block lattice_cart
   140.777   0.000   0.000
   0.000 144.511   0.000
   0.000   0.000   162.462
 %endblock lattice_cart

 %block positions_abs
N      91.69894364      42.22302457      82.99789410
H      91.01486271      40.79817093      81.93397819
H      91.30966002      42.20034786      84.86683343
H      93.59811858      42.08129510      82.85616463
C      91.31154974      44.81383935      82.08326657
H      92.36034785      46.14042722      83.26056606
C      92.49451841      45.24469695      79.59449701
H      91.58933951      44.21101666      78.06003925
H      94.45227487      44.63809480      79.79669773
C      92.55687938      48.10763231      79.10694762
H      90.61424073      48.78982351      79.05970447
H      93.01797260      48.28715631      77.10950691
S      94.53542283      50.02192507      80.95509996
C      92.59656364      52.68832890      81.17430821
H      90.78809555      52.29526582      82.07948711
H      92.08822726      53.46500641      79.33371478
H      93.63780283      54.22467639      82.07003848
C      88.49207808      45.26926339      82.24011385
O      86.95195114      43.91055017      81.24989726
N      87.65492933      47.16654861      83.64984968
H      88.90781787      47.96590284      84.84982589
C      85.06600428      47.77881993      84.33959978
H      83.78476984      47.38386713      82.77679612
C      84.31956238      46.24436217      86.68097069
H      85.36080158      46.82828760      88.35904765
H      84.67105148      44.24314200      86.33704050
C      81.57567978      46.49758549      87.33292626
O      79.99964803      46.87931021      85.77768151
N      80.96529818      46.45223206      89.72343005
H      79.14549174      46.78671362      90.19397190
H      82.28621687      45.84374019      90.96120079
C      84.79199396      50.69466764      84.54935941
O      86.60424150      52.16109525      84.46621145
N      82.46574087      51.64897942      84.71376559
H      81.10891738      50.30727374      84.63817654
C      81.62859211      54.29837571      84.65896353
H      82.30889359      55.04859706      82.86372353
C      78.78644374      54.23790447      84.70998614
H      78.15716488      52.81872001      83.35694210
C      77.83591140      53.60295643      87.49544273
H      78.09858336      51.67543559      88.17007502
H      75.87626522      54.15664624      87.80346812
H      78.72408277      54.86907306      88.85415595
C      77.59780589      56.76257883      84.02023604
H      78.07968610      58.00979819      85.58681915
H      75.55879120      56.55470893      84.22810593
C      77.93795663      57.99468038      81.39351646
H      79.05856433      59.70488270      81.62595280
H      76.12570909      58.75624009      80.77935541
H      78.53322041      56.53392194      80.06692859
C      82.95706971      56.13329996      86.49388778
O      83.38225813      58.30837495      85.70776164
N      83.62981228      55.22245188      88.74266209
H      83.67516571      53.31382830      88.78801553
C      84.45751240      56.73423293      90.94986243
H      83.27076428      58.37451537      91.33347687
C      84.59546243      55.16576009      93.35548402
H      85.00553304      56.47156097      94.89561097
H      86.21495788      53.90720237      93.15895249
C      82.18228192      53.78059070      94.10192592
C      82.07078807      51.12363551      93.82224642
H      83.56367186      50.18822098      92.78856613
C      80.09602407      49.73279694      94.74821232
H      79.74075553      47.76937130      94.32491362
C      78.16850324      50.94600123      95.93685017
H      76.68884753      49.71389968      96.61526191
C      78.08724500      53.55193382      96.28455981
H      76.59814067      54.40231066      97.39004970
C      80.07901654      54.97111828      95.24898979
H      80.06767818      56.98934598      95.54756655
C      87.08801143      57.86428927      90.36782672
O      87.61335535      59.99590055      91.05190765
N      88.83978772      56.44321508      89.22076285
H      88.52042398      54.58183466      88.94486281
C      91.24162987      57.42398304      88.30802504
H      91.98996149      58.89041065      89.54390605
C      93.09545138      55.20733407      88.18897228
H      94.75085163      56.06904927      87.32158791
H      92.13924987      53.89208456      86.92285565
C      93.66992818      53.92043045      90.71742609
H      95.33477706      52.76580767      90.33759110
H      92.01641766      52.80549193      91.23521110
C      94.05921180      55.77614169      92.93407506
O      95.99051209      57.02525078      92.86037573
O      92.56632801      56.10684380      94.80868356
C      90.81833117      58.75812981      85.75878425
O      92.09956561      60.72533490      85.44319995
N      89.30088095      57.75279541      84.03724357
H      88.45050410      56.07471845      84.35849705
C      88.73585278      59.05670657      81.50123086
H      90.37991467      58.86584421      80.27668821
C      86.52676272      57.58460977      80.18598135
H      84.81089123      57.79436939      81.30658905
H      86.88581072      55.57394098      79.92519912
C      85.91827084      58.76379899      77.57060013
H      87.46973615      57.98334202      76.46699996
H      86.28676748      60.78958560      77.63107137
S      82.63770597      58.24790371      76.41219790
C      83.23108003      58.43120716      73.09383850
H      84.74664053      57.17453916      72.48912608
H      83.73563695      60.41164034      72.83305627
H      81.60402567      57.84350228      71.97889997
C      88.25397257      61.89129604      81.64107061
O      89.60323716      63.31992913      80.41085878
N      86.27542912      62.65285574      82.83915709
H      85.11513716      61.35839322      83.62717296
C      85.84646124      65.36461300      83.42875170
H      85.59701737      66.22632820      81.57304046
C      83.30099990      65.34949519      84.81203136
H      83.61847392      66.40585220      86.55057957
H      82.80589161      63.42953326      85.37139035
C      80.89348858      66.28301999      83.45142842
H      80.59113237      65.20209654      81.72610829
C      78.57668412      65.94286925      85.08037250
H      78.64471427      67.30347220      86.62616862
H      78.38393203      64.13062172      86.03657401
H      76.98553456      66.31136589      83.82370450
C      81.25442630      69.11571973      82.82970846
H      82.32590112      69.41240677      81.09682943
H      82.15015658      70.20798154      84.32826143
H      79.44595822      70.07948015      82.61238993
C      87.75508482      66.70820841      85.20509444
O      87.87791703      69.08170466      85.24855814
N      89.35946246      65.38917944      86.64695561
H      89.40481589      63.49000450      86.46932134
C      91.44761004      66.38884466      88.10015515
H      90.77864692      68.21054083      88.79179498
C      91.88224709      64.75801086      90.27145068
H      92.78364654      63.04402909      89.56469304
H      90.11724271      64.43864711      91.28245426
C      93.50174254      65.81247814      92.52400445
H      92.41137046      66.85182761      93.92618137
H      94.96250098      67.12016875      91.89094613
C      94.58077626      63.38795928      93.74476764
H      95.86201070      63.82259633      95.29812267
H      95.88279769      62.58482560      92.36904689
N      92.79498490      61.42831309      94.58758558
H      93.14836372      59.60283747      94.15672798
C      91.04887778      61.58705010      96.33369269
N      90.96950928      63.50512231      97.84358402
H      89.34623438      63.53535793      98.84513896
H      92.30365606      64.86572526      97.77366414
N      89.45583850      59.79936901      96.61715164
H      88.25586229      59.88062724      98.09869707
H      90.03409475      58.11184341      95.94062962
C      93.72850970      67.20331671      86.37105557
O      95.10612018      68.93241628      87.02490088
N      94.10645496      65.88239801      84.25834155
H      93.36757197      64.12684227      84.13172989
C      95.90169496      66.51734605      82.19476042
H      97.61189727      67.35449481      82.97899684
C      96.54987108      64.10227583      80.58849305
H      94.71872628      63.43142298      79.92330939
C      98.38479533      64.76745949      78.39830026
H      99.92303255      65.90507473      79.15985996
H      97.57221302      66.03924530      76.99423361
H      99.27296670      63.05914690      77.66508645
C      97.56843356      61.97255427      82.34782825
H      96.51585601      61.75712547      84.10716345
H      99.51485167      62.38073515      82.87884134
C      97.57032329      59.45732855      80.93431297
H      98.63423921      58.28380851      82.24767276
H      98.51707617      59.54992514      79.10694762
H      95.67492780      58.81293188      80.45432249
C      94.65825504      68.53557376      80.58093415
O      96.01129908      70.18530483      79.72299840
N      92.16570604      68.54502239      80.20109916
H      91.17737917      67.17308108      81.09116025
C      90.93738393      70.01145001      78.31704203
H      91.94460806      70.13050276      76.52369175
C      88.21995749      69.01178479      77.51201862
H      86.83289838      69.50878281      78.95199007
H      88.15948625      66.96521119      77.26635420
C      87.31099914      69.93397123      74.95710864
O      87.49808204      72.25077569      74.62262708
O      86.68927918      68.30691687      73.30359812
C      90.71817568      72.76100179      79.26379491
O      91.33233673      74.39750478      77.74445495
N      89.93015981      73.20130802      81.61461444
H      89.64292141      71.69141670      82.74467078
C      89.37269055      75.68629812      82.64829473
H      89.76764334      77.16217437      81.26879453
C      86.63825657      75.72220292      83.31158867
H      86.38692297      77.28500659      84.62872791
H      86.12992019      73.86838141      84.05047166
C      84.91482617      76.33636398      81.09871916
H      82.94951081      76.26077492      81.70910076
H      85.23418992      74.86426718      79.69276278
C      85.38347830      79.09347467      80.13495874
O      85.18883649      80.99642906      81.54658429
O      85.48174407      79.35803635      77.84272072
C      90.82966953      76.38549686      85.08415195
O      91.35501345      78.58702801      85.63973149
N      91.61201623      74.41640204      86.49577751
H      91.05454696      72.75155316      85.74555616
C      93.16348153      74.71686853      88.86549430
H      94.52975365      76.22675985      88.54613056
H      94.54109201      73.19185939      89.00722378
C      91.72539980      75.36693438      91.17473986
O      89.74874608      76.45919619      91.19930630
N      92.66270406      74.65072811      93.38949910
H      94.37857555      73.81546907      93.31957922
C      91.55343471      75.12693914      95.87259947
H      89.52764810      74.79623703      96.04456457
C      92.79120545      73.22209501      97.67350865
H      94.69227012      73.89294785      98.09869707
H      93.00096507      71.43630365      96.66628452
C      91.31721892      72.80635522     100.06401244
H      90.94494284      74.56758015     101.06556738
C      88.82655964      71.39283994      99.47819728
H      89.19127682      69.75255750      98.28766970
H      87.35257312      72.66840520      98.81490334
H      88.30688490      70.70875902     101.35091605
C      92.91970683      71.30402280     101.97452574
H      91.57611143      70.56891927     103.35402595
H      94.36534746      72.54935244     102.74742380
H      93.53575761      69.58815131     101.01643450
C      91.99941012      77.88971901      96.85336743
O      93.73984805      78.25254646      98.24798545
N      90.23440574      79.68684873      96.19196322
H      88.80388292      78.98387054      95.14127539
C      90.21928793      82.29845049      97.00265581
H      92.15436768      83.00709786      96.94218457
C      88.45050410      83.53244178      95.12993703
H      88.03665404      85.44106535      95.78945152
H      86.55132916      82.74253618      95.20552608
C      89.49741248      83.77621647      92.36715716
H      89.16860010      82.01688127      91.34670495
H      91.39091825      84.57368097      92.47676129
C      88.06688966      85.67917087      90.83458912
H      87.96106499      87.41393962      91.93629956
H      86.21495788      84.79288923      90.65884458
N      88.79065484      85.94373255      88.20031064
H      90.12102216      87.24953343      87.79401949
C      87.93838827      84.63793167      86.19720075
N      86.46818120      82.71230056      86.27656926
H      86.26031131      81.83546755      84.59471284
H      85.98441127      81.84113673      87.90551334
N      88.38814314      85.62625853      84.05047166
H      87.93838827      84.67572620      82.45554265
H      89.43127206      87.17772383      83.67630585
C      89.37835972      82.61403479      99.78811239
O      87.18627720      82.46096696     100.35692001
N      91.16982027      82.98253142     101.58335239
H      92.93482465      82.73119782     100.90116119
C      90.75974966      83.08268691     104.45006721
H      89.14403366      81.86759289     104.83746110
C      93.00852397      82.02255045     105.88625921
H      92.47184170      81.75987849     107.85535402
H      94.67904203      83.17906296     105.55555710
C      93.67181791      79.41661787     105.10769196
H      94.08377824      79.26166031     103.09513344
C      95.96405592      78.34136359     106.33034489
H      97.55898493      79.56590625     105.88059003
H      96.37601626      76.47620372     105.55933655
H      95.64847163      78.36215058     108.36558013
C      91.66303884      77.43807442     105.60846944
H      91.11123875      77.42106688     107.59268207
H      92.24507454      75.57480427     104.95462413
H      90.06055092      78.12215534     104.51242818
C      89.75630499      85.70184758     105.38548173
O      89.43127206      86.07601339     107.58512316
N      89.18371791      87.43472661     103.69228696
H      89.52764810      86.80922720     101.92350313
C      88.32011299      90.05955646     103.91716439
H      87.65492933      90.28821335     105.85224413
C      90.42337838      92.00030538     103.47307870
H      89.48229467      93.82389128     103.63937462
H      91.10745930      92.21384446     101.54177841
C      92.75908010      91.70172863     105.11903032
H      93.94582822      90.11624825     104.55967133
H      92.32633277      91.51653545     107.12402994
C      94.30298650      94.11868858     105.09446388
H      92.91025820      95.50385797     105.71429411
H      94.61290161      94.46072904     103.08568481
C      96.68782110      94.23207216     106.76498194
H      98.11834392      92.98485279     105.96562771
H      96.03397580      93.68405153     108.63959044
N      97.51174178      96.86257119     106.81600455
H      97.51741095      97.49751923     105.01509538
H      99.21060573      97.10445616     107.65315331
H      96.40247243      98.09656247     107.75897798
C      85.98630099      90.40726610     102.12948330
O      85.64803998      89.05233234     100.32290494
N      84.39326171      92.34234585     102.74175462
H      84.72018436      93.27776037     104.37258843
C      82.17094357      93.07555966     101.25265029
H      81.10513793      91.33512172     100.97108107
C      80.43995426      94.76308525     102.66994502
H      81.43017085      96.48462593     103.21418620
C      78.34802723      95.66448471     100.89927147
H      77.19151473      97.09122807     101.83279626
H      77.30300858      94.10735022     100.04700490
H      79.41005342      96.74162870      99.50087399
C      79.15116092      93.07555966     104.54266380
H      80.58168374      92.04376909     105.60468999
H      78.05700938      91.60346286     103.60158009
C      77.50709903      94.50797220     106.54766342
H      78.50487452      96.10479094     107.38103272
H      76.77388522      93.22484804     107.98196569
H      75.86303713      95.42448946     105.71240438
C      83.13659371      93.94483376      98.62971016
O      84.68427956      95.64936690      98.39916355
N      81.98952984      92.85257195      96.53589341
H      80.59113237      91.58267587      96.80045509
C      82.20306891      93.77853785      93.92429164
H      83.39926567      95.45661481      93.89783548
C      83.79799792      91.94739305      92.18763316
H      85.73874685      91.81511221      92.86793464
H      83.78665956      92.76186509      90.29601712
C      82.73030255      89.26020223      92.05535232
C      81.91205106      88.20573495      89.75933485
H      81.92149969      89.38870362      88.09637570
C      80.75364883      85.84546678      89.50800125
H      80.02232475      85.16705504      87.72976879
C      80.60813991      84.31478847      91.71331186
O      79.18139654      82.23042035      91.80968790
H      78.61636837      81.76554767      90.14861847
C      81.70040171      85.22185710      93.96208617
H      81.60591540      83.94440211      95.54945627
C      82.68683885      87.64448623      94.14161017
H      83.59201775      88.35502333      95.82724604
C      79.60280551      94.20372627      92.70352845
O      77.69040248      93.39303368      93.71453202
N      79.57634934      95.56243948      90.57569662
H      81.25631603      95.97251009      89.77256293
C      77.38993599      95.69094087      88.92785527
H      75.64193915      95.36401822      89.97098420
C      77.11403595      98.34222689      87.86204963
H      76.10681183      98.10034192      86.08192745
H      79.03588761      98.92237287      87.39150778
C      75.80823507     100.29242445      89.64784100
H      76.97608593     100.36423405      91.34103577
H      73.92039848      99.54976201      90.00310954
C      75.75532273     103.02874815      88.63305797
H      74.85581301     102.89268785      86.78301591
H      77.58835726     103.92447842      88.34581957
C      74.29267457     104.98650461      90.17885409
H      75.21297128     105.55531223      91.93252011
H      72.42751470     104.39124082      90.81947131
N      74.08669440     107.31086797      88.64250660
H      73.40828265     108.70926544      89.75177595
H      72.72609145     106.94804052      87.35560298
H      75.70807958     107.94392629      87.85638045
C      77.69040248      93.56499877      86.88506113
O      79.80311650      93.26642201      85.95531578
N      75.76099191      92.17604993      86.28412816
H      74.02244370      92.62202534      86.93419401
C      75.63815970      90.47151680      84.12795044
H      77.50520930      89.80255368      83.56481200
C      74.48353692      88.10368973      85.03879852
H      72.52955992      88.41927402      85.60760614
H      75.40383364      87.42716771      86.75089056
C      74.95785823      85.99286544      83.14151330
O      77.19529418      85.17272422      82.97332766
O      73.15694905      84.94973651      82.03791314
C      74.38338143      91.73196425      81.83571242
O      74.89549726      93.98451801      81.47288497
N      72.86971065      90.40726610      80.33526973
H      72.40105853      88.61580556      80.79447322
C      72.45397086      91.24252513      77.76335222
H      74.30023347      91.75653069      77.01124114
C      71.18029533      89.25453305      76.07960607
H      70.55290619      90.26175718      74.39397020
C      73.08324973      87.13992931      75.51268818
H      74.63849448      87.77865680      74.32405033
H      71.99098792      85.65460443      74.59239146
H      73.68796215      86.34057508      77.30981790
O      68.96931554      88.34557470      77.29281036
H      67.62572014      89.23374606      76.45944106
C      70.64739251      93.41760012      77.79547756
O      70.97620489      95.05788256      76.18165129
N      68.79546072      93.57822686      79.55103331
H      68.45342026      92.03054101      80.61305950
C      66.80746864      95.43393810      79.69465251
H      66.29157336      95.99329708      77.78224948
C      64.21098469      94.40592698      80.41841769
H      62.82770503      95.92526694      80.26346013
H      64.12783673      93.76719949      82.37428442
C      63.28879825      92.10801978      79.00490240
H      61.32915206      92.04754854      79.64174017
H      64.13350591      90.44884008      79.88551487
C      63.44942498      92.03621018      76.16842321
O      62.30992002      93.65003646      74.78514355
O      65.02923618      90.54521612      75.11395592
C      67.55580026      97.81121380      81.10249861
O      66.19330759      99.66881476      80.82470884
N      69.66662455      97.95483300      82.60294130
H      70.85526240      96.46194921      82.61050021
C      70.01055474      99.91258946      84.57581557
H      69.78000813     101.77585960      83.72921819
H      71.97775983      99.85967712      85.18619717
C      68.55924493      99.60078462      87.06080568
O      68.55168603     101.41303215      88.56313809
N      67.14572965      97.50696786      87.43308176
H      67.20242144      96.14258546      86.09893498
C      66.65062136      96.69627527      89.97854310
H      66.05346784      98.42726458      90.92529599
C      64.54168679      94.57789208      90.04846298
H      64.20342578      94.05443789      92.01188862
H      65.44686570      92.88469730      89.30391081
C      61.94520284      95.09378736      88.72943401
C      61.04947257      93.08122884      87.14773309
H      61.91307749      91.27087103      86.78112618
C      58.73077838      93.49318917      85.89295481
H      57.92953442      91.93794442      84.84415671
C      57.38718297      95.79487582      85.91563153
O      55.21210798      96.18982862      84.55124913
H      54.63196201      97.90758984      84.53424160
C      58.38873792      97.86034668      87.33670572
H      57.54780971      99.71416819      87.45764820
C      60.58271017      97.45216580      88.76155936
H      61.42363838      99.05465371      89.71020197
C      69.07325049      95.55488058      91.21064466
O      70.53589866      94.30577149      89.81980609
N      69.19041352      95.55299085      93.79201080
H      67.81091331      96.29754302      94.87860343
C      71.35226042      94.61001742      95.13938566
H      72.87726956      95.06355174      93.83169506
C      71.60170430      96.18793889      97.56012507
H      73.20797166      95.30165725      98.49742932
H      69.80835403      96.04431969      98.56545947
C      72.16106329      98.87135026      97.21808461
C      70.30913150     100.78186356      97.50721273
H      68.45342026     100.21683539      98.14405050
C      71.03289668     103.36322970      97.12359829
H      69.55135125     104.76540663      97.14249556
C      73.43473882     104.10400242      96.65683589
O      74.23598278     106.47182949      96.29778789
H      72.97175587     107.66046734      96.82691126
C      75.27344252     102.17837131      96.42062010
H      77.22930926     102.55820630      95.98031387
C      74.60069996      99.56865927      96.76266057
H      75.92917755      98.14191590      96.16928650
C      71.52611525      91.78865604      95.88015838
O      69.60237386      90.70962231      96.60959274
N      73.82402244      90.62458463      95.91606318
H      75.29800897      91.71495671      95.38693981
C      74.16795263      87.92794518      96.11259471
H      72.67506884      87.04733272      97.22753324
C      74.26054922      86.70340253      93.50099295
H      75.06368290      84.83824266      93.84870259
C      71.78122830      86.62025457      92.07235986
H      71.17651588      88.52887815      91.59425910
H      70.40739727      85.38248384      92.97942849
H      71.99476737      85.87192295      90.16562601
O      75.84602960      87.95629107      91.71142213
H      77.37670791      87.03599436      91.39583784
C      76.63593520      87.28165878      97.42784423
O      78.09669364      88.99186109      97.71886208
N      76.95151949      84.88926527      98.45774507
H      75.56068092      83.69117879      97.93051143
C      78.89793759      83.82534935     100.16227820
H      80.62325772      84.79855841      99.59725004
C      78.08724500      84.49620220     102.88159437
H      77.55434218      86.48230455     102.80411559
C      75.82524261      82.88615538     103.79055272
H      74.33235882      82.79733824     102.37325799
H      74.92573288      83.49842670     105.54043929
H      76.38838105      80.94162700     104.17227744
C      79.95996378      84.37336999     105.03210291
H      80.32090151      82.35703201     105.25698034
H      79.24942669      85.24453382     106.75742304
C      82.54699910      85.54877975     104.54833298
H      83.63548146      85.23130573     106.26798392
H      82.53755047      87.60858143     104.59935559
H      83.58823830      85.02154611     102.85135875
C      79.50453974      81.00020852      99.66150073
O      77.87937511      79.60370077      98.82624170
N      81.88559489      80.14416250     100.01865900
H      83.31800744      81.35358734     100.37959673
C      82.70951557      77.56846553      99.54055825
H      81.62292294      76.22864958     100.66494540
H      84.65593367      77.64594431     100.21708027
C      82.62636761      76.92595859      96.78155783
O      83.81122601      78.19207522      95.23198225
N      81.31489755      74.85292882      96.13716116
H      80.61758854      73.87027114      97.61870659
C      80.78388445      74.02522870      93.51800049
H      81.53032635      75.35370629      92.13094137
C      81.95173531      71.45898036      92.99643602
H      81.29789001      70.13806167      94.43451775
C      81.04655641      70.65962613      90.40184180
H      79.00754172      70.39884390      90.52656373
H      81.86669763      68.91729847      89.67618689
H      81.35269207      72.15062019      89.01289296
C      84.88459055      71.61960710      92.86793464
H      85.66882697      72.41518188      94.59703421
H      85.27009472      72.80824495      91.22954192
C      86.32834145      68.95509300      92.46731266
H      86.07889758      67.66063047      94.05090331
H      88.36357669      69.26500811      92.36904689
H      85.73874685      67.80802913      90.85915556
C      77.95496416      74.24821640      92.96053122
O      76.27688720      72.77800933      93.76177518
N      77.36347983      76.35337151      91.70197350
H      78.79967182      77.53445046      91.26355700
C      74.73298080      76.65005854      90.74199253
H      74.30968210      74.79623703      89.95019721
H      74.68573764      78.22986974      89.41918411
C      72.75065790      77.45508195      92.71108735
O      70.58692127      78.04278684      91.92118175
N      73.25710455      77.60814978      95.15828293
H      75.05045482      77.50043539      95.80267960
C      71.24265630      78.07113273      97.04989897
H      69.56268961      77.02233463      96.48676052
C      72.01177491      77.23965315      99.70685416
H      73.48387171      78.45474717     100.47786250
H      73.05679356      75.46897960      99.55945551
C      69.86504582      77.18296136     101.55878595
N      68.49121479      75.04001173     102.08601959
H      69.06380186      73.43941354     101.21863521
C      67.33470228      75.39905972     104.21574115
H      66.56180422      73.87405059     105.33445912
N      67.32147420      77.85192448     104.81856384
H      66.98132346      78.41884237     106.60813466
C      69.04679432      78.97253218     103.29166498
H      70.02567255      80.74131601     103.58268283
C      70.24299108      80.79611807      97.21808461
O      71.65461663      82.50443066      97.90216553
N      67.98665786      81.36114624      96.39227421
H      66.96431593      79.83046793      95.89149674
C      66.74510767      83.83290826      96.49053998
H      68.00555512      85.32957150      95.84803303
C      64.56247378      83.77054729      94.71419724
H      63.42863799      82.08680115      95.05812743
H      65.27112115      83.50787533      92.79990449
C      62.69353446      86.01176270      94.77277876
H      62.09638094      86.30656000      96.72297631
C      63.57414692      88.48352472      93.48776487
H      64.99900056      89.44917486      94.61971093
H      62.00378435      89.79121532      93.22698263
H      64.40562650      87.95062190      91.68118651
C      60.21421354      85.37114548      93.55768474
H      58.95565581      86.87914708      94.17751497
H      59.45643328      83.53244178      94.10003619
H      60.51279029      85.19918038      91.52622895
C      65.99866578      84.59446796      99.18717943
O      65.16718620      83.12993007     100.73864473
N      66.60904738      86.93394914      99.80511993
H      67.38194544      88.14337398      98.54656221
C      66.16496170      88.15093289     102.25042578
H      65.92307673      86.71663061     103.70929449
C      68.31358051      89.87436328     103.01954439
H      67.69941946      91.29921692     104.37258843
H      68.82758607      90.97418400     101.35469551
C      70.72676101      88.31722880     103.83968561
H      71.58280703      87.31567385     102.25609496
C      72.81112914      90.16160168     104.71840834
H      74.52889036      89.12792139     105.20406801
H      72.32546948      91.31433473     106.35491133
H      73.17206686      91.45795393     103.16316359
C      70.14661504      86.60324703     106.13948253
H      71.93996531      85.93050447     106.89537306
H      69.01277925      84.99131049     105.54421874
H      68.98632308      87.52354375     107.57378480
C      63.62516953      89.51342556     102.58301761
O      62.63306322      89.41138034     104.63337066
N      62.68219610      90.79654972     100.54589265
H      63.79713462      90.89103604      99.00009652
C      60.06303543      91.84534783     100.22841862
H      58.76479345      90.24852909     100.13582204
C      59.38651341      93.82200155     102.22207988