 %block lattice_cart
   140.777   0.000   0.000
   0.000 144.511   0.000
   0.000   0.000   162.462
 %endblock lattice_cart

 %block positions_abs
N      86.36802570      39.97236054      81.03163388
H      87.89681429      39.03505628      80.37400912
H      85.48174406      40.30495237      79.37623363
H      85.62725298      38.66655965      82.21082310
C      87.12013678      42.15877388      82.42436217
H      88.21995748      41.76760053      84.12322613
C      88.47318082      44.38109202      80.88423523
H      87.14092376      45.20501270      79.54819872
H      89.92638034      43.45323640      79.75795834
C      89.54087617      46.47112933      82.46215670
H      91.16226135      45.82862238      83.55630823
H      88.20861912      46.64687387      84.02307063
S      90.34589958      49.27548316      80.83132289
C      92.47751086      48.10763230      78.28586155
H      91.37957988      47.63520073      76.60778458
H      93.41481513      46.37475328      78.88679451
H      93.81354737      49.61185445      77.85122449
C      84.68238983      43.03938634      83.61866920
O      82.70384637      43.22835896      82.57365055
N      84.91104671      43.85196866      85.93169421
H      86.64959493      43.99747758      86.70648200
C      82.80211214      44.53227012      87.59465336
H      81.42072221      43.01859934      87.37355538
C      83.74130612      44.33573859      90.32341816
H      85.41182419      45.54138398      90.33664624
H      84.55010898      42.48191707      90.71837096
C      81.79866748      45.25225585      92.38133011
O      80.13759805      46.72057320      91.89567045
N      82.43550525      44.81572908      94.82852569
H      81.25253658      45.43555930      96.19101836
H      83.79799791      43.57228916      95.32741344
C      81.81945447      47.07962120      86.58364979
O      83.47107526      48.63108650      85.98838600
N      79.37225889      47.61252402      86.40034633
H      78.07212718      46.27837724      86.82175530
C      78.28188680      50.08239631      85.56508730
H      78.81289990      50.41498814      83.60166166
C      75.37548774      50.28081757      85.67091198
H      74.63093557      48.75769815      84.50306111
C      74.05834850      49.73846612      88.23338086
H      74.14149645      51.25969579      89.61855024
H      74.75943695      48.02637408      89.14611867
H      72.02689272      49.46256607      88.04251850
C      74.18684989      52.59195285      84.53329674
H      74.86148218      54.24357364      85.56130785
H      72.14594546      52.43132612      84.77140225
C      74.74053969      52.93399332      81.66091274
H      76.77199549      53.21556254      81.46438120
H      73.76166147      54.65364426      81.08454621
H      73.92984711      51.37685882      80.58565847
C      79.32690546      52.16865415      87.03151492
O      80.43050562      53.99224005      86.04885724
N      79.31178764      51.78692944      89.55618928
H      78.29700462      50.29404566      90.17601951
C      80.34735767      53.53114683      91.40434161
H      79.33068492      55.31882791      91.31174502
C      80.09602406      52.39731104      93.98003857
H      81.79677774      51.26914443      94.26160780
H      78.69762660      50.88552999      93.89878034
C      79.67839455      54.16798460      96.11164986
C      77.32757502      55.46055740      96.12865739
H      75.94996454      55.01647171      94.69057567
C      76.70396534      56.94210283      98.23003305
H      75.16005893      58.27058041      98.13554674
C      78.48030807      57.29737137     100.10464156
H      78.30267380      58.44065579     101.78649797
C      80.85002486      56.12763079      99.98747852
H      82.34857784      56.49990686     101.32351503
C      81.54166469      54.56482711      97.93901520
H      83.44461910      53.89019483      97.64043844
C      83.18383687      54.04704211      90.91679222
O      83.93405820      56.16353559      91.44213614
N      84.61624941      52.39920077      89.96814961
H      83.94917602      50.65309366      89.58453517
C      87.25052788      52.86596316      89.33131184
H      87.84768141      54.47034081      90.47459626
C      88.85301580      50.50947446      89.99649551
H      90.80510308      50.86285328      89.44091597
H      88.17649379      48.86730229      88.95336658
C      89.09490077      50.06727849      92.88966649
H      90.18716258      48.34384809      93.16178708
H      87.20706419      49.70823050      93.63610839
C      90.14369887      52.26880965      94.49782358
O      92.06555053      53.50280093      93.76083032
O      89.40670562      52.54281997      96.69179583
C      87.77209235      53.81460578      86.81608612
O      89.52953783      55.38118889      86.61766486
N      86.24141404      53.17965774      84.89423446
H      84.84301656      51.92676918      85.24005438
C      86.16960443      54.43632573      82.37900874
H      88.12925062      54.43632573      81.74595042
C      84.41026924      53.06060498      80.51195914
H      82.55077855      53.77303180      81.04108251
H      84.52743227      51.04048755      80.90313249
C      84.99608439      53.56705163      77.80776079
H      86.68927917      52.41431857      77.59422171
H      85.34757350      55.58527933      77.58666281
S      82.28432713      52.67510080      75.77252555
C      80.35113712      55.45299849      75.65536252
H      78.86581224      55.20733406      74.25129587
H      81.23552903      57.26524602      75.22261519
H      79.44028904      55.63063277      77.49406622
C      85.45906734      57.29548165      82.87033758
O      86.80266276      59.02269150      82.10499842
N      83.51075952      57.92665023      84.27818368
H      82.47518949      56.72289457      85.33643042
C      82.85502449      60.71588627      84.58242962
H      82.63959569      61.46799735      82.67569577
C      80.33223985      60.63462804      86.21515315
H      80.26609944      62.27868993      87.45292389
H      80.38704191      58.91686682      87.34898894
C      77.68662301      60.69698901      84.93580844
H      77.47686339      58.81293188      84.12889530
C      75.52099666      61.13540552      86.78962995
H      75.39249528      63.07804416      87.46048279
H      75.38493637      59.75212585      88.31274936
H      73.81835326      60.83682875      85.67091198
C      77.50709901      62.70765780      82.95159581
H      75.58902681      62.85127701      82.21082310
H      78.61825810      62.35049953      81.25273186
H      77.78488879      64.55769987      83.80953156
C      84.83734739      62.36750706      86.00917299
O      85.37025021      64.67108345      85.58587429
N      86.25842157      61.20532539      87.65323488
H      85.81244616      59.38551895      88.03118014
C      88.40515067      62.40530159      89.20281046
H      87.61335535      64.01723813      90.21192431
C      89.36702136      60.50234719      91.13977993
H      90.33456123      58.96599971      90.17035033
H      87.90437320      59.67464707      92.33030750
C      91.29076274      61.89318576      92.88588704
H      90.20417011      63.10639006      94.14633449
H      92.91214792      62.77946741      91.97503896
C      92.53231294      60.09038686      94.84742295
H      93.49796308      61.36217267      96.14755466
H      94.10645496      59.14552371      93.91389815
N      90.90714831      58.25357288      96.06818615
H      91.19060726      56.41297945      95.64488746
C      89.72040017      58.66553321      98.27349676
N      89.71851046      60.71210681      99.53205448
H      88.89458979      60.82926984     101.24792597
H      90.35345849      62.27680021      98.64199339
N      88.40326094      56.83627815      99.19946265
H      87.79665879      56.98745625     101.00037183
H      88.39003286      55.26591559      98.11287002
C      90.63313799      63.30670104      87.45103416
O      91.67437718      65.33248766      87.73071366
N      91.09234149      61.86672960      85.35154823
H      90.29676670      60.13196084      85.42524756
C      92.76096981      62.73978315      83.25395202
H      94.15747757      64.06637103      83.98149665
C      94.30109676      60.59305405      82.04263746
H      95.54075723      61.40185693      80.60644546
C      96.20405116      59.50457171      84.03818844
H      97.06009717      60.93698425      85.24572356
H      97.71583220      58.79781406      82.82876360
H      95.31776951      58.04948245      85.19659067
C      92.92537601      58.42364826      80.75006466
H      91.51752991      59.27024564      79.50662474
H      91.92760051      57.11784737      81.98783539
C      94.71305709      56.72667403      79.25907060
H      93.47528637      55.52480809      78.13468344
H      95.87901824      55.47567521      80.40991392
H      95.80531891      57.86995845      77.94004163
C      91.30399082      64.29124846      81.23761405
O      92.48129033      65.85594185      80.05275565
N      88.84923634      63.97377443      80.88612495
H      87.97618279      62.39207350      81.50217573
C      87.52642793      65.56492399      79.00962672
H      88.64892536      65.79925006      77.29753468
C      84.95451042      64.29691763      78.53341569
H      83.77532120      64.82793073      80.13590361
H      85.09812962      62.28435911      78.12712453
C      83.75264449      65.48744521      76.25629548
O      84.73530217      65.06981570      74.21728079
O      81.61347430      66.56458921      76.26574412
C      87.34690394      68.30124769      79.98283577
O      87.33556558      70.03979590      78.48239308
N      87.02754019      68.68486214      82.52640739
H      86.83289837      67.18063998      83.68480962
C      86.09968457      71.08670428      83.60922057
H      86.34534899      72.60415451      82.23538954
C      83.20840331      70.75600217      84.18558709
H      82.56589636      72.05802360      85.65201471
H      82.58290390      68.90784984      84.84132212
C      81.61725374      71.39095022      81.84988537
H      79.75587334      70.57080900      82.17680802
H      82.31645248      70.44041788      80.16424950
C      81.40560441      74.14995063      81.39446133
O      83.19895467      75.12126996      80.20393375
O      79.59524660      75.38772137      82.30152996
C      87.46406697      72.03156743      86.16602027
O      88.01964650      74.31435682      86.46837648
N      88.08200747      70.24388633      87.89323012
H      88.15381706      68.38439565      87.46615197
C      89.42749260      70.66151586      90.29129281
H      91.04887777      71.85582289      89.84909685
H      90.25519273      68.91351902      90.99427100
C      87.90626291      72.04101607      92.30196161
O      86.16771472      73.54334849      91.75016153
N      88.18027324      71.21520566      94.69057567
H      89.44450013      69.81680820      94.98915243
C      86.65337437      72.08636949      96.80328969
H      84.66916174      72.07314141      96.25148960
C      86.90659770      70.17396647      98.99915166
H      88.80388292      70.18719455      99.80039562
H      86.58345449      68.36549839      98.07318577
C      85.08301180      70.59348571     101.08918896
H      85.39481665      72.34904146     102.12286926
C      82.35991619      70.39317472     100.05739840
H      82.08023669      68.55069157      99.18812429
H      81.97819148      71.74054958      98.54561735
H      80.95207009      70.60482407     101.54650273
C      85.14726251      68.44864635     102.94490020
H      84.34412882      66.76301048     102.07562610
H      84.03799315      68.82659161     104.63998471
H      87.12769567      68.15573877     103.42867014
C      87.43383135      74.86048773      97.34942059
O      89.62591387      75.44441316      97.76893983
N      85.63292216      76.61037429      97.21713975
H      83.86035888      76.15872970      96.67478830
C      86.00708798      79.21819660      98.20735634
H      88.04232321      79.51866309      98.29617347
C      85.11891660      81.32902089      96.51416156
H      85.40426528      83.19796022      97.33241305
H      83.13470398      81.02855441      96.05684779
C      86.85935455      81.32902089      94.15956257
H      86.99163538      79.35803635      93.57752687
H      88.53554179      82.36648064      94.75482636
C      85.61213518      82.91450127      92.15456296
H      85.29277142      84.81556594      92.88399731
H      83.75642394      82.03766825      92.00338485
N      86.90092852      83.03355403      89.66012422
H      87.77209235      84.64927003      89.13478031
C      86.84612646      81.17217361      87.96126027
N      85.74252630      78.99709863      88.21448359
H      86.30755446      77.65917240      86.97293341
H      84.65404394      78.57568966      89.72248519
N      88.13303008      81.46697092      85.88823050
H      87.87035812      80.26510497      84.43125152
H      89.11757748      83.08457664      85.65201471
C      84.97529741      79.48275829     100.95123894
O      83.05722520      78.35459168     101.68067330
N      86.38503323      80.96430371     102.58207275
H      87.89303483      81.96018948     101.97358088
C      85.86346878      81.07957702     105.26170466
H      84.26287059      79.88149054     105.75681296
C      88.31444380      80.26321526     106.59774117
H      87.92704991      80.35581184     108.61974832
H      89.84890157      81.51988325     106.04972054
C      89.24985833      77.60059088     105.71901843
H      89.74685634      77.65350322     103.72157772
C      91.78776077      76.82580309     106.96245834
H      91.63658267      76.50077017     108.99202441
H      93.19182742      78.30734852     106.67521995
H      92.34334030      75.00599665     106.17633220
C      87.33934503      75.67118031     106.46168087
H      85.49875160      76.14172217     105.66232664
H      87.32800667      75.70141593     108.51959283
H      87.97618279      73.84570470     105.75303350
C      85.22663101      83.81968018     106.10074315
O      83.99452946      83.99353500     108.07550714
N      85.98063181      85.76798801     104.73447102
H      86.60046204      85.15571668     103.03560707
C      84.90348780      88.30778017     105.34674235
H      84.39137197      88.57045213     107.32528580
C      86.58723396      90.53576749     104.60785936
H      85.38914747      92.11179924     105.17666698
H      86.70817643      90.78710109     102.56695494
C      89.17426928      90.49986269     105.88342462
H      90.31755370      89.25642278     104.70612513
H      89.13836448      89.72129545     107.79015847
C      90.53865167      92.99619115     106.32940003
H      90.53109276      93.96184129     104.50959359
H      92.47940060      92.56155410     106.86041312
C      89.41237480      94.71395237     108.34195855
H      89.57867071      93.80877347     110.18444171
H      87.41115462      94.99363187     107.95078521
N      90.81644144      97.06288218     108.65187367
H      90.35534823      98.26096865     107.24024811
H      92.65892460      96.65659102     108.93911207
H      90.34023040      98.09278302     110.18444171
C      82.41849771      88.46084800     103.86330719
O      82.13314904      87.18150329     101.91499936
N      80.58924264      90.11435853     104.60407991
H      80.84435568      91.25953267     106.10830205
C      78.51054369      90.71718122     102.85419334
H      77.45796614      89.05989124     102.23436311
C      76.71908314      92.63336369     104.29416479
H      78.02299430      94.01853309     105.08596012
C      74.97108631      93.99396665     102.42522547
H      73.40450320      94.94449898     103.36441944
H      74.35503553      92.51431094     101.13265267
H      76.01043578      95.36023877     101.28383077
C      75.27344251      91.31055528     106.48624731
H      76.53388997      90.11057907     107.58795775
H      73.96575191      89.97451878     105.62075266
C      73.91850874      93.22862749     108.06416879
H      72.14405575      93.61791111     107.09284946
H      75.01832947      94.94827843     108.34195855
H      73.30623743      92.15526294     109.71201013
C      79.71429935      91.82834029     100.45991010
O      81.09002011      93.69727961     100.79439166
N      79.16060954      90.72474012      98.25648922
H      77.96252306      89.24319469      98.36231389
C      80.25665081      91.63747793      95.79417584
H      81.28277220      93.37035696      96.22503343
C      82.28432713      89.70806737      94.79451062
H      83.70918078      89.19973099      96.19290809
H      83.36336087      90.68316615      93.33564190
C      81.02765914      87.26276152      93.57941660
C      81.05978448      86.84891146      91.01316826
H      81.88181544      88.35691305      89.91334755
C      79.85602882      84.63982140      89.92657563
H      80.06200899      84.19951517      87.94614246
C      78.57290466      82.95418552      91.48748957
O      77.78488879      80.72619820      90.36499214
H      77.93417716      80.75454409      88.55841378
C      78.61825810      83.26788009      94.11042969
H      77.97197170      81.61436957      95.11765382
C      79.76721169      85.41082972      95.16489697
H      80.02421447      85.65460443      97.17556577
C      78.14204706      92.14770404      93.89122144
O      75.83469123      91.89259099      94.55451537
N      78.93384239      93.00375006      91.66701357
H      80.75175909      93.57633713      91.53473273
C      77.34080311      93.71806660      89.57697627
H      75.62304189      94.35301465      90.51805997
C      78.45385191      96.17093136      88.25416785
H      77.19151473      96.39580878      86.64034157
H      80.36247547      95.86479570      87.54174103
C      78.20818748      98.60111940      89.83019959
H      79.17761708      98.51230226      91.64622658
H      76.19940840      98.89591670      90.17979896
C      79.63871029     100.81965809      88.56219324
H      81.44339892     100.26218883      87.74583147
H      80.11492134     102.22750419      89.99082633
C      78.08724500     101.72483699      86.41924360
H      77.94551553     100.16959224      85.07753791
H      79.12659446     103.42937013      85.91657640
N      75.47753296     102.59978027      87.10521425
H      75.51910693     103.44070848      88.81919601
H      74.27566703     101.12012457      87.18647248
H      74.54022871     103.71282907      85.86933324
C      77.03844690      91.48063065      87.81197189
O      78.95651910      90.30522088      87.08442726
N      74.71219380      90.99119153      87.10143480
H      73.20797165      91.89637044      87.85354587
C      74.10559165      89.04855288      85.09832490
H      75.29611924      87.39504236      85.40068111
C      71.39194466      88.44006101      85.43658591
H      70.45653015      90.21640375      84.98494132
H      71.10470627      88.01487259      87.43024717
C      70.23921162      86.45773811      83.74906032
O      68.48743532      86.98119229      82.22594091
O      71.39950357      84.37714944      83.68669935
C      74.74809860      89.81767149      82.42058272
O      75.36036993      92.00030539      81.94815114
N      74.49676501      88.10935891      80.48361325
H      73.99220808      86.27821411      80.66313725
C      74.80290066      88.90871313      77.82287860
H      76.40160913      90.20695511      77.80020188
C      75.32068568      86.81489638      75.91614475
H      75.41706172      87.48008004      73.96972665
C      77.82079359      85.45996262      76.47550374
H      77.57512917      84.37714944      78.21027249
H      79.39493561      86.75820459      76.76085241
H      78.43495463      84.33368573      74.86167747
O      73.40828264      85.03666392      76.06165367
H      73.92039847      83.95763020      77.42792580
C      72.68073802      90.55466476      76.87423599
O      73.15694905      92.13258623      75.00340694
N      70.53400892      90.58867982      78.18570605
H      70.35070547      89.23752552      79.51985283
C      68.58192164      92.61635616      77.87957039
H      68.76522509      93.17193570      75.90480639
C      66.02512194      91.35023953      78.28586155
H      65.58292599      91.12158265      80.28708171
H      66.09126236      89.40382143      77.62067788
C      64.12027781      92.90548428      76.72872706
H      64.18641823      94.89536609      77.25218125
H      62.24755905      92.21195473      77.23139426
C      64.08815246      92.53887738      73.85445334
O      64.99144164      94.30577149      72.49196067
O      63.23021672      90.59434901      72.76219153
C      69.00144088      94.95394761      79.78063506
O      67.28556939      96.32021974      80.40802419
N      71.34470151      95.38669494      80.67258588
H      72.65050240      94.16971119      79.99417413
C      71.99098792      97.41626100      82.58309918
H      71.35981933      99.23228798      81.83854701
H      74.04512041      97.54098294      82.50184095
C      71.11793436      97.14225067      85.38556330
O      72.13838657      98.31955018      87.10332452
N      69.14883953      95.68716142      85.81642090
H      68.30980105      95.18260450      84.17613846
C      67.62572013      95.64936689      88.09354111
H      67.46887284      97.56554938      88.83620355
C      65.00089028      94.52497974      87.72315475
H      63.97854834      94.67048867      89.50705639
H      65.27490059      92.51242122      87.38300402
C      63.16596603      95.75141212      85.89012023
C      61.96976928      94.11112968      84.02118091
H      62.33448646      92.10424033      84.00039392
C      60.50334165      95.12780243      82.01240183
H      59.78146621      93.97884884      80.48928243
C      59.94965184      97.70727885      82.15791076
O      58.39251737      98.80709956      80.39290638
H      58.87061811     100.55320668      80.27007417
C      61.07214928      99.40425307      83.94370213
H      60.62239442     101.39602461      83.92291514
C      62.74455706      98.37057279      85.86366406
H      63.80091407      99.61023325      87.09009644
C      68.85215250      94.22640297      90.38199967
O      70.23165271      92.39714791      89.95114208
N      68.24366063      95.04465448      92.75927538
H      67.09281730      96.56399443      92.88021786
C      69.66095536      94.34923519      95.03450586
H      71.62816045      94.26419751      94.42034481
C      69.20553132      96.24652041      97.03383630
H      70.25810888      95.43771755      98.60986804
H      67.36682762      96.16715191      97.95602274
C      70.26188833      98.85812218      96.83352531
C      68.55735519     100.92926221      96.97525478
H      66.60148847     100.36423405      97.10186644
C      69.43418820     103.46905438      96.88643764
H      68.00555511     104.87312103      97.27572126
C      72.02311325     103.92447842      96.42156497
O      73.11726479     106.29041576      95.99637655
H      72.16106328     107.68881324      96.64266295
C      73.65394706     101.81932331      96.21747453
H      75.64571860     102.11790007      95.89433133
C      72.81679831      99.33811266      96.44046223
H      74.14527591      97.79042681      96.34786564
C      69.05435322      91.59212450      95.88488270
O      66.85849124      91.03843469      96.10220122
N      71.13494189      90.09357154      96.12109849
H      72.76199625      91.07056003      95.91700805
C      71.36170904      87.38559373      96.11731903
H      69.46631355      86.80544775      96.68801638
C      71.79445637      86.75064569      93.33942135
H      73.43851826      87.78243624      92.64778152
C      71.68296253      83.89715896      92.54006712
H      72.84703393      82.48553340      93.48870973
H      72.35192564      83.88393087      90.59364902
H      69.78189785      83.12237117      92.73092948
O      69.64583755      87.61425061      92.04873828
H      70.01433418      89.30366594      91.50071765
C      73.29111961      86.25175794      97.95602274
O      74.73109107      87.59535335      99.16544758
N      73.51410732      83.88582060      98.33774745
H      72.40861743      82.68206493      97.35508977
C      75.34525211      82.54411492      99.92322783
H      77.19907362      83.43606573      99.84952850
C      74.43062459      82.72552864     102.78616319
H      73.89016285      84.66816729     103.20568243
C      71.92862695      81.27232911     103.02426871
H      72.37838181      79.26166031     103.01104062
H      70.48487603      81.96018948     101.72980618
H      71.08391929      81.70129698     104.85352378
C      75.97264125      81.81657028     104.98958407
H      76.25610020      79.77566587     104.99147380
H      75.03533701      82.42128270     106.72057338
C      78.58424301      83.14315816     105.22202041
H      78.22141557      85.16327558     105.40154441
H      79.68406373      83.09024582     103.47969275
H      79.41383287      82.33246557     106.92277409
C      75.51154804      79.64716448      99.37331747
O      73.94685465      78.72497804      97.95980219
N      77.33135447      78.31868688     100.44668202
H      78.82423825      79.18229180     101.26493351
C      77.76599153      75.56157619      99.99881688
H      76.23909267      74.30490819     100.56951423
H      79.36281025      74.75844251     101.02115882
C      78.27999709      75.17229257      97.06974110
O      80.18106176      76.20219341      96.26471769
N      76.77199549      73.62460672      95.69024089
H      75.28667060      72.68541273      96.43479306
C      76.93073250      73.74743893      92.85565142
H      78.26676900      75.15339530      92.16212186
C      77.83213195      71.25488992      91.73126426
H      76.64349409      69.64106365      92.20747529
C      77.66961548      71.59882011      88.80596793
H      78.51432315      73.35059640      88.13322536
H      75.70052066      71.86338179      88.25794730
H      77.99842786      69.86783081      87.73638284
C      80.72908238      70.56891927      92.09598144
H      81.30166945      70.93174672      94.03862009
H      81.95929421      71.63283518      90.82797508
C      81.47741400      67.81936748      91.66323411
H      80.29066588      66.67608306      92.89722540
H      83.43328073      67.59449005      92.26416708
H      80.92183447      67.10316121      89.81319205
C      74.21330606      74.29734929      91.91267799
O      72.42184551      72.95375388      92.47770616
N      73.84669915      76.61604347      90.98293264
H      75.42084116      77.69129774      90.90545386
C      71.53934333      77.63838541      89.77539753
H      70.85337268      76.36093042      88.31463909
H      72.04201052      79.34480827      88.73604806
C      69.37182724      78.08247109      91.68402110
O      67.50666736      79.06323905      90.62010519
N      69.71953688      77.82357859      94.17090093
H      71.50910771      77.49476621      94.74537773
C      67.52178518      78.05601492      95.84330872
H      65.92874589      76.98076065      95.09686683
C      68.16240240      76.95430448      98.37932143
H      69.52300535      78.07113273      99.44890652
H      68.95041828      75.07024735      98.11098029
C      65.83425958      76.64438937      99.94590454
N      64.25633811      74.43718903     100.20857650
H      64.60782720      72.72887645      99.43000926
C      62.25133849      75.03812200     101.44445751
H      60.98144242      73.63027590     102.19656858
N      62.25700767      77.51744292     102.11342063
H      60.88884583      78.31868688     103.17355709
C      64.53790733      78.49632115     101.10619650
H      65.07836905      80.45974679     101.25737461
C      66.60526791      80.77155163      96.05306834
O      67.97909895      82.41939298      97.02627739
N      64.26389701      81.30823391      95.28772918
H      63.08659753      79.84747547      94.93435036
C      63.41540991      84.00676308      95.25371411
H      65.12372249      84.89682417      94.52239003
C      61.12884107      84.27699394      93.41501041
H      59.46777163      83.45118355      94.30696123
H      61.44253563      83.27165955      91.64433685
C      60.54680536      87.15315739      92.81029799
H      59.90618813      88.02621095      94.56018455
C      62.63873238      88.70462270      91.41190052
H      64.54735596      88.42872265      92.13566569
H      62.02646106      90.65859970      91.62354986
H      62.83337419      88.20384522      89.42201871
C      58.40007626      86.94906695      90.97348401
H      58.87628729      87.09835532      88.97415357
H      56.96766372      88.39092813      91.30418612
H      57.40419051      85.18595230      91.34387037
C      62.85038173      84.84580156      97.90122067
O      61.97921790      83.35291778      99.39410446
N      63.54391130      87.20418000      98.52672008
H      64.49255390      88.11502809      97.14155070
C      62.86172009      88.30400072     100.92100332
H      61.86961377      86.86591899     102.01137540
C      65.16718619      89.40949061     102.33451860
H      64.54735596      90.69828396     103.81417431
H      66.35393432      90.44317090     101.00604101
C      66.77345356      87.23630535     103.54772290
H      67.44430640      85.99853462     102.04350075
C      69.10726555      88.51187061     104.63053607
H      70.03323145      89.17705427     102.91655431
H      70.27511641      87.12292177     105.60563485
H      68.45719970      90.00286467     105.89476298
C      65.45253487      85.77365718     105.58484786
H      66.70920286      84.28833230     106.25570070
H      63.66863322      85.00642830     104.89698748
H      65.04435399      86.90371352     107.25914538
C      60.68475537      90.09924070     100.52982998
O      58.43220161      89.73263381     101.30461776
N      61.26490135      92.00597456      99.01237975
H      63.00344956      92.07589444      98.23003305
C      59.39407230      93.84467827      98.01271453
H      57.69331863      92.74863701      97.62532063
C      58.84038250      96.05565805      99.98369907