 %block lattice_cart
   140.777   0.000   0.000
   0.000 144.511   0.000
   0.000   0.000   162.462
 %endblock lattice_cart

 %block positions_abs
N      92.73734824      44.19684370      82.96576875
H      94.63463347      44.22707933      82.75600913
H      91.96067072      42.49231057      82.60672075
H      92.25735775      44.49164101      84.79124438
C      91.49390833      46.20184332      81.57870965
H      92.15531254      47.98763469      82.36294607
C      92.30649064      46.40026458      78.80459142
H      92.04192897      44.64092939      77.76524194
H      94.30582108      46.86702698      78.97277705
C      91.07438909      48.54699368      77.40241450
H      89.05427166      48.14826142      77.45154738
H      91.90775840      48.48274298      75.52024708
S      91.48823916      51.57244550      79.04458666
C      89.23757511      53.11068272      77.04525621
H      87.39698168      52.21873190      77.29281036
H      89.94244302      53.22595603      75.11395592
H      89.17710386      54.97395287      77.91830977
C      88.71979010      45.97129671      81.68264459
O      87.81083175      43.96818682      80.92108488
N      87.51225498      47.98385524      82.49522690
H      88.35507293      49.68649864      82.68419954
C      84.80616690      47.85724357      82.60672075
H      83.98791542      47.22418526      80.82470885
C      83.92933389      46.05822412      84.76478821
H      84.86852788      46.57222968      86.52790285
H      84.37152986      44.10991629      84.26967991
C      81.17789239      45.84846450      85.10682866
O      79.85319424      45.62358707      83.33048593
N      80.06295386      46.20373305      87.23843996
H      78.15999946      46.05822412      87.24788858
H      81.07395744      46.43994884      88.84281759
C      83.74980989      50.63703098      82.76923722
O      85.32395192      52.32833603      82.97710711
N      81.25726090      51.01875569      82.60105157
H      80.13476346      49.47862875      82.72010434
C      80.18767579      53.67382116      82.34782825
H      80.74136560      54.34845346      80.48266838
C      77.36820413      53.20705876      82.59349267
H      76.82207324      51.66693182      81.33871441
C      76.38554645      52.20739354      85.19375607
H      76.70491021      53.80610201      86.45609325
H      77.58363293      50.65970769      85.83437330
H      74.38810574      51.72551334      85.05013687
C      75.86587173      55.70716668      82.05303095
H      76.47814304      57.18682238      83.34938320
H      73.88543854      55.44638445      82.55758787
C      75.93768132      56.65580929      79.29780999
H      74.46369480      58.02964032      78.86884210
H      75.50871345      55.03064466      78.10728241
H      77.85764325      57.15091758      78.74034072
C      81.10608279      55.53898103      84.41140938
O      81.67300069      57.71594575      83.67063667
N      81.81284042      54.63569186      86.78868508
H      81.37253419      52.84423131      87.27812420
C      82.62731246      56.28920238      88.85415595
H      81.28560678      57.81610124      89.19430669
C      82.79360838      54.92859944      91.42040429
H      83.38887217      56.29487156      92.84336819
H      84.27893327      53.50563552      91.31080015
C      80.37853816      53.54909923      92.15172836
C      80.49570119      50.97907144      92.96620040
H      82.37975833      50.27420353      93.31013060
C      78.31873648      49.61279932      93.47453678
H      78.46235567      47.70606547      94.18129443
C      75.82429774      50.75986319      93.29312305
H      74.13677215      49.65059384      93.60114844
C      75.71847307      53.33556015      92.74132298
H      73.90622554      54.22751097      93.02100246
C      77.96913710      54.67537611      92.21975851
H      77.71780351      56.64636065      91.75866530
C      85.40143069      57.26241143      88.28345860
O      86.36897057      58.82521509      89.72343005
N      86.63164252      56.27786402      86.39184257
H      86.23291027      54.59600760      85.58114998
C      88.99569014      56.98084221      85.32036774
H      89.89142041      58.42081366      86.49199805
C      90.86085002      54.73017817      85.00100400
H      92.63908248      55.31977278      84.14873742
H      90.00858344      53.01430668      84.24511347
C      91.59028438      54.05176643      87.66551809
H      89.87063342      54.03664862      88.79935389
H      92.79592976      55.60701118      88.27778942
C      92.81482702      51.53276125      87.93007979
O      92.31027009      49.86413292      86.38806311
O      94.22645257      51.04332214      89.69697389
C      88.56294281      58.42459311      82.80892148
O      89.58906420      60.52596877      82.55758787
N      86.73935693      57.60823135      81.22722054
H      85.92488489      55.89991876      81.48233360
C      86.14409313      59.17292473      78.96710787
H      87.81272147      59.17481446      77.75957277
C      83.93689280      57.95783072      77.55548232
H      82.16243980      58.41514448      78.49656602
H      84.17310860      55.93393383      77.85783853
C      83.51926328      58.41892394      74.73412093
H      85.34284919      57.94271290      73.90075164
H      83.48713795      60.44471054      74.35995512
S      80.68845328      56.76919286      73.46611458
C      80.86608754      57.71783547      70.10618120
H      82.44211929      56.65391956      69.31249614
H      81.24592254      59.73606318      69.94177500
H      79.02738385      57.18871211      69.34273176
C      85.73402253      61.92814570      79.41308328
O      87.08517685      63.60055349      78.58538316
N      83.98980514      62.47427660      81.13084450
H      83.18667146      61.11178393      82.19853987
C      83.14509748      65.04808384      81.94531654
H      82.87486662      66.34065664      80.36550535
C      80.65821765      64.93847972      83.38150855
H      80.46546556      66.76584506      84.31692308
H      80.95490469      63.36622742      84.67786080
C      78.34141320      64.36967210      81.73177748
H      78.56251116      62.66702869      80.59227250
C      75.90933542      64.15046384      83.35127293
H      76.30239850      62.93536982      84.96887865
H      74.34464203      63.31142536      82.30625428
H      75.12698873      65.91168877      84.07692782
C      77.73859050      66.56175462      79.87039705
H      75.76571623      66.35199500      79.31670725
H      79.06517837      66.42758405      78.29814477
H      78.04472616      68.39100969      80.76801706
C      85.32584164      66.25372923      83.45898732
O      85.57528551      68.59510013      83.47221541
N      86.92832956      64.77029407      84.51534433
H      86.86218913      62.88056776      84.24322374
C      89.23757511      65.80775382      85.73988698
H      88.81427641      67.48772051      86.84915632
C      90.46778695      63.85755626      87.45197902
H      91.92476593      62.80686843      86.44664463
H      88.98813123      62.51963003      87.97165376
C      91.71122686      65.10099618      89.73665813
H      90.40920543      66.51829091      90.47176167
H      93.41198053      66.11388948      89.16785051
C      92.49735301      63.25473357      91.79079063
H      93.67276276      64.16747138      93.21375455
H      93.80504361      61.81476212      91.11237890
N      90.31282938      61.74295252      92.72620516
H      89.07694838      60.86234006      91.56591321
C      89.26403128      61.51996482      95.01466373
N      90.29771157      62.56309374      96.89305169
H      89.18655251      62.31742932      98.42561973
H      91.98145772      63.45693429      96.83635990
N      87.09651519      60.31053997      95.07702470
H      86.10062944      60.16503105      96.69840987
H      86.59006855      59.15024802      93.64839161
C      91.25769254      66.72805053      83.88606547
O      92.67876673      68.39100969      84.48888817
N      91.33895078      65.53185378      81.56170210
H      90.37519036      63.92558641      81.19698492
C      92.96033594      66.29341348      79.49434152
H      94.70644307      67.22504855      80.07070805
C      93.80882307      64.15235357      77.73689604
H      92.03059060      63.51740553      76.91675482
C      95.53225346      65.13879070      75.62040257
H      96.87962832      66.32364910      76.62573697
H      94.30582108      66.16680182      74.32216060
H      96.50168306      63.55142060      74.73601066
C      94.68943552      61.63712785      79.01057158
H      95.09383696      60.36345231      77.44398847
H      93.36095793      60.73572840      80.29747520
C      97.03458588      62.18892793      80.62250812
H      96.77569338      63.63078911      82.06814875
H      98.69376558      62.73883829      79.53024631
H      97.68465173      60.58077084      81.73366721
C      91.57327684      68.42691449      78.06003924
O      92.95655650      70.01806404      76.89596783
N      89.12419153      68.40234805      77.84272073
H      88.02815028      66.96048687      78.44554342
C      87.88831053      70.51695179      76.39330064
H      88.95222644      70.79285183      74.65097298
C      85.15954572      69.64389823      75.65063819
H      84.27704354      71.17457655      74.59239147
H      84.05216610      68.97304539      77.25312612
C      85.17844300      67.70503904      73.67209474
O      83.74603045      65.91168877      73.82705230
O      86.25558699      68.25116994      71.63874924
C      87.71445571      72.99816244      77.94098650
O      88.41743389      75.02961823      77.02446923
N      86.74313638      72.95091928      80.28613685
H      86.07228353      71.28040122      80.92108488
C      86.45778770      75.21859086      81.79224871
H      86.65809870      76.93257262      80.66975129
C      83.86508320      75.42646075      82.95254067
H      83.90098800      77.01761031      84.26212100
H      83.78382497      73.73326598      84.12417099
C      81.66355204      75.28095183      81.11950615
H      79.98358536      75.23937785      82.31003372
H      81.69756713      73.52161663      80.04992105
C      81.80339180      77.50515970      79.47544425
O      81.37064448      77.36720968      77.13785280
O      82.19078569      79.58574837      80.49211702
C      88.60451679      75.13544290      83.88795520
O      89.75158067      77.20280349      84.32637170
N      88.92954972      73.06619259      85.33926501
H      88.22279209      71.38622590      84.77234712
C      90.52636846      73.20603233      87.62772358
H      92.04192897      74.56852501      87.33481599
H      91.45422408      71.39189507      87.93763868
C      89.04671275      74.02995301      90.01633763
O      87.17210425      75.42268130      89.92563076
N      89.78370602      73.33075427      92.28022975
H      91.26525144      72.13266779      92.18574344
C      88.35885237      73.60476459      94.67451300
H      86.45967744      73.80507558      93.90161493
C      88.81994560      71.27284232      96.24676528
H      90.66998765      71.50338893      97.12359829
H      88.81616615      69.70247975      94.91072879
C      86.69967267      70.92324295      98.26877244
H      86.58817882      72.55407676      99.52166098
C      84.04649692      70.30719217      97.01399416
H      84.42822165      69.03729609      95.43607269
H      83.27359886      72.07597600      96.29400845
H      82.68589399      69.43980779      98.29333888
C      87.21745768      68.66502000      99.89960625
H      89.00513878      68.90123579     100.89927146
H      87.04549259      66.86600055      98.91127939
H      85.60363141      68.49683436     101.16950232
C      89.15253742      76.17857183      96.02944675
O      90.79848904      76.22014580      97.63760385
N      87.91665642      78.40277970      95.55512545
H      86.46723633      78.38766189      94.31546499
C      88.68388530      80.91233624      96.66817425
H      90.73045889      81.09186024      96.82313181
C      87.60674130      82.89465914      95.02411235
H      87.44044539      84.68611969      96.02944675
H      85.76047869      82.56017758      94.16995606
C      89.55882858      83.42945169      92.97375931
H      90.10495948      81.65688841      92.07802904
H      91.31438432      84.27415935      93.64839161
C      88.37963937      85.06595468      90.85915556
H      87.61052076      86.72891383      91.80023927
H      86.73557747      84.05117165      90.14672875
N      90.14653347      85.58751914      88.83714842
H      90.89864454      87.33929543      88.85982513
C      90.18810744      84.55194912      86.54491040
N      88.90120383      82.58096457      85.97043360
H      89.20733949      81.97247270      84.18653196
H      87.78059612      81.68145485      87.22899132
N      91.31438432      85.65554928      84.69675806
H      91.37674530      84.74470120      83.02057081
H      92.02303169      87.38653859      85.07848277
C      87.44800430      81.10319860      99.29867327
O      85.17088409      80.95202049      99.57268360
N      89.00324904      81.72869801     101.19028932
H      90.82116576      81.95735489     100.65549678
C      88.26436606      82.12365081     103.72819175
H      86.50692058      81.12965477     104.13259319
C      90.11062867      80.82351910     105.42138653
H      89.29993609      80.48147864     107.28465667
H      91.62807889      82.18790150     105.69728657
C      91.24068500      78.26293995     104.73730561
H      92.25735775      78.28372694     102.94584507
C      93.27214079      77.44090900     106.51364834
H      94.84061363      78.75237906     106.76309222
H      93.88819156      75.69669162     105.60846944
H      92.53703726      76.87966029     108.35424178
C      89.30182580      76.14077730     104.57856859
H      89.99535536      74.26616880     104.07968086
H      88.07539342      76.47147940     102.95718342
H      88.08673179      76.08030606     106.24341748
C      87.76736805      84.78060600     104.73163643
O      87.02848506      85.05650604     106.94639566
N      87.87886190      86.77048781     103.10458207
H      88.71979010      86.46435215     101.41705647
C      87.25147276      89.43122246     103.52410131
H      86.16299040      89.60885673     105.26453924
C      89.71567587      91.15465286     103.82645752
H      89.21867785      93.15398329     103.89070822
H      90.74368699      91.07906380     102.04255588
C      91.55626929      90.51214591     105.90137701
H      92.07783377      88.56761753     105.46107079
H      90.42243350      90.32128355     107.60968960
C      93.83149977      92.14108999     106.16404898
H      93.28725861      94.09884645     106.50230998
H      94.96155612      92.23368658     104.44628776
C      95.23178698      90.93733433     108.46951508
H      95.87618364      89.02682103     108.04621638
H      93.90330937      90.78426650     110.03798792
N      97.31615509      92.63241883     109.41059879
H      98.20999564      91.65354060     110.78442981
H      96.71333240      94.39553348     109.83011803
H      98.55392584      92.82895037     107.97251705
C      85.47135056      90.42521850     101.50209417
O      85.71701499      89.57862111      99.27221712
N      83.74792017      92.13542081     102.09357850
H      83.63642631      92.53037361     103.95684864
C      81.86386304      93.02737163     100.24353643
H      80.73002726      91.37008166      99.78055348
C      80.14043265      94.79615546     101.71941268
H      81.40465954      95.96022687     102.85513821
C      78.45479676      96.51769613     100.02621792
H      77.43812401      97.81782784     101.26020920
H      77.46646990      95.15520346      98.84135951
H      79.85508397      97.61184767      98.98497871
C      78.57762898      93.32216894     103.58079310
H      79.73036204      92.03148586     104.69384190
H      77.34363770      91.90676393     102.73230600
C      77.18490069      95.04370961     105.53477012
H      78.23369880      96.64619752     106.29066063
H      76.26649370      93.83428477     106.92938813
H      75.66556073      96.06416182     104.58612750
C      83.17344338      93.92877108      97.71886208
O      85.03104433      95.25724868      97.80956894
N      82.22102132      93.05193807      95.54756654
H      80.68278409      91.92566119      95.64583231
C      82.74636523      93.97979369      93.00210521
H      83.74980989      95.74290834      93.36304293
C      84.51136960      92.05794203      91.62638444
H      86.14409313      91.49291387      92.74888187
H      85.49969646      93.05760725      90.12216231
C      83.22068653      89.60885673      90.67963156
C      82.53849533      89.36697176      88.13039077
H      82.72746796      90.95245214      86.86049469
C      81.09474442      87.16733034      87.55024479
H      80.16877854      86.87820221      85.75689452
C      80.86986699      85.15288209      89.22643204
O      79.82484834      82.84930571      88.60849153
H      79.37131404      82.81907009      86.85104605
C      81.61063971      85.47413556      91.73787830
H      81.51237395      83.99636958      93.14005522
C      82.87297688      87.75881467      92.47865101
H      83.59863179      87.90432360      94.38160541
C      80.45034775      94.57316776      91.46008853
O      78.31306729      94.17632523      92.41062086
N      80.81128548      95.76747479      89.20753477
H      82.53282616      95.73534944      88.38550383
C      78.71746873      96.52147558      87.49166327
H      76.97136162      96.76714001      88.55179974
C      79.44312364      99.14819516      86.74900084
H      78.04850562      99.48834590      85.27123486
H      81.19489992      99.16142324      85.66807739
C      79.23903319     101.12106943      88.88817103
H      80.71490944     100.57682825      90.21664861
H      77.44001374     100.85650775      89.85760061
C      79.54138940     103.78936298      87.82236538
H      79.08974481     103.81959861      85.81169658
H      81.39899037     104.67753435      87.84126265
C      77.80473091     105.77924479      89.19997586
H      78.33007484     107.72377317      88.76533881
H      77.94079121     105.75845780      91.25599809
N      75.08541475     105.47499886      88.43652644
H      73.72481181     106.46332572      89.33792589
H      74.41078246     103.68920749      88.46487233
H      74.78683799     106.08727018      86.65073507
C      78.14110221      94.60907256      85.23910951
O      79.73792094      93.64909159      83.93519835
N      75.74681896      94.21223003      84.74400121
H      74.57329892      95.19299799      85.88728563
C      74.83030171      92.85540654      82.53113170
H      75.62776621      90.96568022      82.69553790
C      71.87099030      92.84406818      82.44420430
H      71.20769635      94.62230064      81.63729115
H      71.34186693      92.77036885      84.43408611
C      70.51605653      90.74647197      81.02501983
O      71.26816761      89.72035058      79.08616063
O      68.33720209      90.24191505      81.77146172
C      76.01704982      94.02703685      80.03858270
O      76.83530132      96.22856801      80.00645735
N      75.48981618      92.78170721      77.90130224
H      75.12887846      90.91087816      78.02602418
C      75.41233740      94.07239028      75.38229707
H      77.27749728      94.72623559      74.80026136
C      74.83975033      92.26014275      73.17509673
H      72.82530209      91.83684405      73.11462549
C      75.52005181      93.38452991      70.64664292
H      74.65266743      95.24968978      70.54648742
H      75.03628187      92.12219273      69.09517761
H      77.54772813      93.75491626      70.62018676
O      76.16633820      89.95089719      73.35273100
H      77.95401929      90.21167943      73.19021453
C      73.38277135      95.99802140      75.47111419
O      73.78150360      98.11073541      74.58861201
N      71.13588676      95.52181037      76.50290476
H      70.99037784      93.75302654      77.20777268
C      69.05151864      97.35484489      76.92620347
H      68.77561859      98.66253550      75.35584090
C      66.58731553      95.89219672      77.17186788
H      65.24749956      97.38130106      77.64807891
H      66.86510530      94.68277188      78.81781949
C      65.55741468      94.15175879      75.06293331
H      67.01628340      92.76847913      74.60750927
H      64.98104815      95.14575483      73.35462073
C      63.15935200      92.63430856      75.78858822
O      63.51084108      90.56505825      76.80148152
O      60.96537974      93.59617925      75.39552514
C      69.43513307      99.14819516      79.21844148
O      67.65690061     100.21778025      80.28802658
N      71.80107043      99.43543356      79.97055255
H      73.19190898      98.50190876      79.05592501
C      72.47003353     101.07760573      82.21932686
H      71.82563687     102.94087587      81.62784253
H      74.52038659     101.06248791      82.40640977
C      71.42312516     100.44454741      84.77990601
O      72.13177253     101.62373663      86.62994808
N      69.90756465      98.47734232      85.14840265
H      69.58253174      97.47956683      83.55347364
C      68.74160353      97.85940181      87.63906192
H      67.87799860      99.46944863      88.59148400
C      66.65723540      96.00935975      87.24977831
H      66.05630243      95.83550493      89.21320395
H      67.47359717      94.23679647      86.59593301
C      64.30830560      96.78981672      85.51878901
C      63.66201919      95.14764456      83.52890720
H      64.72404538      93.41476553      83.33426538
C      61.58898943      95.75613643      81.97933163
H      61.06364551      94.64497736      80.35038753
C      60.11500290      97.96333676      82.55569814
O      57.77552172      98.22222927      81.48422333
H      57.05364627      99.81148910      81.97933163
C      60.92947495      99.57716303      84.48699844
H      59.89201519     101.27602699      84.93864303
C      63.05919650      99.05937802      86.02901510
H      63.73193906     100.26124396      87.53701670
C      70.84486890      96.85217769      89.56091358
O      72.48326163      95.47456721      88.61038125
N      70.49904900      97.03548114      92.04590369
H      69.05529809      98.10695596      92.68841063
C      72.27161227      95.98101386      94.07358002
H      74.21047147      96.40620228      93.52933884
C      72.00138141      97.40775723      96.62848999
H      72.84608908      96.41943036      98.22530873
H      69.98504343      97.73467988      96.89305169
C      73.11254049     100.06471242      96.42817901
C      71.94091016     102.10561684      97.46941820
H      70.03795578     101.80704008      98.15160941
C      73.03695143     104.50178980      97.73020044
H      72.05996293     106.03057839      98.65994579
C      75.47280864     104.87406589      96.83824963
O      76.56129100     107.12850938      96.63982836
H      75.48981618     108.37194929      97.40894696
C      76.85419859     102.78969776      95.84236386
H      78.78171943     103.08827452      95.24332062
C      75.66745045     100.38218644      95.66850903
H      76.71435884      98.69844030      95.18851854
C      71.85965193      93.18610864      94.47420200
O      69.79040162      92.38297496      95.04867880
N      73.91567417      91.88975639      94.43829720
H      75.57674360      92.72690515      94.00554987
C      73.92323308      89.20634503      93.98287317
H      72.11098553      88.33140174      94.41373076
C      74.50715851      88.67722166      91.16151177
H      76.37609782      89.38964848      90.67585211
C      74.22558929      85.90121371      90.40562125
H      75.76382650      84.68045051      91.03112067
H      74.06874200      85.66877737      88.36471683
H      72.31318626      85.35886225      90.94608297
O      72.70435959      89.91688212      89.65539990
H      73.39033026      91.52692894      89.17540942
C      75.93012241      88.00636882      95.59858915
O      77.99181383      89.11752789      96.09180772
N      75.54839770      85.66121846      96.56234957
H      74.01771938      84.61242036      96.11826389
C      77.38710141      84.17589358      98.04200529
H      79.14076743      85.24547867      97.87004018
C      76.62554170      84.18534221     100.89549202
H      75.74492924      85.99947947     101.31879070
C      74.39566465      82.42411729     101.52855032
H      73.92701253      82.36931523     103.53166022
H      74.88888321      80.50793481     100.95029408
H      72.79506646      83.08930095     100.41550154
C      78.82707286      83.71857981     102.73419571
H      79.88531958      81.97247270     102.44884704
H      78.19401454      83.78094078     104.69195217
C      80.77727040      85.82184520     102.68695256
H      81.35930612      85.75381505     100.71029884
H      82.39487614      85.47413556     103.91149520
H      79.79272299      87.60385711     103.00253686
C      77.92756313      81.53972538      97.05745787
O      76.33452385      80.68745881      95.54756654
N      79.89854768      80.32652108      97.93240115
H      81.25726090      81.42823152      98.69396086
C      80.37097926      77.68090424      97.36359353
H      78.72691736      76.62076778      98.01176967
H      82.02637950      77.14611170      98.46719370
C      80.87931563      77.27650281      94.54034243
O      82.59329740      78.20624816      93.44241143
N      79.30328389      75.55307242      93.40272719
H      77.89165833      74.95780863      94.54412188
C      79.11809070      75.19780387      90.70797746
H      80.55617242      76.29573486      89.72343005
C      79.64154490      72.35376577      90.02200681
H      78.48125293      71.15945874      91.23710082
C      78.90833108      71.82653213      87.23088105
H      78.92533862      73.41201250      85.91752125
H      76.89388283      71.40701288      87.32914682
H      79.75681819      70.11255036      86.46554188
C      82.43267066      71.35032110      90.47743085
H      83.02226526      72.25172055      92.23487633
H      83.78760443      71.85109857      89.01100324
C      82.71612960      68.48360628      90.64372676
H      81.46513078      67.51984586      89.31902863
H      82.19078569      67.85054796      92.53156336
H      84.63798127      67.88456304      90.20908972
C      76.45924579      76.15022593      90.07869860
O      74.63754962      74.89544766      90.63238841
N      76.28917042      78.22136597      88.61416071
H      77.83496654      79.18890584      88.05291200
C      74.07630091      79.15300104      87.27623447
H      73.51127274      77.77917001      85.84760139
H      74.70935922      80.92556432      86.44097545
C      71.70469438      79.78227990      88.91084774
O      69.53528857      79.83708197      87.99055103
N      71.99760195      80.24148340      91.35804332
H      73.81173921      80.41911767      91.92496121
C      69.93213109      80.21880668      93.17218057
H      68.24649522      79.41189355      92.30290647
C      70.55574079      78.54072972      95.49843366
H      71.91067455      79.54417439      96.67951260
H      71.34942584      76.75115890      94.85403700
C      68.45814458      78.05695978      97.25587914
N      67.08620328      75.86487726      97.48264629
H      67.84209379      74.42868526      96.47542216
C      65.32875780      76.24471225      99.35347534
H      64.09854596      74.86332231     100.21519054
N      65.46481809      78.61442904     100.16416793
H      64.23460626      79.46858534     101.34713661
C      67.51517114      79.81440525      99.00765542
H      68.25972332      81.65688841      99.46685892
C      69.24049127      82.76426803      93.94129919
O      70.48960037      84.10975316      95.47575695
N      67.12777725      83.72424899      92.84147846
H      66.24338533      82.34663851      91.85882079
C      66.06386133      86.36797610      93.18729839
H      67.48493552      87.76826330      92.67329283
C      63.66957809      86.67600149      91.59614883
H      62.17291486      85.43067185      92.27267084
H      64.04752335      85.95790549      89.70264307
C      62.53952176      89.36697176      91.53756732
H      61.91780180      89.86019033      93.43863199
C      64.45948369      91.23591109      90.56246853
H      65.73882840      91.53637757      92.14983863
H      63.26706640      92.85918599      90.13161093
H      65.47615645      90.52159454      88.92029636
C      60.27562964      89.29516216      89.83681363
H      59.30997950      91.11685833      89.85193145
H      58.91691641      87.93266949      90.56813772
H      60.64979545      89.27437517      87.81291674
C      65.25127903      86.89898920      95.88771728
O      63.86421990      85.31917800      96.90439004
N      65.74827705      89.13642515      96.98942772
H      66.89156146      90.32317328      96.02188786
C      64.87333376      89.55594439      99.40638768
H      64.35176929      87.86463934     100.46085496
C      66.93502516      90.87308364     100.92950708
H      66.25472369      91.42110427     102.79466695
H      67.40934648      92.57383732      99.87126036
C      69.21403509      89.15721214     101.28855508
H      69.85465232      88.37108600      99.49520481
C      71.39855872      90.72757471     102.48664156
H      72.84608908      89.32350806     102.90805054
H      70.82408191      91.86896940     104.10424729
H      71.96169715      92.05227285     101.01454478
C      68.59798432      86.79127480     102.97797042
H      70.28928938      85.64799038     103.25764990
H      67.05974710      85.65743901     102.21074153
H      67.92146231      87.60763657     104.74486452
C      62.60188272      91.07150490      99.30812192
O      60.57609612      90.63686785     100.53455428
N      62.66424369      93.17099083      97.77555387
H      64.25350352      93.58484089      96.80234483
C      60.41546939      94.85662670      97.33335791
H      58.58243486      93.92877108      97.48264629
C      60.40035158      96.81816262      99.50276372