 %block lattice_cart
   140.777   0.000   0.000
   0.000 144.511   0.000
   0.000   0.000   162.462
 %endblock lattice_cart

 %block positions_abs
N      91.83878338      41.98113961      82.66057796
H      91.21139425      41.34430184      84.34810355
H      93.69638435      41.58618681      82.47349506
H      90.95250175      40.82462710      81.42847640
C      91.21895316      44.60030027      81.89901826
H      92.21672865      45.93633678      83.11033281
C      92.12602179      45.29005038      79.27796786
H      91.45894839      43.94267552      77.87012176
H      94.17070566      45.25225585      79.02663426
C      91.23974014      48.07172751      78.52018760
H      89.25363778      48.52715155      78.81876436
H      91.59311897      48.41754743      76.52085716
S      92.72128557      50.56238679      80.25873581
C      92.41137045      53.12674540      77.83610667
H      92.72128557      54.97489773      78.69782188
H      90.52353386      52.93777277      77.03864218
H      93.86456999      53.10217896      76.37534823
C      88.39759177      45.07840103      82.01618129
O      86.98596621      43.49481038      81.05997977
N      87.41682381      47.14765134      83.10655336
H      88.60735139      48.33817892      84.00795282
C      84.59546242      47.51614798      83.44859382
H      83.67327599      46.40876836      81.97838676
C      83.93594794      46.54671838      86.16413055
H      84.51798365      44.57951329      86.35688262
H      81.90449216      46.33506903      86.43058196
C      84.85435492      48.15298574      88.45069937
O      83.93216849      50.17499290      88.89289533
N      86.63069767      47.13820271      89.84153794
H      86.98596621      47.93377749      91.53851217
H      87.46406697      45.46957438      89.43713651
C      83.50886980      50.19577989      83.09143556
O      84.86380356      52.02125551      82.59254781
N      81.00498243      50.56616625      83.52607260
H      79.99019939      48.95233997      83.57142604
C      79.60847469      53.01903100      83.43914520
H      80.03555282      53.82216468      81.59099287
C      76.74553932      52.72045424      83.54308015
H      76.37137351      51.39953555      82.00673266
C      75.71563847      51.85684932      86.16413055
H      73.81268409      51.23512936      85.67847088
H      75.66272614      53.35918174      87.57197665
H      76.42428585      50.05216069      86.86332928
C      75.24320690      55.26213613      82.81364579
H      75.16194867      56.56982674      84.40479534
H      73.20797167      54.98245664      82.64734988
C      76.21452623      56.62084935      80.51006942
H      77.68473330      58.00034956      80.93903729
H      74.67250956      57.78870021      79.80709122
H      76.70207562      55.25457723      79.04742125
C      80.78388445      55.13930392      85.06997900
O      81.15427081      57.32193781      84.23094052
N      81.47741401      54.37396477      87.38300402
H      81.33757425      52.56738641      87.98960615
C      82.61313953      56.19944038      89.20658991
H      81.34324344      57.81326666      89.04596316
C      82.21818673      55.19221626      91.87488346
H      83.02132041      56.52825276      93.22036859
H      83.12336562      53.37429955      92.22070337
C      79.44028905      54.68576961      92.53061848
C      77.68473330      56.66431306      92.86321033
H      78.37448341      58.58616472      92.84809251
C      75.16950758      56.26936026      93.83830909
H      74.00543616      57.89641461      94.24837970
C      74.36826362      53.79759824      94.01216392
H      72.51444211      53.28548241      94.69624484
C      76.00476661      51.74346574      93.62099058
H      75.39438501      49.81027572      93.84775773
C      78.63337591      52.28770692      93.00305006
H      79.97697132      50.78159504      92.70447330
C      85.31166870      56.92887474      88.40345623
O      86.28487775      58.88096202      89.21225908
N      86.56455725      55.46622657      86.75750461
H      85.93527837      53.67098658      86.60254704
C      89.11568776      55.98023213      85.88256132
H      90.24196464      57.11217819      87.18647248
C      90.63502772      53.50280094      85.39690165
H      92.38113484      54.20010995      84.55975291
H      89.56166318      52.37274460      84.04952679
C      91.02242162      52.04015277      87.79685407
H      89.30843985      51.04237728      88.35243361
H      91.30777029      53.48201395      89.24249471
C      93.31276991      50.22979496      87.90645821
O      93.20694524      48.38731181      86.31341891
O      95.08722292      50.54159980      89.42957760
C      89.11946722      57.57516114      83.44292465
O      90.75785992      59.13418535      82.87789649
N      87.15793131      57.18020834      81.91035662
H      85.86724824      55.88007664      82.44325944
C      86.72896343      58.70899693      79.68425902
H      88.17460406      58.38963318      78.25184646
C      84.38948225      57.70177280      78.28775126
H      82.75297926      57.19154670      79.43292541
H      85.08679127      55.92731980      77.50540458
C      83.30666908      59.14174425      75.96149818
H      84.71640490      59.27024564      74.46483493
H      82.83990668      61.00690412      76.70227089
S      80.40027001      57.59027895      74.71616854
C      81.35836124      57.91531188      71.47528791
H      83.17627796      57.02525078      71.09167347
H      81.72496815      59.84472244      70.85167823
H      79.88437473      57.30870973      70.16948702
C      86.40959969      61.59649873      80.19070566
O      87.79476908      63.26323734      79.29686512
N      84.40460007      61.96877482      81.80453193
H      83.25564647      60.61573078      82.50751013
C      83.46729581      64.58604576      82.29775051
H      83.14037316      65.44020205      80.45337763
C      80.98230571      64.48022109      83.81898019
H      80.75553856      66.24522546      84.85832966
H      80.95584955      62.81537221      85.03029475
C      78.62770672      64.45943410      82.17491829
H      78.88659924      63.09316197      80.65557834
C      76.24287212      63.76590454      83.75283977
H      76.52066189      61.82704534      84.38589809
H      74.58936160      63.85661140      82.52829712
H      75.99531798      65.12083831      85.28729753
C      77.90016210      66.89340159      80.78407972
H      77.90583127      68.43730799      82.14657239
H      75.95563373      66.67986252      80.14346251
H      79.14927119      67.46976811      79.25151168
C      85.58000983      66.36805767      83.53930070
O      85.50064133      68.68864159      83.04608212
N      87.49241287      65.36272328      84.77518170
H      87.64359097      63.45787915      84.74116663
C      89.66370840      66.59860428      85.70492705
H      89.24040970      68.27101207      86.83120393
C      91.14147438      64.84682799      87.55874855
H      92.94616301      65.75011717      87.96881917
H      91.28698329      62.97977840      86.70081282
C      89.74496663      64.47266218      90.04751812
H      88.03476431      63.45976888      89.50516666
H      89.17237955      66.36049877      90.64089218
C      91.30399084      62.82671056      91.95425196
H      91.94082861      61.22989183      90.81852645
H      90.08889681      62.15207827      93.47548165
N      93.31654936      64.36683751      92.97470417
H      93.05765686      66.24522546      92.76305483
C      95.80342918      63.77535317      92.99549117
N      96.52152519      61.45476926      93.23926586
H      98.28086039      60.84438766      93.66067483
H      95.06265648      60.28313895      93.61721112
N      97.63079454      65.36650273      92.42668355
H      99.43737289      64.78446702      92.20936502
H      97.32654859      67.24678041      92.33030749
C      91.34367509      67.70220445      83.64323563
O      91.93326970      69.90373561      83.83787745
N      91.56099362      66.52301523      81.49083737
H      90.99218599      64.70509852      81.36989489
C      93.07277466      67.56047498      79.30442403
H      94.61479134      68.34282167      80.42692146
C      93.85890080      65.47232740      77.49973540
H      92.34523004      64.08526829      77.35800593
C      94.14235976      66.43041864      74.71049935
H      95.68626615      67.71543254      74.26452395
H      92.44538553      67.39984824      74.05476433
H      94.22739745      64.95076294      73.27808681
C      96.21349979      64.09093747      78.59010747
H      95.41225583      63.32937776      80.32865569
H      97.82921580      65.33815683      78.87167669
C      97.13757596      61.71366177      77.20115864
H      97.90291512      62.14640909      75.33788850
H      95.53319833      60.42108897      77.28997578
H      98.58699605      60.77635751      78.32554580
C      91.78776078      69.92074314      78.15736015
O      92.99340616      71.63094546      77.20871755
N      89.28009396      70.08514933      78.19515467
H      88.40704039      68.88328340      79.39135143
C      87.80799716      72.14117156      76.99139902
H      88.85490554      72.88383400      75.37946247
C      85.35135295      71.05457893      76.13913246
H      84.53877063      72.65517712      75.12812888
H      84.15893565      70.71442819      77.78508407
C      85.33245569      68.82281215      74.22861915
O      86.95762032      68.91540874      72.51274765
O      83.61847392      67.19575780      74.40625342
C      87.15037240      74.28601093      78.72994722
O      86.62880793      76.41951193      77.87579093
N      87.33178613      74.08758966      81.28674692
H      88.21995750      72.53045518      81.94248196
C      86.31133392      75.69952621      83.22371639
H      85.42694201      77.30957303      82.29208132
C      83.94539657      74.48065274      84.35566246
H      83.31611771      75.45953097      86.05452641
H      84.47074048      72.62305177      85.07564819
C      81.59457704      74.42585067      82.56231218
H      80.48908715      72.90273126      83.39946095
H      82.21629699      73.90806566      80.66691669
C      80.17350286      76.89950242      82.48861286
O      81.33001536      78.40750401      81.16580444
O      78.00598677      77.09414423      83.41268902
C      88.24641365      76.56502086      85.32698179
O      87.76264373      78.45474717      86.50995045
N      90.54621059      75.48976659      85.36855576
H      90.81644145      74.00066225      84.20637408
C      92.60412254      75.85259404      87.20914920
H      93.21828358      77.81790940      87.12600123
H      93.95338713      74.37482806      86.72159981
C      91.77831213      75.54456865      89.93413453
O      90.35345850      73.78901291      90.49349352
N      92.73829310      77.04879080      91.63299850
H      93.96094604      78.33947387      90.93568949
C      92.18460330      77.23776343      94.28617424
H      90.35534823      76.35337151      94.62632497
C      94.14235976      75.64661387      95.75638130
H      95.91681277      76.69352225      95.80173473
H      94.70738793      73.96853691      94.70380375
C      93.61701584      75.11749050      98.55884543
H      93.01041370      76.80501610      99.56984901
C      91.78587104      72.94808470      99.13710167
H      92.57010747      71.31158171      98.16389263
H      89.85835020      73.34681695      98.52672008
H      92.06555053      72.63061068     101.15343965
C      96.06232170      74.34459244      99.90433057
H      97.57221302      75.74110019      99.98747853
H      96.89002182      72.60226478      99.17678593
H      95.61634628      74.10459720     101.89988154
C      92.08066834      80.01377138      95.20647095
O      93.98929193      81.26854965      95.18946342
N      89.98685159      80.98509071      96.10787039
H      88.35601779      80.02510974      95.85842652
C      89.74118717      83.60803083      97.20202194
H      91.69138473      84.21841243      97.47603226
C      88.44861438      85.40138110      95.18568396
H      87.63414234      87.13992931      95.93779503
H      86.84990591      84.29778093      94.50538249
C      90.44983455      86.14593327      93.28650902
H      91.34934427      84.42250287      92.60242809
H      91.67248747      87.46685196      94.28806396
C      89.25363778      87.47630059      90.98482237
H      90.79565446      88.34746442      89.93224481
H      87.82878415      88.82745490      91.61032177
N      88.24074448      85.65838388      89.23304608
H      87.63414234      84.01243226      89.98704688
C      87.85335059      85.84168733      86.75939433
N      88.15003762      87.87125339      85.36288659
H      87.65870878      87.85235613      83.51851371
H      88.44861438      89.51531528      86.28696275
N      87.12013677      83.79322401      85.45170373
H      86.30188528      84.02566034      83.74150141
H      87.00297374      82.10569841      86.33231618
C      88.01586704      83.53811095      99.63976888
O      85.73496739      83.82534935      99.50559832
N      89.29521177      83.47952944     101.84507949
H      91.18304836      83.58535411     101.58429725
C      88.09901501      83.47197053     104.32440041
H      86.70439699      81.97152784     104.10708189
C      89.99441050      82.34947310     106.32940003
H      89.10245968      82.64049096     108.16432428
H      91.70650253      83.49464725     106.27837741
C      90.79754418      79.53567062     106.07806643
H      91.94271833      79.49409664     104.36786412
C      92.38113484      78.67773488     108.25503113
H      93.84189327      80.04211728     108.75202916
H      93.32032882      76.92406886     107.71456941
H      91.22840179      78.54734376     109.95389510
C      88.54499042      77.80279159     105.76626158
H      87.52075876      78.47553416     104.11086134
H      87.38280873      77.46453058     107.43488992
H      89.29143232      75.92818309     105.35241153
C      87.00864293      86.00231407     105.34296289
O      85.89937357      85.97963735     107.38008785
N      87.30910941      88.06211575     104.02960311
H      88.41270958      88.01676232     102.47246863
C      86.18850170      90.51875995     104.53227030
H      84.99986386      90.26931608     106.19333973
C      88.22751640      92.55588492     105.06706285
H      89.14781311      92.60312808     103.22457969
H      89.39914672      91.69983890     106.52782129
C      87.26186626      95.27709081     105.80216638
H      86.38314352      95.46228399     107.65787762
H      85.88425577      96.15770327     104.54549839
C      89.61646523      97.11012533     105.70012117
H      90.51975441      97.06666163     103.85007910
H      91.07722367      96.45250058     106.99836315
C      88.99852473      99.80109560     106.33317948
H      88.99096583      99.91636891     108.39109143
H      87.12202651     100.14313607     105.55461224
N      90.84667706     101.61145341     105.38642659
H      91.05454697     103.02874815     106.64687405
H      90.13991943     102.23884255     103.72724690
H      92.56065883     100.86501152     105.00281216
C      84.57656515      91.35212926     102.14176652
O      85.27198445      90.86646960     100.00826550
N      82.53566075      92.75808564     102.55372686
H      82.20495863      93.30610627     104.35274631
C      80.72719266      93.46106382     100.42778476
H      79.77099115      91.75464096      99.77393944
C      78.51054369      94.98796268     101.43122942
H      79.33257464      96.82477666     101.86586647
C      76.45263174      95.49440934      99.46780379
H      77.36914900      96.46761839      97.90122067
H      74.93329178      96.77942323      99.99692716
H      75.56823983      93.73318441      98.86687081
C      77.06679279      93.68594126     103.55150234
H      78.46896972      93.08122883     104.93100255
H      76.17295225      91.96440058     102.85419333
C      75.00132193      95.21284012     104.97446626
H      73.33458333      95.66070525     103.84818938
H      75.93484674      96.76430542     105.95712395
H      74.49487529      93.85979608     106.44278361
C      81.99519901      94.73851881      98.10153166
O      83.43328074      96.52053072      98.30562210
N      81.53410580      93.61980083      95.87165462
H      80.35491658      92.13258623      96.05684779
C      81.94984558      94.71962155      93.42445904
H      82.49597648      96.70572390      93.47926109
C      83.99452945      93.23996585      91.95425196
H      85.72740849      93.37224669      93.05974185
H      84.18917126      94.19238791      90.14011471
C      83.23108003      90.52064968      91.20969980
C      82.68494913      89.93105507      88.74549669
H      82.72841282      91.51464572      87.46048279
C      81.93850722      87.53110265      87.95370135
H      81.52465717      87.17961356      85.98460654
C      81.74953460      85.58468455      89.75272080
O      81.17127834      83.17528350      89.18013373
H      80.68372895      83.00520813      87.44158552
C      82.27676823      86.12136682      92.27739517
H      81.97441202      84.59068851      93.59453440
C      82.88148065      88.61958501      93.08052885
H      83.18950605      88.83690354      95.08552847
C      79.50453974      94.96906542      91.89189100
O      77.52788602      94.09979132      92.73092948
N      79.70863017      96.18226971      89.63366806
H      81.29977974      97.16114794      89.24060497
C      77.60347506      96.40714715      87.85165614
H      75.83280150      95.96495119      88.80596793
C      77.49387093      99.14347085      86.89734436
H      76.33168926      99.30598731      85.20414958
H      79.38170752      99.63668941      86.23971959
C      76.17673170     100.80831973      88.84754191
H      77.56568054     101.02941771      90.35176405
H      74.37960198     100.12801826      89.59209408
C      75.55690147     103.52952562      88.03118013
H      74.13204783     103.58810714      86.54207580
H      77.33135448     104.39313054      87.44536498
C      74.32102045     104.98839433      90.11176880
H      75.88760358     105.08099092      91.44591558
H      72.63349487     104.22494490      91.01127854
N      73.68229297     107.65857761      89.52595365
H      72.61837705     108.02896397      87.98582670
H      75.06179317     108.97760658      89.50705638
H      72.59759006     108.32565100      90.94891757
C      77.84536003      94.71773182      85.56886676
O      79.85224938      94.28309477      84.43125152
N      75.68351313      93.77853784      84.69392347
H      74.13015810      93.92971595      85.79185445
C      75.49643023      92.13636568      82.46593615
H      77.00632155      90.73985793      82.55097384
C      73.00388122      90.61891545      82.81931496
H      71.38438576      91.89259098      82.85710950
H      73.00577094      89.93672425      84.76384334
C      72.65617158      88.57234185      80.79541808
O      70.63038497      88.31533907      79.78441451
O      74.46652939      87.35346838      80.13590361
C      75.48320215      93.64436728      80.02063029
O      75.17706648      95.94416420      80.07732208
N      75.50209940      92.30833077      77.76618680
H      75.84791932      90.45450926      78.06476356
C      75.76666109      93.52153507      75.22828437
H      77.26899350      94.92749144      75.31143232
C      76.85703317      91.86991427      73.31588134
H      77.21041200      92.95839662      71.60189958
C      79.40249452      90.89670522      74.08499994
H      79.77099115      89.36602690      72.75841207
H      79.44406850      89.92349617      75.89913721
H      80.69128786      92.50297258      73.98673418
O      75.24887607      89.80066396      72.92848745
H      76.06901730      88.41360484      73.75996703
C      73.41773129      94.87835856      74.39302534
O      73.46686417      96.66037047      72.88502374
N      71.42029057      94.47584685      75.71961321
H      71.75099267      92.81477742      76.59833595
C      68.92207239      95.64180799      75.47016934
H      68.95608746      96.85879173      73.80909991
C      66.91707277      93.53854260      75.24907136
H      65.04624372      94.38513999      75.07521654
H      66.86416042      92.60123835      77.08021616
C      67.09092759      91.68850054      73.20816694
H      65.50355749      90.37892021      73.29131489
H      68.86160115      90.70017368      73.57099440
C      66.92841112      93.11146446      70.59278572
O      64.83459437      94.01286391      70.02208838
O      68.72932030      92.96784526      69.07344577
C      68.31547024      97.47862197      77.72461283
O      66.17818978      98.49718445      77.66603131
N      70.07480544      97.98695834      79.54441927
H      71.83225090      97.27075207      79.33465965
C      69.77811841     100.23195320      81.23761405
H      69.02222787     101.88168427      80.26251526
H      71.64327828     100.74406903      81.95004087
C      68.26822707      99.44204760      83.51662398
O      67.42162970     101.04075607      84.89990364
N      68.12271816      96.91548352      83.97771719
H      68.99577171      95.70227923      82.79096907
C      67.22698788      95.64747717      86.36444152
H      65.97409934      96.98540340      87.30552524
C      65.96465070      93.10012610      85.49516743
H      64.76845395      92.54643629      87.07875807
H      67.44241668      91.66582383      85.53674141
C      64.33570663      93.10201582      83.10466364
C      64.57192242      91.07622922      81.43792504
H      65.95898153      89.64948585      81.89712852
C      62.96943450      90.75686547      79.34032883
H      63.00722903      89.14114947      78.09121974
C      61.56536785      92.81666715      78.57498967
O      60.32003821      92.50108286      76.38857633
H      59.88351143      94.16593174      75.81409952
C      61.56725758      95.10134626      79.98094604
H      60.64885059      96.86068146      79.50284529
C      63.00722903      95.16748668      82.21460254
H      62.88628654      96.84178420      83.37678422
C      69.39261423      95.24307574      88.15968152
O      71.45619537      95.05032365      87.23938481
N      68.94852855      94.96150652      90.65412026
H      67.15517829      95.14292024      91.28528884
C      70.87793912      94.41726534      92.60242809
H      72.64294349      95.34701068      92.09220199
C      70.10882051      95.66637443      95.12143327
H      71.39761386      95.21661957      96.66533967
H      68.08114418      95.39614357      95.35953878
C      70.50188359      98.46316937      95.16678670
C      68.27578598     100.05809838      95.37087714
H      66.35960350      99.37401746      95.20458122
C      68.61593673     102.80576044      95.55796005
H      66.97376456     103.99817775      95.33119289
C      71.05368366     103.84133046      95.63354910
O      71.59036593     106.30742330      95.57307786
H      70.15795339     107.41669265      95.45591483
C      73.12293397     102.20293775      95.65433609
H      74.93896097     103.07410158      95.97369983
C      72.88671819      99.50629830      95.31985453
H      74.57046433      98.37057279      95.11765382
C      71.11226518      91.63747793      93.04651377
O      69.28301011      90.22585238      93.45280493
N      73.48009226      90.91371275      93.08052885
H      74.80479039      92.27431570      92.90289458
C      74.19629853      88.18872741      93.45091521
H      72.52955991      87.08890670      93.95925159
C      75.08446989      87.16071630      90.94135866
H      75.99342824      85.34279958      91.27584022
C      72.81112914      86.98497175      89.16501593
H      71.79823584      88.73674804      88.78140149
H      71.34848096      85.66405306      89.76405916
H      73.45930527      86.45773811      87.28095880
O      76.71908315      88.74619667      89.58264544
H      78.29322516      88.63092337      90.47459627
C      76.26365911      87.74275200      95.48237098
O      77.70174084      89.48130021      96.19479781
N      76.42617558      85.38248384      96.38943962
H      75.18462539      84.07101377      95.77716829
C      78.23842311      84.61336523      98.25270976
H      79.98075077      85.65649415      97.92200766
C      77.30867776      85.37681466     100.90210605
H      76.22586459      87.13048068     100.92856223
C      75.75910219      83.08079719     102.04916993
H      77.06112362      81.64649492     102.74836867
H      74.64038421      82.14349294     100.59408067
H      74.47786774      83.66472262     103.55528180
C      79.88437473      86.09302093     102.40443848
H      80.90671667      87.56511773     101.38965545
H      81.26387493      84.58501933     102.65388234
C      79.09446913      87.27598960     105.04438613
H      78.69762661      85.78310581     106.41065826
H      77.26143461      88.20384522     104.89320803
H      80.64215498      88.40982539     105.79460749
C      79.02454926      81.88271070      97.99570698
O      77.60536480      80.38226801      97.05273356
N      81.29977974      81.34413870      98.98781331
H      82.53566075      82.65560877      99.62465106
C      82.36936482      78.85536915      99.11631468
H      81.01443106      77.44941277      99.78338808
H      84.08145687      78.89316368     100.25959911
C      83.00809233      77.78956351      96.59353007
O      84.62947750      79.03300342      95.34253125
N      82.15582575      75.46520015      95.82630117
H      80.78955362      74.47687328      96.71825200
C      82.27298878      74.46742465      93.29784738
H      83.81500546      75.45575151      92.36054312
C      82.96462862      71.71787287      93.08241857
H      81.37536879      70.67663367      93.87799336
C      83.31800743      71.07347619      90.28940309
H      82.13314904      72.19408390      89.03084535
H      82.90604709      69.05713822      90.21759349
H      85.27387416      71.49299544      89.79807425
C      85.52898723      70.96009262      94.40333727
H      86.87069290      72.51155792      94.23704134
H      86.34912844      69.44831156      93.26761175
C      85.33812486      70.23443771      97.23603701
H      87.12769568      69.37083279      97.77649873
H      83.95484520      68.72076693      97.43256855
H      84.75797888      71.85771261      98.36798307
C      79.74453497      75.03056309      92.03739993
O      78.00031760      73.55279712      92.00149512
N      79.49131166      77.49665593      91.39111353
H      81.04088723      78.60970473      91.46103340
C      77.40316408      78.37726839      89.76972835
H      77.08002088      77.03367298      88.24093975
H      77.85858812      80.16872894      88.86076998
C      74.80668013      78.58135884      90.90923331
O      73.06813192      78.97631163      89.45981324
N      74.44007322      78.05979437      93.42067959
H      75.94618508      77.87082174      94.57530235
C      71.96642148      78.24120810      94.58853045
H      70.67573841      76.86548734      93.76083031
C      72.21208590      77.44185387      97.38721512
H      73.29111962      78.73253694      98.57396324
H      73.13616207      75.64472414      97.78594736
C      69.57213824      77.19052027      98.58152215
N      67.77689824      75.36504465      98.09964193
H      68.10760035      73.79090263      97.07352055
C      65.58859517      75.99243379      99.19001402
H      63.85760587      74.93796650      98.94434960
N      65.88528220      78.32813551     100.26526828
H      64.45853884      79.35614662     101.00793072
C      68.38727984      79.08591576      99.92133810
H      69.40962178      80.71485984     100.60352930
C      70.73243020      80.87170713      94.25593861
O      71.73398514      82.78033070      95.02505723
N      68.37405176      80.83202287      93.24115559
H      67.61627151      79.08213631      93.14477955
C      66.76022549      83.02977458      92.61943562
H      68.05279828      84.56612207      92.16023214
C      65.24277525      82.52332792      90.24971883
H      63.89729012      81.07957702      90.83931344
H      66.60526793      81.90538742      88.83620354
C      63.62894899      84.77777142      89.35209883
H      63.10360507      86.05522640      90.87899770
C      64.98577248      86.29900110      87.39434238
H      66.85282208      86.55033470      88.23149112
H      63.93508465      88.01109314      86.94458751
H      65.44497596      85.35791739      85.62177909
C      61.16096642      83.95763020      88.34865415
H      59.90618815      85.49586741      87.80441298
H      60.25389779      82.86536839      89.84153794
H      61.35182878      82.97119306      86.54774499
C      65.23710608      84.16172064      94.94946817
O      63.40029210      82.93528826      95.73370458
N      65.96465070      86.35380316      95.91133887
H      67.31958447      87.19851082      94.86632022
C      64.78735122      87.59724307      98.24704059
H      64.30169155      86.08735175      99.56040038
C      66.66006999      89.26020223      99.90999974
H      65.63016914      89.80444341     101.60886369
H      66.98888236      91.07622922      98.99159275
C      68.94285938      87.85802531     100.98336428
H      69.76678004      86.75820459      99.44890653
C      70.75321719      89.65704476     102.29672408
H      72.36704346      88.62525419     103.05450433
H      69.88961226      90.66615861     103.86897637
H      71.35792961      91.20284088     101.07785061
C      68.15106404      85.72452430     102.82773717
H      69.89906089      84.79099950     103.38331670
H      66.93597003      84.35825217     101.87720484
H      67.04935360      86.40293604     104.43211480
C      62.45542894      89.16571591      97.46280416
O      60.43153206      88.73107886      98.43979266
N      62.68786528      91.10268539      95.79984502
H      64.37350115      91.42582858      94.96836544
C      60.56381291      92.64281233      94.80962842
H      58.91408183      91.46362311      94.45247015
C      59.90429842      94.63647359      96.73336980