 %block lattice_cart
   140.777   0.000   0.000
   0.000 144.511   0.000
   0.000   0.000   162.462
 %endblock lattice_cart

 %block positions_abs
N      93.51591547      42.85324831      82.40735463
H      92.95466676      43.24064219      84.18936654
H      95.30548629      42.33168383      81.98594566
H      92.48034546      41.28666518      82.06531417
C      92.41042558      44.97352122      80.82943316
H      93.02647636      46.71395915      81.74028124
C      93.72000592      44.77698968      78.34444306
H      93.68977030      42.98174969      77.33343948
H      95.75146170      44.93572669      78.63168146
C      92.89230579      46.98985920      76.60400512
H      91.00068975      46.61002421      75.88401940
H      94.07149501      46.84435027      74.92025898
S      93.36473738      50.15893022      78.02885876
C      96.71522212      50.82033443      77.81531969
H      97.68465172      49.74130071      79.27607813
H      97.05159341      52.84801077      77.94571081
H      97.50890718      50.38191793      75.96338790
C      89.55504912      44.98108012      80.50062078
O      88.33806537      43.33134905      79.38379253
N      88.32105784      46.68183381      81.94059223
H      89.32450252      48.20495321      82.50751013
C      85.58662386      46.88970370      82.11066760
H      84.54538467      45.88247958      80.64612971
C      84.86663814      45.40059937      84.45203850
H      85.76614786      43.54677785      84.40290562
H      82.83329262      45.23808290      84.74494608
C      86.04960682      46.83301192      86.74994570
O      85.05939023      48.67927452      87.49827732
N      88.13964411      45.90326657      87.58709445
H      89.30749497      46.82545302      88.78329121
H      89.00324905      44.48975128      86.63656212
C      84.60018673      49.61468904      82.19192583
O      86.07417326      51.48362837      82.18625665
N      82.08874047      49.66382193      82.14846213
H      81.28560678      47.94795044      81.92925387
C      80.39743542      51.99007502      82.53585602
H      80.18767580      52.81588542      80.66124752
C      77.70457541      51.12835982      83.17647324
H      76.89010337      49.73941098      81.89145935
C      77.33229934      50.44049945      85.99783463
H      75.39721959      49.83956647      86.35688263
H      77.58174320      52.12046614      87.16568549
H      78.55306253      48.98729991      86.80096831
C      75.83563609      53.39603140      82.87033758
H      76.30050877      54.88135628      84.21960217
H      73.91000497      52.67604567      83.00828760
C      75.76571621      54.68860419      80.13401388
H      73.91567416      55.56543720      79.91480562
H      75.98870392      53.17115396      78.75640339
H      77.28127672      56.04542770      79.81465013
C      81.46324105      54.10278904      84.37455972
O      81.24403281      56.44982913      83.63945619
N      82.72557822      53.28453754      86.42302305
H      82.70857070      51.46473110      86.99561012
C      83.79138387      55.02497548      88.37511033
H      82.54038506      56.64636065      88.57731104
C      83.83484757      53.65492390      90.99994018
H      84.75514429      54.77931106      92.46069862
H      84.83451279      51.86724281      90.77695247
C      81.14009785      53.03320394      91.95425196
C      79.49603597      54.96072478      92.71770139
H      80.05917440      56.92037097      92.64589179
C      77.26237946      54.36735072      93.87043445
H      76.17011765      55.94905164      94.55262564
C      76.33074439      51.80677157      93.80240430
H      74.52227631      51.47229001      94.68679621
C      77.95779875      49.89625827      92.88966649
H      77.38899113      47.94228126      93.02572678
C      80.38420733      50.49341178      91.94291361
H      81.56906573      49.02887389      91.15678746
C      86.48046442      55.93015438      87.60032254
O      87.23446522      58.01830196      88.29007264
N      87.93744340      54.41081443      86.19436616
H      87.27981865      52.71195047      85.62744827
C      90.39597733      55.47095089      85.27973863
H      91.05738154      56.53864625      86.91435189
C      92.24979885      53.43760537      84.34432410
H      94.07716419      54.23129043      83.82275964
H      91.38619393      52.44171961      82.76262318
C      92.95844621      51.68015990      86.46648675
H      91.44288572      51.27197903      87.79874380
H      94.06582583      52.56833127      87.96126026
C      94.25101901      49.29721502      85.67658115
O      92.83183456      47.41882707      85.55563867
O      96.46577826      49.41248833      84.87344747
C      89.82150053      57.39847174      83.13678899
O      90.86462945      59.48850903      83.15757598
N      88.09618041      56.75218534      81.38501270
H      87.39509195      55.00418850      81.69681754
C      87.01903642      58.27341501      79.31765211
H      88.49302293      58.50585135      77.89846765
C      84.92521965      56.73328806      78.04208685
H      83.92933389      55.91692630      79.65024394
H      85.46757111      55.18182276      76.80242639
C      83.00903718      58.23184103      76.36967906
H      83.90854690      59.08221787      74.72372744
H      82.29094118      59.88535155      77.36367510
S      80.34074363      56.34967362      75.22828437
C      81.65788287      55.20072002      72.20850172
H      80.21602169      54.20861371      71.12190909
H      83.41910778      54.19916508      72.57510862
H      81.80717124      56.98084221      71.18049061
C      86.29716097      60.90013458      80.18503649
O      87.42343784      62.64057252      79.41780760
N      84.74947511      61.10800448      82.24672789
H      83.90476745      59.53008301      82.91002183
C      83.60997015      63.40024250      82.97805198
H      83.36430572      64.50006321      81.25462158
C      81.14009785      63.01851779      84.49361248
H      80.75081423      64.70793312      85.60666128
H      81.66922123      61.60878195      85.89767913
C      78.83841120      62.27963479      82.86088895
H      79.40343938      60.85856061      81.48327846
C      76.93545681      61.06265105      84.68447484
H      77.66111172      59.54520082      85.87311269
H      75.38777095      60.13479544      83.69236852
H      76.31751630      62.63868280      85.85988460
C      77.47969799      64.41124608      81.61933876
H      75.91311488      63.60055349      80.55731257
H      78.96313315      65.33154279      80.52329750
H      76.93734654      65.74728258      83.09143556
C      85.56205742      65.06698112      84.42936179
O      85.16899435      67.38567529      84.40479534
N      87.53682142      64.03708027      85.51973387
H      87.76358858      62.20215601      85.05297147
C      89.76102930      65.39201403      86.51939909
H      89.11663262      67.17969512      87.30930469
C      90.87785754      63.92558641      88.76061450
H      92.45010983      64.89501601      89.67146258
H      91.73579328      62.24184027      87.93858355
C      88.97112370      63.33788154      91.00938881
H      87.43288648      62.11522860      90.39144830
H      88.26058661      65.14445989      91.68969028
C      90.17487936      61.96027105      93.24304531
H      91.43721654      60.50140233      92.52494931
H      88.72734899      61.04186406      94.38632973
N      91.75469055      63.67236309      94.76805444
H      93.02458664      64.81375779      93.91578788
C      91.97956799      63.81220284      97.14344042
N      90.44888968      62.74450747      98.69679545
H      91.34461995      62.45348961     100.35597515
H      88.82561476      61.84877719      98.23948168
N      94.05259774      64.81375779      98.08830358
H      94.32471834      64.62478515      99.96669153
H      95.31115547      65.58476612      96.87887874
C      91.63374807      66.32553884      84.46715631
O      92.82805509      68.23227268      85.03218448
N      91.69799876      65.10666536      82.18625665
H      90.78904040      63.43425757      82.06342444
C      93.00379965      66.10633058      79.94504125
H      94.81982663      66.90946426      80.49306188
C      93.60473262      63.90290970      78.04964575
H      91.88319194      62.83899378      77.66792104
C      94.22834230      64.84021395      75.36056521
H      94.65919990      63.33410208      74.02263898
H      95.76468979      66.19514771      75.55898647
H      92.54270643      65.83798945      74.71427881
C      95.67587265      62.03963956      79.05309043
H      95.37162672      61.66925319      81.05620032
H      97.44843593      63.08654793      79.06820824
C      95.91964735      59.44126587      77.79642243
H      97.21410988      58.21672322      78.82632327
H      96.62451526      59.73984263      75.88590912
H      94.03559021      58.64002191      77.56587582
C      91.44477543      68.35888435      78.80931573
O      92.52947835      70.43569357      78.27074373
N      88.97301343      68.09432266      78.77908011
H      88.25113796      66.33309773      78.92458904
C      87.39698167      70.02373323      77.70382584
H      88.22657152      70.71348334      75.94827009
C      84.97813199      68.84454400      76.82888256
H      83.77059689      70.49616481      76.59833594
H      84.08429145      67.98849799      78.47483417
C      85.16710462      67.07953964      74.55743153
O      86.53148703      67.77117946      72.71683810
O      83.53816054      65.44303665      74.45538631
C      86.80927680      72.46336989      79.27607813
O      86.42377262      74.42490581      78.14224234
N      86.87919666      72.40289866      81.84421619
H      87.06250012      70.58687167      82.41302381
C      86.45022880      74.50805376      83.62433838
H      85.94945132      76.20502799      82.56609164
C      84.13342434      73.71436872      85.27595917
H      84.01059213      75.32441553      86.55530389
H      84.67388605      72.26116918      86.62900321
C      81.49158694      73.34398236      84.06842406
H      80.36908951      72.52762060      85.59154347
H      81.54449929      71.94558488      82.55664301
C      80.29350046      75.83842110      83.23694448
O      77.88976859      76.20502799      83.69425825
O      81.45946159      77.75082413      82.32042722
C      88.64798049      74.92757302      85.42524755
O      88.78593052      77.03461785      86.30963947
N      90.25802731      73.06052342      86.16790999
H      89.92732521      71.58842662      84.99816941
C      91.84161796      73.07942067      88.40912540
H      93.21166954      74.61009899      88.25983702
H      92.69955370      71.21237109      88.54329597
C      90.41298487      73.62177213      90.94702784
O      88.13397493      73.53484471      91.05096279
N      91.96256044      74.30018387      92.84998224
H      93.84472786      74.30774278      92.53817739
C      90.88163699      75.08631002      95.31040590
H      88.83128394      74.94080109      95.17812505
C      91.94744264      73.02083916      97.17178631
H      93.94866280      72.70903431      96.79573078
H      90.92888016      71.25961423      96.85620202
C      91.53737202      73.48949128     100.04039086
H      92.49546326      75.20725250     100.65644164
C      88.65931885      73.53484471     100.59597039
H      87.55760842      74.91812437      99.54150311
H      88.28893249      73.87499546     102.59341111
H      87.75036049      71.72259718     100.23692239
C      92.61073658      71.16512793     101.40288353
H      91.32194322      69.55886055     101.39910408
H      93.00568938      71.69992046     103.35119136
H      94.37196149      70.58498195     100.50148408
C      91.83405905      77.75838303      95.89811078
O      93.79748469      78.54639890      95.15733806
N      90.00480398      79.09819899      97.01871848
H      88.39286744      78.11743103      97.31351579
C      90.18243827      81.67200622      97.90688985
H      92.19499679      82.09908437      98.00326589
C      89.12041208      83.43701060      95.90377996
H      88.78026134      85.27949376      96.75982598
H      87.28737754      82.78127556      95.22914766
C      90.74179725      84.07195863      93.63043920
H      91.88130222      82.39955086      93.24115558
H      92.22523240      85.32295745      94.32396876
C      89.64764571      85.17744853      91.27017104
H      91.25391308      86.05806100      90.32719761
H      88.29460167      86.55883847      91.97692868
N      88.30405031      83.23292015      89.68469066
H      87.98279684      81.51326922      90.45002982
C      87.31383372      83.68267502      87.52284376
N      87.16643507      85.91822124      86.64412102
H      86.58628909      86.29805623      84.86588856
H      87.78248584      87.41488448      87.65701433
N      86.59195827      81.69846240      86.24160932
H      85.85874445      81.82507405      84.48416385
H      86.83951242      79.90511212      86.84065256
C      88.90498327      82.03861312     100.46179983
O      86.51258977      82.24081384     100.57707313
N      90.29204239      82.06128985     102.63120563
H      92.18932761      82.25971111     102.61230837
C      89.08072782      82.06506930     105.19745397
H      87.51225498      80.72903279     105.23524849
C      91.05549181      81.35642193     107.17788714
H      90.27503486      81.85719940     109.01659084
H      92.59750849      82.63009747     106.69033775
C      91.92476593      78.56907562     107.18733577
H      93.00190991      78.19113035     105.47524373
C      93.59717371      78.31963175     109.47201489
H      95.21477943      79.59519700     109.40020529
H      94.57416222      76.50738420     109.46256625
H      92.47278655      78.47647903     111.18977610
C      89.82150053      76.61887806     107.55583240
H      88.61018596      76.47525887     105.89476298
H      88.73679764      77.07808156     109.24524773
H      90.52258899      74.76316682     108.10574276
C      87.79004475      84.62186899     105.89854243
O      86.42188289      84.67289160     107.73346668
N      88.35696264      86.65899397     104.54549839
H      89.82716971      86.40766036     103.35497081
C      87.37808442      89.27437517     104.90076693
H      86.24424862      89.31783888     106.61663843
C      89.52103406      91.26425699     105.31839645
H      90.62274449      91.27937479     103.57795852
H      90.95911578      90.75781033     106.70356584
C      88.40420581      93.95711698     105.65476773
H      86.96423434      94.01191904     107.12686453
H      87.63697692      94.33506224     103.78015923
C      90.48668419      95.94510906     106.23113426
H      91.80571317      96.03581593     104.65132306
H      91.35028913      95.39708844     108.01692562
C      89.48890871      98.56615946     106.42955552
H      87.92988449      98.72111702     107.76748175
H      88.62719350      98.85717732     104.58140319
N      91.57705628     100.39163508     107.14576179
H      90.83061439     101.97144628     107.91299068
H      92.35373379     100.78280842     105.44689784
H      92.99813047      99.64519319     108.18133181
C      85.48835809      89.87152869     102.82395772
O      85.96267941      89.10807926     100.60919848
N      83.43800504      91.34929468     103.29638929
H      83.32084201      92.09573657     105.05005531
C      81.47079996      92.21100988     101.61075342
H      80.48247310      90.48568975     101.07407115
C      79.53572021      93.91932245     102.89009814
H      80.51270872      95.18921854     104.18645039
C      78.18645562      95.57094326     101.00415128
H      77.07907601      94.41632047      99.70590930
H      79.46202089      96.78981673      99.93834564
H      77.13954725      97.04115032     101.99814732
C      77.79150282      92.36974688     104.53982921
H      78.72313789      91.21890355     105.96846230
H      76.81262460      91.13764532     103.21135161
C      75.81484910      93.83050532     106.07806643
H      76.77105061      95.43677268     106.94356108
H      74.89077294      92.66076473     107.49914062
H      74.53361467      94.65631572     104.69289704
C      82.52715697      93.28059497      99.17111675
O      84.26003599      94.88119316      99.23347772
N      81.41221844      92.69666953      96.97336505
H      80.04027713      91.37008166      96.87887874
C      82.41944256      93.57161282      94.45435988
H      83.31139339      95.38008089      94.87576884
C      84.59829700      91.95022764      93.41312068
H      86.13842395      91.88030776      94.77939280
H      85.30505464      92.76658940      91.65945466
C      83.73280236      89.23280120      92.67423769
C      83.30005503      88.85485593      90.08909209
H      83.62886740      90.36096781      88.75116586
C      82.18889595      86.57962545      89.18958237
H      81.64276505      86.23191582      87.25450262
C      82.14543226      84.58596420      90.96781483
O      81.46702050      82.26349056      90.24971883
H      81.09663414      82.21246794      88.47526582
C      82.72368850      84.92800465      93.53595289
H      82.44022956      83.37464963      94.82663596
C      83.51170437      87.25803720      94.47703659
H      83.72335372      87.69834343      96.45935949
C      80.32184636      93.97412453      92.60809727
O      78.42645086      92.62674965      92.66289933
N      80.62231284      95.68432684      90.88655660
H      82.24180829      96.69344068      90.86765933
C      79.16155441      95.86574056      88.61888502
H      77.20379795      95.45000078      89.10832414
C      79.29194551      98.54915192      87.71559584
H      78.30361865      98.72111702      85.91657639
H      81.24403281      99.16142325      87.48126978
C      78.11086658     100.45399604      89.47682077
H      79.29572497     100.65241732      91.15111828
H      76.14366148     100.10250695      89.97381879
C      78.43589950     103.18654029      88.59242885
H      80.43334022     103.63251571      88.36188224
H      77.68378843     104.59249668      89.89822974
C      77.08663492     103.63062597      85.97704764
H      75.04950994     103.68920750      86.26050658
H      77.68189870     102.22277987      84.59565770
N      77.65166308     106.20821267      85.04919202
H      77.04695066     106.57481957      83.27662873
H      79.51682295     106.60505520      85.11722216
H      76.78049925     107.21165734      86.42113332
C      79.73225174      93.91932245      86.56853197
O      81.81661988      93.85885121      85.57831538
N      77.91244531      92.28848865      85.91846612
H      76.21358136      92.44722566      86.78018132
C      78.29605976      90.81828157      83.73583223
H      80.10830728      89.86208006      83.94181240
C      76.04350598      88.97012925      83.91535623
H      74.24826599      89.97357392      83.79063429
H      76.02649845      88.19156201      85.82397980
C      76.10586695      86.64009670      82.09743952
O      74.99092844      86.98591662      80.03385838
O      77.31718152      84.79383409      82.77396154
C      78.30928783      92.17888453      81.26218049
O      77.84063572      94.42387938      80.99005990
N      78.65132829      90.99969530      79.05309043
H      78.88754409      89.10618953      79.13812811
C      78.11275629      91.90487420      76.41503249
H      79.01793521      93.72090120      76.06543312
C      79.24281263      89.88097733      74.51207810
H      78.59652623      90.42710823      72.63557987
C      82.23424938      90.03593488      74.73884525
H      82.89754333      91.85574132      74.03964652
H      82.85974880      88.44667505      73.58989165
H      82.82195427      89.50492178      76.64179965
O      78.58518788      87.32417763      75.06576790
H      76.96002325      87.01804197      74.32310546
C      75.38777095      92.25636331      75.69693649
O      74.80951470      93.37508127      73.79020264
N      73.61520767      91.33228714      77.28997578
H      74.22747900      90.13609038      78.64490954
C      70.92990658      92.18833316      77.35611620
H      70.34976061      92.58328596      75.42103645
C      68.96270150      90.13609038      78.37089923
H      67.18068958      90.97890831      78.97183219
H      69.72426119      89.69389442      80.23227964
C      68.64711720      87.76070440      76.74195514
H      66.97659914      86.71001657      77.32399085
H      70.38944486      86.67411178      76.89313325
C      68.00649997      88.44100588      74.02452871
O      69.30663168      87.56606260      72.37101818
O      66.11866339      89.80538827      73.50107452
C      70.56329967      94.76403011      78.79608765
O      68.31452537      95.56716381      78.96427329
N      72.54184312      96.02636730      79.74850971
H      74.07063172      94.89064178      79.86945219
C      72.60609383      98.01435937      81.61933876
H      71.17368128      99.40519794      81.11100238
H      74.50715849      98.80048552      81.62878739
C      71.81240877      97.23579213      84.26306587
O      71.89366700      98.82505197      85.92791475
N      70.99037782      94.86040617      84.78840979
H      70.96959084      93.57161282      83.38056368
C      69.53717830      94.15364851      86.92380052
H      68.45058567      95.84684329      87.36977593
C      67.60587800      92.04660369      86.47215593
H      66.59298469      91.78960090      88.24849866
H      68.67546309      90.34018083      86.03562915
C      65.57064277      92.52659417      84.35377273
C      64.57853644      90.48757947      83.02529514
H      65.28340436      88.64320660      83.53930069
C      62.62455944      90.76725896      81.20359897
H      61.75717506      89.07784365      80.45526735
C      61.62300450      93.19744700      80.78974891
O      59.85988984      93.46578815      79.06442878
H      59.19470619      95.15331374      79.06442878
C      62.80597316      95.29693294      81.91224634
H      62.09732580      97.16587226      81.49272710
C      64.74861182      94.97567946      83.63189728
H      65.61977565      96.66509479      84.38022890
C      71.09242305      93.49224431      89.15934675
O      73.15222472      92.48313046      88.82297546
N      70.31574554      94.22545812      91.45158477
H      68.52050553      94.81127327      91.73315399
C      71.83886494      93.88152794      93.74004333
H      73.79284194      94.34073143      93.28461929
C      70.88077370      95.64086313      95.87354434
H      71.29840322      94.93977466      97.76516038
H      68.82286174      95.65787066      95.80551419
C      72.10909580      98.34506149      95.57307785
C      70.67479354     100.32360493      94.32774821
H      68.75294188      99.89841652      93.78161731
C      71.87665947     102.78969778      93.84964746
H      70.85620726     104.31848636      92.96525554
C      74.30684750     103.19220947      94.68868594
O      75.32918944     105.51657284      94.56207428
H      74.01582966     106.62395245      93.98192830
C      75.73926006     101.20988657      95.57874703
H      77.76315693     101.46310990      95.66945390
C      74.61865235      98.86095676      96.05117861
H      75.66934018      97.29248392      96.82407667
C      71.86343138      91.05638709      94.28995369
O      69.86410095      90.00758898      94.68301676
N      74.10464678      89.93955884      94.52616948
H      75.76760594      90.85229666      94.32585849
C      74.57329891      87.27504475      94.54884619
H      72.77616919      86.29427678      94.78317225
C      75.61642785      86.53805148      91.79929441
H      77.43056510      87.36764132      91.29095803
C      75.98303474      83.78472024      91.44591559
H      74.17267693      82.80206255      91.41001079
H      77.12064999      82.82473927      92.87076923
H      76.97514105      83.25370714      89.72248519
O      73.70402481      87.25614748      89.92468590
H      73.80040085      89.05894638      89.76405917
C      76.47814304      86.57017683      96.62565541
O      77.94457065      88.27470996      97.35697949
N      76.69168211      84.23825455      97.50059869
H      75.34052779      82.92111532      97.21147057
C      78.46613512      83.34630373      99.40544282
H      80.21980113      84.42911692      99.34686130
C      77.28883563      83.71857981     102.11342062
H      76.65010813      85.67633628     102.13042816
C      74.83597088      82.12176109     102.23058365
H      73.55473643      82.61686937     100.69612589
H      74.03472691      82.30506453     104.11842024
H      75.35753533      80.13754846     102.04539048
C      79.06895782      83.65810857     104.33951822
H      79.97224699      81.81184597     104.47935797
H      77.94835011      83.74692572     106.06483834
C      80.95112522      85.72924861     104.38865110
H      80.04594631      87.51881944     103.91999898
H      82.53093641      85.27004512     103.15088037
H      81.50670476      86.01081784     106.35207674
C      79.27304825      80.51171426      98.94623932
O      77.92567340      78.96591814      97.94468438
N      81.57095546      79.81629498      99.60386408
H      82.68211453      81.14855203     100.39943886
C      82.57251039      77.25004666      99.80795452
H      81.37064446      76.05573963     100.97769511
H      84.28460243      77.28595146     100.95501839
C      83.12808994      76.16345402      97.19257330
O      85.02726488      76.99304387      96.03606080
N      81.34229856      74.57419419      96.28739440
H      79.95334972      74.09231399      97.50437815
C      81.77126644      73.20414261      93.79484539
H      83.42477696      74.12443932      92.98226308
C      82.51014942      70.38089150      94.31074068
H      80.81317520      69.36988793      94.89466611
C      83.45879204      68.98816321      91.96181087
H      85.02348543      70.08987365      91.20025117
H      82.02637950      68.74627824      90.50294216
H      84.33751478      67.20615129      92.50416232
C      84.51703878      70.29207436      96.49715402
H      83.61374960      71.11788476      98.15255427
H      85.96267941      71.67157457      95.99070737
C      85.62441839      67.76740001      97.19446303
H      86.52770757      67.84676852      99.04450509
H      86.84518159      67.11166499      95.67134362
H      84.09751954      66.38601008      97.26816236
C      79.31651197      73.69358173      92.26416708
O      77.70079596      72.11943971      92.21125474
N      79.05195027      75.91401014      91.16623609
H      80.21980113      77.38043777      91.51583546
C      76.99592804      76.84942467      89.78295643
H      76.58774716      75.62299229      88.18046852
H      77.53827951      78.68434892      89.02328645
C      74.63754961      77.60720492      91.29095803
O      72.73270548      78.01727554      90.07397428
N      74.61487290      77.78861864      93.84019882
H      76.21169163      77.45980628      94.83608459
C      72.14122115      77.98703991      95.18568396
H      70.86943534      76.66801094      94.24648998
C      72.31696569      76.98170551      97.86342615
H      73.31663092      78.35553655      99.02749755
H      73.32418983      75.18835524      97.79161655
C      69.88677766      76.53950955      99.11442496
N      68.31830482      74.37577293      98.99348248
H      68.46192402      72.82430762      97.89177204
C      66.21692916      74.98993397     100.30306282
H      64.74105291      73.58397761     100.45424092
N      66.30196684      77.37854803     101.25170542
H      64.99805568      78.10798239     102.44034328
C      68.51483635      78.47269958     100.34085734
H      69.10632070      80.34919780     100.88509852
C      70.85809699      80.52305262      95.07230038
O      71.85776221      82.28994672      96.10031149
N      68.58475623      80.58541360      93.89878034
H      68.00461026      79.17756748      92.74604729
C      66.97281969      82.85497489      93.73437415
H      68.18413426      84.27982854      92.86698977
C      64.74294264      82.25782137      91.92401634
H      63.68280617      80.66478209      92.68935550
H      65.53473797      81.69657266      90.10609963
C      62.97226907      84.52360322      91.39867243
H      61.94803742      85.02060124      93.11643365
C      64.38767409      86.95757072      90.58231066
H      65.46670782      86.69867822      88.84565218
H      65.98260310      87.32606735      91.83519921
H      63.03463005      88.50714629      90.48971407
C      61.29230238      83.70724147      89.33887075
H      60.10555427      82.10097409      89.83964822
H      62.29574706      83.15922083      87.62299925
H      59.79941860      85.07729303      88.96848439
C      66.01661818      83.90566272      96.28361495
O      64.70892756      82.61686937      97.61209255
N      66.56463881      86.27537953      96.85998147
H      67.62477526      87.26559610      95.61843129
C      65.26639683      87.68133589      99.00671056
H      64.57097755      86.17711375     100.23314294
C      67.18257931      89.50681152     100.24448130
H      66.28117986      90.56316853     101.76760071
H      67.51517114      90.97323914      98.83474547
C      69.52017076      87.96290511     101.20068281
H      70.41212158      86.95190154      99.64165861
C      71.67634847      89.64854099     102.14365624
H      72.51160751      90.52726373     100.47880736
H      72.98025963      88.66777304     103.40032424
H      70.82786137      91.29260289     103.04883515
C      68.69813980      86.27726924     103.38142698
H      67.25627864      84.89965876     102.86364197
H      67.86477050      87.21835296     105.01415051
H      70.20047222      85.01304235     104.00125721
C      62.91557730      88.97012925      98.26593785
O      60.90490850      88.38998326      99.42811953
N      63.00439443      90.53860209      96.28928413
H      64.67113303      91.19244739      95.62599019
C      60.84254753      91.86518996      95.39733331
H      59.04919725      90.85229666      95.42756893
C      60.09232617      94.11963345      97.09808699