 %block lattice_cart
   140.777   0.000   0.000
   0.000 144.511   0.000
   0.000   0.000   162.462
 %endblock lattice_cart

 %block positions_abs
N      92.77608763      41.08824393      83.43064143
H      94.62801942      41.35280561      83.81803532
H      92.81010271      40.09235815      81.80547680
H      92.06177109      39.92228279      84.76100875
C      91.51752991      43.59780046      83.33048594
H      91.96917450      44.74675406      84.98021701
C      92.55876911      45.10391233      81.04391710
H      92.16381631      44.15715945      79.25812573
H      94.60912216      45.23997264      81.15541095
C      91.58744978      47.84023603      80.90218762
H      91.44761003      48.38447721      82.88262080
H      89.69583374      47.63614559      80.10661285
S      93.48851445      50.15515077      79.24678737
C      95.77886274      51.01119679      81.84705078
H      97.11111979      52.48707304      81.31225823
H      96.65569575      49.29154584      82.56514678
H      94.68282148      51.90692706      83.34371402
C      88.72829387      43.32190042      83.18119756
O      87.69461358      42.07279133      81.50123086
N      87.36769093      44.46140539      85.07092387
H      88.29365682      44.90927052      86.67908096
C      84.70884600      45.11903014      84.84793616
H      84.13058975      44.21952042      83.08860097
C      83.24052866      43.78110391      87.09860020
H      81.18828588      43.95684847      87.06080568
H      83.78854929      44.95273424      88.70297784
C      83.71484996      41.07312612      87.59559822
O      82.46574087      39.48008683      86.58648437
N      85.71229067      40.59313562      89.03556967
H      85.92771947      38.78655727      89.61193620
H      86.62502848      42.05011461      89.86326980
C      84.42349733      47.93472235      84.94998139
O      86.28865720      49.33500955      85.45075886
N      82.05567026      48.83423207      84.88384096
H      80.49097687      47.77031616      84.62116901
C      81.58512841      51.62724756      85.02179099
H      82.12936959      52.55699291      83.26434551
C      78.60314029      52.02409009      85.16541019
H      77.97386142      50.97340226      83.51000994
C      77.21797090      50.74474538      87.32536736
H      77.79055797      48.76998139      87.17796871
H      75.18084593      50.82600361      87.03812896
H      77.83969085      51.62157840      89.08092311
C      77.55434218      54.73395762      85.15407183
H      78.34424778      55.82243998      86.71498576
H      75.50020968      54.74529598      85.28068349
C      78.28188681      56.17392907      82.85805436
H      77.29355995      55.20638921      81.33304522
H      80.30011451      56.18715716      82.44231457
H      77.85858812      58.16381088      83.19064619
C      82.77565598      52.96517379      87.26867557
O      83.54099514      55.11190290      87.08726185
N      82.97407725      51.68393935      89.46453755
H      82.08023670      50.00019321      89.55146496
C      84.06255960      52.88580529      91.81535708
H      83.73374723      54.91915081      91.82669544
C      82.38637236      51.82188937      93.93185055
H      82.42794634      49.76397743      93.98098344
H      80.37381384      52.24518807      93.77500327
C      83.04777657      52.57211072      96.57368794
C      82.16716411      54.69805282      97.76043606
H      81.05978449      56.06621467      96.73053522
C      83.02132041      55.51441459     100.15093985
H      82.29377577      57.25863199     100.92005846
C      84.34601855      53.85901434     101.66839008
H      84.76742752      54.39947607     103.59024174
C      85.06978373      51.51953316     100.73486528
H      86.18283253      50.20428365     101.82901681
C      84.47640967      50.88836458      98.15349913
H      85.28710225      49.16493418      97.42028533
C      86.95951004      52.40014564      92.18574344
O      88.06688966      53.19383068      94.07358002
N      88.00074924      51.11513173      90.24499451
H      86.91415661      50.46695561      88.81258197
C      90.56888730      51.68015990      89.76500403
H      91.45327921      52.49463194      91.43552209
C      92.01074848      49.21595679      89.08092311
H      93.77008367      49.89436854      88.25322298
H      91.04131888      48.21629157      87.56536260
C      92.33389168      47.52276201      91.39583784
H      92.79498490      48.66415671      93.04556891
H      93.99307138      46.31522690      91.23899056
C      90.04921256      45.74641928      91.66795843
O      89.70150292      44.10613684      90.14294929
O      88.55632878      46.20373306      93.44619089
C      90.89014077      53.64925472      87.74110715
O      92.43593690      55.38024402      87.92063115
N      89.28198368      53.47728963      85.78713014
H      87.77965126      52.29810042      85.77012261
C      89.77142280      54.88135628      83.32481676
H      91.59122923      54.31821783      82.54247006
C      87.76075400      53.97806711      81.45965689
H      85.92960920      54.08956095      82.39696114
H      88.18783214      52.02975927      80.94187188
C      87.63225261      55.51630433      78.84049622
H      88.79821374      54.50908019      77.47422409
H      88.43916574      57.37201556      79.22222093
S      84.47451994      56.23440032      77.77280085
C      83.87925615      53.91570614      75.25946485
H      84.45373295      52.01086202      75.79047795
H      85.51575914      54.14058357      74.02736330
H      82.00653738      54.21995207      74.46011062
C      89.69772347      57.72539439      83.71976956
O      91.41926414      59.17670419      83.02812973
N      87.79098962      58.48317463      85.18241772
H      86.72896343      57.13579977      86.01956648
C      87.43383135      61.23650587      85.88350618
H      87.44705943      62.18514848      84.05614084
C      84.86947274      61.68248128      87.12694610
H      84.72018436      63.51362607      88.05669144
H      84.52176310      60.42959273      88.72565456
C      82.56211691      61.30831548      85.52256846
H      82.51865321      59.60000288      84.37172513
C      80.08657544      61.81098267      87.03623924
H      79.99586858      60.62045509      88.71431620
H      78.35180669      61.81287239      85.92696989
H      79.88437473      63.74795214      87.71087153
C      82.46196142      63.32843289      83.33237566
H      82.94195190      65.27485100      83.79535861
H      80.57034538      63.37000687      82.51979335
H      83.88114588      63.07331985      81.85838914
C      89.67126730      62.27396561      87.33670572
O      89.79032006      64.63045432      87.52567835
N      91.36068262      60.69982359      88.27967915
H      91.15092300      58.80631783      88.17952365
C      93.52441925      61.62956894      89.81602664
H      92.80821298      63.18103424      90.96686997
C      94.62990915      59.55087001      91.47520634
H      96.26641213      60.20471531      92.54290171
H      95.17981950      57.87090330      90.41884934
C      92.76663900      58.41514448      93.41028609
H      91.38335934      57.36445665      92.30101674
H      91.97106422      59.87779266      94.62160066
C      94.00063028      56.52163872      95.11103977
H      95.66736889      57.28886761      96.04267484
H      94.51274611      54.94371724      93.89216630
N      92.08066835      55.50685569      96.98564827
H      90.58022566      54.67915556      96.14660979
C      92.11657315      55.75818929      99.44607193
N      93.66803845      57.26619089     100.56290018
H      93.33922607      57.67059232     102.39782443
H      94.60723243      58.48128490      99.42717467
N      90.46117290      54.63002269     101.01265505
H      90.57833593      55.14780769     102.84568957
H      89.43316179      53.19383068     100.29077959
C      95.69949424      62.86733967      88.25511271
O      97.36245339      64.20337618      89.31146972
N      95.46705790      62.63868280      85.73988698
H      94.07810906      61.48028057      85.12761566
C      97.23017255      63.63078910      83.90118328
H      98.56053988      64.89879547      84.83092863
C      98.75140223      61.46705248      82.65774337
H      99.92492228      62.60466772      81.40485482
C     100.58065731      60.08377282      84.43408610
H     101.79008215      58.69104452      83.51945857
H      99.47516741      59.08599733      85.85705002
H     101.82976640      61.40091206      85.40918488
C      97.18859857      59.64157686      81.07604244
H      95.82988535      60.75273593      79.99700872
H      95.90169495      58.45671846      82.16263507
C      98.72305634      57.97105880      79.23544902
H      97.41914518      56.50841063      78.60428043
H     100.32932371      57.04131346      80.12928956
H      99.53185920      59.06521033      77.68965289
C      95.78642165      65.15579824      81.92075011
O      96.98072868      66.74316835      80.57148552
N      93.34867471      64.62478515      81.63351171
H      92.52853349      63.36244797      82.80703175
C      91.87657791      65.99105728      79.85338952
H      92.82144106      66.08554360      78.02413445
C      89.33867547      64.53407828      79.53402577
H      88.25586229      64.56998308      81.28958152
H      89.82811458      62.57821155      79.11072708
C      87.93271909      65.53941269      77.16619870
O      89.22907134      65.38823458      75.13474292
O      85.66882697      66.12333811      77.34383298
C      91.32288810      68.67635836      80.70376636
O      91.81799639      70.43569356      79.22977984
N      91.00352435      69.13178240      83.10938796
H      90.94872229      67.51984586      84.12795044
C      90.47062153      71.52039647      84.38873267
H      91.16415109      73.02650834      83.16607975
C      87.76453345      71.91345954      85.08982113
H      87.77020263      73.43090976      86.48254943
H      86.86313400      70.34876615      86.08192745
C      85.94850646      72.58620210      82.87128244
H      84.01909590      72.04574039      83.34938320
H      86.45495312      71.43913824      81.23666918
C      86.17338390      75.42079157      82.19098097
O      87.71540057      76.03306290      80.49967592
O      84.89592891      77.15933979      83.20009482
C      92.12035260      71.53173483      86.81514126
O      93.21450414      73.51405773      87.33103654
N      92.47562115      69.45681534      88.22487709
H      91.47406620      67.88456304      87.81102702
C      94.05732207      69.56641946      90.51900483
H      95.66547917      70.84765389      90.40184180
H      94.50518721      67.60866300      90.97442887
C      92.67404241      70.62655592      92.83580929
O      90.91281749      71.99093831      92.30479620
N      93.70394325      70.05585858      95.00332537
H      95.16092224      68.83131592      95.15072402
C      92.40003210      70.54529768      97.31257093
H      90.35912768      70.33175861      97.13115720
C      93.28064456      68.57809260      99.27599656
H      95.14769416      69.14501049      99.92795214
H      93.52063980      66.71671217      98.42561972
C      91.31343947      68.10755074     101.34524688
H      91.04320860      69.86688594     102.38270662
C      88.80955210      66.87355946     100.49109058
H      89.01175282      65.16902633      99.34969589
H      87.74185674      68.22660350      99.36103425
H      87.60768617      66.35577446     102.08224014
C      92.80632325      66.21026552     103.07434645
H      92.69671913      64.34699538     102.20885180
H      91.85201147      66.26128814     104.89793235
H      94.70549820      66.76962452     103.64693353
C      92.62868898      73.27595222      98.36136903
O      94.50518721      73.72948652      99.73897951
N      91.03564970      75.12788400      97.57335316
H      89.58622962      74.77261545      96.38660503
C      91.78965050      77.81696455      97.87948882
H      93.83811382      77.90200223      98.06657172
C      91.01486271      79.57441001      95.70252411
H      91.74051761      81.44901851      96.15605842
H      88.96073021      79.42323190      95.68173712
C      92.20161083      78.85253456      93.16462167
H      91.58556006      76.93257262      92.73943325
H      94.25574334      78.82229895      93.32335868
C      90.97706818      80.55139852      91.10481999
H      91.50997100      82.53939060      91.07080491
H      88.93994322      80.63265674      91.40906592
N      91.51375046      79.61031481      88.55179974
H      93.32599799      79.15300104      88.15117776
C      89.79032006      79.09819898      86.81136180
N      87.49808204      79.87109704      86.87750223
H      86.21117842      79.33252504      85.57359107
H      86.74408124      80.62320811      88.46109288
N      90.51030578      77.85475906      84.80069301
H      89.46150768      77.86609742      83.20576400
H      92.33956085      77.42579120      84.46432172
C      90.81644145      78.83552703     100.48920086
O      88.50341644      78.97536677     100.84446940
N      92.38869374      79.63110181     102.33168401
H      94.22361799      79.39866546     101.86114216
C      91.53642717      79.70669085     104.95651386
H      90.12102216      78.24404268     105.25698035
C      93.65481037      78.89977771     106.80844565
H      92.98773698      78.85442428     108.75675348
H      95.07777428      80.38699232     106.73663605
C      94.85667630      76.38266226     106.12814418
H      95.88846687      76.62454723     104.36125007
C      96.72750535      75.70047107     108.18794586
H      95.78075247      75.12788400     109.92460434
H      98.01251925      77.25382611     108.60368565
H      97.75929592      74.05640917     107.49819575
C      93.03309041      74.06585782     105.73319138
H      92.00318957      74.58175309     104.02487879
H      91.79720940      73.70680981     107.34134847
H      94.15180839      72.35754522     105.45351188
C      90.32700233      82.28994672     105.71996329
O      89.30466040      82.60553101     107.77787525
N      90.61613046      84.22502646     104.16093908
H      91.65170048      83.81684558     102.61136351
C      89.79220978      86.81962069     104.58801723
H      88.73018360      87.27504473     106.29444009
C      92.01830738      88.60919151     104.64659875
H      91.32666755      90.44222604     105.28532624
H      92.65703488      88.81895113     102.70018064
C      94.07243988      87.84952153     106.55711205
H      94.90580919      86.06750962     105.94484072
H      93.27308565      87.47913517     108.41660274
C      96.39680325      89.58240057     106.57411959
H      95.89413605      91.51748032     107.07111761
H      97.28875407      89.58051083     104.71840835
C      98.27708093      88.71879565     108.51864796
H      99.59044072      87.62275437     107.36969436
H      97.38701984      87.49236326     109.91137625
N      99.56209482      90.87686310     109.61279950
H     100.17058670      92.26581194     108.45250754
H     101.16269301      90.14553901     110.35357221
H      98.48873028      91.65543033     110.98663053
C      87.93271909      87.56984205     102.50742856
O      87.92327046      86.29994596     100.45707551
N      86.29621611      89.55972386     103.05733892
H      86.53054217      90.46112331     104.72407752
C      84.31200348      90.46112331     101.17895096
H      83.12525535      88.79627442     100.91816873
C      82.61124980      92.60407294     102.40160389
H      83.80744655      94.20089167     102.91371972
C      80.71396458      93.56783336     100.58557690
H      79.13226365      92.26959138     100.34558166
H      81.63993047      93.93444026      98.78277800
H      79.88437473      95.30638156     101.31123180
C      81.22985986      91.47401661     104.81667411
H      82.75864845      90.85229664     106.04877567
H      80.13192887      89.80349854     104.31967609
C      79.63493085      93.23335180     106.24719693
H      79.07179241      92.47368182     108.07834173
H      78.18173132      94.01947794     105.01887483
H      80.93506256      94.72434587     106.82356346
C      85.55922284      91.44945017      98.73175539
O      87.46028751      92.79493530      98.79600608
N      84.32523156      90.97890831      96.60014411
H      82.76053817      89.89987458      96.44140710
C      85.05466592      91.97101462      94.05846221
H      86.02409552      93.78137243      94.22286840
C      86.51164491      89.91310268      92.75455106
H      88.13303008      89.40854574      93.92051219
H      87.19761556      90.70111854      90.98009805
C      85.02443030      87.53204752      92.11582356
C      83.92649931      87.24858856      89.67996635
H      83.99830891      88.80005388      88.35904765
C      82.66416213      85.04327797      88.86738403
H      81.80244693      84.92800465      87.02112142
C      82.65282377      82.84741598      90.48310003
O      81.49631127      80.56462661      89.97854310
H      80.89348858      80.40211014      88.27400997
C      83.70729106      83.24047905      92.89817026
H      83.49564171      81.82318432      94.35325952
C      84.84868575      85.47980474      93.80712861
H      85.71229067      85.76515342      95.63260423
C      82.74731009      92.68344144      92.41629005
O      80.65727279      91.87085914      93.03423055
N      82.98163615      94.36718760      90.59270416
H      84.67294120      95.20811580      90.30924521
C      81.00309270      95.18543908      88.92407582
H      79.26265477      95.19866717      90.02956572
C      81.34702289      97.82538675      87.89039553
H      79.96185350      97.80648949      86.36727612
H      83.29344099      98.03703610      87.24788858
C      80.68372896      99.78503294      89.79523965
H      81.82701338      99.71322333      91.50733169
H      78.72597250      99.52425069      90.37916508
C      81.34135371     102.42120114      88.53479220
H      80.35302685     102.68009364      86.74711111
H      83.31233826     102.33616346      87.94519759
C      81.05600504     104.56793022      90.36971645
H      82.32401140     104.01235069      91.89472559
H      79.13037393     104.93642685      91.00655422
N      81.99141956     106.95087510      89.27556492
H      82.02165519     108.52501712      90.35459864
H      81.18828588     107.60849986      87.67496673
H      83.77721093     106.44442845      88.83147923
C      80.74420020      93.36563264      86.68663987
O      82.44684361      92.77414830      85.24855814
N      78.41416765      92.79682503      86.21231856
H      77.14427157      93.76247517      87.25922694
C      77.37103873      91.36441247      84.09582509
H      78.38960121      89.61074646      83.73299764
C      74.58369242      90.74458225      84.55502859
H      73.77299983      92.63619828      84.62116901
H      74.33613827      89.94900748      86.43908572
C      73.30623743      89.16477106      82.48199882
O      71.84925844      90.03215542      80.86817255
O      73.82969162      86.91410701      82.17019398
C      77.90772100      92.82139146      81.54091512
O      78.44062382      95.03048152      81.63729116
N      77.53733464      91.58551045      79.34316342
H      77.28600105      89.70145333      79.51134906
C      77.65260795      92.62674965      76.66920068
H      79.41005342      93.69444502      76.56715546
C      77.66583603      90.51214591      74.85317370
H      77.06490307      91.10740970      72.97667547
C      80.28310698      89.62208481      74.68498805
H      81.64748938      91.07150490      74.14830578
H      80.38893165      88.12164212      73.27525222
H      80.79144336      88.96446006      76.57093491
O      76.05956867      88.53927164      75.70921972
H      74.40794787      88.73391345      74.98545454
C      75.57957818      94.38797458      75.91142043
O      75.80823507      95.70889327      74.00846603
N      73.69552105      94.32561361      77.56493095
H      73.82780189      93.18799837      79.09371954
C      71.64138855      96.30037760      77.55548232
H      71.65461663      97.36240379      75.79236767
C      69.07136076      94.80749382      77.82382346
H      68.33814695      94.63741846      79.74000594
H      69.50410809      92.87052436      77.27013365
C      67.02100771      95.67109874      75.97378140
H      66.86605016      97.72334152      75.87551563
H      65.30135677      94.90198014      76.80526098
C      67.30257693      94.67143352      73.31304675
O      66.88872687      92.39431331      72.87840970
O      67.97909895      96.11329471      71.63685951
C      71.75855158      98.28647996      79.70221141
O      70.22220409     100.02124871      79.78913882
N      73.67095461      98.36395874      81.42942126
H      74.95218905      96.97689963      81.15730068
C      74.12448892     100.31982548      83.24166880
H      73.69174160     102.22089014      82.57270568
H      76.11437073     100.46155495      83.76134353
C      73.03978602      99.76235621      85.83626303
O      73.54623267     101.02847284      87.68441536
N      71.37682686      97.92365252      85.97421305
H      70.82691651      97.17910034      84.30558471
C      70.62093634      96.92020783      88.49321822
H      69.88772253      98.53781356      89.53634715
C      68.64050316      94.86229588      87.93952841
H      67.77122906      94.39742322      89.74799649
H      69.66284510      93.16532165      87.38016942
C      66.71676178      95.75046726      86.09704526
C      65.79457534      94.18010469      84.22243676
H      66.33314734      92.21667904      84.08448673
C      63.96720999      95.10796030      82.54435979
H      63.21698864      93.86074093      81.11383697
C      63.10927425      97.63074493      82.71821461
O      61.38773357      98.60395399      81.13840341
H      61.08537736     100.35950972      81.48233360
C      64.05224768      99.25024038      84.53802105
H      63.41918936     101.18909958      84.58904366
C      65.73599382      98.24301626      86.34459940
H      66.36527268      99.45622056      87.86015991
C      72.83758530      95.80904877      90.12216230
O      74.95974795      95.39897815      89.28123410
N      72.25554960      95.46889803      92.47487156
H      70.43196371      95.87518918      92.86604491
C      73.93362657      94.39364375      94.45908419
H      75.75154328      94.76025067      93.56335392
C      73.96764164      96.04526456      96.83258044
H      75.35848021      95.11173976      98.03066692
H      72.07602560      95.80715904      97.61114768
C      74.70463490      98.78347799      96.18818377
C      72.88671819     100.69966046      96.36959750
H      70.94218981     100.23667751      96.78155783
C      73.49521006     103.31504168      96.09936663
H      72.03634135     104.72666723      96.30345707
C      76.09925292     103.91219519      95.62882478
O      76.72664206     106.35183186      95.30568158
H      75.26021444     107.33826901      95.71953164
C      77.97953060     101.93743120      95.41339598
H      79.94106652     102.49867991      95.40205762
C      77.28411132      99.38063150      95.85181249
H      78.81667936      98.06727172      96.14660979
C      73.77299983      91.51937003      94.94474386
O      71.82091255      90.44978495      94.94285413
N      75.90272138      90.32695273      95.36426310
H      77.56945999      91.24346999      95.19607745
C      76.23531322      87.55472423      95.27166651
H      74.66684038      86.52482339      96.12204335
C      77.16127911      86.60230217      92.63360857
H      79.20407325      86.81584125      92.77533805
C      76.29578446      83.96424423      92.24432495
H      74.24732113      83.80361750      92.08747767
H      77.01388046      82.74915022      93.74098819
H      77.13293321      83.35386263      90.46231304
O      76.26365911      88.05172226      90.61727060
H      77.14427157      89.63531290      90.67018294
C      78.34613751      86.77804672      97.15194419
O      80.14515696      88.17077502      97.59602987
N      78.28188681      84.35541758      98.03066692
H      76.61325848      83.46157704      97.79256141
C      80.42861590      83.05528589      99.29300410
H      82.20306891      83.96046478      98.77332937
C      80.07523708      83.28961195     102.13326275
H      79.67650483      85.26059648     102.57356898
C      77.89638264      81.58696853     103.09135399
H      76.16917279      81.84964050     101.99909218
H      77.37859763      82.08018710     105.02454401
H      78.55400740      79.63488125     103.09324372
C      82.67739022      82.87576189     103.63370544
H      84.18539181      83.83385313     102.60947378
H      83.16304988      80.87643144     103.53732940
C      82.50731485      83.85841956     106.29255036
H      84.31389320      83.84330175     107.27898750
H      81.05033586      82.82473927     107.32245121
H      81.98386066      85.85019109     106.24530721
C      80.67428032      80.28872655      98.56545947
O      78.96785746      79.16811886      97.38815998
N      82.61124980      78.90733662      99.43284385
H      84.10224386      79.79361826     100.22841863
C      82.53188129      76.20691772      99.55756579
H      80.60058100      75.69291216     100.06023298
H      83.85657944      75.49071145     100.96352216
C      83.21785194      75.20914222      96.93462566
O      85.28710225      75.35843060      95.91039400
N      81.40749413      73.96192286      95.76488508
H      80.02043502      73.43090976      96.96675101
C      81.32623590      73.27784193      93.02667165
H      82.55644773      74.58553254      92.01755780
C      82.07834698      70.46403945      92.61471131
H      80.64782416      69.05430363      93.07391481
C      82.61313952      70.05585858      89.83303418
H      81.26954411      70.98182447      88.57636618
H      82.36936483      68.03196169      89.55335468
H      84.51798365      70.75883676      89.48721426
C      84.39515143      69.62878043      94.03956495
H      84.16649455      69.19414337      96.03889539
H      85.81433590      71.07631079      93.68051695
C      85.58378929      67.09654717      93.23076209
H      84.22885552      65.56019967      93.02289219
H      87.12013678      66.70348409      94.54601160
H      86.57400587      67.36110885      91.44308100
C      78.80534100      73.85798791      92.06102150
O      77.14427157      72.15156505      92.38605443
N      78.40849848      76.17857182      91.18418849
H      80.02988365      77.16122952      90.95553161
C      75.99909743      76.93635208      89.90295405
H      75.53989393      75.38488677      88.62927852
H      76.36948378      78.55962698      88.69352921
C      73.61048337      77.56185148      91.38449948
O      71.52233579      77.57507958      90.36404727
N      73.92417793      77.90200223      93.94885809
H      75.62682134      77.71869877      94.78789657
C      71.91161941      78.29128585      95.79512070
H      70.24488080      77.36720967      95.01466373
C      72.54467773      77.01005140      98.29333888
H      73.32135524      78.38010298      99.62181648
H      73.57079911      75.23748812      98.08357926
C      70.10693078      76.23337389      99.54055825
N      69.12049365      73.81830367      99.69551581
H      69.89339171      72.20825684      99.02088351
C      66.94919811      74.00727629     100.95029408
H      65.63394860      72.55407675     101.51721197
N      66.29346308      76.43179516     101.50020444
H      64.55113542      76.87399111     102.13893193
C      68.36460312      77.88688441     100.67250431
H      68.61215727      79.90322240     100.85202831
C      71.28423028      81.12776505      96.07480019
O      73.01710930      82.52616251      96.93273594
N      69.06380186      82.00837750      95.33402748
H      67.72587563      80.82162938      94.66506436
C      68.59326001      84.74659094      95.23954116
H      70.40172809      85.60452668      94.74821232
C      66.67707752      85.31728827      93.11926824
H      64.81758683      85.36831088      94.00932933
H      66.70353369      83.82062503      91.70386323
C      67.06636114      87.83062427      91.71898104
H      67.04179470      89.40287656      93.05123809
C      69.47765192      87.82495509      90.05035270
H      69.37749643      86.62686861      88.37605519
H      71.17462615      87.23158103      91.05379738
H      69.50788754      89.77326292      89.38705877
C      64.81947656      88.12731130      90.04279380
H      63.07714890      88.51848465      91.07080491
H      64.82703546      86.59852272      88.66140386
H      65.19931155      89.83184443      88.95053199
C      67.84681811      85.76893286      97.83035594
O      66.80935837      84.35352785      99.37426233
N      68.40239765      88.16321611      98.57490810
H      69.17151626      89.24036010      97.20296680
C      67.91106881      89.33484642     100.98619888
H      67.20242144      88.04605308     102.42806005
C      70.38661028      90.24947395     102.30144839
H      69.83292047      90.97512885     104.14771100
H      71.30123781      91.82361597     101.34146742
C      72.15161465      88.01581746     102.99308822
H      72.63916404      86.75537001     101.43973319
C      74.74431915      89.21579366     103.59402119
H      74.15661427      90.78993569     104.78832822
H      75.83469124      89.73546839     101.92539286
H      75.66083642      87.69267426     104.63526039
C      71.07069120      86.26215143     105.06233854
H      72.19696808      84.55383885     105.31178241
H      69.32836354      85.55161435     104.22518978
H      70.54912674      87.12197690     106.85946826
C      65.93819454      91.46834743     100.64793787
O      64.11271892      91.42488373     102.08790932
N      66.18763841      93.14264493      98.79978553
H      67.68997083      92.97256957      97.63382440
C      64.28468401      95.15709318      98.50498823
H      62.40440633      94.35962869      98.78088827
C      64.62294502      97.03170169     100.74809336