 %block lattice_cart
   140.777   0.000   0.000
   0.000 144.511   0.000
   0.000   0.000   162.462
 %endblock lattice_cart

 %block positions_abs
N      91.15659218      42.16633279      81.11383697
H      91.13580519      41.38209637      82.85238518
H      92.93482464      41.80350533      80.52613209
H      90.12669134      40.93234150      80.08393614
C      90.27220026      44.80250099      80.88329036
H      91.47784565      45.90610116      82.13428919
C      90.67849143      45.82295320      78.29625504
H      89.48040495      44.83273661      76.94699045
H      92.60979172      45.70767990      77.58949739
C      89.93771871      48.54982827      78.05814952
H      87.90626292      48.87864065      78.13184886
H      90.49896742      49.21879139      76.19298965
S      91.51941963      50.57750461      80.32393138
C      91.48918402      53.29493104      78.15641530
H      92.65325542      53.01903100      76.47833832
H      92.16003685      54.94466211      79.19198531
H      89.65425977      53.77492153      77.35517133
C      87.57745055      45.03115788      81.51634867
O      85.99008044      43.52315628      80.61872867
N      86.74030178      46.85474377      82.99600438
H      87.99508006      48.16432410      83.58748871
C      84.16460482      47.33662398      83.75000518
H      82.91171628      46.39176082      82.41585840
C      83.58634857      46.10074297      86.28790761
H      84.82600903      44.45668108      86.25578228
H      81.59457703      45.58106823      86.38995283
C      84.09090549      47.80149665      88.55746892
O      82.51865320      49.10918726      89.54768550
N      86.38692296      48.13408848      89.22832176
H      86.68927917      49.15265097      90.81380213
H      87.83823277      47.33851370      88.27967915
C      83.52209787      50.13908810      83.62717296
O      85.19072621      51.65464860      83.93897782
N      81.12025574      50.71923408      83.88984492
H      79.89382335      49.26603454      84.04480248
C      79.87681581      53.25902624      83.70843120
H      80.47585907      53.99224005      81.88106585
C      77.01577019      52.87541180      83.72354901
H      76.56979477      51.90220275      81.96610354
C      76.30523308      51.34851294      86.11216307
H      74.29645401      50.89497863      86.06491991
H      76.32224063      52.31983227      87.92819006
H      77.31623666      49.55516267      86.21231856
C      75.47564324      55.29804094      83.50056130
H      75.51154804      56.46589180      85.19564580
H      73.49143061      54.74624085      83.48922294
C      75.71374875      56.70210759      80.90407735
H      77.66394630      57.32571727      80.68297938
H      74.49298555      58.35939756      80.83037803
H      75.21108155      55.49079302      79.31481752
C      80.92183447      55.19032654      85.56225271
O      81.00120297      57.45043921      84.98399646
N      81.64937911      54.46845108      87.91496197
H      81.61725376      52.56549669      88.08314762
C      82.76053817      56.25046300      89.73476841
H      81.62859212      57.95499613      89.95586640
C      82.54699909      54.78403538      92.24054551
H      84.05878015      55.58527933      93.38760937
H      83.09124027      52.79982275      92.11582356
C      79.89004390      54.68765934      93.46886760
C      78.62203754      56.90619803      94.34192117
H      79.40249452      58.71088666      93.79390053
C      76.42050639      56.70588704      95.91228373
H      75.68918231      58.44443525      96.69085097
C      75.28667060      54.44766409      96.48676052
H      73.57079911      54.48734835      97.58847097
C      76.22397485      52.29526582      95.40205762
H      75.48887132      50.45656212      95.89338646
C      78.59936083      52.39164187      93.95263755
H      79.63493085      50.71356490      93.42729362
C      85.46662625      57.13863436      89.25855738
O      86.14503799      59.11150863      90.08247805
N      86.95384086      55.75724443      87.75433523
H      86.26787021      54.10373391      87.09293102
C      89.36324192      56.70399731      86.60538164
H      90.10590436      58.03247491      87.99433047
C      91.52508882      54.59506275      86.38239393
H      93.33733634      55.42654232      85.87216782
H      90.89203050      53.37807900      84.84604644
C      91.98240258      53.16265020      88.82392033
H      90.58778456      51.64897942      88.69352921
H      91.61579567      54.37018532      90.45475414
C      94.62801941      52.10440347      88.80502307
O      95.31587980      50.41498814      87.38394888
O      96.26641213      53.03792826      90.19397190
C      88.97773774      58.05515163      84.11472235
O      90.03787421      60.07904851      83.89740383
N      87.37524982      57.15942135      82.28357757
H      86.66282301      55.43599096      82.69553790
C      86.51164490      58.73545310      80.11228202
H      88.19350132      58.71088666      78.92175445
C      84.20050962      57.41264468      78.96899760
H      82.66605186      57.46933647      80.34282863
H      84.41971788      55.40008616      78.59294207
C      83.30477935      58.72222501      76.52936093
H      84.85813438      58.52191403      75.19332443
H      82.74353063      60.66675339      76.92242401
S      80.49664605      57.25768712      75.18576552
C      81.55111333      56.46022262      71.97323079
H      81.43961949      58.17042493      70.83183610
H      80.83112761      54.64986481      71.30804713
H      83.53721569      55.98779104      72.26613837
C      85.73685711      61.48311516      80.63006703
O      86.76864768      63.26323734      79.55481276
N      84.06633905      62.01412825      82.44042484
H      83.15360125      60.57226707      83.29269141
C      83.14604234      64.55769987      82.94309205
H      82.58101418      65.43453288      81.16674931
C      80.80656117      64.14762926      84.50967515
H      80.38704193      65.80680896      85.65673902
H      81.03332832      62.67175301      85.93074934
C      78.34424777      63.28969351      83.16985920
H      78.50298480      61.41130556      82.34026935
C      75.96130289      63.04780854      84.89328959
H      74.22086497      62.79269549      83.81992505
H      75.65516723      64.87706362      85.78713014
H      76.34680707      61.45854872      86.14239869
C      77.56945999      65.11705886      81.04769656
H      78.03433266      67.01623380      81.69776240
H      75.59658572      65.09816159      80.45432249
H      78.67306016      64.69942934      79.35828122
C      85.05277620      66.17341587      84.30747444
O      85.04143783      68.52990458      84.02779494
N      86.69683808      65.00745473      85.80035822
H      86.73652233      63.09883116      85.76823288
C      88.75475004      66.33782206      87.04379814
H      88.02909514      68.00834012      88.00377912
C      90.38369411      64.49344917      88.55935864
H      91.54020662      63.33126749      87.31780845
H      89.17048983      63.13851541      89.52500879
C      92.32633276      65.60271852      90.59270415
H      91.26808603      66.47388235      92.12905165
H      93.65670009      66.90662968      89.71587116
C      93.98740219      63.55425520      91.79645982
H      92.65514515      62.19932143      92.59014487
H      95.10234073      64.37628614      93.31957922
N      95.85256207      62.47144202      90.14105957
H      96.99017731      63.59771890      89.09982037
C      96.56498888      60.09794577      89.81413691
N      95.42926338      58.13263040      90.79301514
H      96.00185045      56.32605205      90.58325552
H      93.73417887      58.26869070      91.66228925
N      98.44526658      59.52913815      88.28912778
H      98.89691115      57.69799335      87.99810994
H      99.56776400      60.74990135      87.34804407
C      90.51597496      67.56047498      84.99344509
O      91.68949500      69.46342938      85.46020749
N      90.71628595      66.40018302      82.82781873
H      89.98685159      64.63895810      82.92041532
C      92.30932523      67.21654479      80.72644307
H      93.92315150      68.27479153      81.44642880
C      93.12757672      65.04713898      79.09938872
H      91.39658743      64.08526829      78.53436055
C      94.30487622      65.53657810      76.45755133
H      95.98673263      66.69687006      76.70888494
H      93.04820822      66.66852416      75.27836211
H      94.71872629      63.83960387      75.36906898
C      95.02864139      63.41441545      80.66408211
H      94.21983854      62.94765305      82.50278581
H      96.59522451      64.61061221      81.25745618
C      96.05476279      60.89541027      79.65307853
H      97.32087942      60.06393070      81.04769656
H      96.94293415      60.93887398      77.79547756
H      94.31243513      59.80692792      79.47733399
C      91.05076750      69.31603072      79.35828122
O      92.38680401      71.03379194      78.44554341
N      88.49396780      69.41051704      79.05214556
H      87.53398684      67.80235995      79.41686274
C      87.31288886      71.44764201      77.42887066
H      88.57144658      71.72354205      75.82260329
C      84.67861038      70.65017750      76.36873420
H      84.13436920      72.31880584      75.29159020
H      83.25942592      70.17018702      77.78602893
C      84.82978848      68.24833536      74.64341407
O      86.33779008      68.40518264      72.89163779
O      83.17438823      66.60616319      74.79270245
C      87.06722444      73.91373484      78.94254143
O      87.71918002      75.89227829      77.95043512
N      86.17527362      73.85893278      81.28769180
H      85.86157905      72.11849485      82.00767751
C      85.56111257      75.93574200      82.98844547
H      85.23230019      77.72153337      82.01712615
C      83.00053342      75.52756112      84.34715869
H      82.76620736      76.94485585      85.82303494
H      82.99486423      73.61326836      85.10871839
C      80.73664129      75.78078444      82.48577828
H      79.12470475      74.89261307      83.40796471
H      81.17127834      74.78489867      80.73589171
C      79.86169800      78.45096772      81.94153710
O      77.58457780      78.91017122      82.21743714
O      81.33946399      80.11392688      81.13462396
C      87.60579644      76.65761745      84.98399646
O      88.18216297      78.91206094      85.64162122
N      88.83222882      74.66017674      85.88728564
H      88.48829862      72.85359838      85.37328008
C      90.86179487      75.00977611      87.70520235
H      91.72728953      76.86170789      87.45764820
H      92.22428754      73.50177451      87.38205915
C      90.10590436      75.33858848      90.43207742
O      87.79476908      75.16284394      90.81569186
N      91.70839226      75.99621324      92.25944276
H      93.49607335      76.38171741      91.71520158
C      90.78620582      76.60281539      94.87860344
H      88.76419866      76.32691535      95.15828293
C      92.35656839      74.94363569      96.71541741
H      94.32377349      75.09859324      96.12393307
H      91.88035736      73.03501211      96.09936663
C      91.97295395      75.28756587      99.64638292
H      92.98962671      77.01666545     100.10936587
C      89.17804874      75.52945084     100.31156658
H      88.35223833      77.22642507      99.49142536
H      88.87002334      75.62204743     102.34680183
H      88.24641365      73.74176975      99.88637816
C      93.06521575      73.17107240     101.13548726
H      95.00029550      72.81013468     100.52888511
H      91.85579092      71.53645914     100.80667488
H      92.90836848      73.43185463     103.17072249
C      91.32099837      79.38071307      95.66095013
O      93.49040418      80.20652347      95.52866928
N      89.51819946      80.95107563      96.51510642
H      87.66815740      80.56557147      96.24865501
C      89.89047555      83.43984519      97.73209017
H      91.85201147      83.99353500      98.02688747
C      88.76986784      85.50531605      95.88582756
H      87.96673416      87.16071630      96.80990372
H      87.36958065      84.67194674      94.62726983
C      90.87124350      86.35002371      94.15672798
H      91.74429706      84.64549058      93.39894773
H      92.17893412      87.36669647      95.38127063
C      90.04921257      88.07156438      92.04968314
H      91.69138473      88.77832202      91.02545148
H      88.82278018      89.53799200      92.81313257
N      88.65081509      86.52387853      90.11460340
H      87.96862390      84.95162624      90.95553161
C      87.90815265      87.36669647      87.97165376
N      88.55065959      89.60791187      87.06080568
H      87.88358621      90.02932084      85.32225748
H      89.94338788      90.56033394      87.95086677
N      86.53999079      85.85680514      86.51656450
H      86.36991543      86.24797849      84.65518409
H      86.25464213      84.01621171      86.93041456
C      88.52798289      83.65338426     100.26999260
O      86.33779008      82.80111769     100.32101521
N      89.83756321      84.53021727     102.20129291
H      91.63469294      85.09335571     101.88570860
C      88.95317130      84.53210700     104.92627824
H      87.20895391      83.45874245     105.16060430
C      90.99596544      83.35669723     106.69317234
H      90.17015505      83.18851159     108.57345002
H      92.42081909      84.84202211     106.72340796
C      92.30743551      80.83013315     106.05066539
H      92.93671437      80.91328111     104.09101921
C      94.40125226      80.15361113     107.87614102
H      94.78675642      78.14294233     108.08590064
H      94.14424948      80.83580233     109.80177213
H      96.01507853      81.25532157     107.22040598
C      90.24196464      78.70041160     106.19428459
H      89.59378853      78.74009585     108.15015133
H      91.22840178      76.96564284     105.68783794
H      88.96639938      78.83269244     104.58234805
C      87.97807252      87.14748821     105.90137703
O      87.66815740      87.47819032     108.21818149
N      87.35446285      88.76887339     104.07401167
H      87.70217249      88.22085276     102.27877168
C      86.16015581      91.23496623     104.29888911
H      84.98852550      91.51086627     105.96940716
C      88.32011299      93.12280282     104.64848847
H      89.50308165      92.91871237     102.97608068
H      89.45016932      92.82800551     106.34546270
C      87.40548545      95.91770803     104.71840835
H      86.01086743      96.28620466     106.18861542
H      86.58534424      96.28242521     102.86269710
C      89.49930220      98.08333439     104.88092482
H      89.96795434      98.32143990     106.87269634
H      88.60735138      99.73306546     104.02865824
C      91.89358544      97.56365965     103.34835677
H      91.31154973      96.92871161     101.47563799
H      92.95939108      96.11612930     104.35180144
N      93.30710072      99.99762714     102.97419096
H      94.19905155     100.43037447     104.60502477
H      92.12224233     101.35445064     102.34113265
H      94.66014476      99.69527093     101.66083117
C      84.42538705      91.66771356     101.96129765
O      84.88081109      90.65859970      99.92039324
N      82.60747034      93.42326930     102.15027028
H      82.45440251      94.26041806     103.85858287
C      80.88970912      94.06199679     100.04511517
H      79.91838979      92.32911776      99.49331509
C      78.75809785      95.87046488     100.86714612
H      79.88437472      97.50318841     101.43028456
C      77.12537431      96.83800475      98.62026153
H      76.46774955      95.10323599      97.72642099
H      78.31779162      97.95483300      97.36359353
H      75.40194392      97.79609599      99.20985614
C      77.30867776      94.88024829     103.04978001
H      78.70518551      94.67237839     104.55211243
H      76.43940366      93.03209595     102.78521833
C      75.10147742      96.52431018     103.98708426
H      75.94240564      98.23640222     104.76754123
H      74.02433343      95.42448947     105.35524611
H      73.87126559      97.08366917     102.42994978
C      82.08590588      95.12402298      97.54500726
O      83.45028827      97.02886711      97.66217029
N      81.68150445      93.90703924      95.34536583
H      80.73664129      92.26486707      95.57213299
C      82.38637236      94.77631334      92.86037573
H      83.38414785      96.57344306      92.98698739
C      84.26665005      92.92816101      91.82858516
H      85.80677698      92.84312332      93.19296756
H      85.15104195      93.79932484      90.18452327
C      83.24430810      90.33167705      91.37127141
C      82.43361552      89.86869411      88.90139910
H      82.44495387      91.35212926      87.50111191
C      81.38292770      87.49330813      88.16440584
H      80.73286183      87.07378889      86.27845899
C      81.61725376      85.42405782      89.84059308
O      80.66483170      83.06945883      89.16785051
H      79.75209388      83.23008557      87.60693658
C      82.36180592      85.94562228      92.43896676
H      82.75675872      84.29211176      93.56524364
C      83.12903481      88.46273773      93.30824087
H      83.78854928      89.05800152      95.14505484
C      80.13003914      95.15614833      91.17285013
O      78.19117994      93.86924471      91.55646457
N      80.28499670      96.81532803      89.09604091
H      81.86480790      97.82444188      88.74266210
C      78.31779162      96.86824037      87.08159267
H      76.46963927      96.65281157      87.96409485
C      78.39716011      99.37401746      85.68319519
H      77.38426681      98.97150575      83.93519835
H      80.31334259      99.67637367      84.99533483
C      77.08002088     101.60200478      87.01545224
H      77.75654289     101.83822057      88.94486281
H      75.09769797     101.28642049      87.47654547
C      77.58268807     103.86400718      85.53768627
H      76.62459684     103.82810238      83.71221065
H      79.61225414     104.20604764      85.46965613
C      76.49987490     106.27529795      86.82458989
H      76.70396535     106.18459109      88.87116348
H      74.50432391     106.14490684      86.33326105
N      77.17450719     108.72438326      85.69642328
H      76.19562896     108.99461412      84.08070728
H      79.06990268     108.58454351      85.52067873
H      76.98553456     110.20781841      86.88506114
C      78.72408276      94.82355650      85.07848277
O      80.81600979      94.44750096      84.26967991
N      76.65294273      93.81633237      84.13928880
H      74.95218904      94.28687422      84.86683343
C      76.75309823      92.05699718      81.96988299
H      78.58424303      91.11213402      81.95287545
C      74.82557739      89.86680438      82.57081596
H      72.89427710      90.57545175      82.62372829
H      75.10903633      89.10713440      84.46432172
C      75.10147742      87.72763419      80.65841294
O      76.98553456      86.39537714      80.55069853
O      73.42906963      87.68228076      78.99923322
C      76.44318311      93.55177069      79.48678261
O      75.81201452      95.76841965      79.40741411
N      76.58302285      92.22140336      77.35139188
H      76.53955916      90.34301541      77.68965289
C      76.48286737      93.28909873      74.77002574
H      77.79433742      94.87646883      74.75868739
C      77.45040724      91.35212926      72.62707611
H      76.91750441      92.04376909      70.76191624
C      80.31712205      91.21795869      72.67053980
H      81.14860162      91.18961280      74.55459695
H      81.40560440      92.55210547      71.53859375
H      80.74986938      89.36602691      71.88252393
O      76.60569957      88.81044737      73.15619947
H      76.91939414      87.83912804      71.65764651
C      73.84102997      94.17538037      74.22389483
O      73.52922513      96.03109161      73.03336726
N      71.94185504      92.98485280      75.34828199
H      72.51444211      91.60157313      76.53125067
C      69.39261423      93.88436252      75.52969571
H      68.69341549      94.59300989      73.72500709
C      67.81280304      91.66015465      76.47455887
H      65.89095137      92.39336846      76.55770683
H      68.34192640      91.25953267      78.42475642
C      67.68241192      89.21862825      74.87774014
H      66.39172885      87.91282737      75.80748549
H      69.57969714      88.45517882      74.63774489
C      66.72810014      89.90270918      72.29637399
O      67.85437701      89.08634741      70.35184562
O      64.97065466      91.27465048      72.04126094
C      68.93152101      96.28431494      77.26824392
O      66.77723301      97.11201506      77.56493095
N      70.87982884      97.10067671      78.58916261
H      72.47286812      96.07644504      78.36806464
C      70.87038021      99.25874415      80.58471360
H      70.02189309     100.96138756      79.79669773
H      72.85648256      99.68015312      80.92297462
C      69.88583280      98.59733994      83.27946332
O      70.23543217     100.05809838      85.05769578
N      68.74065866      96.43360332      83.60449626
H      68.28901407      95.27331136      82.15885563
C      67.92618661      95.43771755      86.14050896
H      66.93408030      96.94193969      87.14017418
C      66.37283159      92.97729389      85.70776164
H      65.26734169      92.53698766      87.38961805
H      67.72776536      91.46362311      85.38272871
C      64.42452375      93.03776513      83.49300240
C      63.87650312      90.92694084      82.10027410
H      64.91963205      89.25642278      82.63506665
C      62.00756380      90.77009356      80.15763545
H      61.77323774      89.06933987      79.05403529
C      60.76979306      93.07555966      79.53213605
O      59.17108460      92.98863225      77.49501109
H      58.29236187      94.57033317      77.38162750
C      61.23277601      95.38669494      80.87762118
H      60.25200805      97.14414041      80.53369100
C      62.98455230      95.28842917      82.91285643
H      63.21887837      97.07799999      83.86527848
C      70.24488081      95.02008803      87.90362362
O      72.11570986      93.95617212      86.92663511
N      69.87638417      95.47362235      90.34137055
H      68.20208665      96.29565330      90.74766171
C      71.64705772      95.06355174      92.36337771
H      73.47253334      95.49440934      91.51300087
C      71.12171381      96.76430542      94.69907944
H      72.18940918      96.06510669      96.31479543
H      69.15639844      96.46005948      95.23954116
C      71.51666661      99.48929076      94.00366015
C      69.67985264     101.47539312      94.25499376
H      67.71264754     101.20138280      94.73309451
C      70.37527191     104.06809762      94.02444714
H      68.85215250     105.42492111      93.95641699
C      72.82057776     104.68414840      93.38760937
O      73.48576142     107.12567480      92.92840588
H      72.10437149     108.30108456      92.91895725
C      74.68951709     102.84544470      93.26288743
H      76.66428108     103.35000162      93.12304769
C      74.05834850     100.25462992      93.49532377
H      75.32635486      98.65781119      93.43863199
C      71.61682210      92.35557393      93.31202032
O      69.58347659      91.17449499      93.63894297
N      73.90528068      91.32000391      93.81090808
H      75.36225966      92.52942875      93.57091282
C      74.69329654      88.55155486      93.84303341
H      73.10970589      87.55566910      94.70474861
C      74.95974795      87.75409036      91.06891520
H      76.66050164      88.73107886      90.43774661
C      75.22053019      84.94406733      90.63427814
H      73.37804703      84.02566035      90.69474938
H      76.24287211      84.07857268      92.19897152
H      76.12570908      84.39037752      88.86738404
O      72.96608670      88.60635693      89.57981085
H      72.98309423      90.37514076      89.17729916
C      76.93640167      87.98274724      95.57402272
O      78.35936559      89.69672901      96.24298583
N      77.04789553      85.75475992      96.68140234
H      75.59091654      84.56423234      96.35258996
C      79.27588285      84.86469883      98.22341901
H      81.09757902      85.65649415      97.67161892
C      78.68250878      85.41082973     101.02777285
H      77.72441754      87.22685672     101.20162768
C      76.84380508      83.52677260     102.23719770
H      75.42084117      83.03355403     100.83124132
H      75.80445561      84.36770081     103.80378081
H      77.54300382      81.74098123     102.98930877
C      81.07868175      85.63570716     102.66994502
H      82.50353540      86.77899158     101.71941269
H      81.79866748      83.78755483     103.22552457
C      80.51176387      86.76765323     105.28532624
H      82.27865797      86.67127718     106.34168325
H      79.31745684      85.45618316     106.33223462
H      79.75020416      88.67438708     105.10013306
C      79.61414386      82.08113197      97.51288191
O      78.07401691      80.91517083      96.15416869
N      81.46985510      80.83013315      98.69774031
H      82.56967581      81.79200384      99.92606241
C      82.02354492      78.13916288      98.37837656
H      80.52688167      77.01477572      99.24009177
H      83.70351160      77.95396970      99.55567607
C      82.54510937      77.34358810      95.82535633
O      83.55233349      78.71552941      94.32869308
N      81.50198044      75.12693914      95.09781168
H      80.26231999      74.50899863      96.40928175
C      81.61347430      73.94397047      92.63927775
H      83.23674920      74.56758015      91.53567759
C      81.77221131      70.94875426      92.70352845
H      79.94106651      70.06436234      93.03423055
C      82.37692373      69.90940479      89.98610202
H      80.82356870      70.29679868      88.69163948
H      82.65849295      67.86850037      89.97665338
H      84.09279523      70.82403232      89.30957999
C      83.29722044      69.81680820      94.89561097
H      83.01376149      67.79480104      94.62349038
H      82.54132992      70.11916441      96.78722701
C      86.14314827      70.38561582      95.02789181
H      87.07289361      69.62405611      93.35170457
H      87.00675319      69.43130403      96.63793863
H      86.32834145      72.43029969      95.19607745
C      79.25887531      74.79812676      91.21631385
O      77.47686340      73.38272175      90.71364664
N      78.94329103      77.25288124      90.80624323
H      80.35680630      78.47931362      91.17662959
C      77.01954964      78.23175947      89.21887313
H      76.67183999      76.92028941      87.66929755
H      77.39182571      80.05912481      88.34204012
C      74.48353692      78.36970949      90.62105005
O      72.63349486      78.10514781      89.19241696
N      74.57424378      78.36593004      93.10981960
H      76.22019540      78.88938423      93.92051220
C      72.23098315      78.51899787      94.52711435
H      70.84014459      77.31146276      93.60303817
C      72.54278799      77.52500183      97.16706200
H      74.11315056      78.36026086      98.20452174
H      72.93585107      75.52567139      96.86281606
C      70.13527668      77.79523269      98.91505884
N      68.12460787      76.18896533      98.84135951
H      68.00177566      74.44285821      98.08168953
C      66.13472608      77.27366823     100.04700490
H      64.26389702      76.49888044     100.30022822
N      67.06825087      79.56023707     101.06367765
H      65.92118699      80.79044890     101.96696683
C      69.49843891      79.92117479     100.29455905
H      70.49810412      81.67484081     100.59502553
C      71.02911722      81.21752704      94.56301914
O      72.37082290      82.83324304      95.46063915
N      68.77278401      81.59358258      93.49154432
H      67.94886333      79.97030768      92.91517779
C      67.46509339      84.04455761      93.23643128
H      68.83136552      85.42027836      92.53723254
C      65.41285061      83.43417601      91.21820356
H      64.16563125      81.92239496      91.84937215
H      66.34637541      83.03922321      89.42485329
C      63.58926472      85.58846401      90.82136104
H      62.69353445      85.89837912      92.65061611
C      65.02167728      88.13959453      90.25066370
H      65.71331710      88.09046164      88.31180449
H      66.69975424      88.48541444      91.39583784
H      63.65729487      89.56066872      90.84781721
C      61.46899180      85.15760641      88.89006075
H      62.34771454      85.27854889      87.03245979
H      60.00256418      86.58623950      89.11493818
H      60.55247454      83.41527875      89.50233207
C      66.37472131      84.88359609      95.77811316
O      65.41285061      83.36047668      97.30690174
N      66.33503706      87.39882181      96.20708104
H      67.06069196      88.46273773      94.79734520
C      65.46387323      88.42683293      98.67128415
H      64.84593272      86.94339777      99.96007749
C      67.80146468      89.87247356      99.93173160
H      67.25911322      90.83056480     101.67027980
H      68.52711958      91.32756282      98.66750469
C      70.05401844      88.21518358     100.67817349
H      70.84581377      87.27221015      99.03033214
C      72.20074754      89.93672425     101.66272091
H      71.31824535      91.11969292     103.09891289
H      73.09080862      91.10268539     100.21896999
H      73.50654841      88.71218160     102.67939365
C      69.34537108      86.36703125     102.74553407
H      68.54790657      87.41582935     104.33290418
H      70.94785899      85.12359133     103.10458207
H      67.89595099      85.11981188     101.98208465
C      63.19998110      90.37325103      98.04200529
O      61.12317188      89.85168657      99.07568557
N      63.33604140      92.10801979      96.25054474
H      65.13884031      92.27998488      95.64772204
C      60.97766296      93.31744463      95.16962128
H      59.56792713      91.81700193      95.07135553
C      60.37295054      95.59267511      97.00076608