 %block lattice_cart
   140.777   0.000   0.000
   0.000 144.511   0.000
   0.000   0.000   162.462
 %endblock lattice_cart

 %block positions_abs
N      93.56315864      42.65671676      79.63607099
H      92.86773936      41.06934666      78.83671676
H      93.48190041      42.41483179      81.52579731
H      95.42075961      42.55467154      79.21277230
C      92.25735776      45.08690480      78.86506266
H      93.06994007      46.57600913      80.03291352
C      92.93010033      45.90326657      76.17976157
H      92.05704677      44.79966640      74.67931888
H      94.90297460      45.32690004      76.04559100
C      92.56916260      48.78698892      75.82827247
H      90.61707532      49.40492942      75.61095395
H      93.46678260      49.19894926      74.01980439
S      94.21511422      50.85434951      78.26601942
C      94.03936967      53.86279380      76.73723083
H      95.24879451      55.05710083      77.89752279
H      92.08350294      54.49585211      76.64652397
H      94.73667868      53.61901910      74.81537917
C      89.50024707      45.09824316      79.39418603
O      88.33617566      43.06111819      79.12206544
N      88.46656677      47.17316265      80.36739508
H      89.68355052      48.61880328      80.63195676
C      86.09873970      47.23930307      81.72799802
H      84.75703402      46.05822412      80.70187663
C      86.50125141      46.02609878      84.43030665
H      88.23413044      46.74608450      85.27879377
H      87.01903642      44.07968067      84.00133878
C      84.24302846      46.13948236      86.09704526
O      84.14476270      47.93472235      87.59559822
N      82.52715697      44.50864855      86.01389730
H      80.99836838      44.79399722      87.11938719
H      82.92777895      42.88537364      85.09171086
C      85.06127996      49.96806787      82.08515630
O      86.46156716      51.82944828      82.40263032
N      82.51014944      50.35735149      82.14940699
H      81.42922598      48.90982113      81.53146649
C      81.16655403      52.77809089      82.24200358
H      81.62386779      53.63224719      80.42219714
C      78.26015496      52.57777990      82.55380842
H      77.47024936      51.38725233      81.07037327
C      77.24726165      51.73118252      85.15029238
H      77.89543778      53.15792588      86.48821861
H      77.97102683      49.88869936      85.72854863
H      75.21013669      51.51953317      85.36950063
C      76.95057462      55.28008853      82.05114122
H      77.95023984      56.66525792      83.19820509
H      74.92667774      55.36512622      82.42719676
C      77.30395344      56.25896676      79.27891272
H      79.20501811      57.00351893      79.00490241
H      75.92445323      57.77263754      79.06348392
H      77.04506094      54.89269464      77.75768304
C      82.32117680      54.64891994      84.08070728
O      82.62353301      56.92981960      83.47788459
N      82.98636047      53.86846298      86.35782749
H      82.68967343      52.07700243      86.94931183
C      84.16554969      55.62023927      88.24566408
H      83.31517284      57.49484777      88.19653119
C      83.81595032      54.62246377      90.96498024
H      84.87419705      55.70149750      92.36148799
H      84.66254771      52.74785527      90.83458913
C      80.93222796      54.33333565      91.60937691
C      79.60752982      51.96928803      91.04056929
H      80.56373133      50.39892546      90.15995683
C      77.06017875      51.81055102      91.66228925
H      76.12854368      50.02664938      91.32213851
C      75.73170115      53.75129994      92.79990449
H      73.76638578      53.31477317      93.13438605
C      76.93923626      56.14369346      93.13438605
H      75.89610734      57.75751973      93.82413615
C      79.55083803      56.35912226      92.69974900
H      80.63932039      58.03908895      93.09470180
C      86.99258025      56.26652567      87.68252564
O      87.98468656      58.03908895      88.76911827
N      88.19255646      55.09111590      85.80980686
H      87.31383372      53.71728487      84.81770054
C      90.57739107      55.72228449      84.70998614
H      91.37485557      56.86178946      86.23121583
C      92.34050572      53.43571565      84.30747444
H      94.08094365      54.11601712      83.44386952
H      91.32383296      52.08645106      83.12828522
C      92.88096744      52.35479220      86.98710635
H      94.13574571      50.73340702      86.79435427
H      91.19155212      51.71795443      87.97921267
C      94.18865805      54.03475889      88.87872239
O      95.66831375      55.67882078      87.94708732
O      93.58772508      53.73051295      91.16718096
C      90.32416774      57.24162444      82.26090084
O      91.90964812      58.98395210      81.82626379
N      88.18877701      56.93548878      80.82848830
H      87.09840492      55.40292074      81.15730068
C      87.66910227      58.35278352      78.57593453
H      89.24324429      57.81610124      77.36273024
C      85.17466354      57.22272718      77.46477546
H      83.47579958      57.76507863      78.49656603
H      85.29938547      55.19883030      77.83516182
C      84.74758539      57.64413615      74.66609079
H      86.28960206      56.90903261      73.51902692
H      84.68900387      59.66992276      74.29192498
S      81.80528152      56.24573868      73.32060566
C      82.53849533      56.42337295      69.94177501
H      82.69534261      58.34711434      69.22556874
H      81.10797251      55.58055501      68.72290154
H      84.29594080      55.51063514      69.37674684
C      87.38186387      61.26485176      78.94254144
O      88.92765999      62.74261774      77.91642005
N      85.56583688      61.99617585      80.40896906
H      84.22602093      60.70549278      80.82470885
C      85.18222244      64.62289542      81.14974177
H      84.90443267      65.90790932      79.56426139
C      82.66132754      64.60777761      82.58593377
H      82.38353777      66.31042102      83.71032093
H      82.86919743      63.39646305      84.23944429
C      80.18956552      63.80086448      81.07604244
H      80.56940051      62.07932381      80.00834708
C      77.94835012      63.33032262      82.73900160
H      78.41889197      62.11522861      84.33582033
H      76.38743618      62.45726907      81.71288021
H      77.09608355      65.03107631      83.52512775
C      79.39210102      65.72460586      79.14285243
H      80.87175672      65.66980380      77.71232961
H      79.25604072      67.68992123      79.74378539
H      77.54961786      65.10477563      78.46255095
C      87.49146800      65.85121753      82.38184333
O      87.72201461      68.15479390      82.19287070
N      89.26781073      64.36967210      83.46843596
H      89.04482303      62.47994578      83.30780922
C      91.58461519      65.34666060      84.72699368
H      91.05171237      66.79230123      86.09515553
C      92.84695237      63.22071850      86.25200282
H      94.11117927      62.20404574      84.98210673
H      91.36918639      62.00184503      87.00789334
C      94.42298411      64.30731113      88.38550382
H      93.33072230      64.99328178      89.99177119
H      95.54926099      65.98160864      87.96976403
C      95.97633914      62.25884780      89.66106908
H      97.01190916      63.26796166      91.12938643
H      97.43520786      61.67492237      88.32881203
N      94.55337523      60.26140709      90.76655898
H      95.02769653      58.50396162      90.18830273
C      93.50268740      60.36156259      92.98887712
N      93.15308803      62.40813618      94.19263278
H      92.18176871      62.19837656      95.82346659
H      93.28725860      64.19392755      93.53122857
N      92.84128319      58.35845269      94.22286840
H      91.41265010      58.49073354      95.47953640
H      92.82616538      56.65202983      93.37060184
C      93.41575999      66.53340872      82.89206943
O      94.81415746      68.21526514      83.69520311
N      93.36284765      65.56019967      80.55636771
H      92.06649540      64.23361180      80.09716421
C      94.68376634      66.90001563      78.44176396
H      96.46955771      67.56519929      79.22033121
C      95.19399245      64.90257492      76.29692460
H      93.34584011      64.07487479      75.91708961
C      96.18042958      66.17625045      73.93476671
H      97.78669695      67.36299858      74.43176473
H      94.62518483      67.37244721      73.30737757
H      96.53569813      64.78730161      72.45511101
C      96.91553312      62.67458759      77.21155213
H      97.01190916      62.55553484      79.26568464
H      98.89785602      63.02418696      76.78069454
C      96.17853986      60.09700090      76.13440814
H      95.98389805      59.92881526      74.09161399
H      94.48534508      59.54331109      77.16430898
H      97.38229552      58.57388149      76.82604797
C      93.14930858      69.23382763      77.56493096
O      94.29637245      71.27662177      77.14541171
N      90.71912054      68.97304540      77.06226376
H      89.92354576      67.24583554      77.24556721
C      89.28481827      71.06497242      75.93409715
H      90.35629309      71.58086771      74.25035100
C      86.59384800      70.26939765      75.33505391
H      85.50536564      71.97959996      74.97411618
H      85.73591225      69.24516598      76.90163702
C      86.49369250      68.59887959      72.98234465
O      87.82972901      69.29618859      71.23623753
O      84.80427718      67.01528893      72.54770759
C      89.10907372      73.36287962      77.69154262
O      89.51158542      75.50960871      76.70132603
N      88.28515305      73.20792206      80.06881832
H      88.15854138      71.49016084      80.89273899
C      88.14909275      75.28095183      81.85271996
H      88.00169410      76.98548496      80.70565609
C      85.62630813      75.21103195      83.29836059
H      85.51481427      76.86265275      84.52479297
H      85.50914509      73.51027827      84.45487309
C      83.35674682      75.24693675      81.37083975
H      81.61441916      75.22048059      82.46499129
H      83.34918792      73.53106526      80.23133478
C      83.44745369      77.42201174      79.42253192
O      84.21468257      79.56874083      80.24456287
O      82.92399950      77.13288361      77.14541171
C      90.44699995      75.31874635      83.70087229
O      91.57705628      77.18201650      84.32826143
N      91.10462471      73.23437823      84.68919916
H      90.33550610      71.58086771      84.12417099
C      92.94710786      72.95280901      86.68663987
H      94.69888415      73.73326598      85.93452880
H      93.09450651      70.91190459      86.89639949
C      91.86429468      74.25672017      89.23399094
O      89.62496900      74.09420370      89.70642252
N      93.51024630      75.40945322      90.74766171
H      95.37162672      75.50582926      90.33570138
C      92.76758386      76.48659722      93.12304769
H      90.78337123      76.07274715      93.48965460
C      94.21700394      74.92568328      95.08836306
H      96.11806862      75.67401490      95.35481447
H      94.36629232      72.97737545      94.43829720
C      93.30237641      74.85765313      97.86248128
H      93.42142917      76.72092328      98.72797593
C      90.64731094      73.85987764      98.50309850
H      90.42054378      72.10810135      97.43918259
H      89.22434703      75.13544290      97.73397989
H      90.26369650      73.59720568     100.50998785
C      95.10328558      73.20792206      99.24198149
H      97.06860095      73.73137625      98.92072802
H      94.88596706      71.17268682      99.02277324
H      94.78203211      73.67657419     101.22052494
C      93.05860171      79.40433464      93.57469228
O      94.97856365      80.56651633      92.81313258
N      91.33517132      80.67045127      95.04489935
H      89.77236766      79.60275591      95.29623295
C      91.32950214      83.02882971      96.61715164
H      93.23245654      83.82440449      96.62849000
C      89.59284366      85.00359371      95.42284461
H      89.42087856      86.64576587      96.65305644
H      87.79004475      84.03605384      95.18095965
C      90.57739107      85.99003084      92.91706752
H      92.58617014      86.41143981      93.07580453
H      89.56260804      87.69645370      92.36904689
C      90.13330538      84.11920179      90.72498500
H      88.36641128      83.19512563      91.24654946
H      91.52981313      82.64710500      90.38105481
N      89.74024231      85.58940887      88.37605519
H      89.98401700      87.48291463      88.33826067
C      89.37741486      84.38565320      86.09515553
N      88.51569966      82.05184121      85.97799250
H      88.39286745      81.19579519      84.27534909
H      88.33995511      81.01438146      87.56725233
N      89.68355052      85.54783489      84.07503810
H      89.66843271      84.74659093      82.34215907
H      89.90842795      87.44134065      84.14873743
C      90.76825342      82.29372618      99.31379109
O      89.72890395      80.23014504      99.92039324
N      91.20855965      84.10219426     101.12036945
H      91.96256045      85.81050684     100.72352692
C      90.39219789      83.83574285     103.82456780
H      89.28103881      82.16900424     104.30455828
C      92.71656125      83.50315102     105.51965230
H      92.06460567      83.30284003     107.46229095
H      93.89008129      85.17177935     105.22674473
C      94.39463822      81.17311847     104.90927070
H      94.99746091      81.27516369     102.94017589
C      96.94954819      81.41122399     106.34735243
H      97.73567434      83.27449413     105.95617908
H      98.36684293      80.10920256     105.61791807
H      96.61317691      81.07674243     108.35046232
C      93.42331889      78.48592765     105.43650435
H      91.65831452      78.02294471     104.47841311
H      92.94521814      78.42923587     107.43961424
H      94.92376159      77.15933978     104.96407277
C      88.82183532      86.10908360     104.83935083
O      87.13808918      85.78405068     106.36813942
N      89.25836210      88.25770242     103.56378557
H      90.62841368      88.29549695     102.23530797
C      87.74847077      90.57639661     103.74519930
H      86.77526172      90.58017606     105.56122628
C      89.58150530      92.92343669     103.77543492
H      90.05582660      93.41098607     101.83090654
H      91.29737679      92.36407770     104.76943096
C      88.51947911      95.41598569     104.89415289
H      87.78815503      94.97567946     106.76876140
H      87.07572821      96.15297895     103.62236709
C      90.70022328      97.33405790     105.18139129
H      92.26302694      96.57249820     106.28499146
H      89.95945056      98.87796430     106.32845517
C      91.74146247      98.36584847     102.56789980
H      90.21267389      99.13685680     101.42272566
H      92.55782424      96.88430304     101.39437976
N      93.62362988     100.21778025     103.10458208
H      94.62140538     100.86217693     101.60980856
H      94.77069375      99.65275209     104.52187681
H      92.77325304     101.68987705     103.97007673
C      85.65276429      90.76914869     101.69106679
O      85.81150130      89.55027522      99.71630280
N      83.79516333      92.51903526     102.01987917
H      83.73847154      93.64153268     103.56189584
C      81.80528152      93.04626890     100.22841863
H      80.92655878      91.28315425      99.62370621
C      79.68689832      94.80371437     101.47185854
H      80.21980114      96.78036809     101.68539761
C      77.45324182      95.04181988      99.49709454
H      78.01260081      95.42543432      97.55256617
H      76.07185189      96.44021735     100.10747614
H      76.52349648      93.20500591      99.52544044
C      78.77982969      93.97412452     103.92283357
H      80.20657306      94.54293214     105.29666460
H      78.66077694      91.92755092     104.13070346
C      76.33452384      94.93032603     104.95273441
H      76.23436835      96.95044346     105.33445912
H      75.86209227      94.11018481     106.78198948
H      74.78494827      94.34640060     103.73008149
C      82.88242552      94.34451087      97.80956895
O      84.61908400      95.93566043      97.98909295
N      82.04338704      93.65476077      95.57969190
H      80.57695942      92.44344620      95.40961653
C      82.86730771      94.51269652      92.99076685
H      83.51170438      96.46289407      93.15139359
C      84.85152034      92.72501542      91.76055502
H      86.41810345      92.60974212      93.09281207
H      85.66599238      93.46389841      90.01822736
C      84.05594556      89.96412528      91.28434399
C      83.50414548      89.24413955      88.84281759
H      83.74603044      90.49891783      87.25166804
C      83.12431049      86.67789122      88.24566408
H      82.95990430      86.16766512      86.27656926
C      82.92022005      84.86753341      90.13728012
O      82.49314190      82.35230769      89.63839237
H      81.99047470      81.91200146      87.95086677
C      83.35863655      85.53271708      92.69596954
H      83.20556872      84.11542234      94.15672798
C      83.98791541      88.10463459      93.20052647
H      84.57562030      88.68289084      95.06757607
C      80.52215735      94.76025066      91.28056454
O      78.60030569      93.59617925      91.71709131
N      80.72624780      96.36651803      89.23966012
H      82.48936245      97.03926060      88.95620117
C      79.08974481      96.38163584      86.96631936
H      77.13198835      96.35328994      87.60882631
C      79.49036679      98.81560333      85.48666366
H      78.91777971      98.83261087      83.50623048
H      81.46702051      99.38252122      85.39217734
C      77.92945285     100.88485364      86.74144193
H      78.77982969     100.87918446      88.61794016
H      76.05862380     100.06282270      87.00789334
C      77.90488641     103.36417457      85.18430745
H      77.56095622     102.80670530      83.23033044
H      79.79272300     104.14652126      85.45264859
C      75.58808195     105.06870770      86.02712539
H      75.60886894     105.21799608      88.08125789
H      73.78528305     104.15030071      85.63595204
N      75.74303951     107.57637452      84.77234711
H      76.68979239     108.69887195      85.98933086
H      74.07063172     108.37005957      84.30558471
H      76.68034376     107.52913136      83.11127768
C      79.48469761      94.12530262      85.00856290
O      81.48213832      93.51492102      84.12228126
N      77.23403357      93.12752713      84.28290800
H      75.76382650      93.50169294      85.44319995
C      76.69546157      91.40409673      82.05681040
H      78.09952822      89.91688212      82.31948236
C      74.04417555      90.38175480      82.31381318
H      72.70246987      91.88219749      81.87539668
H      73.65678166      89.75436566      84.23566484
C      73.54339808      88.20667981      80.51290400
O      74.84541951      86.34718912      81.00612257
O      72.33964242      88.58651480      78.57404481
C      77.19623904      92.94800313      79.53591550
O      77.06773765      95.27425622      79.33182506
N      77.35308633      91.59306936      77.36839942
H      77.00159723      89.71657113      77.40052477
C      77.64599391      92.60596267      74.80026136
H      78.99525849      94.16120742      74.81726890
C      78.71935845      90.78993568      72.82549736
H      79.11620098      91.51370086      70.93766078
C      81.37253419      90.00947871      73.45288650
H      82.61975356      91.64031252      73.28659058
H      81.81850960      88.60163261      72.01480477
H      81.32907049      89.07595391      75.28781075
O      77.08285546      88.66966276      72.76313639
H      77.51560279      87.49992217      74.08216536
C      75.13076818      93.71523201      73.88563382
O      74.98336953      95.39330898      72.23779248
N      72.93301648      92.82706064      75.02702852
H      73.10309185      91.45889879      76.34794721
C      70.50849762      94.12152317      75.05348469
H      70.25527430      95.22134388      73.33005429
C      68.26728221      92.26959138      75.08372031
H      66.53062373      93.37319155      74.97411618
H      68.22948769      91.40220700      76.95076990
C      68.13311165      90.03404515      73.22800907
H      66.51739565      88.87375320      73.76280161
H      69.91512356      89.00603404      73.32060566
C      67.94791847      90.78993568      70.48034701
O      65.73504895      91.38519947      69.66020579
O      69.79607080      90.96379050      68.95911733
C      70.30251745      96.21156047      76.95265963
O      68.35798908      97.33216817      77.38351723
N      72.34342187      96.99768662      78.22066599
H      74.08763926      96.32305432      77.85027963
C      72.38688558      99.17465133      79.92330939
H      71.25304979     100.62407141      78.99734350
H      74.20291256     100.05715352      80.33149028
C      71.28139568      98.63041015      82.58215432
O      71.75760671     100.15919874      84.31881280
N      70.07386057      96.49690914      83.15285166
H      69.96047699      95.15331374      81.80358708
C      68.84931792      96.02069811      85.56414244
H      67.94224929      97.64019356      86.45609326
C      66.81786213      94.00436014      85.06147524
H      66.07708942      93.50925184      86.91529675
H      67.72493076      92.36596742      84.20164977
C      64.71648647      94.97567946      83.21710236
C      64.14578913      93.65476077      81.03446847
H      65.32686807      92.05794203      80.55636771
C      62.10299498      94.44655609      79.54536413
H      61.66457848      93.24091071      77.95988375
C      60.69892833      96.61407218      80.18409163
O      58.66936227      97.36996270      78.76868662
H      58.19693069      99.10095200      79.03702775
C      61.39056816      98.07672034      82.37806387
H      60.44570500      99.83227609      82.81081120
C      63.48627464      97.27169693      83.94842644
H      63.85855073      98.32049504      85.66240821
C      70.71636752      95.02103289      87.50300164
O      72.65900617      93.85696148      86.92852484
N      70.12299345      95.44433159      89.94830748
H      68.46003430      96.28903925      90.35459864
C      71.83508549      94.68277188      92.01755780
H      73.74748852      95.12307811      91.38827894
C      71.47603749      96.07738990      94.54034243
H      72.39066503      95.13252675      96.12582280
H      69.59953926      96.21156047      95.37938091
C      72.64577808      98.72300674      94.58002668
C      71.03006208     100.82249267      94.73309451
H      69.05151863     100.45966522      95.07891442
C      72.00894031     103.16764303      94.54034243
H      70.75605177     104.75879258      94.78789657
C      74.73770511     103.40385882      94.15294853
O      75.89610734     105.77168589      94.12838209
H      74.63188044     107.07181759      94.13216154
C      76.41011290     101.37618248      94.16050744
H      78.43400978     101.61050855      94.08869784
C      75.31785109      98.98945815      94.31357527
H      76.68034376      97.47956683      94.13783072
C      72.01649922      91.74991665      92.43329759
O      70.08897838      90.43277741      92.56368870
N      74.29928861      90.86930418      92.91517780
H      75.73170115      92.06739067      92.52778390
C      74.85297841      88.25581269      93.14950386
H      73.22781379      87.30717008      93.98476289
C      75.75248814      86.89520975      90.62860896
H      76.35909029      85.01493207      91.20875494
C      73.61142823      86.72324465      88.88061212
H      73.76827551      85.24358895      87.45386875
H      73.08986376      88.62619905      88.28723806
H      72.06374238      86.00136920      90.03145544
O      77.57229458      88.23124625      89.45508892
H      78.95557424      88.25203324      90.63049868
C      76.76727117      87.68133589      95.22631308
O      78.19023508      89.35941286      95.97653442
N      77.07151711      85.39476706      96.11637417
H      76.01516010      84.13054015      95.15261375
C      78.90455163      84.55761830      98.08735871
H      80.46546556      85.90121371      98.16294777
C      77.40977812      84.48013952     100.64415842
H      76.82963214      86.42466790     100.99186806
C      75.17990107      82.56584676     100.87281530
H      73.99315294      82.73781186      99.19851779
H      73.98181458      83.01560163     102.48664157
H      75.72036279      80.57974441     100.94840435
C      79.19556948      84.21368811     102.96852178
H      79.96090864      82.32207207     103.25764991
H      78.04661588      84.75792929     104.58801723
C      81.41977735      85.98436166     103.01954439
H      81.93756236      86.21679800     105.00186729
H      80.78671904      87.83062427     102.36002991
H      82.91266114      85.33429581     101.75909694
C      79.93256274      81.86664803      97.46941821
O      78.84785984      80.57218550      95.82535632
N      82.06795348      81.02760955      98.55979029
H      82.97691183      82.26160083      99.69362608
C      83.09407487      78.51049410      98.33113341
H      81.47835887      77.39177612      98.95285337
H      84.81939499      78.27238858      99.42906440
C      83.51926329      77.66956589      95.62315560
O      84.76459293      79.00182294      94.12082318
N      82.53849533      75.38488678      95.05623771
H      81.49914586      74.44758252      96.35258996
C      82.54416451      74.46459006      92.41440032
H      83.94634143      75.44346829      91.26733645
C      83.23769407      71.68102320      92.28589893
H      81.77315617      70.47537781      93.08525316
C      83.54382973      70.92702240      89.45508892
H      85.29182657      71.74527390      88.73888264
H      81.93756236      71.55441154      88.32692231
H      83.66855167      68.87288990      89.41729439
C      85.77181705      71.25583478      93.91673274
H      85.42032796      71.56574990      95.92173236
H      87.11163301      72.72226240      93.36304293
C      86.86596859      68.62722548      93.50288268
H      85.27670876      67.32142460      93.39516828
H      88.22468181      68.04896923      94.93907468
H      87.64264610      68.54218780      91.59614883
C      80.06862304      75.07119221      91.06891519
O      78.34708237      73.57452897      90.53601237
N      79.79272300      77.50326997      90.44152605
H      80.93789714      78.88465991      91.08970218
C      77.70646515      78.44435368      88.71620593
H      77.60819938      76.94202126      87.31024955
H      78.25070633      80.24904230      87.88472635
C      75.04573050      78.71269481      89.98232256
O      73.20702680      78.79395304      88.60093262
N      74.73392566      78.63332631      92.45975375
H      76.33452384      78.39711052      93.47264706
C      72.25271501      78.61442904      93.64650188
H      71.27005733      77.24626719      92.45975375
C      72.40389311      77.66011726      96.42817901
H      73.78906250      78.77694551      97.46374903
H      73.07096650      75.73259642      96.14283034
C      69.96803590      77.76594193      98.20074229
N      68.18980344      75.80062656      98.23664709
H      68.33909181      74.19246947      97.22186406
C      66.35298946      76.43368488      99.74653842
H      64.97915843      75.06363330     100.38148646
N      66.73282445      78.80340168     100.73864473
H      65.33442698      79.85786896     101.50020444
C      69.00805493      79.65188879      99.77488431
H      69.91134411      81.46224660     100.03944600
C      71.03384154      81.10319860      93.46697788
O      72.05240402      82.89465914      94.63482874
N      68.77561859      81.32240685      92.29156811
H      67.90067531      79.63677098      92.07613931
C      67.42635400      83.77905106      92.18574344
H      68.76050078      85.25303758      91.64339199
C      65.26828656      83.62031405      90.15617738
H      63.66201919      82.67734062      91.03678984
H      65.73882841      82.80584201      88.32314286
C      64.31775422      86.27537952      89.55524441
H      64.17224529      87.56606259      91.15206315
C      66.00905927      87.59062903      87.71087153
H      66.04307434      86.56639737      85.92508016
H      67.92524175      87.76259413      88.44597507
H      65.40245712      89.53704713      87.42174340
C      61.85544083      86.26404116      88.16440585
H      61.85166138      85.22658141      86.38806311
H      61.22427225      88.18211337      87.74866606
H      60.57042694      85.41177459      89.53067797
C      66.19047300      84.68611969      94.73687396
O      65.16435161      83.05906533      96.04078512
N      66.47771140      86.96512962      95.35292474
H      67.61721636      88.08573732      94.30790609
C      65.45536946      88.06117088      97.64894221
H      65.00372487      86.54561038      98.96986090
C      67.51517114      89.70712250      98.93773556
H      66.81597241      90.69544936     100.60636389
H      68.01027944      91.15654258      97.56201480
C      69.76016600      88.09707568      99.95818776
H      70.57274832      86.78938507      98.58813619
C      71.88421838      90.03026570     100.62904061
H      72.83853017      90.37797534      98.83758006
H      73.22592406      89.37831012     102.05389425
H      70.91100933      91.78960090     101.07690574
C      68.90411998      86.66844259     102.26932305
H      67.88366777      84.96768891     101.70996406
H      67.85154243      87.87219825     103.56945475
H      70.45180583      85.93900823     103.41827664
C      62.99305607      89.52948823      97.26910722
O      61.23939006      88.97579842      98.70151977
N      62.96659991      91.32661795      95.51733093
H      64.45570424      91.58928991      94.35136979
C      60.66680298      92.99713601      95.22820280
H      58.87723216      91.98613243      95.33591720
C      60.68947970      94.90764931      97.36737299