 %block lattice_cart
   140.777   0.000   0.000
   0.000 144.511   0.000
   0.000   0.000   162.462
 %endblock lattice_cart

 %block positions_abs
N      90.05866120      41.80633991      81.37083975
H      88.95317130      41.21485558      82.81081120
H      91.86901900      41.60602893      81.93964737
H      89.52953783      40.57234863      80.01590598
C      89.46528713      44.63337049      81.10438834
H      90.64069690      45.63681515      82.46688101
C      90.23062629      45.67083023      78.56648591
H      89.35379328      44.88470408      76.87518085
H      92.28853824      45.58201309      78.56648591
C      89.72417964      48.50730943      78.59483180
H      87.70028276      48.74919440      78.30192421
H      90.76163938      49.37091435      77.04147676
S      91.03187025      50.23073983      81.21210275
C      94.19527209      50.82222416      79.91575048
H      95.07021538      49.00997662      79.47355454
H      95.42170447      51.71417498      81.31036850
H      94.31621458      52.13936340      78.33782902
C      86.65904356      45.18139111      81.80169735
O      85.10946798      44.29699919      80.36550536
N      85.93905783      46.49475091      83.81236614
H      87.29210187      47.17883183      84.97265810
C      83.24619784      46.85379891      84.35471760
H      81.93661750      46.18294606      82.91474615
C      82.31834222      45.24564181      86.56947683
H      83.62225337      43.70173542      86.96631937
H      80.44562344      44.52754581      86.10838362
C      82.28054769      46.78576876      88.97509844
O      80.60813990      48.22196075      89.60248757
N      84.36302609      46.89915233      90.36971646
H      84.32334184      47.85724357      92.02133725
H      85.89181468      45.79933161      90.07302942
C      82.56967582      49.70917535      84.67408134
O      84.26665005      51.21339751      85.46020749
N      80.19428984      50.70884057      84.33204088
H      78.85447389      49.45784176      83.80102779
C      79.42139178      53.32989097      84.57770530
H      80.18673094      54.31065894      82.93742287
C      76.48286736      53.37902385      84.70431697
H      75.88760357      52.57589017      82.90529752
C      75.38493638      51.64425510      86.78490564
H      75.15438976      52.70250184      88.53668193
H      76.56790505      50.01153156      87.21009405
H      73.53300459      51.06788857      86.09326580
C      75.47942269      56.17014962      84.80258273
H      75.88760357      57.30398541      86.47310079
H      73.42529019      56.07755303      84.92541494
C      75.94618509      57.84255742      82.46688101
H      75.52477612      56.65202983      80.83793693
H      77.92094909      58.41325475      82.34593853
H      74.77833423      59.54142137      82.44987348
C      80.63648580      54.83411313      86.82647962
O      81.71362980      56.83722302      86.48632889
N      80.61758854      53.75507939      89.15273271
H      80.15649532      51.90503734      89.24721902
C      81.78732912      54.78309051      91.50544196
H      81.07868176      56.69360382      91.79268036
C      81.00498243      53.17304370      93.78256218
H      81.89315380      51.32867081      93.56902310
H      78.97541637      52.85367994      93.62760461
C      81.64559965      53.95161094      96.45085572
C      82.09157506      56.52163871      96.89872087
H      81.89504352      57.98995607      95.49654394
C      82.76809708      57.26052171      99.37048289
H      82.80778133      59.23528570      99.87881927
C      83.19139577      55.33678031     101.18462014
H      83.47863417      56.05865578     103.07245672
C      82.83612723      52.84045187     100.68006321
H      82.89281902      51.45906193     102.18050590
C      81.83457228      52.13180449      98.37459712
H      81.46607565      50.21940147      97.76421551
C      84.63892613      55.12891043      91.17096041
O      85.47229543      56.98462167      92.12149275
N      85.97307291      53.52264306      89.83681363
H      84.87325219      52.21684217      88.98076761
C      88.68294044      53.69649788      89.45697864
H      89.56544263      54.49585212      91.13694534
C      89.69394402      51.05466049      88.96376008
H      88.67160208      50.35357203      87.31780846
H      89.39536726      49.83200756      90.59270416
C      92.58522528      51.34945780      88.74833127
H      93.53764734      52.29432096      90.31302467
H      92.96883972      52.45683741      87.05702622
C      93.74173778      48.63392108      88.46109287
O      92.48695951      46.95017495      87.41607422
O      95.93004085      48.23329911      89.37761013
C      88.80577265      55.46717143      87.15340227
O      90.30243589      57.14335868      87.34615436
N      87.40737518      55.29709607      85.12383621
H      85.99763935      54.01019245      85.18619717
C      87.61713480      56.80509767      82.81837010
H      89.52197892      56.55187433      82.07759739
C      85.80866672      55.97739753      80.79069377
H      84.01531645      56.94682714      81.07982190
H      85.62536327      53.93460339      80.99856367
C      86.76297851      56.44793940      78.14696667
H      88.80199320      56.15881126      78.11673103
H      86.71384562      58.43404175      77.60272549
S      85.55922284      54.44105004      75.65063821
C      82.82478887      56.37612979      74.95710865
H      83.49942116      58.21294377      74.31649143
H      81.55489279      56.41770378      76.57849383
H      81.58512841      55.45205363      73.59650569
C      87.26753543      59.62078987      83.19820509
O      88.86813362      61.00406953      82.23066522
N      85.61402491      60.52407904      84.81392110
H      84.54821927      59.32221311      85.84571167
C      85.22096183      63.17347534      85.00478345
H      85.24552828      63.89157133      83.07537289
C      82.66038268      63.56842814      86.31436379
H      82.53188129      65.48839007      87.04946732
H      82.49597649      62.45348961      88.03968391
C      80.57412483      63.28874864      84.43030666
H      80.84624542      61.46138330      83.51945857
C      78.09102446      63.12056300      85.86271920
H      76.53200025      63.14323972      84.51912379
H      77.96441279      64.80241942      87.04757760
H      78.03622239      61.50862645      87.14584336
C      80.37948302      65.63200928      82.65207420
H      78.60503001      65.15768796      81.72043912
H      81.97063258      65.71137778      81.34627331
H      80.26420972      67.38378556      83.72921819
C      87.57556082      64.54163720      86.28790761
O      87.95350608      66.62600532      85.77957123
N      89.14592339      63.05442258      87.65229002
H      88.71317606      61.19871135      87.74866606
C      91.57989088      64.00306520      88.49699767
H      91.26808604      65.62634010      89.72720950
C      92.74396229      61.97727858      90.23176643
H      94.75085163      62.32309849      90.53223292
H      93.19560688      60.32754752      89.08281283
C      91.21517370      61.30453601      92.63360858
H      89.29710149      60.64502153      92.27645030
H      90.99785517      62.93348009      93.87704849
C      92.51908486      59.05954116      94.10192592
H      94.42770843      59.54898028      94.70285889
H      92.87246368      57.60823135      92.68463119
N      91.03564970      57.95594098      96.13716117
H      89.95283652      56.46872638      95.62882479
C      90.87313324      58.54742533      98.54278275
N      91.87279846      60.63746262      99.35725479
H      91.77264296      61.04942297     101.21863522
H      93.08411302      61.68248128      98.31979505
N      89.28765286      57.32666212      99.88448844
H      89.17237955      57.84066768     101.71941269
H      88.28420819      55.74496120      99.51977127
C      93.57733159      64.78352215      86.42018845
O      94.76974889      66.74505808      86.78112619
N      93.53764734      63.64212747      84.13361962
H      92.38491429      62.12656696      83.98244152
C      94.95683180      64.68525639      81.96421381
H      96.30420666      65.99861617      82.80136257
C      96.54420190      62.60466772      80.65652320
H      97.69504523      63.52118499      79.21466202
C      98.58888577      61.42547851      82.46310156
H      99.52052084      62.96371572      83.46654624
H     100.00429078      60.32187833      81.45209798
H      97.61189727      60.36723176      83.93330864
C      94.96817016      60.72627977      79.14474215
H      93.59433913      61.74673198      77.99767829
H      93.85134191      59.62645905      80.48455811
C      96.41192106      58.92159113      77.32493572
H      97.87645895      59.78141661      76.16086430
H      95.24973938      57.69893821      76.14196705
H      97.48150615      57.68004095      78.57215508
C      93.26363702      66.15546346      80.06692860
O      94.22739744      67.82220206      78.85939348
N      90.80888254      65.50917707      79.84961007
H      90.14936806      63.99361656      80.80392185
C      89.21584326      66.57498270      77.94854539
H      90.21739821      66.70726355      76.15330540
C      86.78754495      64.85344204      77.77091112
H      85.44017009      65.23138730      79.28458191
H      87.43005189      62.89568558      77.79169812
C      85.26631527      65.19548249      75.44465804
O      86.44172503      65.08587836      73.45666596
O      82.96651834      65.58476611      75.68276355
C      88.42971711      69.40390299      78.50034548
O      88.23696503      71.08953886      76.83927605
N      88.46184246      70.04074076      80.96265887
H      88.79632402      68.69903507      82.27790838
C      88.20483968      72.57864319      81.92641929
H      88.78120621      73.87877491      80.43731496
C      85.46851598      72.90556585      82.94120231
H      85.56678175      74.29073523      84.46243200
H      84.92805426      71.06497242      83.69142367
C      83.57123076      73.87877491      80.96643832
H      81.65315856      73.29295974      81.44453907
H      84.14759729      72.84320488      79.28080245
C      83.91327123      76.77572534      80.44109441
O      82.34290866      78.03806251      81.80358707
O      85.40993447      77.67901451      78.96332842
C      90.07566873      73.12666384      84.04858193
O      91.60823677      74.90678601      83.94842644
N      89.93771871      71.58464715      86.02712539
H      88.46373219      70.37144286      85.95342605
C      91.71973062      71.66590539      88.30802504
H      93.56032405      72.36132467      87.69953317
H      91.89925462      69.77617908      89.10548955
C      90.68227088      73.33264399      90.36782672
O      89.33678574      75.20725250      89.86704926
N      91.28320385      72.61454799      92.66006474
H      92.23184646      70.95725803      92.66951338
C      90.15125778      73.48004265      95.07513497
H      88.14247871      73.55374197      94.61782120
C      90.45550372      71.40134371      96.92139758
H      92.42648827      70.99316282      97.36359354
H      89.89803446      69.71381811      95.88204810
C      89.39536726      71.55252181      99.49142536
H      90.43282701      73.03784669     100.46841388
C      86.52109354      72.11188080      99.52166099
H      85.68772423      71.84542939     101.38682085
H      85.44583927      70.89489706      98.25365464
H      86.42282777      74.12254959      99.07757531
C      89.60512688      68.91068442     100.63659952
H      88.85490553      68.90312552     102.55467172
H      91.61579568      68.52140080     100.85391803
H      88.63191783      67.47638215      99.52166099
C      90.94683256      76.06896769      96.06157211
O      93.13324591      76.65100340      96.26566254
N      89.11568777      77.74326521      96.77777839
H      87.31288886      77.32941515      96.30534680
C      89.53142755      80.28305737      97.90216553
H      91.57989088      80.47580946      98.01365939
C      88.37491505      82.43734537      96.22408857
H      88.79443429      84.07006890      97.40516751
H      86.36046680      82.12176109      95.92929126
C      89.72417964      82.26915974      93.65595052
H      88.85301581      80.69879717      92.64872639
H      91.76508406      81.98759051      93.69374504
C      89.34623438      84.84296697      92.34637018
H      89.93393926      86.26971033      93.71264231
H      87.41304436      85.54972462      92.38416470
N      90.61046128      85.15288209      89.81413692
H      90.44605509      83.63543185      88.66707304
C      91.13013602      87.19000705      88.55746891
N      91.05454696      89.31594915      89.54390606
H      91.70461281      90.66332402      88.35904766
H      90.78053665      89.71657113      91.39016867
N      91.80665804      87.13898444      86.12917060
H      92.48129033      88.78493606      85.43942050
H      92.20350056      85.67066709      84.97643755
C      88.41837876      80.43045602     100.59124608
O      86.48329901      79.22292092     101.17139205
N      89.81677623      81.65877813     102.25798468
H      91.13769492      82.87954133     101.62492638
C      89.58622962      81.60208635     104.85635837
H      87.98752116      80.34541834     105.17950157
C      91.96350532      80.44746356     106.16593871
H      91.68382582      80.59297249     108.19928422
H      93.54142679      81.76082335     105.97129689
C      92.83277942      77.79617754     105.46107079
H      93.31276991      77.94735565     103.46363007
C      95.20438595      77.21792129     106.95584430
H      94.79242561      76.26360950     108.73596649
H      96.23428679      78.97158731     107.27331832
H      96.36278818      75.95558413     105.81255988
C      90.77486747      75.82330328     105.48185778
H      91.74618679      74.01483520     105.31367213
H      89.25930697      76.21069717     104.14015209
H      90.09834545      75.76283204     107.42638615
C      88.77931648      84.23069564     106.07145238
O      88.41459930      84.42533745     108.32211642
N      88.35979724      86.23947472     104.59179668
H      88.74341168      85.88420616     102.75498271
C      86.74786070      88.49013875     105.12469950
H      85.46662625      87.95345648     106.64592918
C      88.57144659      90.58584523     106.09790856
H      89.18371791      89.81294717     107.90637663
H      87.48674368      92.33384207     106.20751269
C      90.97139900      90.97701858     104.38203706
H      90.35723795      91.25858780     102.43561897
H      92.27531016      89.38964848     104.54644325
C      92.41892936      93.42232443     105.08312552
H      93.02931096      93.44878060     107.05033062
H      90.95817092      94.86607533     104.92438852
C      94.47306186      94.22545811     103.14048687
H      94.93226536      96.21533992     103.39937939
H      93.90236452      93.96278616     101.17895096
N      96.92592662      93.02170245     103.59969037
H      96.94293415      91.20567546     103.01765467
H      97.30009243      93.12752713     105.46862970
H      98.48117137      93.75113681     102.76632106
C      85.10379880      89.30650052     102.86836629
O      85.22852074      88.14053938     100.81234406
N      83.36147114      91.00158502     103.45229172
H      83.52398761      91.81794679     105.16816321
C      81.54355443      92.04471394     101.67405926
H      80.35680630      90.61986031     100.78021871
C      79.75965279      94.08372864     102.71151900
H      80.92183447      95.50858229     103.64126434
C      78.38015258      95.51236173     100.61581252
H      77.64315932      94.24057593      99.17206161
H      79.61792332      96.68966122      99.46874865
H      77.02143936      96.81438316     101.45674074
C      77.66394631      92.87430380     104.37636789
H      78.41794711      91.47590632     105.68405849
H      76.55278724      91.76692418     103.04222111
C      75.99153852      94.57883693     106.07523184
H      74.56101570      95.67676792     105.07934607
H      77.00254210      95.95455769     107.22607516
H      75.03344728      93.47334704     107.52465193
C      83.09501973      93.16154221      99.55378634
O      84.70695628      94.78103765      99.79378157
N      82.57345527      92.04282422      97.43918260
H      81.42261195      90.53104317      97.59036069
C      83.23863893      92.89887024      94.88049316
H      84.49719666      94.52403487      94.75577122
C      84.90159809      90.78804596      93.74854711
H      86.29621611      90.09073695      95.09214250
H      85.88236604      91.66487896      92.16306672
C      83.41816293      88.53738191      92.74888189
C      83.58445885      87.86841879      90.22420752
H      84.58034461      89.12319706      88.96187036
C      82.60936007      85.71413080      89.25666766
H      82.58668335      85.55161433      87.22143242
C      81.35080235      84.03416411      90.79112542
O      80.32846041      81.99325969      89.69697389
H      80.85002487      81.96113434      87.96220514
C      81.39804550      84.35163812      93.40650663
H      80.30389397      83.03827834      94.51955544
C      82.59235253      86.53616175      94.33436226
H      82.41660799      86.77993644      96.35258996
C      80.63648580      93.19366754      93.51233132
O      78.70518551      93.34106620      94.61593147
N      80.94829064      93.68688611      91.10481999
H      82.68116967      93.76814434      90.30357603
C      78.81667936      94.21789920      89.35115397
H      76.88348934      94.02514712      90.03712462
C      78.63526563      97.12996745      88.74077238
H      77.14238185      97.55137643      87.38772833
H      80.47774879      97.65342164      87.98110239
C      78.08913473      98.71922729      91.17285014
H      79.26454450      98.02758746      92.71486680
H      76.12570909      98.29592859      91.62638445
C      78.59180193     101.50468387      91.13505561
H      80.64782416     101.58405237      91.22765219
H      77.85858812     102.38151688      92.84903737
C      77.70363056     103.04481081      88.81069224
H      75.67028505     102.86528681      88.53668193
H      78.74486976     102.48356210      87.12316664
N      78.13826761     105.76223726      89.17729915
H      78.22708475     106.84127098      87.60504686
H      79.82579321     106.03246812      90.03145545
H      77.00443183     106.57292984      90.48121030
C      79.09446913      92.41699003      87.05135705
O      81.06734340      92.25069412      85.78524042
N      76.94207086      91.26425699      86.29168706
H      75.36981856      91.74046801      87.26111667
C      76.58680231      89.74680675      83.94464698
H      78.11559090      88.37297573      83.82748395
C      74.08669440      88.14242911      84.14117852
H      72.43696333      89.37642039      84.21676758
H      74.12637865      87.04449812      85.88350618
C      73.65772653      86.25270280      81.96799326
O      75.05612400      84.32518196      81.83193298
O      71.90595023      86.99158578      80.46755057
C      76.42806530      91.25291862      81.34249385
O      76.37515296      93.58673063      81.45020826
N      76.21830568      90.10585475      79.12962434
H      76.19940842      88.20479008      78.96899760
C      76.00665633      91.38708920      76.71644384
H      77.40505380      92.88942162      76.54825820
C      76.60380985      89.59184919      74.45822090
H      75.01077057      88.28793803      74.43554418
C      76.71908315      90.83717884      71.91275956
H      77.39371545      89.47846561      70.51814154
H      77.99464841      92.43588730      72.14897534
H      74.76888560      91.46078851      71.68032321
O      78.99998281      88.28982776      74.80782027
H      78.65794235      86.78938507      75.76969095
C      73.38749566      92.53415306      76.34983693
O      73.10781617      94.41254102      75.11395592
N      71.49398990      91.66298923      77.69154262
H      71.93807558      90.06994995      78.64396468
C      68.92207238      92.93099559      78.26223996
H      68.33058805      93.99491150      76.60117053
C      66.85660152      90.90520899      78.96332842
H      65.24277525      92.05038312      79.53024633
H      67.68808110      89.74680675      80.45243276
C      66.00055550      89.17988886      76.71077467
H      67.52178519      88.13487020      75.79803685
H      65.29946704      90.53482262      75.32749501
C      63.98043808      87.22402212      77.70477070
O      62.00756381      86.89898919      76.50101505
O      64.61160666      85.94845686      79.54158467
C      68.99577171      95.13252674      80.16330464
O      67.10982485      95.99991112      81.01179175
N      71.35603988      95.96589604      80.84549584
H      72.91128463      95.16843154      80.07448751
C      71.79823583      98.05593335      82.40640977
H      70.71731238      99.60172947      81.57681991
H      73.78811764      98.52458547      82.64073583
C      71.07069120      97.90286552      85.14273347
O      72.24232152      99.22378421      86.71687550
N      69.54001289      96.15108922      85.97421304
H      68.56113466      95.08339386      84.72888341
C      68.67640796      96.23612691      88.54802029
H      68.30224215      98.11829431      89.29446218
C      66.31425007      94.70544859      88.57069700
H      65.74922191      95.11740894      90.50766648
H      66.70164397      92.68155171      88.52345385
C      64.23366140      95.45944939      86.73199331
C      63.23588591      93.56783335      85.25989651
H      64.15240317      91.74235773      85.30713966
C      61.13262052      94.01002931      83.62150378
H      60.44476014      92.62108047      82.29491591
C      60.16886010      96.55927011      83.40985445
O      58.29425160      97.10540101      81.77524118
H      57.98433649      98.89119238      81.84705078
C      60.92097118      98.39041491      85.21076361
H      60.33515602     100.32927410      84.96887865
C      62.98077286      97.83483537      86.84726660
H      63.61950035      99.32582944      88.08503734
C      70.67951786      95.27047676      90.48876921
O      72.27633659      93.67176831      89.89350543
N      70.50566303      96.01691865      92.86982436
H      69.12994228      97.31327091      93.14950386
C      72.11004067      94.92465685      94.81624246
H      74.06212796      95.34228636      94.30412663
C      71.55635086      96.28903924      97.29367367
H      73.03600657      95.65598094      98.57868755
H      69.66095537      95.63897339      97.76799496
C      71.44107756      99.10851091      97.21241543
C      69.10726556     100.40297343      97.15950309
H      67.31013584      99.49968425      96.82313182
C      69.29812792     103.07126698      96.88927223
H      67.69186055     104.21833085      96.37904613
C      71.70752897     104.35817060      96.93084622
O      71.96075230     106.89418331      96.62093110
H      70.31480068     107.65385329      96.71730713
C      73.93173684     102.99567794      97.14249556
H      75.77610972     103.85928286      97.29178394
C      73.72953612     100.36517890      97.23131269
H      75.48131242      99.32016025      97.14816473
C      71.89650160      92.00880915      95.36615283
O      69.79134649      90.91654734      95.68362684
N      74.01866425      90.77481787      95.19607745
H      75.51910694      91.95022763      95.08458361
C      74.35881499      88.03471471      94.85025755
H      72.59570034      86.97835770      94.97120003
C      75.28478088      87.45834818      92.19330235
H      77.18017637      88.21990789      91.93252011
C      75.08069044      84.61242036      91.95330710
H      73.14561069      83.95479561      92.22542770
H      76.27310774      83.58629897      93.28367442
H      75.76477136      84.25526208      90.04468353
O      73.55568130      88.47880039      90.44341578
H      73.22686893      90.23246641      90.76655898
C      76.39593995      87.23347075      96.80234483
O      78.10047309      88.72446481      97.45430040
N      75.98586934      84.94690191      97.83602511
H      74.60258968      83.79038941      97.20863599
C      77.84158058      83.62787296      99.43095412
H      79.62548222      84.65399433      99.35158562
C      76.94585031      83.79605859     102.29011003
H      76.47908791      85.69712327     102.92883753
C      74.31535128      82.52049333     102.42617033
H      74.52889036      80.71202526     101.46240991
H      72.78278324      83.54283526     101.50209416
H      73.95441356      82.03294394     104.39148570
C      78.75620812      82.48647825     104.20629252
H      79.04911570      80.48525809     103.80944999
H      77.79622715      82.51293442     106.02609896
C      81.26954411      83.92455999     104.18361580
H      82.55455801      83.30850920     102.69829092
H      81.99141957      83.63732158     106.09034966
H      80.87459131      85.94656713     104.20062333
C      78.30078408      80.85564445      98.52955467
O      76.74742905      79.82574360      97.08958322
N      80.43050563      79.49693123      99.20607670
H      81.75898323      80.25282175     100.34558165
C      80.91427557      76.83052740      98.90561020
H      79.36847944      75.64188955      99.56890415
H      82.48652786      76.41667734     100.17172683
C      81.45284757      76.28817595      96.20519130
O      83.60524584      76.92501371      95.49276449
N      79.72752744      75.23937784      94.70285889
H      78.13070871      74.59687091      95.52488984
C      79.58390824      75.31496690      91.93063039
H      80.77821527      76.79840205      91.14828370
C      80.57223510      72.78273364      90.72876446
H      79.53477536      71.18969436      91.51678032
C      80.07901654      73.05107478      87.81669620
H      78.18173132      73.65011801      87.28001393
H      80.45885153      71.19914300      86.99466526
H      81.33568453      74.29262497      86.76033920
C      83.38981704      72.31786096      91.44875017
H      83.47863417      71.76228143      93.43107309
H      84.75797889      73.73515570      90.84592749
C      84.17783291      69.88956265      90.17318492
H      86.08267703      69.47760231      90.84592749
H      84.04177261      70.07475583      88.12661131
H      82.76998681      68.44770148      90.59648362
C      76.82301810      76.08408550      91.44497072
O      75.10525688      74.63466542      91.94763793
N      76.37704269      78.36876462      90.24877396
H      77.91339018      79.48370314      90.07302942
C      73.84858888      78.87521127      89.01478269
H      73.50276897      77.19146512      87.87716744
H      73.97331082      80.47958891      87.73165853
C      71.51666661      79.39488601      90.82514049
O      69.50410809      80.02416487      89.89917460
N      71.82469200      79.12276542      93.40650663
H      73.45174636      78.57474480      94.24365539
C      69.65717592      79.41756272      95.12615758
H      67.95075306      78.58608315      94.32302390
C      70.54912674      77.76405220      97.37682162
H      72.16484274      78.72025371      98.22530873
H      71.28234055      75.96125329      96.70407905
C      68.57058329      77.48059326      99.43284385
N      67.70319891      75.18835524     100.42117071
H      68.55168603      73.51405773     100.07157134
C      65.86449521      75.67779436     102.13515248
H      64.83648410      74.27561742     103.20284785
N      65.61316161      78.20813788     102.28633059
H      64.20153605      79.03583801     103.26898826
C      67.24210569      79.31929695     100.60447416
H      67.58603588      81.33185548     100.60825361
C      68.95230801      82.24459330      95.71575219
O      70.38094110      83.69023391      96.85336743
N      66.72621041      82.80962145      94.68963081
H      65.52056502      81.40555480      94.22475814
C      65.65851504      85.38909787      94.68774107
H      67.13250157      86.65332478      94.00177042
C      63.36060785      85.37209033      92.75077161
H      62.27023576      83.68456475      93.20241620
H      63.93130519      84.90154848      90.82891994
C      61.71843568      87.75692494      92.71297709
H      61.30269589      88.14431883      94.68963081
C      63.19053248      89.88097733      91.41284537
H      65.01411837      90.18144381      92.32369346
H      62.28346385      91.72157076      91.56969266
H      63.64973597      89.25547792      89.50422180
C      59.43753602      87.27315500      90.87238365
H      58.41141463      85.55350406      91.35615358
H      59.79280457      87.07473375      88.85226622
H      58.07315362      88.81139222      90.99899532
C      64.91018342      86.14498840      97.39949834
O      63.62139008      84.64454570      98.72986567
N      65.29757732      88.57706616      97.96641623
H      66.37661104      89.54460604      96.72486604
C      64.68719572      89.65421016     100.42117071
H      64.00878397      88.24636406     101.76287640
C      67.04746388      90.70300826     101.69295652
H      66.45975900      91.88219748     103.27654717
H      67.83547975      91.95778653     100.26243371
C      69.00522034      88.66399357     102.46585458
H      69.55513070      87.49047353     100.86525639
C      71.44674674      90.33262191     103.11592043
H      73.09836754      89.14209433     103.43717391
H      70.82313706      91.51748030     104.67872410
H      72.19507836      91.61196662     101.68728734
C      68.05468801      86.99536525     104.54644325
H      69.52867453      85.63098284     104.99997756
H      66.29346308      86.01270755     104.13259319
H      67.66162493      88.19723117     106.17160788
C      62.72565980      91.76692418     100.14905013
O      60.93230953      91.65732005     101.60980857
N      62.92975025      93.57350254      98.35003067
H      64.44909020      93.46011895      97.19918734
C      60.59215880      95.17032127      97.76799496
H      58.94431745      93.94010944      97.62815523
C      60.24066970      97.21122569      99.81645829