 %block lattice_cart
   140.777   0.000   0.000
   0.000 144.511   0.000
   0.000   0.000   162.462
 %endblock lattice_cart

 %block positions_abs
N      93.86173540      43.40126893      81.80736653
H      95.73445417      43.71118404      82.00389807
H      93.85228677      41.89704678      80.63195676
H      93.10395514      42.94584489      83.50056131
C      92.62963385      45.76909600      80.89840818
H      93.23056680      47.35646610      82.06625904
C      93.21355927      46.38514678      78.03736253
H      92.60506739      44.79966640      76.87140141
H      95.25446368      46.65348791      77.93531732
C      91.86807414      48.70006151      76.97911579
H      89.90653822      48.12747444      76.71077467
H      92.78648112      48.93438757      75.15364019
S      91.91720703      51.63669620      78.84994484
C      90.26936567      53.29398618      76.34227804
H      88.38908800      52.45683742      76.32904994
H      91.07060964      52.99162997      74.46766953
H      90.38085953      55.28197826      76.87329112
C      89.79504438      45.48941650      81.12517533
O      88.92765999      43.38426139      80.59416223
N      88.48357431      47.37914282      82.14562754
H      89.35473814      49.06288896      82.37239469
C      85.71701498      47.17694210      82.79380366
H      84.75514430      46.02987823      81.37650894
C      85.33340054      45.84846450      85.40351571
H      86.24235891      44.00598135      85.55280409
H      83.38698245      45.45351170      85.94964660
C      86.23668972      47.34134829      87.69386400
O      86.52014868      49.65248357      87.71276126
N      86.49936168      46.19239469      89.88594652
H      87.47068100      46.96340303      91.33536659
H      86.08929108      44.34046290      90.09948560
C      84.39420656      49.73941098      82.71632489
O      85.76614788      51.61779894      82.34782825
N      81.99803360      49.93972197      83.23599963
H      80.98136084      48.40337448      83.73677709
C      80.56373133      52.21117300      83.54591473
H      80.67900463      53.18627178      81.73744665
C      77.79528228      51.54032016      83.97299288
H      77.28694591      50.26664462      82.43664539
C      77.33796852      50.15137132      86.47499052
H      78.93667697      48.91171086      86.86427414
H      75.65233265      49.00241772      86.19342131
H      76.98269996      51.38725233      88.08314762
C      76.09263888      53.89869860      83.91252164
H      76.49893004      55.13080015      85.51311983
H      74.12732352      53.31288344      84.11850182
C      76.36664920      55.42370773      81.37461921
H      78.00315217      56.67281682      81.30091988
H      74.67156468      56.57833051      81.18753630
H      76.44979714      54.26152605      79.67386552
C      81.74481027      54.26530550      85.44697940
O      81.47646915      56.47628529      84.94998139
N      82.87297688      53.43004647      87.49922218
H      82.90132278      51.54787906      87.80535785
C      83.56650644      55.09300563      89.56847249
H      82.27204391      56.69360381      89.63461292
C      83.63075714      53.67760062      92.16684618
H      83.92555444      55.09678508      93.62949434
H      85.17277380      52.31321822      92.19897153
C      81.37631365      52.28487232      93.13816551
C      79.20501812      53.60390129      93.95830672
H      79.09730372      55.63535708      94.11326428
C      77.00537668      52.27353397      94.37593623
H      75.17612161      52.99918887      94.91639797
C      77.03183286      49.67327056      94.52144517
H      75.43879358      48.51486833      95.05245826
C      79.22580511      48.42983065      93.88271767
H      79.13320852      46.39648513      94.03956496
C      81.36875474      49.64303494      93.04556892
H      83.11486185      48.66604644      92.64305721
C      86.27448426      56.10967838      88.96187036
O      86.61274527      58.48884381      89.30580054
N      87.77303721      54.68860419      87.51434000
H      87.00013915      52.98407106      87.14395364
C      90.15976155      55.56921666      86.43908572
H      91.15942677      56.85612028      87.69764344
C      92.14586390      53.55854786      85.86460892
H      93.76913880      54.22373152      84.78557519
H      91.27092063      52.02031064      84.80447247
C      92.75246605      52.19227574      88.35526821
H      91.24257472      50.81088580      88.58959427
H      92.48979410      53.59823211      89.83681363
C      95.27336095      50.68427414      88.32503259
O      97.16308727      52.00708256      87.86960855
O      95.39808289      48.33723406      88.57636618
C      89.58528476      57.25863198      84.16196552
O      90.64542121      59.37512545      83.92952917
N      87.72012488      56.47439556      82.73900160
H      86.73746719      54.88891518      83.14151331
C      86.82628433      57.96349990      80.46755058
H      88.49869212      57.97483825      79.26757437
C      84.74947511      56.69360381      78.96332843
H      83.18100227      56.91470179      80.27668821
H      84.98191145      54.65836857      78.73278181
C      83.80839141      57.94460263      76.46322052
H      85.18600190      57.49295804      75.00057236
H      83.90665719      59.96094061      76.87140141
S      80.85285945      56.70872162      75.38229707
C      81.06261907      57.51185531      72.15464452
H      81.98669524      59.34488983      71.99023834
H      79.27304826      57.48728886      71.13608204
H      82.33629461      56.22495169      71.17198685
C      86.08362189      60.61100646      81.07415273
O      87.17966315      62.46104852      80.19354026
N      84.46601616      60.93037021      82.98655575
H      83.66666194      59.34488983      83.68386476
C      83.75169962      63.37189660      84.13928879
H      83.21312762      64.66068995      82.62561802
C      81.52371229      62.85789105      85.83059386
H      81.13253896      64.49439403      87.02301116
H      82.17755761      61.40847096      87.14017419
C      79.10297289      61.83176966      84.37550459
H      79.62453736      60.29164271      83.11127769
C      77.25482056      60.97950309      86.59404328
H      78.25448578      59.59811316      87.74866606
H      75.57485386      60.05542692      85.84004248
H      76.50270948      62.36467248      87.92252088
C      77.88976859      63.86133572      82.76923722
H      76.30428822      63.04686368      81.73744665
H      79.05950918      64.84210367      81.38973701
H      76.94112599      65.19170304      84.02401550
C      85.89842871      64.73627900      85.54146572
O      85.85685473      67.08142936      85.68886437
N      87.82783928      63.44181648      86.59026382
H      87.82405983      61.55020044      86.33704051
C      90.04826769      64.45282005      87.89795444
H      89.54371077      65.97404974      89.19241697
C      91.61296108      62.49884305      89.37383069
H      92.51247080      61.00029008      88.28345860
H      90.18054853      61.74295252      90.64183705
C      93.64441687      63.53441307      91.18607823
H      94.12251763      61.96782995      92.43518731
H      93.13230104      65.15579824      92.35014963
C      96.15208369      64.18447892      89.77256293
H      97.44843593      64.65313104      91.30324126
H      96.11617889      65.90224014      88.63683742
N      97.28402974      62.23428136      88.32314286
H      96.70766323      60.41447492      88.22865654
C      99.29280883      62.53096839      86.84726661
N     100.45876996      64.60210843      86.38239393
H     102.09527295      64.56242418      85.40162598
H      99.88051370      66.23672169      87.17985843
N     100.15830347      60.57132221      85.60382669
H     101.72866604      60.57132221      84.51723406
H      99.53469379      58.84978154      86.13672951
C      91.82083098      65.59799420      86.04602264
O      92.62396466      67.70881849      86.38050420
N      92.19877625      64.50195294      83.72921820
H      91.37107611      62.82198625      83.36450102
C      93.67843194      65.66224489      81.55792265
H      95.45666440      66.30286211      82.37806387
C      93.88441212      63.68559117      79.49434152
H      92.07027486      62.82009652      79.04458666
C      94.69699442      65.01406877      77.02635896
H      93.06616062      66.11577921      76.41597735
H      95.40375206      63.67614254      75.62796149
H      96.17476041      66.33309774      77.58760768
C      95.89697064      61.68626073      80.30881356
H      95.58516579      60.88690650      82.18153233
H      97.76968941      62.54608620      80.33715946
C      95.92720625      59.28819804      78.53058110
H      93.99779570      58.61356575      78.26601942
H      97.20277151      57.92192592      79.39796549
H      96.57916184      59.69826865      76.62006781
C      92.30271118      68.01306443      80.78502459
O      93.45544423      70.07664556      80.53180126
N      89.83094918      67.77306919      80.29747520
H      88.90309355      66.10822030      80.25779096
C      88.55349419      69.89712156      79.08238119
H      89.71756559      70.48293672      77.48745218
C      85.93055406      69.05241390      78.23389407
H      84.75325456      70.67379908      77.75390359
H      84.96679364      68.27195693      79.87606623
C      86.11385752      67.32709378      76.00590675
O      87.47823991      67.90157058      74.19932839
O      84.43011136      65.69625997      75.50890872
C      88.25680715      72.29140480      80.86817256
O      88.88419629      74.31341196      80.12928956
N      87.59351322      71.98715886      83.26056607
H      87.06250012      70.25805929      83.87283738
C      87.13241999      74.17546193      85.03123962
H      86.70723158      75.91778960      84.01834632
C      84.71546004      73.43657895      86.60160219
H      84.16177024      74.89166821      87.95086677
H      85.04805187      71.70181019      87.65984893
C      82.31928708      73.02839806      85.05202660
H      80.94167659      72.09487326      86.26712063
H      82.37975832      71.89078282      83.33615511
C      81.04372181      75.43212993      84.43030665
O      82.21346241      77.20091376      83.32103731
O      78.79494751      75.66267654      84.97454783
C      89.48512926      74.47970787      86.78112619
O      90.50936092      76.51683284      87.12127693
N      90.45077940      72.38400139      87.98488185
H      89.57772585      70.81174910      87.34993381
C      91.97956798      72.48793634      90.19586163
H      93.57449700      73.72003789      89.76878349
H      92.75435577      70.68324771      90.81947132
C      90.80037877      73.82586257      92.60904213
O      88.52703801      74.22837427      92.61471131
N      92.39908723      74.42301608      94.63860820
H      94.29637245      74.40033937      94.43640747
C      91.37296585      75.26583402      97.17840035
H      89.32639224      75.03528741      97.19540790
C      92.52947835      73.48571183      99.20229724
H      94.55337522      73.86932627      99.26654794
H      91.99846525      71.62811086      98.48798070
C      91.58272547      73.87688518     101.92917232
H      91.88319194      75.80440602     102.59246624
C      88.60640653      73.51594745     102.20318262
H      88.11129822      71.58842661     101.67027980
H      87.31194400      74.69702640     101.12036944
H      88.27948387      73.64066939     104.23463842
C      92.94521814      72.16101368     103.82456781
H      94.92187186      72.73738021     103.84346507
H      92.74490714      70.20892640     103.19339921
H      92.13641527      72.24794110     105.71807356
C      91.89642004      77.98515018      97.49965384
O      94.02992104      78.78072496      97.25965860
N      89.95000193      79.48370315      97.83413540
H      88.16799001      78.80529140      97.76610525
C      90.05582660      82.17278369      98.52199576
H      91.95311183      82.80584201      99.01521433
C      89.47001144      83.65999830      96.22786803
H      88.87474765      85.59696777      96.59258521
H      87.79949339      82.74348104      95.44363160
C      91.53170285      83.52015855      94.15105881
H      91.83783851      81.55295346      93.62949434
H      93.18332366      84.38565320      95.02600209
C      90.86273973      84.78816491      91.60181800
H      92.64853110      85.09241084      90.62482950
H      89.86496425      86.56639737      91.89094613
N      89.26592100      83.10441876      90.09759587
H      88.66687777      81.49626167      90.93096517
C      88.33239621      83.55795308      87.85449073
N      88.64231133      85.60830613      86.51467478
H      88.06783452      85.53649653      84.69486833
H      89.35851759      87.28827282      87.07025431
N      86.78471035      81.97625215      86.84348716
H      85.66977184      82.37309468      85.34493418
H      86.35385275      80.37376424      87.78457085
C      88.42121334      82.98347628     100.86714613
O      86.25369726      83.41244415     100.67628376
N      89.64197655      83.14788247     103.10458207
H      91.54115149      82.97969683     103.18584030
C      88.33239621      83.12331603     105.71240438
H      86.79604871      81.75704390     105.63870506
C      89.97078891      82.30506453     107.85913349
H      89.19411141      82.41088921     109.76397760
H      91.46745215      83.71857982     107.84968484
C      91.03848429      79.54606412     107.61535878
H      91.74902137      79.13599351     105.72563247
C      92.96222567      79.07552226     109.55799744
H      94.19810668      80.71769443     109.68082965
H      94.05448749      77.49760079     108.81155555
H      92.27058584      78.90922635     111.49307719
C      88.75569490      77.73192686     107.96306843
H      87.54627006      78.21380707     109.55799744
H      89.37930458      75.79495738     108.29566026
H      87.81272147      77.52216723     106.14326198
C      86.93777818      85.54027598     106.36058051
O      85.67355129      85.78027122     108.30321917
N      87.23446522      87.52070916     104.78832823
H      88.47412568      87.27315501     103.35969513
C      85.87197255      89.90554376     105.05100017
H      84.54727440      89.88475677     106.62892165
C      87.75980913      92.09762629     105.46673997
H      88.96167507      92.22045850     103.79811163
H      89.20356004      91.38897892     106.75742304
C      86.75069529      94.86607534     106.13570309
H      85.63197730      94.78103765     107.86102320
H      85.75291978      95.75424670     104.56723025
C      89.15442716      96.51202695     106.61191412
H      90.39786706      96.36462830     104.97541112
H      90.19188690      95.84873302     108.26164519
C      88.53459692      99.35606506     106.81411483
H      87.33462071      99.81904800     108.42227193
H      87.37808441     100.04770489     105.25509062
N      91.07627881     100.68076320     106.82734292
H      92.03437006     100.31415630     105.21540636
H      92.13452555     100.01935899     108.27109382
H      90.82494521     102.55348198     107.09190460
C      84.27137436      90.49513837     102.80411559
O      84.87797650      89.66554852     100.68573240
N      82.31739735      92.16187698     103.00253686
H      81.96590825      92.72690515     104.79210767
C      80.67144573      93.02359218     101.03155231
H      79.80784080      91.31716932     100.27188234
C      78.47558376      94.52214515     102.18239564
H      78.92722835      96.52903449     102.11436548
C      76.13988203      94.17821496     100.58746663
H      74.86431677      95.77125424     100.87848449
H      75.21769560      92.42076949     101.13737699
H      76.46491495      94.09506700      98.55601085
C      77.80473091      93.88341765     104.98297003
H      79.40343938      94.41632047     106.16971815
H      77.72725213      91.83306460     105.17194267
C      75.16100381      95.07016578     105.90515647
H      73.68512756      94.78481710     104.49920010
H      75.37454288      97.09595239     106.21318186
H      74.65644688      94.16498687     107.68527866
C      82.17944733      94.32183416      98.74498347
O      83.67800030      96.09439744      99.29489383
N      81.48780749      93.77570325      96.43384819
H      80.39176624      92.22990713      96.21275021
C      82.31928708      94.82261163      93.99988070
H      83.18289200      96.68966123      94.05279303
C      84.43200110      93.03870999      93.07202508
H      86.08929108      93.20311618      94.28522938
H      85.08395667      93.82672586      91.28434399
C      83.75358934      90.39309315      92.62604968
C      82.59707685      89.62019509      90.35648837
H      82.35708160      90.93922406      88.81825115
C      82.13787336      87.02938032      89.82925472
H      81.15899512      86.57017682      88.09637570
C      82.53282616      85.27382457      91.82291598
O      82.06795347      82.89276942      91.50355224
H      81.89409865      82.72458377      89.70642251
C      83.49091739      86.07317880      94.14161017
H      84.20712366      84.61997927      95.37938091
C      84.04271747      88.59218398      94.56301914
H      84.69089360      88.90965800      96.47353245
C      80.10830730      94.97945891      92.01188862
O      78.04094671      94.07428001      92.51833527
N      80.42767104      96.03581592      89.69130470
H      82.16621925      96.64619752      89.19241697
C      78.44723787      96.50824750      87.93763868
H      76.63876978      96.13975087      88.85226622
C      78.50581937      99.35795478      87.16096117
H      76.97136162      99.62629592      85.81547604
H      80.41066351      99.65464181      86.42774737
C      78.01449053     101.03414202      89.62138484
H      79.29572497     100.71477827      91.20308576
H      76.23058890     100.42942960      90.45475414
C      77.87087134     103.85739313      88.89006075
H      79.63587571     104.48289254      88.02834556
H      77.45135210     104.92886795      90.59648361
C      75.65989156     104.25423566      86.95876046
H      73.84953375     103.77991435      87.81858594
H      75.84886418     102.97867040      85.35438281
N      75.35753535     106.93386757      86.10649389
H      75.37454288     108.19620475      87.53512699
H      73.97236595     107.36094572      84.86494371
H      76.91278009     107.57637452      85.20509445
C      78.27716249      94.62230064      85.66051848
O      80.13287374      93.72468064      84.55313886
N      75.93957105      94.22734784      84.65707380
H      74.49015096      95.14008565      85.49800201
C      75.38966068      92.94989285      82.17964262
H      76.55373209      91.25858780      81.99255971
C      72.52861505      92.05605231      82.34404880
H      71.23415252      93.64531214      82.12673027
H      72.10909581      91.29260288      84.21109839
C      72.05996293      89.88853623      80.45999167
O      72.92734730      87.80605783      81.06092464
O      71.11509976      90.43088768      78.38318245
C      75.91689432      94.55804995      79.84205117
O      75.85264363      96.84461879      79.69087305
N      76.21736082      93.35429429      77.63674056
H      76.19468409      91.44945016      77.75768304
C      75.73737033      94.65442599      75.12151483
H      77.36442468      95.79015150      74.57538392
C      75.41989631      92.70422843      72.96344738
H      73.47725765      92.01825778      72.96722684
C      76.08319024      93.68877584      70.33672780
H      75.58997167      92.01447833      69.24257628
H      78.12220493      93.86829984      70.10429147
H      74.83786061      95.29882266      70.02303324
O      77.14899589      90.58017606      73.28848032
H      77.54205895      90.03593488      71.60284443
C      73.31474120      96.27770089      75.05537442
O      73.36954325      98.45277588      74.11240098
N      71.19824772      95.40275761      76.10228279
H      71.24927034      93.64531214      76.84494523
C      68.90600971      97.02414279      76.53314040
H      68.76428024      98.34506148      74.95710865
C      66.25472369      95.46133912      76.59172190
H      64.71081729      96.81627289      76.46888970
H      66.25850314      94.46734308      78.39452080
C      65.76150512      93.52625938      74.55837639
H      64.29507750      92.30738591      75.33505390
H      67.49249442      92.50769690      74.09728318
C      64.89978992      94.70544860      72.02236369
O      66.58164634      95.90353508      70.92443269
O      62.79652453      94.46167390      71.08127998
C      68.93435561      98.77402935      78.77057634
O      67.09187245      99.76991512      79.83638199
N      71.22659361      99.23890202      79.71921896
H      72.66656507      98.39419436      78.79703251
C      71.67067930     100.65619676      82.14940700
H      71.22281416     102.64040939      81.81681516
H      73.66245083     100.21589053      82.44420430
C      70.26094348      99.63007537      84.52290324
O      69.90000574     101.09650299      86.30869460
N      69.40489745      97.35673462      84.83281836
H      69.34820566      96.11518443      83.38339828
C      68.09720684      96.43265845      87.10048993
H      67.12210806      98.06727171      87.88283662
C      66.33031275      94.20656085      86.25956172
H      65.57064277      93.31083058      87.95086677
H      67.62288555      92.91776751      85.30713966
C      64.33287203      94.64308763      84.25456211
C      63.53729725      92.67210309      82.67853036
H      64.49916794      90.87497336      82.58215431
C      61.55686408      92.88375243      80.96454859
H      61.08632222      91.30394124      79.76079293
C      60.30586526      95.10796030      80.87762118
O      58.22527658      95.10796030      79.30347916
H      57.28041343      96.59706464      79.72299840
C      61.16002156      97.27736611      82.25334193
H      60.21326866      99.02158350      81.78468981
C      63.07431430      97.05626813      83.94275726
H      63.51084108      98.68710194      85.09360059
C      69.96236672      95.34417609      89.07714366
O      71.90689510      94.25569374      88.28345860
N      69.66190023      95.58606106      91.55646458
H      68.18980343      96.60273382      92.22731742
C      71.68201766      94.88875205      93.34981484
H      73.49048575      95.57094325      92.63738802
C      71.36076418      96.39675365      95.80834878
H      72.25838419      95.37819117      97.35792435
H      69.30663168      96.48746051      95.92929127
C      72.52483559      99.03292186      95.84425359
C      70.87132507     101.17020232      96.10314609
H      68.87955353     100.83383103      96.40550230
C      71.78028342     103.69676640      96.09558718
H      70.51227707     105.28980568      96.22786803
C      74.49959960     104.06715275      95.94251936
O      75.55973606     106.40852366      96.11070500
H      74.33897286     107.75211906      96.10314609
C      76.14177176     101.96955655      95.80456933
H      78.16188919     102.22844905      95.92740154
C      75.21580586      99.38819040      95.60992751
H      76.58963689      97.91042443      95.30001241
C      71.95035879      91.94077900      93.61815599
O      70.04740440      90.72379526      94.00366016
N      74.16889749      90.85985555      93.40461692
H      75.71847306      91.94266873      93.13816551
C      74.63754961      88.06872979      93.62382516
H      72.97459045      86.92166592      94.02444714
C      75.91122515      87.13898444      91.17473987
H      77.65166308      88.22557707      90.97631861
C      76.03216764      84.30628470      90.98198777
H      76.65199786      83.56740171      89.16218133
H      74.18212557      83.52204828      91.43741182
H      77.19056986      83.44079005      92.44841539
O      74.24448655      87.64732082      89.19430669
H      73.20135762      89.06839501      89.62705401
C      76.56318072      87.74747631      95.91417345
O      77.71780351      89.62586427      96.68140234
N      76.58018827      85.52704790      97.04800925
H      75.13265791      84.37242512      96.58880575
C      78.48314267      84.78249573      98.99442735
H      80.21413197      85.80483766      98.54656221
C      77.65544253      85.51948899     101.73642023
H      77.23781303      87.53771669     101.70051543
C      75.16667298      84.09463535     102.41294224
H      75.45202166      82.05562066     102.45073677
H      73.80418031      84.59730255     100.95218381
H      74.48637150      84.66344297     104.27054322
C      79.64532435      84.77682655     103.90393631
H      81.48969722      85.34941362     103.19150948
H      79.34674759      82.74915022     104.10424729
C      79.35619621      86.22435691     106.47207436
H      77.36631442      86.14120895     107.00875663
H      79.77004629      88.23691543     106.34357298
H      80.31239773      85.44389994     108.11991572
C      79.12375988      82.01215695      98.78277800
O      77.75937748      80.54194988      97.58847096
N      81.14954649      81.13343422     100.01865901
H      82.72746796      82.16144533     100.32857413
C      81.52182257      78.41789751     100.58179745
H      79.67178051      77.62988163     101.02966258
H      82.61408438      77.99837827     102.27688195
C      82.60463576      77.25760555      98.29900806
O      84.47924425      78.03239334      97.02911199
N      81.42166707      75.20536278      97.50154355
H      80.19901415      74.35120648      98.69018141
C      81.68244931      74.06963726      94.99198702
H      83.27926805      74.73482092      93.87326903
C      82.12464526      71.30118821      95.45685968
H      80.42389159      70.36577369      96.14849951
C      82.72368850      70.00861541      92.80179422
H      82.85596935      67.98093908      93.13816551
H      84.48113398      70.58687167      91.90039477
H      81.14576704      70.23727230      91.49599333
C      84.51325933      70.80607992      97.26910722
H      84.44522918      72.04763011      98.91127939
H      86.23480000      71.54874236      96.41495092
C      84.74191622      68.03385142      98.08546899
H      84.73624703      66.89434645      96.36770777
H      83.20178927      67.39323420      99.29489383
H      86.32550686      67.75228220      99.37237260
C      79.29572497      74.53262021      93.34603540
O      77.37954250      73.14934055      93.15517304
N      79.37887294      76.65289313      91.94574819
H      80.73758616      77.95302483      92.26511195
C      77.18301095      77.13855279      90.41129043
H      76.71435883      75.47370391      89.28879301
H      77.50237470      78.66734138      89.06769503
C      74.59408590      77.79806728      91.65473035
O      72.74782330      77.78672892      90.20719999
N      74.43912836      78.26860913      94.20775059
H      75.97736557      79.01505102      95.05812744
C      72.03350675      78.67112083      95.51733094
H      70.81274355      77.17823705      94.79734520
C      72.00705059      78.19679953      98.42750946
H      73.14655555      79.49504151      99.55189660
H      72.77616919      76.29384513      98.59758482
C      69.34820566      78.10042349      99.43851303
N      68.03295615      75.87999507      99.86181172
H      68.60932267      74.11310097      99.42339521
C      65.73693868      76.29951431     100.80478516
H      64.29885695      74.90300657     101.20162769
N      65.31552971      78.79584277     100.90494064
H      63.72438015      79.69346277     101.46429964
C      67.57375265      79.92967856     100.19251383
H      67.99894108      81.92145009     100.32101522
C      70.83919972      81.17500820      94.88805206
O      71.46469913      83.16677973      95.94251936
N      68.99671657      81.32996576      93.11548878
H      68.79829530      79.67456551      92.18763316
C      67.64934170      83.66944693      92.53534280
H      69.01750356      85.17744853      92.22164824
C      66.17535519      83.29717085      89.99933010
H      64.84687758      81.77594117      90.40940070
H      67.57186293      82.74537076      88.58959427
C      64.76183990      85.75759451      89.22265259
H      63.75272605      86.63820697      90.78923570
C      66.66479430      87.63031328      88.48376959
H      67.99894108      86.90465838      87.09293102
H      67.60209855      88.58651480      90.04846299
H      65.43647219      88.90587854      87.43308176
C      62.72282522      85.00548343      87.42552285
H      61.93291961      83.15544137      87.87338800
H      63.46170819      84.78249573      85.51500956
H      61.14868319      86.32073295      87.58425986
C      66.09031751      84.51793405      94.70474861
O      64.33287203      83.13654411      95.40583707
N      66.48527031      86.84607686      95.72709056
H      67.71170267      88.12920103      95.02411236
C      65.21726394      87.77960166      98.02310802
H      64.55208028      86.15632676      99.10592119
C      67.06541627      89.22902174      99.81834801
H      65.89000651      90.63119867     100.76699063
H      68.24082605      90.32506301      98.52955467
C      68.85687683      87.74936604     101.57012432
H      69.92835164      86.37364529     100.47597278
C      70.65589628      89.64098208     102.56034089
H      72.00516086      88.76603880     103.84724451
H      69.91323383      91.30394124     103.52410131
H      71.79729097      90.20412052     100.94084544
C      67.71359240      86.65143505     103.76787601
H      66.18102436      85.46657665     103.06111838
H      66.64778677      88.10085514     104.76943096
H      69.01183439      85.50626091     104.88281453
C      62.78329645      89.48035534      97.56768399
O      60.78396601      88.91910663      98.57112865
N      62.90423893      91.49480359      96.12582280
H      64.58042617      92.05983176      95.40961653
C      60.67436188      93.15965248      95.50599257
H      58.94715203      92.05794203      95.29056377
C      59.95059671      94.77347875      97.88893746