 %block lattice_cart
   140.777   0.000   0.000
   0.000 144.511   0.000
   0.000   0.000   162.462
 %endblock lattice_cart

 %block positions_abs
N      87.71256598      42.98363941      78.83104758
H      88.98813124      42.86647638      77.41753230
H      85.99858421      43.32379015      78.06003925
H      87.23824467      41.31690081      79.63229154
C      88.32105785      44.88281437      80.87384173
H      89.47379090      44.08723959      82.38184332
C      89.94811220      47.12402977      79.91386076
H      91.76980837      46.19239470      79.68709360
H      89.81772109      48.57533958      81.37083975
C      89.40387103      48.52809641      77.38729668
H      87.39509196      48.97218211      77.37595832
H      89.68355052      47.27709760      75.77347041
S      91.44855490      51.13780845      76.85061441
C      94.46266837      49.57311506      76.31960131
H      94.24346011      48.07078266      74.93065247
H      95.15430820      48.58100875      77.98633992
H      95.83271994      50.97907145      75.69788136
C      85.87953145      46.01665014      82.14373781
O      84.16177023      46.60813448      80.70943554
N      85.67544101      46.46073583      84.60416147
H      87.10218438      46.04877550      85.80413768
C      83.29438586      47.52087230      85.84004248
H      81.65032396      46.63270092      84.97454783
C      83.36241600      46.89726262      88.66518332
H      85.10285394      47.68716821      89.43808138
H      83.61752906      44.85824792      88.77856689
C      81.02293483      47.67771957      90.30168630
O      79.11053180      48.75297384      89.39839712
N      81.06261908      47.16938319      92.74888188
H      79.52060241      47.80811069      93.67484777
H      82.56495150      46.17160770      93.37627101
C      82.79738784      50.46317616      85.42619241
O      84.54349495      51.84834555      85.67941574
N      80.51081900      51.25308177      85.11816703
H      79.06706809      50.08334118      85.56036298
C      79.65855243      53.91759586      84.90840741
H      80.75081424      54.43538088      83.24166880
C      76.81640406      53.85712462      84.40762993
H      76.34397248      52.41904290      83.00923246
C      75.27060793      53.40925949      86.74900083
H      75.53327989      54.92104054      88.12283186
H      75.87532035      51.62724757      87.59181877
H      73.25049050      53.31666289      86.35971721
C      76.04539572      56.47061611      83.20009482
H      76.36664919      58.08066294      84.44542446
H      74.01016048      56.54998461      82.89395916
C      77.38332195      57.30587515      80.63195676
H      79.43178527      57.19060183      80.81526021
H      76.95246435      59.23150625      80.04425188
H      76.80317597      56.14747291      79.03324830
C      80.61853340      55.60323173      87.17418925
O      82.11708636      57.42303818      86.68852959
N      80.38798679      54.56388227      89.36060260
H      79.42611609      52.92171009      89.49855262
C      81.45190270      55.74685093      91.65473034
H      80.64876902      57.64413615      91.63961253
C      80.16499908      54.20861371      93.77500327
H      80.42578131      52.21873190      93.31579977
H      78.14110220      54.58844871      93.69563476
C      80.94167660      54.87190766      96.47920162
C      79.77571546      57.12635115      97.36548326
H      78.44534814      58.08633210      96.14849951
C      80.45601693      58.19026706      99.67472881
H      79.37887294      59.65102549     100.60825361
C      81.90732674      56.67281682     101.34146742
H      82.09629937      57.25296280     103.28788553
C      82.92966868      54.28798222     100.61581252
H      83.93122362      53.32422180     102.10869631
C      82.57817958      53.42626703      98.12326351
H      83.31517285      51.64614484      97.45052094
C      84.41310383      55.93771329      91.82480571
O      85.37875398      57.37579501      93.22698263
N      85.81528076      54.56766171      90.26011232
H      84.95356556      53.47539991      88.95242171
C      88.56105309      55.12324125      89.99366091
H      89.29048745      56.28542293      91.53000841
C      89.89142041      52.60234635      90.16940546
H      91.87185359      53.14658753      90.00499927
H      89.25080319      51.34000918      88.67274222
C      89.60229229      51.32867081      92.79612504
H      87.60674130      50.82600362      92.87927299
H      90.00858345      52.68927376      94.28900882
C      91.42587818      49.10446294      93.11548878
O      93.55182028      49.50886438      94.11137455
O      90.81738631      46.94828523      92.35581880
C      89.36229705      56.42715241      87.50867081
O      91.02714593      57.88602112      87.35560298
N      87.72579406      55.99818453      85.55280408
H      86.27826370      54.75852407      85.65862875
C      87.98468656      57.36445665      83.14907221
H      89.79504437      57.16414567      82.18531179
C      85.85685474      56.53108735      81.24233836
H      84.02759967      56.72572917      82.17208370
H      86.13842396      54.57522062      80.66408211
C      85.87386227      58.05042730      78.87640101
H      87.70122762      57.83310878      77.94854539
H      85.40143070      60.00629405      79.32237642
S      83.51359411      56.97517303      76.65408287
C      85.35418754      54.67159666      74.89096822
H      84.15799078      53.98751574      73.35840018
H      86.01748147      53.15036697      76.11362114
H      86.83762269      55.67882078      73.87996464
C      87.60296185      60.26140709      83.47221541
O      88.99569014      61.60122306      82.36672551
N      85.79449377      61.08910723      84.89706905
H      84.70034223      59.76251935      85.72665890
C      85.32962110      63.81598229      85.19375608
H      85.23135533      64.71927147      83.34371402
C      82.72179878      64.08054397      86.50522614
H      82.49314190      66.06286687      87.02112142
H      82.69156316      62.84844241      88.15495721
C      80.57506969      63.23772603      84.67408134
H      80.86041836      61.48028057      83.63662160
C      78.17322755      62.78230199      86.29924597
H      78.43023033      61.38390453      87.78835031
H      76.53105538      62.18514848      85.21076362
H      77.75370831      64.59454953      87.18363789
C      79.76437710      65.32587362      82.77868585
H      79.38643184      67.14945950      83.66118804
H      77.90488641      64.83265504      82.04736177
H      81.27237870      65.47894145      81.38406783
C      87.45745292      65.17280578      86.59215355
O      87.66910227      67.54063285      86.36727612
N      89.09206618      63.80275420      87.99999965
H      88.93899835      61.91869707      87.73354824
C      91.44288572      64.73060983      89.20753477
H      91.04793292      66.41435598      90.32814247
C      92.48979410      62.96182599      91.19552685
H      94.15653270      63.70259871      92.15550782
H      93.47056205      61.58610524      90.01822736
C      90.54904517      62.15869231      93.30068196
H      88.76136408      61.51240592      92.50888664
H      89.95378138      63.66480418      94.57435750
C      91.71689603      59.93448444      94.76144040
H      93.39686273      60.45415918      95.83480495
H      92.35751325      58.44915957      93.48776487
N      89.79315465      59.05198225      96.51699615
H      88.42499280      57.98617662      95.71764192
C      89.89142041      58.96883429      98.94718418
N      91.71122685      59.83054949     100.37959673
H      91.49201860      59.48850904     102.24475660
H      93.17954420      60.68659551      99.50843290
N      88.15098248      57.60067245     100.19629328
H      88.46089760      57.62334916     102.07846069
H      86.64676034      56.74273670      99.39504932
C      93.53481275      65.56964831      87.44064066
O      95.25446369      66.88489782      88.11905241
N      93.22489763      64.83265504      84.97265810
H      92.03437005      63.38323496      84.62116901
C      94.84061363      65.69437025      82.81459065
H      95.88374255      67.33276296      83.50056130
C      96.64152280      63.75551105      81.72232884
H      97.59205514      64.72305092      80.17275326
C      98.57471282      63.01095888      83.86716821
H      99.51201707      64.73816874      84.48321898
H     100.06948634      61.94893269      82.92419478
H      97.53725308      62.12845669      85.41296433
C      95.22044862      61.40847097      80.77935541
H      93.99023679      62.15302313      79.30536889
H      93.83905868      60.86422979      82.20987823
C      96.59994883      59.18426310      79.76646211
H      96.53569813      57.78397589      81.27635343
H      98.42542444      59.39591244      78.83860649
H      95.59083497      58.36223216      78.16964337
C      93.24379489      66.89812591      80.72644307
O      94.24157039      68.59321040      79.44520863
N      90.72856917      66.36144364      80.45810194
H      89.90653823      64.80241942      81.19131575
C      89.16009633      67.84109933      78.62884687
H      89.99535536      68.02440278      76.75612809
C      86.69022404      66.38223063      78.23200434
H      85.38820261      66.97371496      79.71543950
H      87.08895629      64.37723100      78.49656603
C      85.59796223      66.98694305      75.66953546
O      86.97557271      67.17780541      73.72878654
O      83.25092215      66.88678755      75.62229230
C      88.69144421      70.53584905      79.49812097
O      88.39097772      72.07408627      77.83894127
N      88.75758463      71.31252657      81.96043436
H      89.30371553      70.05018939      83.28513250
C      88.95789562      73.94491532      82.90907697
H      89.39820185      75.18457578      81.32359659
C      86.54660484      74.78962300      84.11472235
H      86.80171789      76.67179040      84.91029713
H      85.93244379      73.39311524      85.49989174
C      84.44333945      75.11654565      82.25334194
H      82.68022480      74.85576341      83.28702223
H      84.36019150      73.77295023      80.69431773
C      84.11074762      77.76972138      81.15163149
O      83.13564885      79.62354289      82.48577827
O      84.72301895      78.21191735      78.99356405
C      91.02147675      74.18302085      85.04635743
O      92.39341805      76.14644648      85.15596155
N      91.15375759      72.36321440      86.80002344
H      89.84228753      70.97993474      86.69608850
C      92.33861599      72.67123979      89.30769026
H      94.14519435      73.65767692      89.37572041
H      92.76002496      70.73427032      89.86515952
C      90.69266437      74.02050438      91.26544672
O      89.26781073      75.68535327      90.48687948
N      90.69833355      73.04729532      93.60681762
H      91.76980837      71.48827112      93.86571013
C      89.19033195      73.72003789      95.78189261
H      87.33840017      73.98837903      94.92017741
C      89.25458265      71.60165471      97.94751896
H      91.15942677      70.99127310      98.45018616
H      88.53081747      69.84420923      97.15572364
C      87.74469132      72.35565549     100.29644877
H      88.56105309      73.99026876     101.24887083
C      84.90632240      72.46714935      99.68039799
H      84.23357983      73.91278999      98.37648684
H      84.10507844      72.90178640     101.52666060
H      84.25814628      70.62655592      99.02655269
C      87.95823040      70.35254561     102.32034565
H      89.88953069      69.74027428     102.69829092
H      86.63542198      68.87100017     101.77421475
H      87.17399398      71.25205533     104.00031235
C      90.07283414      76.26927869      96.76644002
O      92.23090159      76.51305338      97.65272166
N      88.41932362      78.20624816      96.71163796
H      86.73179802      77.97192210      95.85181248
C      88.77081271      80.62509784      97.99098267
H      90.80604795      80.93501296      98.00987993
C      87.51981389      82.82473927      96.60392356
H      87.41209949      84.55383885      97.71886208
H      85.60363141      82.13309944      96.31290570
C      88.76136408      83.38220853      94.00366015
H      90.75124589      82.96268929      94.32491362
H      88.43444143      85.41177459      93.85815122
C      87.69933789      82.14821725      91.58858992
H      85.75291979      81.53027674      91.85315161
H      88.71034147      80.47391973      90.94041380
N      87.85618518      83.97936205      89.65351018
H      88.75758463      85.63287257      89.96909447
C      87.05683095      83.78094078      87.28568311
N      85.86630337      81.70224185      86.49766723
H      85.24647314      81.56051236      84.69864778
H      85.11419230      80.42289712      87.69953317
N      87.45367347      85.59696777      85.70965136
H      86.86596859      85.38720815      83.90685246
H      88.49113322      87.10874882      86.24255418
C      87.83161873      80.51171426     100.74431391
O      85.81150131      79.66700660     101.16005370
N      89.31316416      81.32807603     102.63592995
H      91.10840416      81.88743503     102.30333812
C      88.41365444      81.74381582     105.25131116
H      86.87352749      80.55328824     105.93161264
C      90.57928079      81.05595544     107.18261146
H      89.80071355      81.20146438     109.08556585
H      92.16098172      82.36931524     107.04655116
C      91.74146248      78.41411806     106.73474632
H      92.79781948      78.78639415     105.00564674
C      93.56882782      77.76405220     108.91549049
H      94.79714992      76.15967457     108.51675823
H      92.51813999      77.52783641     110.67293596
H      94.71400197      79.45724698     109.17249326
C      89.81016218      76.26360951     106.35113188
H      88.64042160      76.17668210     108.04621638
H      90.56983216      74.37010374     106.06578321
H      88.61774488      76.64344450     104.71651862
C      87.64453583      84.45368335     106.02042977
O      86.20078493      84.82217998     107.81000059
N      88.70089284      86.24325417     104.62392203
H      89.88575124      85.54783489     103.29733416
C      87.79949339      88.87753265     104.36313980
H      87.27037002      89.53137795     106.24341748
C      89.98779646      90.30994519     103.06489782
H      91.77169810      90.08317804     104.07023222
H      89.63063818      92.33573180     103.16694304
C      90.43944105      89.68255606     100.21896999
H      88.74624627      89.96790473      99.08135475
H      91.20100075      87.81928591      99.78244321
C      92.22523241      91.73479883      98.86781568
H      91.24068500      93.53948746      99.02655269
H      92.26869612      91.15276314      96.89305168
C      95.08249860      91.84440297      99.66339046
H      96.06893573      90.36852672      98.61837181
H      95.39808289      91.49858304     101.66839008
N      95.95933161      94.39175403      99.19473833
H      97.71299762      94.74135340      99.86370145
H      94.89163624      95.62574532     100.18306519
H      95.71933636      94.88686232      97.36926271
C      85.32206219      88.92855526     102.93072725
O      84.50947988      87.10874882     101.74019968
N      83.90476746      91.12630696     103.05922864
H      84.51892851      92.39620304     104.34613226
C      81.92244455      91.69322485     101.22619412
H      80.61097449      90.11719311     101.03533176
C      80.30861828      94.02136767     102.14460111
H      81.73914110      95.44433159     102.56223062
C      78.46802485      94.89064178     100.06212271
H      77.44001374      93.18043946      99.54433770
H      79.42989555      95.61251723      98.38971492
H      77.12442944      96.32116460     100.68006321
C      78.93856670      93.36185319     104.62014258
H      80.18389634      92.56438869     106.05255512
H      77.51560279      91.94833791     104.16282881
C      77.62520692      95.55393571     105.97507634
H      76.65010814      96.81249345     104.66738573
H      79.03683247      96.65375643     106.99930800
H      76.53861429      94.59962393     107.44150396
C      83.21690708      92.03715504      98.62593071
O      85.46946084      92.82706065      98.53900330
N      81.96590826      91.68755568      96.47353244
H      80.27460321      90.80127404      96.46975299
C      83.01659609      92.39242359      93.97153480
H      84.37908876      93.92310190      94.19263278
C      84.56995112      90.24380478      92.89250108
H      85.95134105      89.46145808      94.20586087
H      85.75669924      90.92032679      91.35237413
C      82.91833032      88.05550170      91.82102626
C      82.42889120      87.99503046      89.22265258
H      83.04494198      89.38964848      87.86771881
C      80.88498481      85.83885274      88.42329835
H      80.01004152      85.77649177      86.58081519
C      80.11775592      83.89999355      90.12972121
O      78.79305778      81.75137472      89.20942449
H      78.44345841      82.01782613      87.45008930
C      80.64876902      84.06817918      92.84903737
H      80.15932990      82.61120019      94.19452251
C      81.96023908      86.29805623      93.62193543
H      82.38542750      86.42844736      95.61181724
C      80.81884439      93.22957236      92.38227497
O      78.53416527      93.00280519      93.09092234
N      81.47268969      94.59395475      90.32247329
H      83.29060640      94.83583971      89.79146020
C      79.56028666      95.55771517      88.55557919
H      77.77638502      95.47645694      89.58170058
C      80.11775592      98.18443474      87.61449549
H      81.94512127      98.16931693      86.66585288
H      80.59207723      99.43165412      89.18296833
C      77.90110696      99.16709242      86.11027334
H      76.24003753      99.07449583      87.32158791
H      77.37765277      98.19199365      84.37361486
C      78.44156868     101.95065929      85.64918012
H      78.18645563     102.69899091      87.55213452
H      76.72758692     102.65363747      84.74967039
C      80.82640329     102.73678544      84.22810593
H      81.14387731     101.46122017      82.64073583
H      82.47235491     102.62529158      85.46020749
N      80.76593205     105.23122417      82.99411465
H      79.13698797     105.42964542      82.02090560
H      82.27015419     105.54680846      81.86405831
H      80.83774165     106.65985725      84.25645183
C      79.43934418      93.85696148      86.23688500
O      81.21568691      93.49602376      84.75156012
N      77.20379795      92.74391268      85.83059385
H      75.58619223      93.39775799      86.60538163
C      76.85041913      91.04693846      83.78968943
H      78.13354330      89.43878136      83.86338875
C      74.13866187      89.98491227      84.40574021
H      72.67790343      91.43433235      84.48321898
H      74.39755437      89.06839501      86.23121582
C      72.91033977      87.90054414      82.70120707
O      73.54528781      85.58940886      83.04324753
O      71.47036832      88.41077026      80.92297461
C      76.71435883      92.29415782      81.18375684
O      76.62554170      94.66387462      81.01368147
N      76.83341159      90.53293290      79.29592026
H      77.44190346      88.76225934      79.66063743
C      76.55562182      91.14520423      76.45377188
H      77.67622953      92.75903050      75.83583138
C      77.51560279      88.89642991      75.00057235
H      76.93167736      89.21768339      73.05037479
C      80.20279361      88.21423871      75.34450254
H      81.06261908      87.61330575      73.57193925
H      80.67144573      86.68167067      76.63707533
H      81.25726089      89.86774924      75.97378140
O      76.47625332      86.64198642      75.80370603
H      74.67912360      86.78371590      75.60150531
C      73.96291732      92.30360645      75.57693887
O      73.80984949      93.21445454      73.51335774
N      72.06563210      92.46423319      77.19454460
H      72.18468486      91.33984603      78.73089209
C      69.75638655      93.95144781      76.89218839
H      69.44269198      94.36151841      74.90041685
C      67.37722112      92.41321059      77.97500156
H      67.48115607      92.81761201      79.99133954
H      67.73059994      90.41388014      77.63674055
C      64.84120841      93.30327167      77.02824868
H      64.45948369      95.23268224      77.64618918
H      63.32942736      92.10329547      77.74445495
C      64.55585974      93.23713125      74.10673180
O      64.52940357      91.17543985      73.10895631
O      64.83364950      95.32527883      73.10139740
C      70.04929413      96.69910986      78.02980363
O      68.74349325      98.57182864      77.34194325
N      71.90311564      96.95422292      79.61906346
H      73.10309185      95.47645694      79.75134430
C      72.30562735      99.16709242      81.24800754
H      71.66689985     100.86973584      80.28235739
H      74.32763450      99.32016025      81.61650417
C      71.19257855      98.81182388      83.92008054
O      71.26249842     100.56926936      85.34871364
N      70.04929413      96.72745575      84.59849229
H      70.04740440      95.30638158      83.32292703
C      69.14600495      96.42132009      87.25922694
H      68.52050554      98.27136215      87.91496197
C      66.90289982      94.71678696      87.37638997
H      66.13189148      94.43521775      89.26611628
H      67.39611838      92.71745653      87.30269064
C      64.65034605      95.34795554      85.70020273
C      63.52784862      93.39586826      84.26023128
H      64.25350353      91.51370086      84.57203612
C      61.41135515      93.90609437      82.70498652
H      60.72538450      92.47179210      81.42564181
C      60.40602075      96.38730503      82.56703650
O      58.34243962      96.72556603      81.13273423
H      57.66780733      98.39797382      81.33304522
C      61.47938530      98.32616421      83.98811069
H      60.88790096     100.27447204      83.85016067
C      63.75839523      97.79515112      85.50556092
H      64.59176454      99.25024038      86.66963233
C      71.14722512      95.38197062      89.15840188
O      72.69302124      93.70956283      88.51211548
N      71.05651825      96.23234746      91.57536184
H      69.88488794      97.68554699      91.98165299
C      72.45869518      95.30260211      93.66161969
H      74.43156945      95.12874729      93.09281207
C      72.22436911      97.17154145      95.79134124
H      72.79884591      96.18321457      97.50532301
H      70.27228183      97.65720110      96.24109610
C      73.79473168      99.55259659      95.67228848
C      72.61932191     102.00546135      95.77622343
H      70.62755038     102.20955179      96.17495568
C      74.18212557     104.06526304      95.56835354
H      73.55662617     105.99656332      95.76866453
C      76.84663968     103.98022534      95.48331585
O      78.27527277     106.17230788      95.30001240
H      77.28694591     107.63306631      94.87293425
C      77.91433504     101.62751608      95.18851855
H      79.91744493     101.48200716      94.81624246
C      76.44979715      99.41275684      95.30001240
H      77.30584317      97.56271478      95.19607745
C      71.75193754      92.71556680      94.34570061
O      69.49371459      92.02581670      94.57813695
N      73.69079673      91.30583096      95.20741581
H      75.48414700      91.95778654      95.27166651
C      73.61520768      88.55438945      95.30379185
H      71.74626836      87.92133114      95.89716592
C      74.04606528      87.77960167      92.47676129
H      75.80917993      88.62241960      91.82669544
C      73.99504267      84.92044576      91.99299135
H      74.67912360      84.49525733      90.09759586
H      71.99760196      84.41777855      91.98354272
H      75.03628187      83.83385312      93.40083746
O      72.09019855      88.77359771      90.74955144
H      72.71947741      90.18333354      89.79523965
C      75.72792170      87.53015779      97.01966335
O      77.61008911      88.72068536      97.43162368
N      75.71280389      84.99603480      97.79256141
H      74.34464204      84.00770794      96.90250031
C      77.33985824      83.59385788      99.56134524
H      79.16155441      84.54439021      99.43095412
C      76.54806292      83.77527161     102.38837580
H      76.02838818      85.73302806     102.77199024
C      73.89677690      82.52238306     102.35436073
H      72.63821918      83.58629897     101.11847972
H      73.13899665      82.65088445     104.26676376
H      73.90055635      80.57218550     101.69106679
C      78.18645563      82.54505977     104.43116994
H      78.61920296      80.59486222     103.92661302
H      77.21135685      82.26915974     106.22452022
C      80.85096973      83.65432912     104.84124055
H      81.51804312      82.92300504     106.64592918
H      80.97569167      85.70090272     104.63337066
H      82.17566788      82.88521051     103.46551980
C      77.98992410      80.86509308      98.68640195
O      76.44412797      79.63299154      97.31446065
N      80.03271824      79.79928744      99.47630755
H      81.21190746      80.68556908     100.68762212
C      80.51081900      77.14611170      99.21741505
H      79.12375988      75.81196492      99.94873913
H      82.26637474      76.82107877     100.24353644
C      81.07773689      76.62643696      96.41495092
O      82.99769882      77.38421721      95.44741105
N      79.25793045      75.43779911      95.09781168
H      77.74236995      74.86899150      96.11070499
C      79.04628110      74.89355793      92.44085649
H      80.12909428      76.37321364      91.49977278
C      80.05539496      72.28951507      91.59992828
H      78.78360915      70.86088198      92.36148798
C      80.15932990      72.24983082      88.75966963
H      78.36786936      72.92257340      87.99622020
H      80.47869365      70.33742779      88.06047090
H      81.66733150      73.38177688      87.92819005
C      82.78793920      71.70747937      92.47487156
H      82.79738784      71.79440678      94.53089379
H      84.02193049      73.17201726      91.71520158
C      84.11074762      69.22626872      91.71520158
H      83.07895706      67.57653765      92.39172360
H      86.04960682      69.44547697      92.37660579
H      84.17499832      69.00328101      89.67051771
C      76.25326561      75.28284155      91.70386323
O      74.67912360      73.50838855      91.80590845
N      75.72225252      77.63366109      90.96498024
H      77.05450957      78.97347704      91.24088028
C      73.46213985      78.32152146      89.61004647
H      72.83664044      76.70202602      88.50077713
H      73.76260633      79.73503675      88.14361885
C      71.20580663      79.20402366      91.23899055
O      69.16868167      80.02038543      90.28278904
N      71.26060869      78.89977772      93.73342929
H      72.91411922      78.44813313      94.57624722
C      69.12143851      79.37409902      95.40205762
H      67.57375266      78.42923586      94.42506912
C      69.71481257      77.97759129      97.80389977
H      70.78439766      79.17378804      99.09458284
H      70.77494903      76.24849170      97.44674149
C      67.22604302      77.36154050      99.03411159
N      66.47582167      74.93324218      99.26843766
H      67.23927110      73.35343099      98.51632659
C      64.09854597      75.00505178     100.18117547
H      63.03085060      73.33831318     100.67439403
N      63.29352256      77.46547544     100.39282481
H      61.64946067      78.05695978     101.16005370
C      65.31930917      78.94324142      99.64638292
H      65.47237700      80.97658694      99.72386170
C      68.59420487      82.25782137      95.68551657
O      69.69213586      83.62787296      97.16895172
N      66.82164159      83.24236878      94.25877320
H      66.04685380      82.26160083      92.81691203
C      66.02228736      85.84452192      94.15105880
H      67.58320129      87.02749060      93.50666213
C      64.03807473      86.03349455      92.02511670
H      62.66991288      84.51226487      92.25566331
H      65.19269750      85.81050684      90.33192192
C      62.36188749      88.40888053      91.80779817
H      63.53729725      90.10207530      91.79268036
C      61.13356538      88.43533669      89.27556491
H      62.57542656      88.45990313      87.80535784
H      59.96193507      90.08506776      88.88439157
H      59.93925835      86.79694398      88.90895801
C      60.29830635      89.02871075      93.74098819
H      61.16380100      89.55972386      95.53055901
H      58.87156299      87.54338587      93.69941421
H      59.42336307      90.82206102      93.22320318
C      65.10954955      86.73269328      96.64927699
O      63.42580340      85.67444656      97.84736347
N      66.25472369      88.78682579      97.67161892
H      67.63233417      89.64476154      96.67006398
C      65.57820167      89.99058145     100.02054873
H      64.68247140      88.58651480     101.23375302
C      67.96114655      90.97890831     101.17706123
H      67.59264992      92.25258384     102.75309298
H      68.39011443      92.46045374      99.81456856
C      70.19858251      89.36319231     101.77799420
H      70.76361067      87.92700032     100.41361180
C      72.51916642      91.16032203     102.05956342
H      72.34909105      92.41321059     103.68472805
H      72.65900617      92.20156123     100.28888987
H      74.27472216      90.10585475     102.27688195
C      69.55796529      87.93266949     104.21007197
H      69.54095775      89.25547792     105.79177289
H      71.04140044      86.56261792     104.61636312
H      67.71170268      87.02182141     104.17983635
C      63.43147258      91.96156600      99.72953088
O      61.71182164      91.89353585     101.21485576
N      63.48438492      93.66987858      97.75854633
H      64.92057691      93.63208405      96.50376806
C      61.57954079      95.61629668      97.30123257
H      59.68603503      94.86418561      97.60925795
C      62.01795730      97.86507099      99.15883353