 %block lattice_cart
   140.777   0.000   0.000
   0.000 144.511   0.000
   0.000   0.000   162.462
 %endblock lattice_cart

 %block positions_abs
N      95.69854937      46.84718485      78.99356405
H      95.22611779      46.06672789      80.66975129
H      97.52780445      47.37441850      79.12773462
H      95.55493018      45.52248671      77.62540220
C      93.95433199      49.04115710      78.36995437
H      94.42298411      50.63797584      79.58693811
C      94.48912454      49.99735862      75.71488890
H      93.82394088      48.63297622      74.32027088
H      96.52058032      49.87263668      75.39741488
C      93.58583536      52.65620354      75.01191071
H      91.56382820      52.41431857      74.70388532
H      94.54392659      53.05682552      73.23178852
S      94.61573620      55.15442173      77.26635420
C      98.00968466      54.86718333      77.02068978
H      98.72967038      52.93588303      76.96021854
H      98.89596629      56.04259309      78.46255096
H      98.68431695      55.77236223      75.29725938
C      91.27847952      48.27959740      78.81026060
O      90.40164652      46.46923959      77.75768304
N      89.95756084      49.64586952      80.53369099
H      90.96289523      50.77025668      81.70532131
C      87.26470084      49.26414481      81.13084451
H      86.45778770      48.14353711      79.60016620
C      87.06816930      47.65220826      83.44575924
H      88.37585992      46.08562515      83.15285166
H      85.14631765      46.96056843      83.69898257
C      87.67477145      48.84273584      85.96854387
O      87.52359334      51.03481836      86.42585764
N      88.58939899      47.60118565      87.91874143
H      88.22657154      48.54415908      89.53634715
H      88.80293805      45.70956961      88.04724281
C      85.93055406      51.87385685      81.19698493
O      87.18533233      53.79948796      81.24233836
N      83.37753381      51.84740068      81.27635344
H      82.55172341      50.12586001      81.36328085
C      81.99236443      54.30782434      81.36517057
H      82.18133706      55.09206076      79.47166481
C      79.24470236      53.91098181      82.07948712
H      78.54739335      52.86218371      80.45054304
C      78.63054131      52.45022337      84.53424160
H      79.61319900      50.65309365      84.73077314
H      76.61231362      52.04015276      84.54369023
H      79.41855718      53.46878586      86.14050897
C      77.64032472      56.31471368      81.88484531
H      78.32440565      57.54303579      83.38906745
H      75.59942030      56.03125474      81.92830901
C      77.61386856      57.78492075      79.31670725
H      77.43623429      56.66431305      77.59516658
H      79.30517360      58.93954353      79.09560927
H      75.92067378      58.95655107      79.31670725
C      83.09974404      56.23723490      83.23788935
O      82.94856595      58.46144277      82.59916185
N      84.30727916      55.53425672      85.42997187
H      84.87419705      53.71256055      85.49989175
C      85.20867861      57.27091520      87.38394888
H      83.85563458      58.82049077      87.31213928
C      85.17844299      55.92165061      89.85193144
H      85.89842871      57.07627339      91.39961729
H      86.56739183      54.40042093      89.78579102
C      82.54983369      54.80482236      90.57947607
C      82.18322678      52.18188224      90.63238841
H      83.66099277      50.93844232      89.97287393
C      79.93067301      51.06316426      91.51111115
H      79.66044215      49.04304683      91.46197826
C      77.99370354      52.77525630      92.37660580
H      76.05106489      52.16676443      92.51077637
C      78.42267143      55.43221149      92.49754828
H      76.77105063      56.59628290      92.78667641
C      80.64121012      56.41297945      91.54323649
H      80.87742590      58.41797907      91.83992353
C      87.77114750      58.40286126      86.48821861
O      88.35129346      60.59494378      87.09671048
N      89.18088332      56.97233844      85.14273347
H      88.33995512      55.27347448      84.92730467
C      91.65264533      57.81704610      84.18464223
H      92.48223519      59.06615519      85.59815751
C      93.55559973      55.70811154      83.73299764
H      95.15052875      56.41108972      82.63506665
H      92.87151882      54.09428526      82.65207419
C      94.38329986      54.82938880      86.37105558
H      95.35839864      53.02658990      86.17830349
H      92.78648112      54.28703735      87.55402425
C      96.22767275      56.49612741      87.85827018
O      95.81193296      57.32571726      90.08247805
O      98.07393534      57.43154193      86.69986795
C      91.37863502      59.25134837      81.72232885
O      92.69388453      61.11083906      81.42375209
N      89.43788610      58.52947292      80.17464300
H      88.46278732      56.94777200      80.61872868
C      88.72167982      59.97511355      77.90319197
H      90.32227801      60.03180534      76.60683972
C      86.65620896      58.41419962      76.61817807
H      85.07828750      58.42553797      77.94098649
H      87.19100152      56.42431781      76.53691984
C      85.84362666      59.02080176      73.82894204
H      87.40832004      58.23278589      72.74234941
H      85.69433828      61.04091919      73.46044540
S      82.90699197      57.61673511      72.62518637
C      83.28115777      58.48600922      69.37863657
H      85.07639776      57.78870021      68.65109194
H      82.86919743      60.46266294      68.97423514
H      81.84496577      57.34272480      68.44133232
C      88.07728316      62.66419409      78.46822013
O      89.25458264      64.47833135      77.53658506
N      86.59573772      62.86828454      80.45621222
H      85.97401777      61.22422264      81.20265411
C      85.81150131      65.28902394      81.50123087
H      85.46379167      66.52679468      79.89118405
C      83.51548383      64.82226154      83.08671124
H      83.14887692      66.30569670      84.46810118
H      83.85941403      63.27835515      84.40951966
C      81.05317045      64.26857173      81.62973226
H      81.37064446      62.63962765      80.40896906
C      78.72880708      63.56937300      83.24166880
H      77.73103159      65.20965544      83.98244152
H      79.25793046      62.27491047      84.75344985
H      77.23592329      62.72844479      82.09271520
C      80.12720455      66.35105013      79.97811146
H      80.05539495      68.03479628      81.16296986
H      78.34708237      66.04869392      78.98411542
H      81.64843423      66.62883990      78.61939824
C      87.83161874      66.49844878      82.98466602
O      87.70878652      68.79824571      83.00923246
N      89.60985120      65.35327464      84.31692307
H      89.68166079      63.47110723      84.62494846
C      91.64508643      66.83859952      85.53390682
H      90.81171713      68.31258604      86.70742686
C      93.33828120      65.00178554      87.17229953
H      94.20566558      63.52590929      86.02712539
H      92.25546804      64.07959910      88.66140387
C      95.48501031      66.32459396      88.51967439
H      94.64030264      67.83259556      89.63839237
H      96.77569338      67.19764752      87.17229953
C      96.69254542      64.63328891      90.53223292
H      95.29225822      63.71866138      91.73220913
H      97.74323324      65.68019729      91.96464546
N      98.17409084      62.64340710      89.34926424
H      97.43709759      60.91430753      89.01478269
C     100.69687548      62.74167287      88.99399570
N     101.94598457      64.88084306      89.50611153
H     103.84893897      64.76368003      89.41918412
H     100.90474536      66.37750630      90.07302942
N     101.90441058      60.85005683      88.03590446
H     103.77901908      60.89352054      87.68063591
H     100.89529673      59.24001002      87.86960854
C      93.21733872      68.14062095      83.43820034
O      93.89197101      70.38939526      83.79913806
N      93.71622648      66.91418857      81.24611781
H      93.35906819      65.04524925      81.09116026
C      94.78959102      68.10849560      78.88773938
H      96.54514676      68.98910806      79.50756961
C      95.42642879      66.06192201      77.03013841
H      93.85606621      64.73344441      77.16052953
C      95.57004799      67.07292558      74.23145374
H      96.95143792      68.59793472      74.16153387
H      93.69354975      67.68519691      73.63996940
H      96.10484053      65.52901918      72.97667547
C      97.98700794      64.73344441      77.72177824
H      97.74701269      63.96432580      79.61717373
H      99.57437805      66.04302474      77.69154262
C      98.32904841      62.53380298      75.86039782
H      96.57349265      61.45665898      75.80748549
H      99.71232807      61.21477401      76.62762671
H      99.08115947      63.01379346      74.00279686
C      93.08505788      70.24955551      77.86728717
O      93.91086828      72.22054006      77.24178776
N      90.57550134      69.90373560      77.97500157
H      89.94433276      68.10093670      78.02413445
C      88.90120383      72.05424414      76.97911580
H      89.84984643      72.92729770      75.37284843
C      86.31794795      71.11693989      76.09094443
H      85.23135533      72.85737783      75.91331016
H      85.52615263      69.86594107      77.52146725
C      86.41243428      69.72043215      73.51146802
O      87.96012013      70.38183636      71.88252393
O      84.96868337      67.94408941      72.96155766
C      88.61396543      74.09325884      79.08616064
O      88.82561477      76.22487012      78.09027487
N      88.39286745      73.70019576      81.59382746
H      88.25869689      71.90117631      82.22310632
C      87.64453582      75.68440839      83.30969895
H      87.00391860      77.29067576      82.19287070
C      85.40709988      74.80379593      84.99533482
H      84.97435254      76.43840919      86.17263431
H      86.02693010      73.34870667      86.31436379
C      83.02226526      73.80224098      83.62906270
H      81.61630888      73.50366423      85.10304922
H      83.49091739      71.88605850      83.03946809
C      81.79205344      75.39905972      81.62217335
O      82.68400425      77.54767854      81.17619794
O      79.89098877      74.49954999      80.38440262
C      89.91220741      76.72186814      84.94998139
O      89.94622248      78.91773011      85.61516505
N      91.75469055      75.00410692      85.53957600
H      91.75847002      73.29957378      84.67786080
C      93.87118402      75.48598713      87.31024955
H      94.92754103      77.19996889      86.86616387
H      95.32249383      74.05735404      86.99277553
C      93.03214554      75.58803235      90.17507464
O      91.22745692      74.32002599      90.99143641
N      94.42109439      77.18107163      91.49599334
H      95.95177270      78.09947862      90.82136104
C      93.99590596      77.64972376      94.22286841
H      92.01736252      77.19052026      94.55734996
C      95.32816302      75.61448852      95.97842415
H      97.36906744      75.89227829      95.94251935
H      94.73667868      73.73043138      95.39260899
C      94.47589644      75.51055357      98.82246225
H      94.91242322      77.24910178      99.83535556
C      91.65453507      74.77922949      99.22686368
H      91.54304121      73.80979989     101.04289067
H      91.03281510      73.37138338      97.85681211
H      90.53581708      76.50265988      99.09836229
C      95.87618364      73.52823067     100.37770701
H      97.87362437      73.47153888      99.87315008
H      95.15052875      71.69708587      99.77299459
H      95.67398293      74.18207597     102.32034566
C      94.41920466      80.35959129      95.27166651
O      96.30326179      80.74509546      96.59069548
N      92.51247082      81.97530729      94.97308975
H      91.02336647      81.21185786      94.05090331
C      92.33294682      84.44328985      96.30912626
H      94.23212176      85.20673928      96.53211396
C      91.00446922      86.47096619      94.56679859
H      90.90053427      88.23408084      95.62315560
H      89.23190594      85.68295031      93.87137931
C      92.88285716      86.87725734      92.40495169
H      93.37796546      85.14815777      91.39772757
H      94.62707456      87.67472185      93.15517304
C      91.87185360      88.77076311      90.46420277
H      90.05204715      88.21329385      89.68185608
H      93.41575998      88.66682816      89.10548955
N      91.91531729      91.42960803      91.41284538
H      92.43688176      91.90581906      93.18729839
C      91.86996386      93.40626175      89.88027734
N      91.82461044      93.11524390      87.37261052
H      91.95689128      94.61757632      86.20286993
H      91.73012411      91.38992378      86.56380766
N      92.04003923      95.58889565      90.82136104
H      91.65831452      97.11957396      89.74610677
H      91.46745215      95.66259497      92.64116748
C      91.18399322      84.18628707      98.88482322
O      88.86151957      83.78755482      99.01899379
N      92.58617014      84.68517482     100.98052970
H      94.09984091      85.80767225     100.67817349
C      91.53359259      84.68706455     103.52410132
H      90.04826769      83.26788008     103.65638216
C      93.59339427      83.94440210     105.47996805
H      92.82805511      84.05967541     107.38859163
H      95.29225822      85.10469406     105.35713584
C      94.47022728      81.04745167     105.28532624
H      95.58138634      81.05690030     103.55055749
C      96.44499126      80.31423786     107.46040123
H      97.83960928      78.93095820     106.84246072
H      95.38674453      79.48653773     109.02320489
H      97.26891195      82.08491141     108.11991571
C      92.57105233      78.89694312     105.27209816
H      91.54871040      79.26543975     107.02198472
H      93.55371000      77.08847504     105.35902557
H      91.22934664      78.88560477     103.70929450
C      90.04259852      87.14370875     104.39904460
O      89.53993132      87.43661633     106.61002439
N      89.50969570      89.01831726     102.69073201
H      90.10495948      88.71407132     100.90305092
C      88.53081747      91.51842517     103.02143412
H      87.61807967      91.79999439     104.84879946
C      90.90620344      93.23429666     102.72285736
H      91.95689128      92.86768975     100.98808861
H      92.31215983      93.00375005     104.21007197
C      90.15031292      96.03109160     103.04411083
H      89.22245729      96.18604916     104.87525563
H      88.79348942      96.32021973     101.52099143
C      92.47467629      97.77152954     102.72474709
H      93.70866757      97.11579451     101.21296604
H      93.54993056      97.68271240     104.48030283
C      91.71878575     100.59100120     102.07657096
H      90.31471910     101.24673623     103.43528418
H      91.07249936     100.93304166     100.15093985
N      93.87307376     102.39380010     102.32223538
H      93.51402576     104.16069420     101.69862570
H      95.38296508     101.64546848     101.42650511
H      94.67053827     102.45049189     104.05700414
C      86.58817881      91.89448070     100.97675025
O      86.83384324      90.69828395      98.94718419
N      84.65120935      93.49507889     101.39626949
H      84.39798602      94.26986668     103.12158961
C      82.73502687      94.01853308      99.48953564
H      81.79394317      92.27998487      98.91694857
C      80.48058338      95.55299085     100.54778238
H      81.30828350      97.22161918     101.42839484
C      78.64565913      96.65092183      98.63726907
H      77.33985824      97.56743910      99.93929050
H      77.90866586      95.04276474      97.58469152
H      79.66422160      97.75074255      97.22186406
C      79.01226604      93.90892895     102.47341349
H      80.42389159      93.03776512     103.69228696
H      77.89165833      92.56155409     101.38871058
C      77.08852465      95.31677506     104.18361580
H      78.14110221      96.82099720     105.12092005
H      76.27027316      93.80121455     105.31178241
H      75.54650797      96.35045535     103.28977526
C      83.95390034      95.10323598      97.10470103
O      85.79071432      96.56399442      97.16139282
N      82.95234540      94.21317489      94.93151577
H      81.38576227      93.11902335      94.94852331
C      83.82917840      95.11079489      92.52022500
H      84.68144496      96.98162394      92.65250584
C      85.72457389      93.19650213      91.63961254
H      87.20045014      93.14358980      93.07391481
H      86.81116653      94.20372626      90.20531026
C      85.11230256      90.49419351      90.71553637
C      84.69278332      90.07278454      88.12850105
H      84.76459292      91.50897654      86.68286042
C      84.17688804      87.58023553      87.44253039
H      84.10507845      87.33079166      85.41674379
C      84.46412645      85.56956673      89.13005599
O      84.51325933      83.16583486      88.26456134
H      84.61719428      83.41149928      86.47121107
C      84.88553541      85.99664488      91.64150226
H      85.14253820      84.45651794      92.95675178
C      85.28804712      88.55344458      92.40873115
H      86.17810821      89.10524467      94.15861771
C      81.57662464      95.27520108      90.74955144
O      79.52438187      94.79521059      91.47520635
N      81.86575276      95.93849501      88.33637094
H      83.64020577      96.37502179      87.77890168
C      79.77949492      96.01975325      86.49577751
H      78.05795424      95.27331135      87.34804408
C      79.43367499      98.80520983      85.96665414
H      78.57762898      98.68048789      84.09771482
H      81.24403280      99.78408806      86.08003772
C      77.56095623     100.08833400      87.82992429
H      78.44534813     100.05053947      89.68941498
H      75.73548060      99.14725029      87.68819482
C      77.41544730     102.94371046      86.90017894
H      77.26615892     103.03819677      84.84793617
H      79.19934893     103.79597702      87.47843519
C      75.15344490     104.39124081      88.06991953
H      75.76004704     106.33765891      88.37983465
H      74.90211129     103.48795163      89.90295405
N      72.74782330     104.31565176      86.63939671
H      71.39666898     105.19437449      87.65984892
H      72.06185265     102.55820629      86.34837886
H      72.89522196     105.11878544      84.91407659
C      80.10452783      94.34734546      84.19409086
O      82.17944733      93.95995156      83.15474139
N      77.92567340      93.46484327      83.17552838
H      76.32129577      93.97128992      84.07692783
C      77.68756788      92.03243072      80.89840817
H      78.86486737      90.41293527      81.38028838
C      74.97392089      91.27465047      80.80959104
H      73.68323782      92.86768975      80.62817731
H      74.38243657      90.37514075      82.56703651
C      74.70180032      89.08256795      78.95576952
O      73.73803990      89.57956597      76.82415824
O      75.28950520      86.91883132      79.57748948
C      78.54361391      93.68972070      78.57026536
O      78.60030570      96.07833476      78.74600990
N      78.74581463      92.51620066      76.29692460
H      78.14488166      90.70962231      76.20621774
C      78.67967419      93.90325977      73.87429547
H      80.06106414      95.40748192      74.13885715
C      79.33729895      92.06644580      71.68788212
H      78.57762898      92.78076234      69.91153939
C      82.23613912      91.58645531      71.72189720
H      83.27737831      93.29665763      71.24190671
H      82.59518712      90.37136130      70.09862229
H      82.91077141      90.64537161      73.42643033
O      78.10519741      89.75153106      72.16976233
H      79.31273251      88.88981587      73.21667071
C      76.29672931      95.25252436      73.11084604
O      76.37987728      97.43326853      72.52692061
N      74.08008036      94.20183653      73.62296187
H      74.14811051      92.60312807      74.66609079
C      71.70658410      95.69283059      73.52091665
H      71.72737109      96.83044583      71.80315543
C      69.30096251      94.02609198      73.30737757
H      67.67957734      95.27520108      73.07116178
H      68.87766382      93.10201582      75.09694839
C      69.40300773      92.03243072      71.15686903
H      67.90445476      90.64915106      71.43843825
H      70.99982647      90.76064492      71.43087934
C      69.20269673      93.14358980      68.42810423
O      69.76394545      91.85101700      66.60640807
O      68.06130204      95.12780243      67.96323156
C      71.47036832      97.55043156      75.76402178
O      69.54473720      98.80332010      75.92275879
N      73.21269598      97.63924870      77.47044464
H      74.64699824      96.42037522      77.14919117
C      73.39033025      99.36267909      79.60205592
H      72.45491573     101.13902183      79.14096270
H      75.31407164      99.68960174      80.25401150
C      72.07697046      98.50852280      82.00200834
O      71.95035879      99.93715589      83.85394013
N      71.09809223      96.13313682      82.14373781
H      70.92234769      95.14480996      80.52046291
C      69.85465232      95.37157712      84.54180050
H      68.55074117      96.85123282      85.14273347
C      68.27106166      92.84690277      84.16763469
H      66.97281969      92.94705826      85.76256370
H      69.58253172      91.26520184      84.30747444
C      66.84809775      92.57667190      81.69020350
C      66.86510530      90.13136605      80.56392662
H      67.98571300      88.75942475      81.57870965
C      65.69536471      89.66271393      78.28491668
H      65.74260786      87.85991503      77.33438435
C      64.44058644      91.60724230      76.96210826
O      63.01762251      91.32567308      74.87018123
H      62.53196286      92.89981510      74.11618044
C      64.43113779      94.01853308      78.09972350
H      63.75650550      95.61157236      77.01880005
C      65.51017153      94.57600234      80.48455811
H      65.51962015      96.44305194      81.31225824
C      71.66123068      94.89725582      86.62238917
O      73.61898713      93.52531451      86.47876998
N      71.09620251      95.79865527      88.80691279
H      69.43891253      96.73973897      88.89006075
C      72.59475547      95.39425384      91.10859944
H      74.55251194      96.03109160      91.05001793
C      71.38344091      96.81910748      93.28556415
H      71.87476975      96.07455531      95.14127539
H      69.33119813      96.70761362      93.15328331
C      72.14689033      99.56865926      93.53500803
C      70.43290856     101.60956368      93.28934361
H      68.57908706     101.21839033      92.52967363
C      71.25682925     104.05675925      93.76177519
H      70.02283795     105.64223963      93.39327855
C      73.82118784     104.50273466      94.56301914
O      74.59786536     106.83843639      94.71986643
H      73.10309184     107.67558514      95.31135076
C      75.56351550     102.46749942      94.78789657
H      77.45513155     102.92292347      95.40961653
C      74.63754962     100.02597303      94.35514925
H      76.01704983      98.52742006      94.48176091
C      72.73270550      92.54454656      91.66417898
O      70.79195656      91.30110664      91.61504609
N      75.06084831      91.49763818      92.07235986
H      76.61987251      92.59367944      91.98165300
C      75.80540047      88.90304395      92.28211948
H      74.30306806      87.62747869      92.88494218
C      76.59341635      88.27376509      89.45697864
H      77.71213432      89.85357629      88.75400046
C      77.75748775      85.63948661      89.32091835
H      77.85386381      85.19729065      87.31024955
H      76.58585744      84.32612682      90.39239317
H      79.48469761      85.65649414      90.44341578
O      74.55629139      88.34935414      87.82236538
H      74.22747900      90.07845372      87.38205915
C      78.00693164      88.64226172      94.16050744
O      79.25415100      90.60190791      94.72931506
N      78.46802486      86.31978808      95.12993704
H      77.36631442      84.86280909      94.57813695
C      80.21791142      85.85491541      97.24454078
H      81.84685551      87.08890669      97.00076609
C      79.30706334      86.40860522      99.81267884
H      78.68534338      88.34935414      99.50843290
C      77.17545205      84.70407208     100.40983235
H      76.48381223      85.01776665     102.32412511
H      77.84819462      82.75954371     100.28511042
H      75.68823744      84.61525495      98.98686844
C      81.44434380      86.28199355     101.76098667
H      83.12620022      87.21173890     101.02021395
H      81.92055483      84.30533983     102.08979905
C      80.78671904      87.42905743     104.30455829
H      79.60186064      86.25931684     105.51776258
H      79.91177576      89.25075359     103.90582603
H      82.49125217      87.66527322     105.43650435
C      81.23836363      83.05434101      96.88360305
O      79.78138465      81.27043937      96.34692078
N      83.56272699      82.70663137      97.43162369
H      84.74002648      84.16738981      97.78500251
C      84.42066274      80.02510973      97.69240592
H      82.86730771      78.97253218      98.54278276
H      86.03070955      80.22731045      98.96230200
C      85.35418753      78.60214582      95.27922541
O      86.60518636      79.60748022      93.66161969
N      84.47924425      76.17573723      95.07891443
H      83.72713319      75.26488915      96.57935712
C      84.35830178      74.67718427      92.71486681
H      85.83795747      75.19118982      91.38072003
C      84.65309908      71.80102082      93.28556415
H      82.82573374      71.14528579      93.96775535
C      85.47324030      70.16262810      90.97442887
H      85.36741563      68.11983396      91.20686521
H      87.42154813      70.76734052      90.68152130
H      84.42444220      70.50844802      89.23777039
C      86.41243428      71.30024334      95.67417821
H      85.97212805      72.58336751      97.22564352
H      88.28137359      71.81802835      94.98064866
C      86.63920143      68.58848609      96.51699615
H      87.10407410      67.32992836      94.95419249
H      84.87986624      67.93464078      97.36737299
H      88.14342358      68.52801484      97.92295253
C      81.81850961      75.60126043      91.65284062
O      80.04972578      73.99310334      91.31835906
N      81.46513079      77.98420531      91.13694534
H      82.77471112      79.23709386      91.73598858
C      79.45824144      78.85914860      89.30957999
H      79.51871268      77.70641555      87.60315713
H      80.10830730      80.79044889      89.00533406
C      76.71624857      78.93851710      90.38672399
O      74.92667775      79.06701849      88.92029637
N      76.49137113      78.81568489      92.87549354
H      78.12220494      78.33569441      93.74665737
C      73.95724814      78.87615613      94.21719923
H      72.83664043      77.31335247      93.47642651
C      74.34653177      78.50576978      97.03667089
H      75.34052780      80.15361112      97.77177442
H      75.43879358      76.85225925      97.60169905
C      71.83130604      78.25632590      98.48420124
N      70.14755990      76.27022355      98.39349438
H      70.23637704      75.00977610      96.96486129
C      67.94980820      77.28311685      99.30245274
H      66.24149561      76.26266464      99.74653842
N      68.26728221      79.64905420     100.17928574
H      66.87077447      80.72052901     100.92194819
C      70.70124971      80.33880430      99.51977126
H      71.40800734      82.25498678      99.53110962
C      72.78183838      81.46697091      93.71831148
O      73.80040085      83.50598560      94.29656773
N      70.62755037      81.27421882      92.41062087
H      70.04362495      79.50732472      91.98543245
C      69.10254124      83.42472737      91.59236938
H      70.19858250      84.95162623      90.74388226
C      66.88400255      82.34191419      89.89539515
H      65.99016201      80.91139137      91.07836382
H      67.87799860      81.55578805      88.27212025
C      65.13789544      84.48486383      88.89006075
H      64.31208505      85.46563179      90.50199730
C      66.41346071      86.37459014      87.24599886
H      68.25027468      86.81300665      88.06991953
H      65.62922428      88.27565481      87.11749747
H      66.63455869      85.52799276      85.38083899
C      62.94392320      83.37937394      87.49922218
H      61.81764631      82.30222994      88.84659705
H      63.52784863      82.10002922      85.99122059
H      61.81764631      84.92328034      86.73010357
C      67.89500614      84.68328509      93.93185055
O      67.03896012      83.22630611      95.58536108
N      68.20492125      87.17961355      94.18885333
H      69.07419536      88.05833629      92.73376407
C      67.06541628      88.64604117      96.22408857
H      66.24338533      87.37047591      97.61492714
C      68.93624532      90.49986268      97.55067644
H      68.07641986      91.55432997      99.09836229
H      69.52961939      91.92282660      96.18251459
C      71.30218268      89.26020222      98.91127939
H      72.30562735      88.02621094      97.60169905
C      73.11254049      91.14614908     100.02621791
H      74.44479753      90.12758660     101.22052494
H      72.21114103      92.38203009     101.40571812
H      73.99882213      92.32722803      98.59002592
C      70.27984073      87.41016016     100.91060983
H      69.25371935      86.06089558      99.73897951
H      68.91923780      88.31722879     102.15971892
H      71.87854920      86.76387376     102.04066616
C      64.72971456      90.05010782      95.28111514
O      62.65290533      89.49074883      96.29022899
N      64.94325363      91.75842041      93.45941898
H      66.70258882      91.95117249      92.74699216
C      62.93258484      93.33634188      92.55424007
H      61.25450787      92.16093211      92.33881127
C      61.96126551      95.14669969      94.51199653