 %block lattice_cart
   140.777   0.000   0.000
   0.000 144.511   0.000
   0.000   0.000   162.462
 %endblock lattice_cart

 %block positions_abs
N      90.97139900      44.81856366      80.15291113
H      90.12669134      43.28788535      79.38757198
H      90.91848667      44.39904442      82.01429155
H      92.78364654      45.04344110      79.60300079
C      89.66181866      47.25442088      79.68992819
H      90.04354338      48.44683819      81.32454146
C      90.49329824      48.47707381      77.34288811
H      90.19472149      47.19772909      75.75740774
H      92.43971634      49.08367594      77.64524432
C      89.10245967      51.02820433      76.72872707
H      87.20895391      50.29688024      76.37912769
H      89.93204953      52.07133325      75.15647476
S      89.02120145      53.07477793      79.57465489
C      92.00318956      54.77364188      79.20993771
H      91.81610666      55.96416946      77.53941964
H      93.55087543      53.41870812      79.10411303
H      92.28664851      56.08322222      80.77463110
C      86.65337437      46.87836535      79.98094604
O      85.78976945      44.79588695      79.24395279
N      85.17749812      48.53187587      81.17525308
H      86.03354414      50.12680488      81.78374494
C      82.55266828      48.61880328      81.50406546
H      81.53221607      48.08967990      79.79575286
C      81.98575039      47.04277153      83.83598772
H      82.99486423      47.52465174      85.56319758
H      82.50731484      45.13225823      83.26906983
C      79.21163216      46.63270093      84.47282549
O      77.56001136      46.90671124      82.94970609
N      78.54077931      45.88247958      86.68002583
H      76.66428108      45.59335144      86.87844709
H      79.94295624      45.24753154      87.81008216
C      81.60213595      51.41559822      81.85744428
O      83.19895467      53.04265258      82.47349506
N      79.18706572      51.94472158      81.77996549
H      78.20251830      50.37057956      81.33776953
C      78.01732512      54.41270416      82.39790600
H      78.27054845      55.84700643      80.94092701
C      75.10714660      54.03853835      82.90246292
H      74.45519102      52.95950462      81.27351884
C      74.51755199      52.60801552      85.40635029
H      75.60036517      50.87513650      85.68036061
H      72.51633184      52.12613531      85.34020987
H      74.69140681      53.72295405      87.12978069
C      73.49332033      56.45360856      82.51506903
H      73.53111486      57.65358477      84.18936654
H      71.53556387      55.81677081      82.50751012
C      74.04134097      57.95783072      80.13590360
H      73.79945600      56.70494217      78.51829788
H      75.80823506      58.92915004      80.55353311
H      72.56546471      59.39591243      80.12645498
C      79.04155678      55.76007902      84.75628443
O      79.18706572      58.11845745      84.70337210
N      80.10547270      54.46750622      86.69325391
H      79.97886105      52.58722854      86.38144906
C      80.99553380      55.59189337      89.08375770
H      79.75776306      57.12446141      89.68658038
C      80.65160360      53.73618214      91.18891281
H      81.53599553      54.69238365      92.78573155
H      81.46229619      51.86157363      90.91679222
C      77.79433742      53.36768550      91.75205125
C      76.45452146      51.14158791      91.01694772
H      77.54300382      49.70917535      90.05129756
C      74.08291494      50.56333165      91.98259785
H      73.23253811      48.78131973      91.47426148
C      72.77522433      52.27920314      93.41123095
H      70.85148295      51.80110239      93.89500089
C      73.86748615      54.57144116      94.17845983
H      72.92829217      55.96794891      95.33308261
C      76.48286737      54.99851931      93.31107545
H      77.44284832      56.60289694      94.13121668
C      83.72996777      56.69927300      88.94013849
O      84.77876587      57.63090806      90.77317301
N      84.93561315      56.46683666      86.75372515
H      84.00964726      55.31788305      85.54430032
C      87.25052789      57.88602112      86.14901273
H      87.67004713      59.22583708      87.65701433
C      89.56733235      56.14936264      86.07342368
H      91.30399083      57.13768950      85.57453594
H      89.16671037      54.72639872      84.63723169
C      89.87913719      54.86056928      88.63589255
H      88.46940136      53.37146496      88.83998300
H      89.54654537      56.15692154      90.20058595
C      92.58900472      53.93460339      88.85132135
O      93.05198767      51.67827018      88.31652881
O      94.17448511      55.63535708      89.49004885
C      87.01053265      59.44882478      83.75661922
O      88.15003762      61.45949357      83.56953631
N      85.48741324      58.65513972      82.00673265
H      84.63703641      56.98840112      82.38656764
C      84.95451042      59.70960701      79.64268503
H      86.70061753      59.76251935      78.54853350
C      82.90982655      58.25640748      78.25940538
H      81.07868175      58.88001716      78.97183220
H      83.08368137      56.23817976      78.64113009
C      82.76242790      58.45482874      75.46072070
H      84.30444457      57.54020120      74.44782740
H      82.85124503      60.46738726      75.03553229
S      79.65949729      57.34744912      74.34389246
C      79.83524184      57.16981485      70.92537755
H      79.75020415      59.03686443      70.05610345
H      78.31779161      55.91692629      70.31688569
H      81.58323868      56.17770852      70.47562269
C      84.07200823      62.44593071      79.86000356
O      85.16804949      64.11266932      78.69026297
N      82.52810184      63.13190135      81.75350932
H      81.91016133      61.70893745      82.86655812
C      81.98575039      65.87011478      82.33365530
H      81.99330928      66.92458207      80.56487148
C      79.38737670      66.10822031      83.76795757
H      79.22108078      68.10188157      84.26117614
H      79.47997329      64.85722148      85.40257084
C      77.00443182      65.55075104      82.16546967
H      77.28978050      63.94259394      80.90880166
C      74.78211367      65.05942219      83.78118566
H      75.23942745      63.45882402      84.99438996
H      72.97742505      64.72683036      82.84388141
H      74.46841912      66.59765942      85.11533243
C      75.99153852      67.86944523      80.60077628
H      77.58268807      68.71037344      79.59733160
H      75.50209940      69.38689546      81.90468743
H      74.40038896      67.42724927      79.36867471
C      84.29121648      67.26473281      83.54119042
O      84.78254533      69.40768245      82.74372591
N      85.85402014      66.10444085      85.09643517
H      85.81244616      64.23172208      85.47060099
C      88.23696503      67.24583555      86.00161408
H      87.77020262      68.99194266      86.99183066
C      89.37458026      65.48461062      88.16157125
H      91.06777504      66.39734843      88.90045425
H      90.03976393      63.78007749      87.21481837
C      87.64737041      64.59077008      90.29318253
H      86.30944419      63.27552055      89.44280570
H      86.64392575      66.09310249      91.28150940
C      88.99474527      63.22638767      92.36621231
H      89.56166317      64.60021871      93.79484539
H      90.75219076      62.51018140      91.56118890
N      87.69461357      60.97194418      93.33942135
H      86.87636208      59.82488032      92.05062800
C      87.16171076      60.21227420      95.67701281
N      88.17460406      61.14201956      97.73870421
H      87.54910465      60.41069547      99.38654555
H      89.42371316      62.58010128      97.86720560
N      85.40237555      58.53230751      96.11164985
H      85.04521728      58.16192116      97.94846383
H      84.39893088      57.96538962      94.59042018
C      90.05866119      67.80519454      83.77929593
O      91.60634704      69.53051466      84.00417336
N      89.67693647      66.49939365      81.68736890
H      88.57711577      64.94603862      81.82720865
C      91.13013601      67.13245197      79.42347679
H      92.97072945      67.69748014      80.15291113
C      91.62146485      64.93658998      77.48839704
H      89.83000431      64.26951661      76.71927842
C      93.33733634      65.83987916      75.25285080
H      95.11556880      66.63923340      75.91803447
H      92.44349580      67.24394582      74.03964652
H      93.98173302      64.26762688      74.08877940
C      92.77230817      62.54041702      78.67136570
H      93.46961719      61.22894697      77.24651207
H      91.50619154      61.62578948      80.01307139
C      95.18737841      63.06576094      80.21338239
H      96.00562990      61.30075657      80.89746331
H      94.73951327      64.13156658      81.91791552
H      96.68404164      64.12022823      79.26851923
C      89.98118241      69.26595298      77.79264297
O      91.31154973      71.14434093      77.05942916
N      87.35635256      69.36421874      77.35233675
H      86.26598049      68.04896923      78.20460331
C      86.19228116      71.24827588      75.72906185
H      87.30532995      71.68102320      74.05098487
C      83.63170200      70.28829491      74.87112609
H      82.57534499      72.03251230      74.58577743
H      82.77943543      69.40012354      76.52274689
C      83.85468970      68.66313028      72.53920383
O      83.08746082      66.46537858      72.73762509
O      84.69750765      69.66657496      70.58900626
C      86.12425101      73.79184750      77.18604083
O      86.70817644      75.73637586      76.20905233
N      84.98474604      73.90334135      79.53497063
H      84.51609391      72.22526438      80.31731733
C      84.55955762      76.16723347      81.15635581
H      84.79199395      77.87932551      80.03385839
C      81.91960996      76.06707798      82.34688338
H      81.87236680      77.47870353      83.84732609
H      81.75331404      74.18113111      83.16135542
C      80.03933229      76.80218151      80.21338239
H      78.12126007      76.23148417      80.69526260
H      80.49286659      75.66834573      78.55420267
C      80.30767341      79.63677098      79.63512612
O      79.54233426      81.24681780      81.24328322
O      81.16182971      80.18479161      77.52808129
C      86.29054693      76.27872732      83.43347601
O      86.85368537      78.40277970      84.17424874
N      87.08990115      74.14900577      84.61644469
H      86.47762984      72.45770072      83.97960692
C      88.54121096      74.19435920      86.95025668
H      89.96795434      75.67401490      86.81986557
H      89.50875084      72.38400139      87.12600124
C      87.14659294      74.60820926      89.48437967
O      84.84301656      74.78395381      89.56752764
N      88.72451442      75.04473603      91.34576010
H      90.55754894      74.59687091      91.05474224
C      88.09334583      75.86298754      93.97247966
H      86.04299278      75.90267179      94.18601874
C      89.00041445      73.68980228      95.68457170
H      90.97706818      73.40823305      95.18379423
H      87.71351083      72.14967533      95.22347849
C      88.92860486      74.45136198      98.55506598
H      89.93204953      76.21447663      98.91789343
C      86.33401063      74.47214897      99.69646067
H      85.14915224      72.83942543      99.27505170
H      85.36269130      76.19746909      99.12954278
H      86.46062229      74.51750240     101.75059318
C      90.36290714      72.39911920     100.04794976
H      91.12635656      73.08886931     101.83374113
H      92.16192659      72.11943971      99.08607906
H      89.31032957      70.65490182     100.35408542
C      89.11757748      78.55395781      94.83230513
O      91.15281273      79.23236955      94.07074544
N      87.55099438      79.93912719      96.21558479
H      85.82189480      79.18134694      96.50282320
C      88.08578692      82.29750562      97.51004733
H      90.13613997      82.40899948      97.68012269
C      87.22029227      84.63131763      95.95858202
H      87.34312449      86.33018158      97.11887397
H      85.17182895      84.49336761      95.79039638
C      88.32200271      85.01493207      93.35831862
H      88.75286031      83.23103043      92.42290408
H      90.01897694      86.17900348      93.44902547
C      86.60424149      86.36986584      91.53851217
H      85.83701261      88.16321611      92.20369584
H      84.85435492      85.38531843      91.08686758
N      87.84201222      86.64576588      89.02328646
H      88.92860486      88.16321611      88.61321584
C      88.04421294      84.87320260      87.32442249
N      86.63636684      82.73403241      87.32820195
H      86.55699834      81.54539456      85.83720788
H      85.37780911      82.37309468      88.71904052
N      89.41615425      85.56484243      85.42146809
H      89.13836448      84.80517245      83.69236853
H      89.89803446      87.41110503      85.35532767
C      86.74408125      82.24837275     100.15188471
O      84.73908162      81.17878764     100.59786012
N      87.93460882      83.29717085     102.03405211
H      89.51064057      84.28927716     101.62020205
C      87.28265323      83.07985232     104.69100731
H      86.16204553      81.36965001     104.93478201
C      89.83000431      82.81340091     106.16310411
H      89.40670561      82.44490428     108.14542701
H      90.83911817      84.60864091     106.16310411
C      91.79342994      80.88776980     105.41288277
H      92.36979648      81.63988087     103.58740715
C      94.00440973      80.89532871     107.16276933
H      95.17792977      82.54883923     106.79427270
H      95.21005512      79.41567300     106.38987126
H      93.44316102      80.67234100     109.12997443
C      90.96950927      78.11932075     105.35052180
H      92.50396704      76.91367537     104.69478677
H      89.34245492      77.69035288     104.15999421
H      90.65392499      77.47492408     107.28182209
C      85.77843110      85.52326844     105.66799581
O      84.41404869      85.46090748     107.52181733
N      85.85779960      87.50181190     104.24503191
H      86.95195114      87.44134066     102.68222825
C      84.53877063      90.00003008     104.63242580
H      83.34635334      89.72224030     106.28971578
C      86.65904355      91.93322010     105.27304301
H      85.83512289      93.69255530     105.95901367
H      87.76831291      92.41321058     103.60630441
C      88.37869450      90.89765008     107.34607279
H      89.46717685      89.35941286     106.51459320
H      87.23729980      90.15120819     108.88997919
C      90.20794958      93.02737164     108.28904621
H      89.16860010      94.69599997     108.90320727
H      91.45894839      93.63019433     106.76781653
C      91.67437719      92.07117012     110.61907876
H      92.78553626      90.41576987     110.10318347
H      90.47818043      91.44000152     112.17432351
N      93.37702059      94.07994919     111.73401728
H      92.64758624      95.82416658     111.46945559
H      95.03620030      94.26325265     110.81561029
H      93.35245416      93.96467589     113.64075114
C      82.85880394      90.80316377     102.51215287
O      83.11958617      89.78082183     100.44101283
N      81.01443106      92.51714553     103.06206323
H      80.85758377      92.96312094     104.91021557
C      79.15683010      93.29571277     101.14399103
H      78.30267380      91.52503922     100.52416080
C      77.13482294      94.97567947     102.46113026
H      77.70363056      96.88430304     102.98836390
C      75.03533701      95.52558982     100.53927860
H      74.11504030      93.74168818     100.07440594
H      75.82146316      96.48935024      98.89899616
H      73.60103473      96.72556603     101.39910407
C      75.78366863      93.73223955     104.76470663
H      77.20852226      93.33539703     106.19900891
H      75.12982333      91.87463858     104.15999421
C      73.51032788      95.15898292     106.05727943
H      74.24354168      96.89186195     106.89820764
H      72.92451271      93.95522726     107.62197283
H      71.88894269      95.37441172     104.80628062
C      80.12814941      94.24624510      98.57207351
O      82.00086819      95.65598094      98.76860505
N      79.06990269      93.40720663      96.51794100
H      77.63560041      92.16754616      96.74848762
C      79.84469047      93.99680123      93.94602350
H      80.66672141      95.88463782      94.00082556
C      81.80433666      92.16187698      93.12777200
H      83.45028827      92.01825779      94.35798383
H      82.46763060      92.95934149      91.34764981
C      80.84246597      89.51437042      92.52683903
C      80.45129261      88.81139223      90.00405441
H      80.94073173      90.07372941      88.47715555
C      79.87492609      86.36041720      89.31808376
H      79.57634934      85.96357468      87.34143004
C      79.78043977      84.48391898      91.26072240
O      79.10769720      82.03672340      90.58231066
H      79.10391775      81.70224184      88.80029875
C      80.13570832      85.07351358      93.75516115
H      79.95618432      83.63165241      95.18757369
C      80.56089674      87.66810781      94.33530712
H      81.11269683      88.21045926      96.22692315
C      77.56190109      94.17443551      92.19802665
O      75.36414938      93.45067033      92.89344594
N      77.89260319      95.01914317      89.82453041
H      79.73130690      95.32716856      89.41823926
C      75.76666108      95.37630144      87.98771643
H      74.04134097      95.33472746      89.11399332
C      76.04256113      98.05026418      86.91813133
H      74.71408354      98.38663546      85.38178385
H      77.76410180      97.95010868      85.79374418
C      76.17106252     100.50690838      88.73226861
H      78.10803199     100.79036733      89.37477555
H      75.07502125     100.44265769      90.47648598
C      75.27155279     102.97111150      87.42079854
H      74.89738698     104.31281718      88.93824876
H      73.37804703     102.68198337      86.66490801
C      76.87593044     104.34872198      85.47627017
H      77.22552980     103.06181835      83.90590760
H      78.76565675     104.48289255      86.28696276
N      75.95185426     106.82993263      84.58809879
H      74.24732113     106.63529082      83.75283977
H      76.93451195     107.55558753      83.12167118
H      75.92161864     107.90707662      86.16413055
C      75.47753296      93.25224907      85.94870174
O      77.39749489      92.19022288      85.19659067
N      73.29489908      92.69289008      84.92447008
H      71.74154404      93.63964295      85.49516743
C      73.03789629      90.66332402      82.95915471
H      74.36637389      89.15154297      83.40324039
C      70.30157259      89.69956360      83.46182192
H      68.97120526      91.27181589      83.47693972
H      70.44141233      88.85674566      85.33643041
C      69.33781217      87.55094478      81.75917850
O      67.74477289      87.92322086      80.05842483
O      70.58314181      85.59507805      81.84232646
C      73.24765591      91.52881867      80.13212415
O      73.71252859      93.72279092      79.41591788
N      72.94529970      89.79782937      78.36145059
H      73.38560594      88.00636882      78.85277944
C      72.28767494      90.40254179      75.74606938
H      73.88449368      91.48157551      75.01474529
C      71.69052143      88.00636882      74.31554655
H      69.84614854      87.30528036      74.90703090
C      71.42407002      88.59407370      71.48851600
H      69.60804303      89.50303206      71.15214472
H      71.62816046      86.82906933      70.44727679
H      72.98120450      89.82995471      70.94994399
O      73.48387170      86.01270756      74.71994799
H      72.64105376      84.87698205      75.85378377
C      69.92551706      92.14297972      75.47583851
O      69.84236909      93.84562313      73.87713005
N      68.07925445      91.90676393      77.15013602
H      68.27578598      90.41576987      78.32554579
C      65.86827467      93.56216418      77.38635181
H      65.83425958      94.55427050      75.58166318
C      63.43241744      92.12408246      77.51863266
H      61.79780419      93.29382305      77.96838752
H      63.51745512      90.58962469      78.89057397
C      62.66140911      90.80505349      75.09978297
H      64.03146068      89.45200945      74.37412808
H      62.51212073      92.21289960      73.60123001
C      60.30869985      89.28382381      75.58922209
O      60.44664986      87.59251876      77.23328398
O      58.38306873      89.73735813      74.21539107
C      66.16307197      95.64086313      79.39324117
O      64.43586212      96.95422291      79.98472550
N      68.47798669      96.00180085      80.40991392
H      69.82347183      94.92843631      79.58599324
C      69.42473958      98.06916144      82.04452717
H      68.80679908      99.86818089      81.25084213
H      71.48454127      98.10695597      82.08043197
C      68.55168602      97.94254978      84.85077075
O      69.41529096      99.41464657      86.48160456
N      66.67518779      96.33061323      85.39690165
H      65.87016438      95.32338911      83.99094528
C      65.65473558      96.04526456      87.93669383
H      64.95931631      97.84806346      88.64912064
C      63.62705926      93.90231492      87.76472872
H      62.71810090      93.55838473      89.58264544
H      64.75144642      92.29415783      87.13733960
C      61.52001442      94.36529787      85.85610515
C      60.89073556      92.46612291      84.14212339
H      61.95465146      90.72568499      84.21204325
C      59.02368596      92.88753189      82.27696352
H      58.48889340      91.48724469      80.89179413
C      57.67064192      95.16465210      82.36578065
O      55.83949712      95.48968502      80.57620984
H      54.79069902      96.96745100      80.68770369
C      58.17897830      97.08272430      84.23471998
H      57.44198504      98.96300199      83.94181239
C      60.17263956      96.74824275      85.87311268
H      60.66585812      98.26191352      87.15056768
C      67.87516401      95.10985003      89.65823450
O      69.54190261      93.61696625      89.01761728
N      67.76178042      95.90353508      92.14322459
H      66.16874114      96.90697976      92.45880888
C      69.39828341      95.02292262      94.18790846
H      71.39005495      95.28748431      93.74004333
C      68.77278400      96.62918999      96.47636703
H      69.88961226      96.13408169      98.13365701
H      66.81502755      96.10762553      96.84675338
C      68.99955116      99.47133836      96.07196561
C      66.80368918     100.89430228      95.72425596
H      65.06892043      99.82471718      95.79417584
C      67.00022072     103.48322733      95.53528332
H      65.43741707     104.78902821      95.41434084
C      69.36993752     104.63407065      95.44079702
O      69.54379233     107.12661966      95.21969904
H      67.91862771     107.84093620      94.84742295
C      71.52422551     103.18087112      95.72614569
H      73.34403195     104.10683701      95.71858678
C      71.38249604     100.59005633      96.14566493
H      73.06246273      99.48267672      96.49526429
C      69.06191214      92.16187698      94.64522224
O      67.05313306      91.10551998      94.49215440
N      71.19163368      90.87119391      95.07796955
H      72.57113390      92.05605231      95.65811553
C      71.70563925      88.14053939      94.92490172
H      70.17118147      86.82906933      95.33497234
C      72.43696332      87.62653383      92.08653281
H      74.15094509      88.71501619      91.74449234
C      72.94718942      84.87131287      91.83708893
H      74.63660475      84.34974840      92.89533567
H      73.17017714      84.43289636      89.83586877
H      71.34848096      83.73558736      92.46825752
O      70.52833974      88.37675517      90.39900721
H      70.08425406      90.13609038      90.41601474
C      73.72386694      87.49047354      96.83730476
O      75.25454525      89.05705665      97.72736586
N      73.99598753      85.00737316      97.72547613
H      72.72042228      83.74314626      97.07352054
C      75.85736796      84.01904630      99.57551818
H      77.58079834      85.14343346      99.44890652
C      74.88037945      84.35730731     102.26837819
H      74.33802799      86.30750487     102.64821317
C      72.38216126      82.66411254     102.44412272
H      71.68863170      82.78127557     104.38109219
H      72.63538458      80.70635608     101.85830757
H      70.94030009      83.50882020     101.23658762
C      76.77199548      84.01148740     104.47557851
H      77.29544968      82.05562066     104.85352377
H      75.82902205      84.48391898     106.24436234
C      79.15871982      85.62909312     104.18645039
H      80.72152348      84.51982378     103.42678041
H      79.78988840      86.16577539     106.07050752
H      78.89982731      87.23725021     102.92789267
C      76.63782491      81.41311372      98.89521672
O      75.20919182      80.22069641      97.43067881
N      78.77888483      80.48714782      99.94401482
H      79.84280074      81.59830690     101.07596087
C      79.51776781      77.83397208      99.67378396
H      78.04000184      76.75304863     100.62053683
H      81.31867700      77.55996176     100.63565465
C      80.16216449      77.22736993      96.87320956
O      81.46796537      78.68434892      95.64110800
N      78.77510537      75.19969359      96.15322384
H      77.62048260      74.45703116      97.47981171
C      78.69951632      73.78995777      93.84397827
H      80.29633506      74.41356745      92.69880414
C      79.14171228      70.85710253      94.53372839
H      77.62804150      70.25805929      95.79795529
C      79.08124104      69.31130641      91.99771567
H      77.19907363      69.47382287      91.17757445
H      79.28344175      67.28929925      92.33030750
H      80.52310221      70.13522708      90.78073192
C      81.59646677      70.54151824      96.11542931
H      81.46229619      71.82275268      97.72169668
H      83.13281425      71.06497243      94.84553322
C      82.09535451      67.83920961      97.00171094
H      83.97752191      67.91668839      97.83696998
H      82.25409152      66.38601008      95.55229087
H      80.65349333      67.30252734      98.37365225
C      76.32979952      74.62710653      92.26983626
O      74.95596851      73.03595697      91.14922855
N      75.75532273      77.03839730      92.14322459
H      77.08757979      78.19490981      92.87265896
C      73.71063886      78.23081461      90.46892709
H      73.52166623      76.91556509      88.89289534
H      74.47975746      79.98637035      89.71681600
C      71.07258092      78.71269482      91.66323411
O      69.50788753      79.80117717      90.45758872
N      70.83069595      78.03050362      94.03106118
H      72.48231675      77.43712955      94.77939281
C      68.55357575      78.33663928      95.50315797
H      67.22320842      77.32563570      94.29751260
C      68.72176140      77.09886854      98.19034880
H      69.88583280      78.16845364      99.50937776
H      69.45308547      75.18079634      98.02972207
C      66.04968838      76.94958017      99.28639005
N      64.32814772      74.91623465      99.19001402
H      64.54168678      73.43657895      98.00326589
C      62.20409534      75.63433065     100.30495255
H      60.49011357      74.54773802     100.52605051
N      62.50645155      77.95113511     101.24792598
H      61.23088628      79.05851473     102.13798707
C      64.94797795      78.77694551     100.65644163
H      65.65284587      80.65155401     101.04572525
C      67.64650712      81.01249174      95.59386484
O      68.71987166      82.70946597      96.61998623
N      65.31269513      81.46035687      94.52616948
H      64.44720048      79.97692172      93.69091045
C      64.31114018      83.88865519      94.18034957
H      65.78512670      85.11508756      93.43201794
C      61.94520284      83.74881544      92.40778627
H      60.79813897      82.34852824      93.38855424
H      62.30803029      82.95513039      90.54262640
C      60.25578751      85.96546440      91.92779579
H      59.44887438      86.56072819      93.72681524
C      61.83370899      88.25392297      90.94135866
H      62.74077761      89.38019985      92.40778627
H      60.51279030      89.52192933      90.00216468
H      63.16407630      87.51881943      89.55240982
C      58.21677281      85.32484718      89.86421467
H      59.13140035      85.27760403      88.01984178
H      56.68231506      86.69111931      89.72059547
H      57.21521788      83.57874007      90.29885171
C      63.58926473      85.03382933      96.65778076
O      62.36850152      83.69212365      98.18467961
N      63.98799698      87.48102491      97.10375616
H      65.14450949      88.35596819      95.86409570
C      63.30202632      88.77926688      99.46213461
H      62.89006600      87.43000230     100.96068757
C      65.33159239      90.58773497     100.52605051
H      64.68908545      91.85385160     102.02082404
H      65.82103151      91.76125501      98.90655507
C      67.85437701      89.25358819     101.32540475
H      68.61404699      88.13109076      99.77582917
C      69.73654442      91.15276313     101.99625760
H      71.63382964      90.43277741     102.36097476
H      68.80301962      92.12597219     103.55150235
H      69.83858964      92.59084486     100.52416080
C      67.32147419      87.64354137     103.61953250
H      69.08269911      86.99914470     104.47557851
H      66.16118223      86.02026647     103.11308585
H      66.22354320      88.80572305     104.91966419
C      60.63373277      89.86774924      99.08418934
O      58.93108937      88.59218398      99.90433056
N      60.33893547      92.08061875      97.96547136
H      61.83370899      92.90453943      97.10942535
C      57.80481248      93.45633951      97.52138568
H      56.26279582      92.10140574      97.36075895
C      57.26057130      95.40653706      99.53772365