 %block lattice_cart
   140.777   0.000   0.000
   0.000 144.511   0.000
   0.000   0.000   162.462
 %endblock lattice_cart

 %block positions_abs
N      92.84978696      40.33424313      82.64829474
H      92.02775601      38.66939423      82.21176795
H      92.47184169      40.32479448      84.51912379
H      94.65258586      39.88070880      82.21554742
C      92.09578616      42.68128320      81.30280961
H      93.03120069      44.23652795      82.27790839
C      93.17293016      42.80789486      78.66097222
H      92.25263345      41.37359260      77.50445971
H      95.17226060      42.38648590      78.91419554
C      93.11056920      45.62736652      77.64807891
H      91.24918877      45.95806862      76.83360688
H      94.51463585      45.81633915      76.15141567
S      93.76819395      48.09723881      79.91008131
C      94.79809478      50.49908095      77.75390359
H      93.52063981      50.77309127      76.16275404
H      96.66136493      49.96050895      77.05659458
H      95.36312295      52.31132849      78.55136810
C      89.21206381      42.83624076      81.25178700
O      88.02909514      41.53799878      79.73244704
N      88.03287459      44.29699919      82.90907696
H      89.20828435      45.00753629      84.23188538
C      85.33434542      44.89415272      83.23599963
H      84.27798841      43.92472312      81.75634392
C      84.41971788      43.71685322      85.77012260
H      85.69339342      44.56534034      87.14773308
H      84.97340769      41.73264060      85.72287945
C      81.75142433      44.05889369      86.49955696
O      81.18450644      45.90704602      87.67118727
N      79.92027953      42.55089209      85.85893975
H      78.15905460      43.22363465      86.14428842
H      80.58735291      41.07879528      84.84415671
C      84.79766315      47.80244151      82.90529752
O      86.52487300      49.42760614      83.11505714
N      82.48463814      48.41660257      82.46877074
H      81.07301258      47.17316265      82.13428919
C      81.90260242      51.13780845      82.48955772
H      82.67550049      51.65937292      80.65274376
C      78.99431363      51.42882631      82.10216383
H      78.48597725      50.33467477      80.43353550
C      77.32946476      50.40648436      84.14117853
H      78.06267856      48.58478820      84.76478821
H      75.33769322      50.33089532      83.62339352
H      77.51087847      51.80299211      85.64540068
C      78.20818748      54.23129042      81.73933639
H      78.74109031      55.26686045      83.43820034
H      76.17295225      54.05932533      81.47288497
C      79.22297052      55.52197349      79.30347916
H      78.63715537      57.49862723      79.27891272
H      78.41605739      54.54687472      77.68020427
H      81.27521330      55.52764267      79.48489290
C      82.96273890      52.77809090      84.68730942
O      84.00397808      54.79064942      84.37739432
N      82.67739022      51.69527772      86.90962758
H      81.57567977      50.14003295      86.86238441
C      83.40682458      52.66470732      89.30580054
H      82.39582100      54.44671922      89.50989098
C      82.73597173      50.63514126      91.34292550
H      83.95484520      48.99674855      91.08214328
H      80.78388445      50.07578227      90.99143641
C      82.82289915      51.56110714      94.05468276
C      82.24653262      54.01397191      94.77655821
H      81.80811611      55.41614883      93.35926348
C      81.97441202      54.76797269      97.30501202
H      81.15427081      56.57077161      97.79634087
C      82.43361552      52.93304846      99.18528971
H      82.24653262      53.45272318     101.15060506
C      83.04210740      50.38758710      98.54656221
H      83.38225814      49.12147047     100.10936587
C      83.11769645      49.75452879      96.02755704
H      83.69406298      47.83645659      95.63071451
C      86.14503801      53.39792112      89.53634714
O      86.80077303      55.37457484      90.68530075
N      87.82500469      52.02786955      88.27589970
H      87.03887855      50.54065494      87.37072079
C      90.50652633      52.29054151      87.71843044
H      91.35501344      53.25430193      89.32658752
C      91.66303884      49.59012261      87.12316664
H      93.67559736      50.02098021      87.10804884
H      90.85612571      48.65659781      85.47343557
C      91.18682781      47.60402025      89.05824639
H      89.14403366      47.36780445      88.97320871
H      91.70083336      48.36746967      90.90072955
C      92.46239307      45.04155137      88.55746892
O      94.05921180      44.29321975      90.10515476
O      91.88224709      43.78110392      86.67908096
C      90.97895791      54.15003219      85.48855339
O      92.84222805      55.52197349      85.49233283
N      89.45394878      54.20672398      83.46465650
H      87.84957113      53.17871288      83.51189967
C      90.26464137      55.62779817      81.24800755
H      92.25074371      55.36890566      80.76045815
C      88.69616852      54.59222816      79.01246131
H      86.71006617      54.97962204      79.40363466
H      89.17993846      52.59667717      78.84427568
C      89.44638987      55.79787355      76.53314038
H      91.23596069      54.91537136      76.02291428
H      89.57678098      57.85389577      76.50101505
S      87.18249775      55.03064466      74.14452633
C      85.11702689      57.68193068      73.93287699
H      86.26220104      59.33355148      73.48501185
H      83.79043902      57.69137930      75.50890872
H      84.26665005      57.37768474      72.08283493
C      89.78654060      58.46427737      81.66941651
O      91.47406621      59.93826390      81.15541095
N      87.75130537      59.18426310      82.91096669
H      86.37747434      57.89358003      83.20387428
C      87.24674845      61.91302789      83.38339828
H      87.34690394      62.96749517      81.61461445
C      84.58034462      62.04719846      84.61738956
H      84.30822403      63.84243846      85.58681916
H      84.35924664      60.56187358      86.02712539
C      82.56967582      61.49728810      82.69931734
H      82.92305463      59.88913100      81.46154662
C      80.13381861      60.64880098      84.09015591
H      78.60125057      60.16125159      82.80514202
H      79.61792332      62.13790533      85.41674378
H      80.84057624      58.91970140      84.95754030
C      81.85346954      63.84432818      81.08738080
H      81.15805027      65.36177842      82.29113646
H      80.30011451      63.20182123      79.89685323
H      83.45784718      64.56053445      80.00834708
C      89.26119669      63.04497396      84.99155536
O      89.81866596      65.36177842      84.96320947
N      90.64636608      61.34611000      86.34270969
H      89.90559337      59.59433370      86.51278505
C      92.70805749      62.32309849      88.03212500
H      91.93515942      63.83110009      89.20186560
C      93.73795832      60.30109135      89.63083346
H      94.90580919      61.04753324      91.15395288
H      94.85100712      59.19938090      88.29290724
C      91.86523956      58.83844317      91.17473987
H      90.61613045      57.88980057      89.84059308
H      90.74652158      60.08377282      92.37660580
C      93.09167193      57.03564427      92.93029560
H      94.54487146      57.94271291      94.07358002
H      94.02330700      55.60134201      91.78512147
N      91.11501821      55.75818929      94.51388626
H      90.25897219      54.25585686      93.71075258
C      89.89614474      56.68604491      96.51888587
N      90.61990991      58.70238289      97.60925796
H      89.68260566      59.47339122      99.08324448
H      92.18838275      59.60000288      97.00076608
N      87.89303485      55.55031940      97.26721749
H      86.67416137      56.12857564      98.61459235
H      87.60201699      53.78153556      96.60959274
C      94.95683179      63.24717467      86.48821861
O      96.31365529      64.81753724      87.49544273
N      95.25162911      62.51585058      84.11850180
H      93.94204877      61.38012507      83.31914758
C      97.09789172      63.71393706      82.35349743
H      98.02952679      65.22949757      83.39284690
C      99.00462556      61.71271691      81.77902063
H     100.24995520      62.48561496      80.33149028
C     100.83577035      61.32721274      84.07692784
H     102.33999250      60.04030911      83.50434076
H      99.93626063      60.17258996      85.52445819
H     101.39323963      63.16213699      84.82714918
C      97.74795757      59.24473434      80.50345538
H      96.36278817      59.60756179      79.02190995
H      96.30042721      58.56821231      81.80358707
C      99.53941811      57.09422579      79.69465252
H     100.65057719      56.40258597      81.28580206
H     100.81876282      57.86523413      78.27735777
H      98.40369259      55.65047488      78.75923798
C      95.86579016      65.10666536      80.18598135
O      97.09978144      66.67891766      79.06726337
N      93.46016855      64.77218380      79.61906346
H      92.57577664      63.39079387      80.59794168
C      91.97295396      66.18002990      77.72177824
H      93.08222330      65.95704219      75.99834784
C      89.24796861      65.22571812      77.32682544
H      87.97429307      65.70759833      78.87073184
H      89.29143232      63.16402670      77.36461997
C      88.11791228      66.15357373      74.73601066
O      85.80677700      65.87200452      74.38452157
O      89.51442002      66.61088750      72.85006381
C      91.68571556      69.01272965      78.47577904
O      91.91815189      70.67190936      76.89596785
N      91.15470246      69.43602835      80.93998215
H      91.02809079      67.89023221      82.05114122
C      90.44038592      71.78495815      82.15318645
H      90.96572983      73.23059878      80.78313486
C      87.67382659      72.04951983      83.00356328
H      87.29399161      73.51972690      84.39629158
H      86.96517923      70.24483121      83.69331338
C      85.87102769      72.42368565      80.79636296
H      83.90760205      72.01739449      81.27068426
H      86.52676271      71.15567929      79.31103807
C      86.05055169      75.05985385      79.82882308
O      86.40015106      75.48882173      77.51012889
O      85.77654137      76.76249725      81.38406783
C      92.26775126      72.46903907      84.41518885
O      93.08789247      74.63844488      84.67219162
N      92.77041845      70.49238536      85.91752125
H      92.31310469      68.70659398      85.42241297
C      94.10645496      70.91568405      88.27778942
H      95.49162434      72.44258291      88.24944353
H      95.21383457      69.19792283      88.52723330
C      92.43971636      71.42402043      90.58136581
O      90.39881193      72.43691373      90.23743561
N      93.45260966      71.32008547      92.89439081
H      95.23084212      70.66057100      93.11926824
C      92.19027248      71.79818624      95.27544597
H      90.17960368      71.47693276      94.96553085
C      92.94427328      69.77806881      97.18784899
H      94.97383934      69.65523660      97.51666137
H      92.47940060      67.84676852      96.63982836
C      91.60634705      69.76295100      99.75220760
H      91.88791627      71.65267730     100.51943648
C      88.72262470      69.51917630      99.45174112
H      87.88736567      70.93836076      98.21397038
H      87.76453345      69.37177765     101.26965782
H      88.35412806      67.78251782      98.41050191
C      92.56254857      67.72393631     101.39249003
H      94.41448035      68.01684389     102.24286688
H      92.62868898      65.94759357     100.35125084
H      91.25674768      67.46315408     102.96474233
C      93.04064931      74.51372294      96.22786803
O      95.21383457      74.91245520      96.65872563
N      91.26430659      76.25605060      96.71163796
H      89.53520700      75.64377927      96.18440431
C      91.54020662      78.68623865      98.07979982
H      93.53575761      78.77127633      98.58813618
C      91.01486271      80.85375473      96.26377283
H      89.89803446      82.29372618      97.22564352
H      89.86779884      80.17534298      94.69341026
C      93.63213365      81.83263296      95.20741582
H      94.45227488      80.30951355      94.08869784
H      94.80187424      82.24270356      96.85525716
C      93.14458426      84.19101140      93.43863199
H      94.90769891      85.25303759      93.48020596
H      91.71784089      85.31539855      94.41184103
N      92.40381156      83.28583249      90.98765696
H      91.47406621      81.63232197      90.78923570
C      92.52853348      84.54250049      88.87683266
N      93.38080006      86.77426727      88.76533882
H      93.29198292      87.82873455      87.17796872
H      93.69071517      87.66432836      90.42451852
N      92.08255808      83.44079004      86.69230905
H      92.18649303      84.44234499      85.07092388
H      91.38146962      81.66633703      86.64317616
C      89.90181391      78.81285030     100.46841387
O      87.80232797      77.91523031     100.35125084
N      91.02809079      79.84464088     102.48286212
H      92.83844860      80.36053616     102.15971891
C      90.21172903      79.69913195     105.12847896
H      88.62246920      78.39522080     105.26264953
C      92.35467866      78.75993797     106.85190936
H      91.71595118      78.71458454     108.81155555
H      93.97417412      80.03550324     106.82923263
C      93.23718085      75.97637112     106.35869079
H      94.11968305      75.90267179     104.49920010
C      95.00974414      75.10142783     108.47518426
H      94.26519197      75.37354842     110.37624892
H      96.61601151      76.38455200     108.59801647
H      95.53886751      73.19280425     107.90826637
C      90.75785993      74.34364758     106.40404421
H      89.85646049      74.61387844     108.23896846
H      91.35690318      72.37644248     106.25097639
H      89.53709674      74.59120173     104.76376178
C      89.27442477      82.45624264     105.92594347
O      87.55099438      82.61686938     107.57756425
N      90.13991943      84.33652032     104.55400216
H      91.36068263      83.82062504     103.18017113
C      89.35379328      86.98402689     104.43116994
H      88.39570205      87.63220301     106.13570309
C      91.75941488      88.66588331     103.89826713
H      93.22584249      88.20856954     105.27209815
H      91.20005589      90.62930895     104.17983634
C      92.74774174      88.73013400     101.23186331
H      91.37957988      89.56917249      99.94118022
H      93.21828360      86.79883371     100.69518102
C      95.34044625      90.09073695     100.98997834
H      95.19115787      92.07683929     101.51721197
H      95.93571002      90.09829585      99.01710406
C      97.46260890      89.05327720     102.49420047
H      97.76874456      87.12386663     101.83846544
H      97.15836296      88.73580318     104.50864873
N      99.82854624      90.44033632     102.06901206
H      99.62445580      92.31494482     102.36569909
H     100.69404088      90.09073695     100.40605290
H     101.03041217      89.89798486     103.44851227
C      87.34123476      87.45267901     102.34491209
O      87.08423197      85.98814112     100.46652414
N      85.90315304      89.46523753     102.66994503
H      86.53054217      90.79371513     103.89070822
C      84.08901578      90.55560962     100.79344679
H      82.73597173      89.17421969     100.08479942
C      82.46763060      92.65887500     101.89893668
H      83.33123553      94.43332801     102.48853130
C      80.79144336      93.69444503      99.78244322
H      79.79555759      92.34329071      98.59002591
H      81.98952984      94.86040616      98.58246700
H      79.38359726      94.97756919     100.56667963
C      80.60436046      91.79338036     104.06834249
H      81.58134896      90.32884246     105.13792758
H      78.85069444      90.92788570     103.42205610
C      79.59902605      93.79649025     105.72374274
H      78.45763136      95.23079252     104.78265905
H      81.26009548      94.71678696     106.52120726
H      78.47652863      92.83084009     107.15615530
C      85.61591463      91.28504398      98.45963479
O      87.64926014      92.34707017      98.66750470
N      84.57089598      90.50647674      96.22219884
H      82.86825258      89.64665126      96.30345707
C      85.56489203      91.24346999      93.64083270
H      86.45873256      93.09162233      93.81468752
C      87.63414234      89.33673615      92.73754353
H      88.98718637      89.19878612      94.28522938
H      88.50719589      90.16065682      91.06135629
C      86.77053742      86.59663298      92.18763316
C      86.29621611      86.08829662      89.57981086
H      86.82344975      87.39031805      88.10015515
C      85.39292693      83.69212365      88.82392033
H      85.42316256      83.40866469      86.80191317
C      85.13025498      81.73814664      90.58892470
O      84.37436444      79.46858534      89.78390130
H      84.18161237      79.57063056      87.98299212
C      85.39859610      82.27860837      93.22698263
H      84.88837001      80.72903279      94.45152529
C      85.99197018      84.76548820      93.98287317
H      86.18283253      85.40799514      95.90850427
C      83.43139102      91.42488372      91.64906117
O      81.21663177      90.91654734      92.28589894
N      84.14003838      92.22990713      89.33981562
H      86.01464688      92.47179209      89.07147448
C      82.37314428      92.89887024      87.23466049
H      80.54010976      92.57383732      88.11338324
C      82.49030731      95.76747479      86.65451452
H      81.18639616      96.04337483      85.08415195
H      84.34223909      96.22667829      85.88161645
C      81.89315380      97.45877984      89.12438681
H      83.42194238      96.90320030      90.38861372
H      80.09791380      96.85595715      89.93696913
C      82.12370040     100.34439192      88.79935389
H      83.94539657     100.68643238      87.90362362
H      81.98764012     101.12484889      90.70230829
C      79.94106652     101.31382152      87.10048993
H      78.08913473     100.93398653      87.91685170
H      80.10358297     100.15541929      85.40540542
N      80.08090627     104.14841098      86.69608851
H      79.79366787     105.10839196      88.32125312
H      78.63715537     104.73800560      85.59248833
H      81.64182020     104.75690286      85.78146096
C      82.57534499      91.20756520      84.94242248
O      84.67105148      90.54994044      84.24700320
N      80.43428508      90.58962469      83.83315314
H      78.82234854      91.31716932      84.55502859
C      79.99775830      88.81328196      81.84705078
H      81.31111810      87.22591186      81.86405831
C      77.24820653      87.96857430      81.86972750
H      76.16350361      89.58429030      81.19131576
H      76.80790029      87.64543110      83.85394012
C      76.45452146      85.91444180      80.04425188
O      76.40916803      83.67700584      80.50912455
O      75.87437550      86.58529464      77.89941251
C      80.78577418      90.23624587      79.29214081
O      80.78766391      92.59462431      79.19198531
N      81.03332833      88.83028950      77.10572747
H      80.71396458      86.95001182      77.13407335
C      81.21096260      90.00380954      74.56026612
H      82.79077380      91.29260288      74.86262233
C      81.78165995      88.07817842      72.42298566
H      82.29755522      89.30839024      70.85451282
C      84.15704593      86.49458777      73.06927205
H      84.43861514      85.06406494      71.61229307
H      83.80366711      85.45145885      74.81159971
H      85.75575439      87.78905030      73.16186864
O      79.74831443      86.51537476      71.86551640
H      80.16216450      85.65176984      70.32538946
C      78.90549649      91.62897417      73.95366397
O      78.94140129      93.62074570      72.67620899
N      76.66995027      90.91087816      74.85695315
H      76.73987014      89.24036011      75.77724987
C      74.24921087      92.32817290      74.69632642
H      73.89583204      93.01036409      72.78392338
C      72.21019617      90.43844659      75.44276831
H      72.35570509      90.12475201      77.47422409
H      72.46908867      88.51659493      74.75112848
C      69.68930127      91.36630221      74.75301821
H      69.52111562      93.37319154      75.18198607
H      68.19830721      90.43655686      75.82827248
C      69.06191214      90.77481787      72.01858422
O      68.19830721      92.73257433      70.87529980
O      69.81213347      88.82084087      70.84128474
C      74.16039373      94.75836093      76.36495475
O      72.67128940      96.47801189      76.06259854
N      75.91594947      94.91331849      78.23767353
H      77.33702365      93.64531213      78.36239547
C      76.28444611      97.20177706      79.88929432
H      75.03344728      98.71733757      79.27135381
H      78.25354092      97.76869496      79.67953470
C      75.51910695      96.93532565      82.60294131
O      75.94807482      98.89497184      83.94653671
N      74.37015335      94.92843631      83.43820034
H      74.09803275      93.56783336      82.12673027
C      73.00577094      94.79993492      85.81358631
H      72.54089827      96.73690439      86.34270969
C      70.46975824      93.50736212      85.60949588
H      69.38883479      93.85696148      87.32725708
H      70.63416442      91.47212688      85.33170610
C      68.83514498      94.63174928      83.42119281
C      67.76555989      93.07461480      81.61083500
H      68.20208666      91.08284326      81.54658430
C      66.11582882      94.05916219      79.72299840
H      65.53190338      92.61352158      78.40396943
C      65.33348212      96.54037285      79.84961007
O      63.46076335      97.72145180      78.66286195
H      63.62139008      99.50724317      78.94065172
C      66.45975900      98.10506624      81.75067474
H      66.01378358     100.09683777      81.74311583
C      68.28523462      97.30193256      83.47977432
H      69.14506010      98.59639508      84.80447247
C      74.41739650      93.68499639      88.04724282
O      75.96886181      91.98235299      87.69008455
N      73.89961150      94.30482663      90.37538564
H      72.77711407      95.82794603      90.63616787
C      74.98998357      93.13130659      92.62793939
H      76.98364484      93.57728200      92.36904689
C      74.05456906      94.61096228      95.00899456
H      74.54778762      93.61318679      96.74187358
H      72.00043655      94.69033079      95.12048841
C      74.89927672      97.41153668      95.02600209
C      73.03789629      99.39008013      95.21308500
H      71.04045558      98.97434034      95.31890967
C      73.86937588     101.93365175      95.26599733
H      72.49176540     103.43598417      95.38316036
C      76.55089752     102.54025390      95.26977679
O      77.20852226     105.04225154      95.64772204
H      75.79311725     106.16096951      95.82535631
C      78.30834298     100.58249744      95.03356100
H      80.26231999     101.17587150      95.09025279
C      77.46174559      98.06349225      94.87104453
H      78.97352664      96.69344068      94.82380138
C      74.49487529      90.32128356      92.75455107
O      72.37460236      89.28760326      92.90005998
N      76.55278724      88.78871552      93.10792989
H      78.23464366      89.68633552      93.18729839
C      76.82301810      85.90121371      93.35926348
H      74.88793836      85.27193485      93.67673751
C      77.63182097      84.64076626      90.79868432
H      77.68851276      82.62064883      91.19930631
C      75.64571861      85.32295746      88.76344909
H      73.95252383      84.24392374      89.23210122
H      76.25421048      84.83351834      86.85671523
H      75.15438976      87.31850845      88.64628606
O      79.97886105      85.41555405      90.13350066
H      80.15271587      87.19189678      90.45853358
C      78.56723548      85.07918276      95.48520559
O      80.10736243      86.62686862      96.35636942
N      78.25921010      82.77182694      96.40550230
H      76.80223112      81.67011650      95.85748166
C      80.05067064      81.72491856      98.26499299
H      81.86669763      82.59986183      97.84169429
C      79.29100067      82.50915498     100.94840435
H      78.39904985      84.36297649     100.83313105
C      77.19907363      80.71958416     101.98208465
H      77.77732989      78.77694551     102.34302238
H      75.68729258      80.45880193     100.60447416
H      76.38460159      81.51893838     103.69795613
C      81.65315856      82.49214744     102.61325324
H      83.45973692      82.39955085     101.63248527
H      81.67205581      80.69879717     103.62803627
C      81.40749414      84.72391422     104.55778161
H      81.47741401      86.55883847     103.62425681
H      82.75297928      84.97902726     106.09790856
H      79.58012880      84.48013952     105.47807832
C      80.36814467      78.78072496      97.79067169
O      79.05100542      77.63933026      96.29022900
N      82.02354492      77.54673367      99.21741506
H      83.10446837      78.35931600     100.56478992
C      82.81345051      75.03339769      98.84135951
H      81.14104273      73.88066463      99.20040751
H      84.07389797      74.40222910     100.34180220
C      84.12114113      74.30585306      96.30723652
O      85.78599001      75.62677174      95.34536583
N      82.90604710      72.43502401      95.07702470
H      81.56623115      71.60543415      96.15416869
C      83.04210740      72.13644724      92.35014963
H      84.59735216      73.11154603      91.42040429
C      83.44083965      69.23571736      91.53000841
H      81.67583527      68.23416241      91.88527695
C      84.00208836      69.01083992      88.64250660
H      85.81055645      69.86310649      88.14739830
H      82.46763060      69.71948728      87.46331738
H      84.09657467      67.01906838      88.13228050
C      85.73307766      68.26061858      92.93974424
H      84.89025974      67.87133496      94.77844794
H      87.21651282      69.69114140      92.90761889
C      87.09368062      65.87011478      91.89661532
H      85.69150369      64.38667964      91.62827418
H      88.71506579      65.46193390      93.10226071
H      88.04610268      66.28018540      90.11649313
C      80.55900702      73.11721519      91.15017343
O      78.73353141      71.73582527      90.74010282
N      80.66483170      75.54740324      90.55868908
H      82.24653262      76.47903831      91.08403300
C      78.81478964      76.97792605      89.09037174
H      78.78077457      76.32408076      87.13639473
H      79.38737671      78.91300580      88.68974977
C      76.05956867      77.02705895      90.08814723
O      74.31724100      77.38232749      88.54046139
N      75.68918232      76.69068766      92.51833527
H      77.16316883      76.53573010      93.72209093
C      73.05301411      76.77572534      93.75421628
H      71.76611049      75.53039571      92.73754353
C      73.41584156      76.08786497      96.61526192
H      74.72353216      77.33886379      97.60169905
H      74.33613827      74.24916126      96.70785851
C      70.81179869      75.93668686      97.89649635
N      69.37371698      73.75027352      98.20452174
H      69.87638417      71.96070270      97.76988470
C      67.37438654      74.41167773      99.62181648
H      65.81158287      73.18524534     100.09046860
N      67.53879273      76.88532946     100.15471931
H      66.36527269      77.92089949     101.24509138
C      69.55324097      77.95302484      98.97175062
H      70.27322670      79.86353813      98.98119927
C      72.13649685      79.41000383      93.49343405
O      73.44040800      81.09563970      94.50065817
N      69.99732665      79.81629498      92.22353797
H      68.94096964      78.30073447      91.73976803
C      68.96931555      82.36364605      91.89661532
H      70.46597879      83.54283527      91.11804808
C      66.96431592      81.98381106      89.92185131
H      65.25033416      81.67200622      91.01978231
H      67.53312354      80.42856631      88.69541894
C      66.46920764      84.25715182      88.13983941
H      64.70609298      83.76204353      87.19875570
C      66.46164873      86.89332003      89.62327455
H      65.00466973      86.86686386      91.07647409
H      66.01945277      88.34651956      88.23054627
H      68.27767572      87.65298999      90.23365616
C      68.52145040      84.41777855      86.17641377
H      69.02789706      82.52238306      85.54524518
H      70.20897601      85.18689717      87.07403376
H      67.80146469      85.57618079      84.63250736
C      68.09437227      83.58440925      94.49120955
O      66.46353846      82.44301456      95.72331109
N      69.37371698      85.74814588      95.26788706
H      70.73998909      86.52482339      94.18696361
C      68.40428737      86.99347552      97.63949358
H      67.65973521      85.51948900      98.86781568
C      70.61337743      88.33140175      98.89427185
H      69.89906089      89.75814512     100.19818301
H      71.59792484      89.36130259      97.40894696
C      72.64105377      86.71757548     100.32101522
H      73.59914500      85.41744378      99.04356023
C      74.77077533      88.64698603     100.98430916
H      75.70430013      89.20256558      99.23442259
H      76.08980429      87.59818793     102.16727782
H      74.01677453      90.49702810     101.49264553
C      71.73209542      85.48547392     102.73986489
H      70.82691651      86.83851796     104.00220207
H      73.20608194      84.44801417     103.73575066
H      70.38283083      84.10597371     102.02176889
C      66.17252060      88.79249497      97.02722225
O      64.04657850      88.13864967      97.69051619
N      66.56747340      90.93355487      95.83102550
H      68.39483875      91.17166040      95.33969665
C      64.65507038      92.81950174      95.22442335
H      63.09415644      91.71023240      94.46664309
C      63.96909972      94.53726296      97.37115245