 %block lattice_cart
   140.777   0.000   0.000
   0.000 144.511   0.000
   0.000   0.000   162.462
 %endblock lattice_cart

 %block positions_abs
N      89.46528713      40.34841606      84.36322136
H      88.83600827      38.76293569      83.50717535
H      88.96639939      40.47691745      86.20003535
H      91.37202097      40.33140853      84.38778780
C      88.71695551      42.57073422      82.92513965
H      89.15537201      44.25637009      84.02496035
C      90.06433037      42.49514516      80.41747283
H      89.08167269      41.25548469      79.09655413
H      91.98618203      41.77704916      80.59510710
C      90.37991467      45.14643118      79.14757675
H      88.57333632      45.87019636      78.46727527
H      91.62713403      45.08595994      77.50918402
S      91.96539504      47.35363150      81.26407022
C      92.57955610      50.19577988      79.39513088
H      93.64914119      49.47012498      77.79264298
H      93.95527685      51.54315474      80.13023442
H      90.80888253      50.94789096      78.66002736
C      85.84268178      42.72569176      82.82120470
O      84.66916174      42.17011224      80.82754343
N      84.53310146      43.23591787      84.90746254
H      85.56300230      43.18489526      86.51561964
C      81.93661750      44.02393374      85.02273584
H      80.90860638      42.82395754      83.70181715
C      81.12025574      43.34930146      87.71559584
H      82.27865797      44.41888654      89.04029399
H      81.45473729      41.34052238      88.02740069
C      78.42172656      44.03716182      88.40723568
O      77.80000659      46.07428679      89.23682553
N      76.71719343      42.44790201      87.73071365
H      74.97675548      42.87686987      88.38644869
H      77.19340446      40.74714832      87.01072794
C      81.61158457      46.91521500      84.54085563
O      83.52209788      48.19644944      84.45014878
N      79.21352189      47.68622335      84.11755694
H      77.76977098      46.44467316      84.00417336
C      78.53322040      50.40553950      83.96259939
H      79.64437949      51.07828208      82.36389092
C      75.78177890      50.53404090      83.28040818
H      75.43406925      49.68744351      81.43414559
C      74.13204783      49.13564342      85.28162836
H      74.47408829      49.93310793      87.15056767
H      74.20385742      47.07962120      85.34965851
H      72.18940917      49.49847087      84.70337210
C      74.88037945      53.20422417      82.92513965
H      75.05423427      54.23601475      84.70148238
H      72.90183599      53.34028446      82.37522928
C      76.09547346      54.66498261      80.76707219
H      74.98998357      56.36762602      80.42503172
H      75.89138302      53.43855023      79.12490002
H      78.02866348      55.23945941      81.18092225
C      79.47241439      51.98346097      86.29074220
O      80.62136799      53.91665099      85.74083185
N      79.23808833      51.07639235      88.56597268
H      78.44629300      49.35296195      88.77573230
C      80.48719741      52.31038363      90.80340864
H      79.68784319      54.20010994      90.98482236
C      80.07334735      50.88741971      93.24493503
H      81.03332832      51.83228288      94.80584898
H      81.07112285      49.09217972      93.08430831
C      77.25576543      50.49624637      93.99137694
C      76.35247625      48.00936653      94.31829959
H      77.48631203      46.33506902      94.03673037
C      73.91850876      47.85062953      95.24993466
H      73.19096413      46.01759501      95.77527857
C      72.52389073      49.94822573      96.00204572
H      70.66440005      49.88208531      96.84486366
C      73.49521006      52.35762678      95.64299772
H      72.17051192      53.90720237      95.76582993
C      75.88760357      52.66754190      94.58475100
H      76.89482770      54.40609011      94.22381326
C      83.29533072      52.73746177      90.41790448
O      84.26853976      54.61962918      91.24938406
N      84.60680077      51.15387112      88.85699053
H      83.60146638      49.74035584      88.06141576
C      87.38847791      51.44677870      88.22204250
H      88.46940136      52.48423845      89.63744751
C      88.61868974      48.99958313      87.76661845
H      90.59156402      49.52681676      87.50961567
H      87.95539580      47.97157201      86.10932847
C      88.28987736      47.16843834      89.96814961
H      86.31511337      46.61096906      90.14389415
H      88.88703088      48.03582271      91.73882316
C      89.62213442      44.63998453      89.46737214
O      91.89736489      44.33951803      89.94169344
O      88.28042874      42.81639863      88.73037887
C      87.90248347      53.00202345      85.75405993
O      89.65425977      54.49301752      85.47627016
N      86.31889281      52.90564742      83.84732608
H      84.72963298      51.92298974      84.24227888
C      86.23952431      54.65364426      81.64201547
H      88.02720541      54.40042093      80.65368861
C      84.07200823      53.76169343      79.96204879
H      82.28999631      53.42532216      80.93525783
H      84.63514668      51.92110000      79.22883497
C      83.43894991      55.37174025      77.72839228
H      85.01498167      55.49079301      76.40558387
H      82.82856831      57.26524602      78.26318482
S      80.61191935      54.25113255      75.99929270
C      81.00876188      55.42276286      72.79242715
H      80.44373372      57.40130631      72.70927919
H      79.63304113      54.49301752      71.57544340
H      82.89092928      54.87663197      72.15936884
C      85.85024069      57.54303579      82.29964023
O      87.10501896      59.02458121      81.10911265
N      84.18728153      58.04948244      84.07976242
H      83.44461910      56.74557128      85.25895163
C      83.70918079      60.77257805      84.67502620
H      83.77532120      61.71177203      82.84199169
C      81.09002012      61.11650825      85.73705240
H      81.06545367      62.97599893      86.62144431
H      80.66861114      59.87495805      87.32631223
C      78.95084992      60.92753561      83.65457399
H      79.05667460      59.27213536      82.43570052
C      76.39216049      60.71966572      85.31186397
H      76.24098240      62.60372286      86.13389492
H      76.66050164      59.18898740      86.66112856
H      74.73487053      60.36628690      84.13834393
C      78.57290466      63.38417983      82.03885801
H      76.87026126      63.44843051      80.88045578
H      80.28877616      63.51835039      80.90691194
H      78.31779160      65.14162529      83.08198692
C      85.78787972      62.02546661      86.29263194
O      85.99385989      64.32526352      86.33609563
N      87.73996700      60.59683352      87.16757521
H      87.51886903      58.73167363      86.82931421
C      90.02842557      61.70043367      88.19180687
H      89.72228990      63.06292634      89.70736737
C      91.35501344      59.41575457      89.44091596
H      92.98962671      60.11117384      90.48215516
H      92.12602177      58.20066055      87.96692945
C      89.81110704      57.71689061      91.06230114
H      90.98273735      56.04637254      91.34387036
H      88.04988212      57.23690013      90.10420991
C      89.35757274      58.65608459      93.80996321
H      88.99852474      60.68376093      93.81563238
H      91.09423122      58.33294138      94.87009966
N      87.33745531      57.15753163      94.90600446
H      86.44739420      55.94810678      93.72303579
C      86.25086268      57.19154669      97.16800686
N      86.46251202      59.17953877      98.68734682
H      85.69528313      58.99623533     100.42400531
H      87.93460882      60.39274307      98.61175776
N      85.13025497      55.26213612      98.08452413
H      84.46129185      55.35662244      99.87220522
H      85.31922760      53.58027972      97.20013221
C      91.74807651      62.70765780      86.13578465
O      93.25040893      64.36305805      86.68002583
N      91.60634705      61.62295489      83.82464936
H      90.03598448      60.61951022      83.41079931
C      93.13135618      62.64529683      81.74028125
H      94.45416459      63.95298745      82.62656288
C      94.67337285      60.60817187      80.44014954
H      95.63524354      61.49256379      78.84711025
C      96.69349028      59.45921827      82.20326420
H      96.13413128      57.59783785      82.89112456
H      97.34733558      60.68187119      83.72638359
H      98.38290561      59.01513259      81.11289210
C      93.11245892      58.54459073      78.95293494
H      91.46461756      59.29103262      77.96838752
H      92.43782662      57.08005284      80.23605910
C      94.57510708      57.10461928      76.94415586
H      95.69571479      55.61362522      77.81720942
H      95.71839150      58.28002905      75.69693649
H      93.28631374      56.20888901      75.61000909
C      91.70272309      64.30069708      80.00929195
O      92.77041845      66.08270899      78.99261918
N      89.31599875      63.83582442      79.39702062
H      88.75663977      62.13129127      80.04897619
C      87.74374646      65.17186091      77.66414159
H      88.56955686      65.38917944      75.78953308
C      85.38725774      63.64118260      77.07265725
H      84.06822879      63.54291683      78.65246845
H      85.89937357      61.72688985      76.50573936
C      84.04366234      64.93375540      74.96750213
O      81.82890310      65.79925006      75.51174331
O      85.02254056      65.06225678      72.75274290
C      87.13336485      67.87983872      78.73372667
O      87.22596144      69.67507871      77.25218126
N      86.69872781      68.25778398      81.13556883
H      86.86313399      66.69120087      82.21649228
C      86.57967505      70.69742066      82.30719913
H      87.32233749      71.97298591      80.87100713
C      83.89248423      71.61015846      82.93836773
H      83.95673493      72.72509698      84.66935703
H      82.78510461      69.95475821      83.46560136
C      82.63959569      73.28067652      80.81053589
H      80.66294197      73.60570945      81.29241611
H      82.74353063      72.28101130      79.01340618
C      84.14759729      75.80535088      80.51195914
O      84.19673017      77.29445521      82.38278819
O      85.24930772      76.33825369      78.50318007
C      88.21428832      71.04324056      84.82242486
O      89.31977821      73.09170389      85.22304683
N      88.47885000      69.00044642      86.34554427
H      87.12580596      67.69086608      86.03373942
C      89.74496663      68.97776971      88.87777752
H      91.61012650      69.84137463      88.72470970
H      89.99818996      66.99355708      89.36343719
C      88.21617803      70.27412195      91.23237651
O      86.28109830      71.44197282      90.73348877
N      88.92293568      69.74310886      93.61532139
H      90.25330301      68.40329291      93.89311116
C      87.52264849      70.57269872      95.77905803
H      85.58945847      70.89584191      95.14977916
C      87.43194161      68.46943333      97.84641860
H      89.36891109      68.32203467      98.52672008
H      86.77620658      66.66096524      97.10564590
C      85.84646125      69.14406562     100.23881213
H      86.39637160      70.89584191     101.17422665
C      83.04210740      68.98154916      99.50370858
H      82.73786146      67.10316120      98.71758243
H      82.63581624      70.22120963      97.90877958
H      82.01598601      69.55413624     101.19501364
C      86.27920857      67.07859476     102.14554598
H      86.88392099      65.20398626     101.55028218
H      84.61435968      66.94442419     103.35119135
H      87.78343071      67.65496128     103.43055986
C      88.53932124      73.01989430      96.94501916
O      90.89392023      73.20319774      97.36642812
N      86.89714908      74.86615690      97.51004732
H      85.12269606      74.92662814      96.81084859
C      87.65114987      77.29634493      98.56640433
H      89.64859058      77.15272573      99.04639481
C      87.10879841      79.50732472      96.73903899
H      86.72329425      81.20618869      97.83696997
H      85.40615501      79.26166030      95.60709292
C      89.34245492      79.93062341      94.92868118
H      89.74496663      78.08814026      94.10287078
H      90.89203050      80.57879954      96.11920875
C      89.11001859      81.89593878      92.96714526
H      90.98651682      82.48553339      92.35298421
H      88.09523556      83.53244177      93.69657962
N      87.78909990      80.92272973      90.76750384
H      87.05777581      79.22197605      91.23237651
C      87.36958064      81.72775314      88.36566170
N      88.18594241      83.84424661      87.45859307
H      87.77587180      84.24675831      85.63689690
H      89.47473577      84.67194673      88.59620831
N      86.12992019      80.38604746      86.81419640
H      85.71418039      81.07390783      85.08509681
H      85.45339816      78.69663214      87.39056292
C      86.08834621      77.62137786     101.01171018
O      83.77721093      77.16784354     101.09674786
N      87.62280397      78.21097247     102.93356184
H      89.46339740      78.39427592     102.47246863
C      86.92549496      78.47931361     105.63587047
H      85.54032557      77.08280586     106.25570071
C      89.35379328      78.15239096     107.40087485
H      88.69805824      78.19963411     109.35485185
H      90.57077702      79.78322476     107.07773165
C      91.02053188      75.78267416     106.87175149
H      91.37391071      75.54078920     104.85730323
C      93.56032405      75.82991731     108.34384827
H      93.21639387      76.02644885     110.36585543
H      94.80565370      77.29067575     107.59362694
H      94.74707217      74.17451706     108.04338179
C      89.65048031      73.43374436     107.90921123
H      87.94594718      73.27689707     106.76025763
H      89.24040969      73.56980464     109.92176975
H      91.08289285      71.96353729     107.74291532
C      85.75953383      81.00587769     106.34262811
O      84.36491582      81.17217360     108.08684550
N      86.51731408      83.01087730     105.06139368
H      87.68327521      82.65560876     103.59118660
C      85.55922285      85.56389755     105.30516836
H      84.30822403      85.96829898     106.88875902
C      87.79287935      87.37992454     105.56784032
H      89.07600351      86.71663060     107.03426795
H      87.27131488      89.36035773     105.78515885
C      89.57867071      87.55188963     103.20379271
H      88.41459930      88.04510820     101.57862808
H      90.53865167      85.75098046     102.92222348
C      91.57044224      89.50019746     103.48914139
H      92.76474927      89.12414193     105.12564436
H      90.90525858      91.37291624     104.02960311
C      92.96506027      90.05955645     101.00604100
H      91.65736965      90.28632362      99.43000925
H      94.17070564      88.49108361     100.42589502
N      94.17070564      92.49730340     101.20446226
H      95.37824077      92.74296782     102.66333098
H      92.90458901      93.91648786     101.33674311
H      95.10234073      93.13603089      99.66433532
C      83.90382259      86.38403877     102.86364198
O      84.07767741      85.13303996     100.96068758
N      82.46196142      88.40604593     103.12253448
H      82.36936483      89.28098921     104.81572926
C      80.73097212      89.46429267     101.20635200
H      79.46863493      88.07534382     100.35219570
C      79.27777258      91.77920740     102.30239325
H      80.62136799      92.93383017     103.35308108
C      77.97764088      93.04910348     100.18778951
H      76.91372496      94.54954617     101.11753486
H      76.71908314      91.75464095      99.19946265
H      79.17950681      94.04876871      98.84608382
C      77.38237709      90.78899081     104.22802437
H      78.34235806      89.52854336     105.54516360
H      76.03311249      89.53610226     103.30583792
C      76.04256113      93.01508841     105.68122390
H      75.11848497      92.26486706     107.36308032
H      74.70652463      94.11868857     104.56439565
H      77.45229695      94.44561122     106.12719931
C      82.44684360      90.27498525      98.84230437
O      84.55199871      91.35779843      99.18623457
N      81.36780988      90.04821809      96.58219170
H      79.66705620      89.18650290      96.46691841
C      82.32779084      91.16315662      94.11798859
H      83.34635332      92.91682264      94.48459550
C      84.21562744      89.25453305      93.11643365
H      85.98441127      89.02776588      94.14822421
H      84.73341244      90.05766673      91.29284775
C      83.13848343      86.74119706      92.50227259
C      82.46574087      86.08735174      90.05129756
H      82.63770596      87.38370399      88.48282473
C      81.64937910      83.56078766      89.41823926
H      81.32245645      83.15071706      87.44536498
C      81.30922836      81.68428943      91.35142927
O      80.44562344      79.26355003      90.81852646
H      80.67239059      78.87048695      89.06486043
C      81.92905860      82.42506215      93.83075020
H      81.69284280      81.11926126      95.38032577
C      82.99486423      84.76265360      94.32396876
H      83.74508558      85.27854888      96.15133410
C      80.13003914      91.76786904      92.33219722
O      78.03811212      90.79654971      92.45124999
N      80.68750841      93.22295830      90.43113256
H      82.38448263      94.09979131      90.41412503
C      78.80723072      93.53476314      88.32219800
H      77.01388046      93.14170007      89.25761252
C      78.84313552      96.22006423      87.23560536
H      77.09135923      96.45061084      86.17546891
H      80.54766865      96.32777864      86.08287232
C      78.89604786      98.40080840      89.21792827
H      80.50987414      97.86979530      90.38199968
H      77.25198597      98.24963029      90.45002983
C      79.16816845     101.20516225      88.42613293
H      78.57290466     102.35600557      90.02673112
H      77.76221208     101.57743833      86.97104368
C      82.00842710     101.59633559      87.86866367
H      82.70006693     100.10723126      86.62711348
H      83.13092452     101.35256090      89.57886600
N      82.53377101     104.13234830      86.76128406
H      81.84969009     103.98117020      84.98494132
H      84.38192335     104.57076481      86.56664224
H      81.64937910     105.60255539      87.59654309
C      78.90549649      91.79054575      86.06775451
O      81.10891738      91.22362786      85.31753316
N      76.69073726      90.87780795      85.38556331
H      75.34903157      91.13670045      86.71593062
C      76.20885705      89.62113995      83.01017733
H      77.57701889      88.08101300      82.97427253
C      73.53678403      88.39470757      82.93269854
H      72.05145916      89.79877422      83.19726023
H      73.41773129      87.08512724      84.51817893
C      73.07758055      86.90182378      80.53274612
O      71.07069119      87.33835056      79.32143157
O      74.58747186      85.40894000      79.48583776
C      76.68695781      91.37480598      80.75951328
O      76.49987490      93.68405153      81.12612019
N      76.97041674      90.33923595      78.42759101
H      77.04978526      88.43439182      78.35389169
C      77.14049212      91.51653544      75.97850572
H      78.59936083      92.96595552      75.85567350
C      77.52032711      89.50775637      73.91492458
H      76.12003990      88.03754930      74.25696504
C      77.36914900      90.34868459      71.14080635
H      75.47375351      91.02898605      70.69672067
H      78.10425254      88.88603641      69.88980753
H      78.62392727      91.96251085      70.87813439
O      79.91461034      88.28510344      74.44215822
H      81.21852150      89.48130020      74.04720542
C      74.73109107      92.99430142      75.45694126
O      74.75187806      94.69694482      73.86957115
N      72.65806131      92.80910824      76.80998529
H      72.63727431      91.73385397      78.38790676
C      70.35259521      94.28876394      76.56243115
H      70.12393832      95.15047914      74.70671990
C      68.26822707      92.54454655      77.31454221
H      68.61215727      92.38203009      79.33843909
H      68.90884429      90.72474011      76.59455650
C      65.52056502      93.17382542      76.39991468
H      65.15017866      95.13914078      76.89880242
H      64.01445315      92.14014512      77.34855730
C      65.40529172      92.60501780      73.58233276
O      65.01978754      94.42104478      72.12724349
O      65.32970266      90.36380239      72.86234702
C      70.41873562      96.62635539      78.36145060
O      68.71420249      98.04931930      78.26507455
N      72.31980030      96.92682188      79.94504124
H      73.78244846      95.70416896      80.01307139
C      72.23665234      98.85623244      82.09177034
H      71.36737824     100.68359778      81.71382507
H      74.13015811      98.87512970      82.90246293
C      70.49621441      98.00774533      84.30652957
O      69.06569158      99.61023324      85.17958314
N      70.33369794      95.58322646      84.84888102
H      71.82091254      94.56844343      84.21393298
C      68.92207239      94.53820781      86.95403615
H      67.92807634      96.17660053      87.70425748
C      66.90573441      92.50108285      86.30019083
H      65.82670068      92.32533830      88.04629796
H      67.78067769      90.71718121      85.75972911
C      64.79491011      93.22295830      84.49550221
C      63.47021197      91.27842992      83.24072394
H      63.87461340      89.29610702      83.51662397
C      61.42741782      91.82267110      81.69681754
H      60.51656974      90.26742635      80.74061603
C      60.77546224      94.32655847      81.33210037
O      58.77991126      94.84812293      79.76362753
H      58.63818179      96.63013485      79.45749186
C      61.91874667      96.24274096      82.73994647
H      61.43308701      98.20238713      82.44136970
C      64.03335040      95.69094087      84.21393298
H      64.81380738      97.17437603      85.37800440
C      70.77211444      93.44027683      88.84376245
O      72.51066264      92.08156361      88.24471922
N      70.39794864      94.42104478      91.14922856
H      69.00899979      95.73062512      91.17190528
C      71.73209540      93.24374529      93.26383230
H      73.70685941      93.06989047      92.70447332
C      71.58280704      94.80843868      95.71669705
H      72.43696333      93.67838234      97.21336030
H      69.58158686      95.18071476      96.03984026
C      72.71286337      97.48051168      95.80362446
C      71.13872135      99.67826338      96.07952450
H      69.10537584      99.50818802      96.10787040
C      72.00232628     102.27285761      95.96236147
H      70.70030485     103.80920511      96.29684303
C      74.57991297     102.62245698      95.75827104
O      75.53044530     105.01862995      95.93779503
H      74.14905536     106.19026026      95.88866215
C      76.15216525     100.50407378      95.43890728
H      78.15905460     100.86690124      95.49748880
C      75.26588362      97.93593572      95.37276686
H      76.57735367      96.37502179      95.30284700
C      70.84392404      90.55466475      93.76838922
O      68.57436273      89.84223793      93.94413378
N      72.76955516      88.95973574      93.89878035
H      74.52889036      89.69672900      93.88744199
C      72.80923940      86.20073532      94.19357765
H      70.92518227      85.69239894      94.85687158
C      73.47820253      84.81556593      91.65378548
H      73.95441356      82.81245604      91.72370535
C      71.04234530      84.97619267      90.00783387
H      69.43796767      84.06156513      90.92057167
H      70.98565351      84.07101377      88.15779180
H      70.26377806      86.87158816      89.79618451
O      75.59469599      86.07034420      90.48026544
H      75.44729734      87.85991502      90.74671685
C      74.74809860      85.20862901      96.06251697
O      76.28822555      86.65993881      97.14533015
N      74.78211368      82.79733823      96.74281845
H      73.67851352      81.72208396      95.61465183
C      76.58869203      81.60681065      98.50782281
H      78.42550601      82.47419503      98.16767208
C      75.76099190      82.11136758     101.30839721
H      75.52855557      84.15983090     101.31784584
C      73.24198673      80.98698042     102.01515485
H      71.99287765      81.20240922     100.39187996
H      72.55790581      82.04333743     103.64409893
H      73.41773129      78.97631164     102.42333573
C      77.83591139      81.36870514     103.28694067
H      79.72752743      81.36681541     102.47057889
H      77.70741002      79.32591100     103.52882564
C      77.99275868      82.74064644     105.71145953
H      76.49609544      81.93373331     106.87553094
H      77.68473330      84.75131525     105.38642659
H      79.86169800      82.54978408     106.55427746
C      76.87593044      78.77222118      97.95035355
O      75.45674598      77.72153335      96.58030197
N      78.67494989      77.37193399      98.98403384
H      79.84091102      78.31112796     100.17078198
C      78.97541637      74.64316919      98.76104614
H      77.18962500      73.68318822      99.13332223
H      80.41727755      74.01578005     100.08952375
C      79.81823431      74.21420132      96.03795052
O      81.80811610      75.00599664      95.36520796
N      78.29511489      72.74966342      94.70002429
H      76.71719343      71.93897085      95.40489221
C      78.48219780      72.37171816      91.85787593
H      79.94106652      73.66051151      91.18324362
C      79.10202802      69.67696844      90.88088741
H      77.26710377      68.74155391      90.82608536
C      80.03744255      70.04735480      88.16724043
H      80.40027000      68.19353329      87.34709921
H      81.63615101      71.34370705      88.08598220
H      78.37826286      70.91473917      87.31119441
C      80.84624541      68.31447577      92.82163635
H      79.68217401      67.56992360      94.35042494
H      82.30133468      69.64106364      93.42634877
C      82.21629700      66.08837817      91.79362522
H      84.05122125      66.62695017      91.02450662
H      81.08057147      65.06792597      90.41412503
H      82.56022719      64.88651225      93.43201794
C      76.04823031      73.41484709      90.60876684
O      74.07346632      72.27534212      90.20436539
N      75.98586934      76.00188241      90.21759349
H      77.57323944      77.01477571      90.54451614
C      73.79189709      77.46264085      89.18958237
H      73.27033262      76.62549209      87.38111428
H      74.48353692      79.36181579      88.80596793
C      71.22942821      77.41728742      90.52183942
O      69.32836353      77.87460119      89.21414881
N      71.20486177      76.99398872      93.05785213
H      72.85459284      76.67462498      93.96492076
C      68.94096964      77.09225449      94.63955305
H      67.28556940      76.21353176      93.77972758
C      69.41907040      75.81479950      97.06974110
H      71.04423503      76.64060990      98.02972206
H      69.88772253      73.87027113      96.58408144
C      67.15328856      75.57291454      98.84230437
N      65.85126712      73.31658133      99.36386884
H      66.16307197      71.61015846      98.56829407
C      63.97665862      73.89294784     100.93990059
H      62.65196048      72.48699147     101.59941506
N      64.18263878      76.30423862     101.57106917
H      63.11305369      77.12815929     102.92033376
C      66.04590893      77.42862578     100.26337857
H      66.53345832      79.40716923     100.16511279
C      68.19263803      79.89093916      94.93057090
O      69.57969714      81.55767778      96.05873751
N      65.88717193      80.57313036      94.03484063
H      64.78735120      79.27488838      93.17312544
C      64.83270465      83.20173966      93.71736662
H      66.20653567      84.40738505      92.77439319
C      62.48377483      83.06945882      91.95992115
H      60.82459514      82.30222994      92.90856375
H      62.82581529      81.64460518      90.51239079
C      61.73733293      85.52799275      90.58420039
H      60.05358680      85.17650366      89.45225432
C      61.38773357      87.82023077      92.39077875
H      59.84949635      88.93894875      91.60087315
H      63.20376056      88.79155010      92.33975613
H      60.84160267      87.31945330      94.31263040
C      63.81792161      86.08924147      88.47715554
H      63.37194621      87.97518833      87.77795682
H      63.98043808      84.54344534      87.12600123
H      65.59804379      86.37459014      89.47115160
C      64.08626274      84.27510421      96.28361495
O      62.84660229      83.03922320      97.81240353
N      65.00089028      86.52198879      96.90155545
H      66.00433495      87.51220539      95.61465183
C      64.45475938      87.83912804      99.21835992
H      63.50233731      86.73174841     100.67155944
C      66.86793987      88.65360007     100.34652653
H      66.45408982      90.06522563     101.78838770
H      67.86193592      89.93105506      99.07285099
C      68.64239288      86.77710185     101.65799659
H      69.02033815      85.31634341     100.25770938
C      71.25210492      88.03376984     102.21168639
H      72.62782569      86.81300665     103.13954201
H      71.08202956      89.62491940     103.50992837
H      71.85114816      88.45328909     100.28605527
C      67.45753448      85.60358181     104.01070584
H      68.85971141      84.52454808     105.06706285
H      66.27078636      84.18628707     103.09985775
H      66.64873163      87.07756833     105.19934370
C      62.75589542      90.08979207      98.69301599
O      60.81703623      90.39403801      99.78716754
N      63.47966059      91.88692181      96.96202669
H      65.09348687      91.62613957      95.97558955
C      61.74867130      94.04687897      96.37054235
H      59.82115046      93.32689326      96.30251222
C      61.99055627      96.17471080      98.49270501