 %block lattice_cart
   140.777   0.000   0.000
   0.000 144.511   0.000
   0.000   0.000   162.462
 %endblock lattice_cart

 %block positions_abs
N      89.65425977      41.72508169      81.00517771
H      89.67126729      41.33201862      82.87222731
H      91.38524906      41.76287622      80.20015430
H      88.65270481      40.29833832      80.22472074
C      88.45806300      44.25164577      80.72927767
H      89.18560763      45.46862952      82.22216145
C      89.29710148      45.68405832      78.20649304
H      88.59601303      44.78265886      76.49251127
H      91.35501344      45.60280008      78.16491906
C      88.66215345      48.53187587      78.13090399
H      86.60235176      48.58289848      78.19326495
H      89.41237480      49.48618766      76.46794483
S      89.56166317      50.69750222      80.71038040
C      92.92915546      50.70317140      80.04141729
H      93.18237878      51.13213928      78.04397658
H      93.79276038      48.86257797      80.37400912
H      93.82488573      52.18471683      81.15635581
C      85.56678175      44.00220190      80.92014002
O      84.53688091      42.21074135      79.76551725
N      84.53121173      45.65949187      82.35633202
H      85.65559889      47.08812497      82.94025745
C      81.85535927      45.77098573      82.91380128
H      80.67050086      45.01131575      81.40768941
C      81.39237633      44.27999167      85.39312221
H      83.07801219      44.72974653      86.48538402
H      81.70796062      42.28633040      84.99250023
C      79.01132116      44.44628758      87.01261766
O      78.75998757      45.88058985      88.78896039
N      77.04411608      42.98930859      86.48727374
H      75.38115692      42.87592501      87.41701909
H      77.21608117      42.06145297      84.82998377
C      81.00876188      48.48652244      83.07253829
O      82.55644774      50.14003296      83.12545063
N      78.58613275      49.04966088      83.30308490
H      77.43339970      47.56433600      82.98183143
C      77.34836202      51.66315237      83.60166166
H      78.10236282      52.71195047      81.99728402
C      74.41550677      51.23040504      83.11978145
H      74.25110059      50.46506589      81.21493733
C      73.05301411      49.55043835      85.02462558
H      74.04701015      47.77220589      85.31375370
H      71.08958847      49.14603692      84.55408372
H      73.10781617      50.51419877      86.84443202
C      73.24387646      53.92704449      83.15568625
H      73.65772653      55.04765220      84.83376322
H      71.21808986      53.71161569      82.85899922
C      74.09992247      55.42181801      80.82754343
H      73.92795738      54.61679460      78.93970685
H      76.00854605      56.10967838      81.17903253
H      72.79601132      57.01296756      80.74250575
C      78.02866348      53.07855738      85.99216545
O      78.63337590      55.31599333      86.14334355
N      78.04945048      51.70850580      88.16913016
H      77.63937986      49.85846374      87.94236300
C      78.70518551      52.48707304      90.69758397
H      77.84724975      54.35790209      90.78640110
C      77.23875788      50.62758235      92.55329521
H      78.15527515      48.79643755      92.33408695
H      75.29233978      50.36868985      91.92779580
C      77.31245721      51.43071603      95.22725794
C      75.99909743      53.49618689      95.98125874
H      74.77644449      54.60923569      94.78317226
C      76.29389473      54.52419801      98.45113103
H      75.22619936      56.24384895      98.71380299
C      77.92850798      53.48673826     100.19345869
H      78.07212718      54.26530550     102.07562610
C      79.20029379      51.29087629      99.43189899
H      80.48719741      50.44427890     100.77171494
C      78.92250404      50.28365216      97.03005684
H      80.12059052      48.70762042      96.53116910
C      81.61725375      52.88580529      91.07174978
O      82.33723948      53.98184656      93.08052885
N      83.09501973      52.11479696      89.13667003
H      82.32779084      50.96206391      87.81953079
C      85.76520301      52.98596079      88.91746178
H      86.50219628      53.76452803      90.67679698
C      87.49241285      50.54065494      88.57731104
H      89.42749260      51.03954269      88.07464384
H      86.73463261      49.35012736      87.07497863
C      87.62469370      48.84557044      90.90356414
H      88.03476432      46.91804960      90.30263117
H      85.86724824      49.00997663      91.96936978
C      89.69394401      49.72240345      92.74604729
O      89.74685636      51.96361885      93.66445428
O      91.33233673      48.07645183      93.24304531
C      86.43416613      54.89269464      86.82364503
O      87.95728553      56.62746339      87.25639235
N      85.26631527      54.72828845      84.62022414
H      84.16082538      53.18816150      84.41424398
C      85.67827560      56.30054074      82.47349505
H      87.69083412      56.19849552      82.04641691
C      84.26853976      55.28953716      80.18692621
H      82.27865796      54.92104053      80.57809956
H      85.05655565      53.50374580      79.53119118
C      84.43861514      57.02052647      77.83988613
H      86.31322364      56.99218057      76.98950929
H      83.70729105      58.88946579      78.30475881
S      82.46007169      56.09456057      75.23584327
C      79.51776781      57.12824087      76.66069691
H      78.76565675      55.57677556      77.78697380
H      78.22708474      57.58555463      75.12056997
H      79.65949729      58.73639796      77.93815190
C      84.99797412      59.08788705      83.06686912
O      86.45684284      60.69604415      82.36389093
N      82.83234778      59.71527619      84.26117615
H      81.58512841      58.38301914      84.81864541
C      82.34101893      62.32498823      84.84888103
H      82.21440727      63.48528018      83.15190680
C      79.82390349      62.41380536      86.19814562
H      79.35525135      64.24495016      87.01828684
H      80.14704669      61.17414490      87.81008216
C      77.59402644      61.65980457      84.62967278
H      78.13259844      59.98550705      83.55819796
C      75.30367815      61.11934284      86.19058671
H      73.65961624      60.41447493      85.17202423
H      75.01266028      62.73505884      87.43213690
H      75.78744808      59.50173712      87.37166566
C      76.78144411      63.64401719      82.64168069
H      77.95874362      63.80086448      80.95793455
H      77.09702841      65.47705172      83.52418288
H      74.85014383      63.33221235      81.99728402
C      84.47074048      63.65535555      86.54963471
O      85.11324744      65.82287163      86.01106271
N      85.76898246      62.32876768      88.31463909
H      85.21529265      60.54297631      88.70203298
C      87.99319033      63.24717467      89.81697151
H      87.43950052      64.94036945      90.85254152
C      89.15348228      61.27241067      91.76338961
H      90.46117290      62.10389025      93.12210283
H      90.19850095      59.78897552      90.79207028
C      87.04643744      60.31053998      93.57374742
H      85.33245568      59.73795291      92.58353083
H      86.44361475      61.75051143      94.91734282
C      88.00830815      57.93893346      94.92112228
H      89.48418439      58.55309451      96.22314371
H      88.82655963      56.72005998      93.47737137
N      85.96173454      56.43849076      96.24959987
H      84.78632477      55.33867005      95.22347849
C      85.42694199      56.76163396      98.63254476
N      86.13369964      58.75907468      99.85330795
H      85.45150845      58.95371649     101.62398151
H      87.09934979      60.26896600      99.19568320
N      83.77154174      55.35756731      99.77393945
H      83.03076904      55.93204411     101.43689860
H      83.30855881      53.69082870      98.97269549
C      90.26464137      63.89724052      87.99527534
O      92.09011698      64.97627425      88.91935151
N      90.23629546      63.14135000      85.58020511
H      88.92671513      61.85633610      85.05486120
C      92.19027248      63.94637340      83.56197741
H      93.51497061      65.21815921      84.49550221
C      93.85890081      61.65791484      82.51317931
H      95.16281197      62.36278275      81.08454621
C      95.34044624      60.56376330      84.83943240
H      94.02897617      59.49984739      86.02051134
H      95.94893812      62.08310326      86.08854149
H      96.85789646      59.34677956      84.16668983
C      92.22617727      59.54520082      81.32265173
H      91.21706343      60.30676053      79.69559737
H      90.85612570      58.82143564      82.67947522
C      94.12724194      57.52319367      80.40235501
H      92.84033833      56.44227022      79.21182744
H      94.94738317      56.09456057      81.63823602
H      95.48973462      58.17892870      79.00395754
C      91.03753943      65.37122704      81.28485720
O      92.16381630      66.81308822      79.93181316
N      88.49585753      65.22004894      81.03541333
H      87.54154574      63.97471930      82.12200596
C      87.07100390      66.67324847      79.15513565
H      88.24641365      66.89623618      77.47705868
C      84.64837476      65.29374827      78.31231771
H      83.26698482      65.38256540      79.83543712
H      85.19261594      63.32465345      78.04964575
C      83.37847867      66.31609020      75.76874609
O      81.03332832      66.65624094      75.84244542
O      84.76742751      66.37467172      73.81098963
C      86.54188052      69.35854956      80.08866045
O      86.81589084      71.19158409      78.63735064
N      85.85779960      69.62689070      82.53018684
H      86.00897771      68.10377129      83.66969181
C      85.43828036      72.07408628      83.82653909
H      85.67827560      73.54996253      82.40924436
C      82.84746558      72.04385066      85.17769341
H      82.82667860      73.55185225      86.57987033
H      82.58479363      70.15979352      85.96759901
C      80.72152349      72.30652261      83.23883421
H      79.11903557      71.69614101      84.37644945
H      81.19206533      71.22370944      81.55130861
C      80.35302685      75.09008947      82.36578065
O      81.97063257      76.18235128      80.87667632
O      78.41605737      76.10676223      83.12734036
C      87.44516970      72.57297402      85.85043597
O      88.64703563      74.51183322      85.74839075
N      87.92893964      70.68324771      87.51906431
H      86.84423673      69.11477487      87.45859307
C      89.61646523      71.01394982      89.70736738
H      91.33044700      71.90212118      88.98549193
H      90.01519749      69.18658447      90.56719285
C      88.50341644      72.77139529      91.72181563
O      86.46062229      73.78806804      91.48937929
N      89.86212966      73.15123028      93.81752211
H      91.58556006      72.38211167      94.10853996
C      88.73963222      74.03373246      96.18723891
H      86.70628672      73.75972215      96.01149436
C      89.56544263      72.06463765      98.27160703
H      91.62524430      72.02684312      98.24137141
H      88.79632401      70.28262573      97.58752610
C      88.59979248      72.59565074     100.93045195
H      89.15915146      74.41545718     101.71468837
C      85.81622563      72.50494388     101.03816635
H      84.96017960      73.83909065      99.72480656
H      85.38914748      73.19280425     102.93167212
H      85.22474128      70.54529769     100.80573002
C      89.63725222      70.59443057     102.68978715
H      88.82466992      68.78029331     102.14932542
H      88.85301580      71.07064160     104.53227030
H      91.68571554      70.55474632     102.90332622
C      89.44827960      76.71525410      96.93557053
O      91.65736965      77.35209187      96.84297394
N      87.51886903      78.00971663      97.98058918
H      85.76331328      77.26327473      97.95791246
C      87.96673417      80.39455123      99.37709692
H      89.86590911      80.55328824     100.15566416
C      87.25808679      82.63009746      97.63854871
H      86.75919905      84.18723194      98.88954753
H      85.62725298      82.04428230      96.52361019
C      89.52575837      83.61275514      96.01905326
H      90.69738868      82.02916449      95.41812030
H      90.65770443      84.85052588      97.21336029
C      88.76419866      85.04327796      93.65122619
H      90.49329825      85.88042672      92.90478430
H      87.41304435      86.55505901      94.01405365
N      87.46784641      83.46535649      91.65000603
H      87.15793131      81.62854252      92.06574582
C      86.92927441      84.03794356      89.28028923
N      87.62658342      86.01459729      87.99716507
H      87.07289361      86.33018158      86.19814562
H      88.58845412      87.30717009      89.02139673
N      85.50820024      82.47136045      87.96692944
H      85.30599951      82.70946597      86.08476204
H      84.76175833      80.89721843      88.74549669
C      86.39448187      80.51738344     101.71846782
O      84.26287059      79.67078606     101.72980618
N      87.52453820      81.43012125     103.76315170
H      89.31599875      82.03105422     103.48536193
C      86.58723396      81.44523906     106.35963565
H      85.05277618      80.07896694     106.51270348
C      88.51097535      80.47580946     108.26259005
H      87.62091424      80.47391974     110.12019101
H      89.87157828      82.01782614     108.11330167
C      89.64103167      77.75271385     108.00747699
H      90.73707294      77.72436795     106.26703906
C      91.16037164      77.25949528     110.37341434
H      91.45894839      75.35465116     111.09717952
H      90.33834069      78.18168172     112.01936596
H      93.01797260      78.09286458     110.05783004
C      87.48485396      75.78361903     108.04149207
H      88.33523080      73.93168724     108.34195855
H      86.14314828      75.75905259     106.48057813
H      86.41148940      75.98770947     109.78759918
C      85.50253106      83.91133190     107.34607278
O      84.93183371      84.26093127     109.54760394
N      84.91860562      85.48169447     105.48469237
H      85.16804950      84.80328272     103.71779826
C      84.06822879      88.14053939     105.64153965
H      82.91360601      88.29549695     107.34229333
C      86.26787020      90.00191981     105.91177051
H      87.61335535      89.16288133     107.22513030
H      85.54032557      91.66865842     106.88120011
C      87.43194161      90.53671235     103.32095574
H      86.09212566      91.54771593     102.12664871
H      88.04799239      88.85296621     102.30617271
C      89.56544263      92.46423319     103.63842976
H      90.31377425      92.86485517     101.76193153
H      91.04698805      91.59495909     104.77982445
C      88.79065483      94.91709795     104.85919296
H      87.56044300      94.83017054     106.51081375
H      87.66437796      95.92054262     103.45512631
N      91.13580520      96.35895913     105.45823620
H      90.78053664      98.20711146     105.77948967
H      92.11846288      96.71422767     103.86141746
H      92.12413206      95.61440696     106.91332546
C      82.16149493      88.97390869     103.55150235
O      81.99519901      87.56984204     101.57673835
N      80.87837076      91.07150490     103.91999898
H      81.25064685      92.13353109     105.46012592
C      79.26454449      92.12597218     101.88287401
H      77.97953060      90.61419113     101.33674311
C      77.62237233      94.27648073     103.05450433
H      78.81289990      95.88274809     103.54205372
C      75.81390425      95.16843155     101.00982046
H      74.88793836      93.51303130     100.20857650
H      76.55089750      96.34384131      99.49048050
H      74.30779238      96.42132009     101.63720959
C      76.09925291      93.26925660     105.35430125
H      77.50898874      93.06327644     106.84151586
H      75.30556787      91.40787619     104.97068681
C      73.91283957      94.88686233     106.43144525
H      73.67473406      94.29726772     108.38920171
H      72.33302837      94.39175403     105.20501287
H      74.47975747      96.85973660     106.60152062
C      80.78955362      93.04437917      99.58118736
O      82.53755046      94.71489723      99.76449082
N      80.12625970      92.20912014      97.32296442
H      78.87715060      90.76536924      97.34564114
C      81.29600027      93.19366755      95.01749832
H      82.14259766      94.95111302      95.67323335
C      83.40304511      91.38142002      93.98948720
H      84.70506654      90.99591585      95.53906278
H      84.31011374      92.35462907      92.41534519
C      82.54321964      88.83406895      93.07674940
C      81.79110857      88.40888053      90.52750860
H      82.05567025      89.92444103      89.18769264
C      80.82923788      86.01837674      89.82075096
H      80.60058100      85.75381506      87.81008216
C      80.46452070      84.14376824      91.57630670
O      79.75587334      81.77972062      90.75238603
H      79.86358773      81.54728428      88.95525631
C      81.10513792      84.60486146      94.13310640
H      80.59491182      83.21402289      95.53339360
C      82.14448739      86.96323990      94.92301200
H      82.66227240      87.30528036      96.86943011
C      79.29100066      93.94577862      92.89344594
O      77.07435170      93.14075521      92.95769664
N      79.91272061      95.51803092      90.86010043
H      81.66071745      96.28525980      90.93568948
C      78.12126007      96.28903925      88.81352683
H      76.24287211      95.98857277      89.60343243
C      78.64093481      98.94599445      87.94992191
H      80.61191935      99.06882666      87.36977593
H      78.48597725     100.12518367      89.63177833
C      77.05167499     100.17053710      85.84098734
H      75.06557263      99.63196510      85.95248120
H      77.97575115      99.43165411      84.15535147
C      77.52221683     102.95410396      85.99594490
H      79.47052466     103.47188897      85.57264621
H      76.83813591     103.77235545      87.75716982
C      75.74776382     104.18998497      84.02118090
H      73.81079435     103.81014998      84.61077551
H      75.99909743     103.26212935      82.19948474
N      76.01988441     106.84316071      83.77551648
H      75.08446989     107.74078071      85.17769341
H      75.10147742     107.54991835      82.25806625
H      77.80567577     107.51779300      83.84165690
C      78.22519503      94.38230540      86.66112856
O      80.28877615      93.70011420      85.77106747
N      76.04445085      93.79649024      85.58965374
H      74.47786774      94.59584448      86.33231618
C      75.60792407      92.32628317      83.25773147
H      77.10647705      90.91465762      83.20481914
C      72.96419696      91.15087341      83.53174179
H      71.68674198      92.76469968      83.49772671
H      72.78467296      90.21734861      85.36099686
C      72.40105852      89.31216970      81.30942364
O      71.70374951      90.18522326      79.20993771
O      72.72042228      86.94434263      81.56453670
C      75.64382887      94.01947795      80.91825030
O      74.85203356      96.22478856      81.03730306
N      76.55656668      93.09540178      78.77530066
H      77.27844214      91.33606659      78.60711502
C      76.59814067      94.58450612      76.46416538
H      78.04189157      96.03959538      76.65880719
C      77.36914900      92.75525105      74.09444858
H      76.72286261      93.31272031      72.21984008
C      80.30767341      92.39998250      73.90547595
H      80.99553380      92.18455370      75.83488652
H      81.29789000      93.97790397      73.02297376
H      80.69695703      90.79560486      72.67337439
O      76.63215573      90.24380478      74.49885001
H      74.98431439      90.08128831      73.76374648
C      74.14149645      95.82038713      75.77630500
O      74.33613827      97.81593811      74.69160210
N      71.91161940      94.78670683      76.35645098
H      71.92106804      93.33917648      77.59989089
C      69.58536632      96.13597142      75.90669612
H      69.47954164      96.68777150      73.92437321
C      67.38005571      94.33128279      76.39991468
H      67.23265706      94.03081631      78.43326020
H      67.95075306      92.60029349      75.43615426
C      64.79679985      95.30449184      75.29442479
H      64.55113542      97.33783736      75.52875085
H      63.16974548      94.38797458      76.15802972
C      64.89884506      94.79237601      72.41637162
O      65.11616359      96.48746051      70.75719191
O      64.64373201      92.66643391      71.62457629
C      69.22064914      98.69277112      77.44871279
O      67.57847698     100.30848712      76.76274214
N      70.62282606      98.83828005      79.57465489
H      71.44296728      97.15075445      79.93748234
C      70.34692603     100.83383103      81.46627093
H      69.45308547     102.51568745      80.68392423
H      72.25177014     101.46688935      81.93303333
C      69.00144088      99.98534392      83.83409800
O      68.27389625     101.61428800      85.38556330
N      68.26822707      97.63641411      84.12511585
H      68.58948055      96.44777626      82.66624714
C      67.43107833      96.50446805      86.51184018
H      66.10260073      97.87451963      87.29040742
C      66.21976376      93.89097656      86.08098258
H      65.55458010      93.22768262      87.91401711
H      67.78823660      92.63997774      85.61799964
C      64.02201206      93.49791349      84.16857956
C      63.43619690      91.01103366      83.60544111
H      64.51523063      89.56728276      84.56353236
C      61.63717744      90.59907332      81.75350933
H      61.31592397      88.64698604      81.26218049
C      60.33515602      92.41321058      80.36645021
O      58.44165025      91.85574132      78.71671914
H      57.67631110      93.33728675      77.99673342
C      60.79435951      94.91709795      80.99383935
H      59.72855387      96.46478380      80.20015430
C      62.61605567      95.53503845      82.94025745
H      63.19998110      97.47389765      83.19159105
C      69.49654918      96.03581593      88.50550144
O      71.73776458      95.82605630      87.81764107
N      68.89939567      95.81282822      90.95458675
H      67.06636115      96.12463306      91.38544435
C      70.65306168      94.68466161      92.74415756
H      72.63916403      94.77158902      92.19802666
C      70.58881100      96.39864338      95.13466135
H      71.45430565      95.45000077      96.74470817
H      68.59892919      96.83517016      95.45024564
C      72.02689272      98.86284649      94.91356337
C      70.74943772     101.10973108      94.45058042
H      68.71420249     101.15508451      94.32018931
C      72.30090302     103.38307183      94.26916670
H      71.51855633     105.17075292      93.67390291
C      74.93896096     103.28480606      94.32585849
O      76.27877691     105.39185090      93.86665499
H      75.19596375     106.83938126      93.71358716
C      76.13704744     100.88863310      94.80584897
H      78.16283406     100.78847760      95.03261613
C      74.70274518      98.69277112      95.03072640
H      75.46430487      96.86351605      95.52394497
C      70.44708152      91.86896941      93.51705563
O      68.43452300      90.90331926      93.84775773
N      72.51066266      90.59529387      94.04428927
H      74.12070947      91.57039265      93.73248443
C      72.63160514      87.86085990      94.43357289
H      70.74565827      87.16733034      94.88710720
C      73.49521006      86.43600626      92.03551020
H      74.36826362      84.60108201      92.37755066
C      71.18218506      85.93522878      90.17035033
H      69.82536156      87.48291463      90.21948321
H      70.30157259      84.24392373      90.94891757
H      71.89272214      85.70279245      88.25038839
O      75.28478087      87.91755168      90.76372439
H      75.31690622      89.63531290      91.34764982
C      74.37771224      87.33362625      96.64266295
O      75.79500699      88.77926688      97.56295966
N      74.45141157      84.95446083      97.60642337
H      73.27600180      83.70157228      96.77494379
C      76.37137350      83.92455999      99.44701680
H      78.15716488      84.93367384      99.25804417
C      75.36414939      84.27037990     102.14554597
H      74.66495065      86.19979047     102.30995216
C      73.16072850      82.26727001     102.47624808
H      71.87571460      82.24459329     100.86809098
H      72.11759957      82.95513039     104.11464079
H      73.81835326      80.34163890     102.78616319
C      77.46552504      84.02849493     104.23369355
H      78.70707524      85.66877737     104.31495178
H      78.47652863      82.24837275     104.01637502
C      76.19373923      83.97180314     106.88686929
H      75.11092605      82.24837275     107.20245358
H      74.94840960      85.60074723     107.07584192
H      77.71118947      83.87731683     108.27581813
C      76.62270711      81.08052188      98.84797356
O      75.35659048      79.93156829      97.30028770
N      78.48975671      79.88243540     100.06117785
H      79.52154728      80.90288761     101.29894858
C      78.96974719      77.11020690      99.76638054
H      77.36347982      76.02361427     100.46557928
H      80.57979400      76.65289313     100.96446703
C      79.57823907      76.20502800      97.06029246
O      81.20529341      77.51838778      95.98125874
N      78.55967657      74.08664480      96.20991562
H      77.13671267      73.27406249      97.18879385
C      79.11525611      73.22870905      93.66445428
H      80.69695703      74.23782291      92.81785689
C      79.70107128      70.36010451      93.80429403
H      78.22330530      69.22248927      94.67734758
C      80.18484120      69.26028380      91.17757445
H      79.11336639      70.46214973      89.89256056
H      79.38926643      67.37622666      91.42512860
H      82.19173056      69.17335639      90.73159904
C      82.01598601      69.82720169      95.72425596
H      81.29600027      70.19758805      97.61776173
H      83.56367185      71.05741352      95.14599971
C      83.04021767      67.14190060      95.88110324
H      81.56812086      65.81153328      96.42723415
H      84.63703641      67.16646704      97.18312467
H      83.82256435      66.48427584      94.09153243
C      76.90616605      74.20758728      92.06952527
O      75.09202880      72.75627748      91.46859230
N      76.93640167      76.63210614      91.44402586
H      78.43306492      77.67145562      92.00905403
C      74.93329178      77.93034812      89.88122220
H      74.93518151      77.18390623      87.96126027
H      75.37548775      79.90889157      89.51272557
C      72.27633658      78.06451869      90.85632098
O      70.57747263      78.76182770      89.44847487
N      71.87571460      77.80562618      93.38477478
H      73.34781141      77.60720492      94.58475099
C      69.45875466      78.03239334      94.63577360
H      68.24932982      77.05351511      93.28839874
C      69.50977726      76.70958492      97.17178632
H      70.78723226      77.78483919      98.37932143
H      70.35070547      74.83875587      96.99604177
C      66.98132345      76.46014105      98.51160227
N      65.47710131      74.41356745      98.67411873
H      66.06858564      72.70525487      98.05995768
C      63.27745988      75.05796412      99.92322783
H      61.85260624      73.70492008     100.47313818
N      63.28123934      77.59208711     100.26904774
H      61.83559871      78.65978248     100.90777524
C      65.52623420      78.43301532      99.35819966
H      65.98165823      80.42100740      99.27505170
C      68.66317987      80.82351911      94.72270101
O      69.78189785      82.45813237      95.82252173
N      66.44086173      81.29973014      93.63799811
H      65.61883079      79.69535250      93.00682952
C      65.29190813      83.82062504      93.58130632
H      66.67518779      85.07540331      92.70825276
C      62.99967012      84.01904630      91.94102388
H      61.49355825      82.94757148      92.84998224
H      63.10549479      83.05717561      90.12310717
C      62.11905765      86.68922958      91.20403062
H      61.77512746      87.84196263      92.87643841
C      63.69508940      88.21045926      89.39556254
H      62.89951463      90.10774448      89.29729677
H      63.78012708      87.23913994      87.58142528
H      65.63961778      88.51848465      90.00216468
C      59.64540591      86.33774049      89.74894136
H      58.35283312      85.49492255      91.11332376
H      59.87217306      85.14910264      88.08220275
H      59.01801677      88.23124625      89.23871525
C      64.62294501      84.73336285      96.21936425
O      63.11116397      83.62220378      97.61587200
N      65.54891091      86.94434263      96.95824724
H      66.65251109      87.91377223      95.73937377
C      64.80624847      88.49013876      99.14655031
H      64.08815248      87.21646322     100.59786012
C      67.11927347      89.91310267     100.17834088
H      66.43897200      91.30205151     101.53705410
H      68.12838733      90.74458225      98.58530160
C      68.75388675      88.10841404     101.86019730
H      69.80457458      86.97646798     100.49392517
C      70.71920210      89.79216019     103.02237898
H      72.01366463      90.78804595     101.76760071
H      71.69997007      88.49391821     104.28660588
H      69.78000812      91.14331450     104.26014972
C      67.41785024      86.57962546     103.85196883
H      68.78412237      85.50248146     104.95556900
H      66.07992401      85.29650129     102.95056938
H      66.41062611      87.75314550     105.21068205
C      62.72943926      90.23246642      98.50404337
O      60.86994857      89.96979446      99.85141823
N      62.92786051      91.84818242      96.55384581
H      64.57759158      91.83495433      95.59386484
C      60.91341226      93.66042995      95.85086762
H      59.07281883      92.76469968      96.08330396
C      60.76223417      96.08494881      97.52138568