 %block lattice_cart
   140.777   0.000   0.000
   0.000 144.511   0.000
   0.000   0.000   162.462
 %endblock lattice_cart

 %block positions_abs
N      91.86051523      40.09330302      81.64957438
H      93.72378538      40.49770445      81.73461207
H      91.38808366      38.52860963      80.66502697
H      91.26147199      39.69835022      83.41835821
C      90.56416298      42.39876912      81.09021539
H      91.38241448      43.96913169      82.14279295
C      90.65298012      43.02048908      78.28775127
H      88.78215107      43.71590836      77.78130462
H      90.98746168      41.39532445      77.06887780
C      92.50302217      45.21824078      77.50918403
H      92.08917211      45.85318882      75.59300155
H      94.46455809      44.59841055      77.43737443
S      92.55404479      48.02070490      79.20615826
C      89.52859297      49.46256608      78.24428757
H      89.46245253      51.46189652      78.72994723
H      87.99224546      48.51203374      79.23639388
H      89.46245253      49.28304208      76.19204479
C      87.76925777      42.19089923      82.06531417
O      86.73368774      40.17078180      81.61177985
N      86.76203363      44.14676596      83.23883421
H      88.02815027      45.43555931      83.85488499
C      84.02759966      44.47557834      83.88134116
H      83.01470636      43.32473501      82.50562040
C      83.70445647      43.44000832      86.56664225
H      85.08395667      44.33006941      87.81008216
H      83.98602569      41.39721418      86.54963471
C      81.06261908      43.93322689      87.56063829
O      80.73380669      45.75492305      88.97037412
N      79.22958456      42.24570129      87.14678823
H      77.53261033      42.48947598      87.98393698
H      79.53949966      40.39754896      86.79529913
C      83.04494198      47.24780684      83.52607261
O      84.62286346      48.90320709      83.21048832
N      80.62042313      47.81472473      83.57331577
H      79.44312362      46.33317930      83.83031855
C      79.44501336      50.25247168      83.25206229
H      79.95523945      50.64364502      81.29619556
C      76.57073963      49.99735863      83.53552124
H      76.09641833      48.48746730      82.21649228
C      75.40477850      49.22446056      86.23027096
H      73.35631518      49.00714204      86.28696275
H      75.93579159      50.28081757      87.91590684
H      76.07563133      47.32906507      86.67813610
C      75.06840722      52.41809803      82.83443278
H      75.05706885      53.43288106      84.62589332
H      73.08419459      51.94944591      82.54908411
C      75.75248814      54.18499214      80.65746807
H      74.09141870      55.16009091      79.92803371
H      76.66144650      53.20422418      79.08899523
H      77.34363769      55.42465260      81.07887703
C      80.42011213      52.36140624      84.96982351
O      81.08151634      54.35317778      84.04952680
N      80.99647866      51.85873904      87.46048279
H      80.66766628      50.14286755      88.23338086
C      82.24369803      53.35729201      89.23493580
H      81.28371705      55.12985529      89.65823450
C      82.60463574      52.13652881      91.77283824
H      84.18444695      52.95855976      92.80651853
H      83.07517761      50.13341892      91.69158001
C      80.18578607      52.50313572      93.30351655
C      78.20913235      50.72490326      92.96525554
H      78.44723787      49.13942288      91.70102864
C      75.96035803      51.09528961      94.23515163
H      74.38432629      49.79704764      94.21247491
C      75.77327512      53.02470018      96.01716354
H      74.04606528      53.09839951      97.09997672
C      77.62142746      54.83505799      96.29117385
H      77.33796852      56.46778152      97.47981171
C      79.89854766      54.59506275      95.00049078
H      81.37064446      55.98968076      95.21969903
C      84.78537992      54.10751336      88.27117538
O      85.42221769      56.37518493      88.26361648
N      86.29716097      52.46912064      87.12600124
H      85.72268417      50.70222654      86.69514364
C      88.86340929      53.14753239      86.23782987
H      89.80449300      54.40609011      87.56819719
C      90.50180201      50.87419163      85.61799964
H      92.38396941      51.37496911      84.94903652
H      89.44733473      49.81972435      84.19692545
C      90.88919590      49.27926263      87.95559109
H      89.17143468      48.56872553      88.83809328
H      91.84161796      50.38664225      89.40879062
C      92.58805987      47.08529038      87.21103892
O      94.88407734      46.97190680      87.81575134
O      91.61863027      45.28816065      86.05263669
C      88.68766476      54.88797032      83.89834869
O      90.01803208      56.76635828      83.68480962
N      86.76203363      54.51569424      82.24105872
H      85.77181705      52.89430906      82.44703889
C      86.04771709      56.14652805      80.09055017
H      87.69555843      56.18054312      78.85466916
C      83.66099275      54.96166965      78.89057396
H      81.95268017      55.60039714      79.84866520
H      83.69311810      52.90186797      78.89057396
C      83.16966392      55.71189100      76.10700711
H      84.84396143      55.19977517      75.02230420
H      82.86919744      57.74901596      76.03708723
S      80.50514981      54.19066131      74.64057949
C      80.26326484      56.06904927      71.88535852
H      79.05006056      57.67909609      72.30676749
H      79.38454212      55.13552447      70.27531170
H      82.19267541      56.72478430      71.57733313
C      85.66221293      58.92064628      80.98817017
O      86.85085077      60.64596640      79.99039468
N      84.18255722      59.35906278      83.01773623
H      83.37186463      57.69610362      83.49205754
C      83.58729344      61.80247890      84.06275488
H      83.00336800      63.12339760      82.59632726
C      81.05317045      61.47744598      85.53296195
H      80.75837315      63.29536269      86.45325867
H      81.31773213      59.91464232      86.84821147
C      78.74770435      60.60250269      83.99283501
H      79.43934418      59.17386960      82.68325467
C      76.85419857      59.23623057      85.67658115
H      76.24003753      60.63462804      87.05797109
H      77.89543778      57.69043445      86.55530389
H      75.39344014      58.52758320      84.41046452
C      77.28316645      62.79269549      82.63790124
H      77.14332671      64.57092795      83.66780208
H      75.34052781      62.14073991      82.42625190
H      78.22236043      62.90607907      80.80864617
C      85.79827321      62.85883591      85.75783939
O      86.16299039      65.14351502      85.96192983
N      87.37241524      61.10139044      86.85577037
H      86.83384324      59.27402510      86.93324915
C      89.66087380      62.00656934      88.12944591
H      89.03537440      63.61850589      89.24816389
C      90.79659931      59.91275259      89.78673589
H      92.77703250      60.19243208      90.27806473
H      90.87407810      58.14963794      88.72281997
C      89.40387103      59.25323811      92.25282872
H      87.50280636      58.58238527      91.84086839
H      89.10529426      60.96155069      93.36398780
C      90.72478972      57.32382754      94.05751735
H      92.39908723      58.17609411      94.90411474
H      91.36918639      55.76291361      92.87832813
N      88.89931409      56.47723015      96.02094299
H      88.40798525      54.63474700      95.94157449
C      87.90720778      57.52413853      98.14121591
N      88.20767426      59.97700328      98.59852968
H      87.56894678      60.64218695     100.27093747
H      89.73079368      60.78013697      97.77649874
N      86.52770758      56.29203697      99.86842576
H      85.83039856      57.25012821     101.36319928
H      86.29716097      54.41175929      99.63976888
C      91.62429945      63.09883115      86.26617576
O      92.60884685      65.03580062      86.81797585
N      91.85673578      61.91964193      84.07031379
H      90.94399796      60.24345469      84.09676996
C      93.57449700      62.66797355      82.12767514
H      95.30926575      63.11205924      83.14623762
C      94.12062791      60.35305882      80.45715708
H      92.42932285      59.79747928      79.42158706
C      95.71177746      61.22422265      78.14224234
H      97.43898730      62.14073991      78.79419792
H      94.56093413      62.49033928      76.99517847
H      96.24090082      59.49323335      77.16147439
C      95.65508567      58.19688110      81.84232647
H      95.32249384      58.14207903      83.87567198
H      97.67898254      58.57671609      81.79886276
C      95.01068899      55.54748481      80.74439548
H      96.47522688      54.14530788      81.10155375
H      94.75368622      55.56827180      78.69971161
H      93.39308327      54.63474700      81.63067712
C      92.66742837      64.96399102      80.61400436
O      94.23023203      66.69309060      80.10377826
N      90.18621771      65.11516913      79.97716659
H      89.15442716      63.52212985      80.19826457
C      89.01836685      67.30347220      78.69404243
H      90.10873894      67.31481056      76.94604559
C      86.30471988      66.86127624      78.03830740
H      85.23891423      68.61872171      77.89279847
H      85.71701499      65.68397675      79.62378777
C      85.92488488      65.59326989      75.50607414
O      84.05027637      64.11550391      75.26418917
O      87.31383372      66.17341586      73.72595195
C      89.20356003      69.82436710      80.15480087
O      89.49457788      71.95975784      79.08899523
N      88.59884761      69.75066778      82.60766562
H      88.21334345      68.03479628      83.34654861
C      88.28893249      72.00133181      84.14590284
H      89.28481826      73.53389985      83.19537051
C      85.62252867      72.60982369      84.54085564
H      85.43166632      74.14050200      85.90523804
H      84.86474841      70.96009262      85.51784414
C      83.71012565      73.36382449      82.28641215
H      81.77882535      72.77989906      82.69837248
H      84.31861751      72.34526200      80.60266600
C      83.99358459      76.11715572      81.53052162
O      84.33751478      76.50832907      79.30631375
O      84.02948939      77.96341833      83.09332528
C      89.53804159      71.69330643      86.64223130
O      90.80604795      73.46586971      87.49449787
N      89.20922922      69.46720883      87.85165614
H      88.02815027      68.13117233      87.16946494
C      90.23913006      69.23099304      90.41790447
H      92.12885637      70.04924453      90.34420515
H      90.60951642      67.29969275      91.02639635
C      88.62719350      70.69364121      92.44180135
O      87.35540771      72.45486613      91.89000127
N      88.84073258      69.92074314      94.91167365
H      90.16543073      68.60549363      95.30851617
C      87.66721254      71.20953649      97.02438766
H      85.64898484      71.09993236      96.61998623
C      88.13019549      69.86216163      99.49614968
H      87.79193448      71.09804264     101.10808623
H      90.14275401      69.45020129      99.65677642
C      86.48235415      67.55858525      99.80039562
H      86.54849456      66.60049401      97.97680973
C      87.72957351      66.24711519     102.06050829
H      89.67788133      66.02223776     101.43122943
H      86.75447474      64.46510328     102.39687957
H      87.60296184      67.45087085     103.72913662
C      83.80839142      68.33337304     100.39187995
H      82.49692135      66.78757692     100.76037658
H      82.95990430      69.57870268      98.98592358
H      83.61185988      69.51256226     102.06995692
C      88.43255170      73.97231636      97.18879385
O      90.61518559      74.60159522      96.74281844
N      86.70156239      75.69574676      97.74626312
H      84.88742514      75.17040284      98.01271453
C      87.39509195      78.18829576      98.70813381
H      89.35284841      78.12215534      99.34686130
C      86.85085077      80.08936043      96.59919924
H      87.14186863      81.93184359      97.47225280
H      84.83640252      80.20085429      96.18723891
C      88.54593528      80.01755083      94.33152767
H      88.30971949      78.24687728      93.30351655
H      90.52447872      80.39738582      94.76805445
C      87.82028037      82.25498679      92.47392670
H      88.17554892      84.08235213      93.35642889
H      85.76614788      82.18506691      92.33975613
N      88.87474766      82.15861075      89.93413454
H      90.38463898      83.28299790      89.62421942
C      88.01114274      80.90383247      87.94992191
N      85.98724585      79.56590625      87.96314999
H      85.18978135      78.95174519      86.34365454
H      85.01592652      79.58291378      89.60910161
N      89.09206619      81.24776266      85.79563391
H      88.53648664      80.07613235      84.39723644
H      90.90053427      81.85058536      85.88823050
C      86.00614312      78.69474241     101.21013145
O      83.71390510      78.91961985     101.14966021
N      87.38942277      79.07079795     103.30583793
H      89.14308879      79.62070831     102.78994264
C      86.65242951      79.48842747     106.00625683
H      85.15198682      78.12971425     106.38420209
C      89.18655250      79.06134932     107.53693514
H      88.53270720      79.13315892     109.48902242
H      90.53203763      80.61659408     107.41221321
C      90.59439860      76.61226402     107.03804740
H      91.48823914      76.72375787     105.18800534
C      92.64853111      76.64060991     109.13753333
H      93.87496348      78.29034098     109.03170866
H      93.93354500      75.06268844     108.81439013
H      91.91342757      76.50643934     111.05749526
C      89.07694838      74.14995063     106.93411245
H      90.49235338      72.66273602     107.08718028
H      88.17365919      73.92885265     105.09918820
H      87.86752354      74.24065750     108.60085106
C      85.55071908      82.10191896     106.47490896
O      84.56050249      82.58568889     108.54415927
N      85.84740611      83.93117403     104.71179431
H      86.35196303      83.32457188     102.97324610
C      85.26159094      86.66560800     105.04249641
H      84.32239696      87.07945807     106.82639805
C      87.79949339      87.99975478     105.13509300
H      89.21489840      87.11536287     106.33884866
H      87.59729266      89.81011259     106.09129451
C      89.03915385      88.83501381     102.47246862
H      87.78248584      90.33545650     101.83374113
H      89.08828673      87.19284164     101.22713898
C      91.80382345      89.59468379     102.62175700
H      92.03059060      91.21606896     103.86897637
H      92.36696188      90.28443389     100.76604576
C      93.59717371      87.61803006     103.70268045
H      93.69921894      85.89082021     102.58585220
H      93.07182979      87.06056080     105.61319376
N      96.19365767      88.66871789     103.76126197
H      96.24845973      90.17671949     104.92911283
H      96.66230979      89.36035773     102.04350075
H      97.28214003      87.27409988     104.47746824
C      83.61752906      87.41960880     102.88442896
O      83.54005027      86.34246480     100.82651701
N      82.29283091      89.57956598     103.22457970
H      82.25503638      90.55466476     104.86486214
C      80.58073887      90.30522088     101.13265267
H      79.40721883      88.72351996     100.52605052
C      78.70424064      92.55021574     101.93200690
H      79.85697370      94.04687898     102.75403784
C      77.48536716      93.74641250      99.55473120
H      76.36853892      92.38958901      98.48325638
H      78.89510300      94.78576197      98.47380775
H      76.26649369      95.28087026     100.18967924
C      77.01482531      91.62991903     104.04283119
H      77.99748299      90.73418876     105.61697321
H      75.77516485      90.22774210     103.18111599
C      75.46713947      93.80121456     104.98769435
H      74.93990582      93.47807136     106.95300971
H      73.73048098      93.93727486     103.88598391
H      76.50648894      95.57944702     104.97068681
C      81.91866509      90.93638947      98.64577284
O      83.83484757      92.23841090      98.58530160
N      80.78293958      90.12758661      96.53494855
H      79.18801058      89.08634741      96.60108897
C      81.55772737      90.96662509      93.89311116
H      82.91833032      92.51431094      93.93846459
C      83.20934816      88.99564055      92.53250822
H      84.82317445      88.55344459      93.73248443
H      83.67422085      89.91971671      90.75049630
C      81.94323153      86.48230455      91.79173550
C      81.26481979      85.96640927      89.24627416
H      81.35741639      87.38181428      87.77984654
C      80.67144574      83.54944931      88.53384734
H      80.42389159      83.18095268      86.54396553
C      80.09885866      81.64271546      90.33475652
O      78.95935370      79.46008157      89.53540229
H      79.29005580      79.29756511      87.75905955
C      80.52593681      82.13593403      92.91234321
H      80.04027715      80.70730094      94.28806396
C      81.53883011      84.54344535      93.66445428
H      82.23046994      84.63982140      95.58063676
C      79.28816606      92.01542320      92.38321984
O      77.11309109      91.83400947      93.12588228
N      79.69445723      93.26264256      90.23460102
H      81.47646914      93.73318441      89.73949273
C      77.69890625      93.88814197      88.34487471
H      75.80917992      93.33256244      88.94391795
C      77.61764801      96.77564378      88.02362123
H      79.17667221      97.33878222      86.79907858
H      77.88409941      97.76775009      89.80941260
C      75.09486338      97.70160967      87.10899370
H      73.60386933      96.97973422      88.32975690
H      74.89644211      97.05721300      85.16068587
C      75.16100381     100.57777312      87.26206153
H      76.60475471     101.24295678      85.95437092
H      75.66367100     101.01241017      89.21036936
C      72.53806368     101.85144865      86.70648199
H      71.27761623     101.37712735      88.26739593
H      71.84264440     100.98406428      84.97171324
N      72.61365274     104.55375728      86.16791000
H      70.89400179     105.36822932      86.31530865
H      73.19379871     104.67847922      84.35188301
H      73.68890701     105.48539235      87.43969580
C      78.07307205      92.50675204      85.71626541
O      79.97035727      92.97729389      84.30086040
N      76.26271424      90.86646960      85.10777353
H      74.72069758      90.87213878      86.23027096
C      75.85453336      89.61169133      82.62467316
H      77.57796375      88.63092337      82.07476280
C      73.80984949      87.60480198      82.65868823
H      72.05240402      88.67627680      82.59632726
H      74.06874199      86.49175318      84.37267000
C      73.76827551      85.90404830      80.42125228
O      72.64766780      86.76765322      78.61278420
O      75.00604625      83.81401100      80.53463586
C      75.51249289      91.64125739      80.47416461
O      74.53928384      93.71428715      80.99761880
N      76.34775192      90.79466000      78.21027249
H      76.86931639      89.00508918      77.80398133
C      76.23814780      92.38580955      75.93315228
H      77.45891099      93.97506938      76.41503249
C      77.58363293      90.86835932      73.93004239
H      76.39877454      89.22051798      73.58611220
C      77.94079120      92.63903288      71.59812012
H      79.10675235      94.23585161      72.17070720
H      76.14366148      93.37224669      70.90459057
H      79.01415576      91.71684644      70.10145688
O      79.98925454      89.92727562      74.62924113
H      80.60719504      89.06933987      73.15525460
C      73.70024537      93.15870761      74.91647953
O      73.44891177      95.06166201      73.59745056
N      71.79351152      91.77920741      75.52686113
H      71.98248415      90.12758661      76.46227565
C      69.04395972      92.51053149      75.36623439
H      68.42979868      92.73729865      73.41414711
C      67.52084032      90.16349141      76.29597974
H      68.08586848      89.70806737      78.22350058
H      68.08208903      88.60068775      75.07899599
C      64.69758920      90.57734147      75.61756799
H      64.00972882      92.14014513      76.76841131
H      63.80941784      88.85958025      76.32999481
C      63.96059594      90.90993330      72.85478812
O      63.36911161      93.11146446      72.09700787
O      63.67524728      88.95595629      71.48662627
C      68.31641509      94.87646883      76.87423599
O      66.66857375      96.26541767      76.16747835
N      69.78095298      95.26575245      78.83955135
H      71.29084432      94.09979132      78.86033834
C      69.62221598      97.36334866      80.72360849
H      68.40145279      98.90347561      80.10755771
H      71.53461900      97.94349464      81.22816541
C      68.72081653      96.74351843      83.33709998
O      68.38822469      98.52175089      84.75817417
N      68.29751783      94.28498450      83.87756170
H      68.85687683      93.10957473      82.48105396
C      67.47926634      93.22106858      86.23216069
H      66.45503467      94.66670921      87.28284852
C      65.81819692      90.85513124      85.88256132
H      65.20214613      90.58867983      87.82897942
H      66.95203269      89.23374606      85.30619480
C      63.44848011      91.15181827      84.38778781
C      62.65857451      89.26020223      82.88356566
H      63.95492676      87.69361912      82.73427728
C      60.32854197      89.16004674      81.73083261
H      59.82020560      87.49330813      80.66691670
C      58.76384858      91.33134227      82.04641691
O      56.50940509      91.44661558      80.98061127
H      55.58343919      92.99430143      81.17336335
C      59.53863637      93.45539465      83.44670410
H      58.34999853      95.11079490      83.57142604
C      61.89701481      93.31555490      84.70337210
H      62.68881013      94.92938117      85.67091198
C      69.47481733      92.66359932      88.23905003
O      71.62532588      91.69983890      87.84409724
N      68.89278162      93.37035696      90.62199492
H      67.11265943      93.94105431      90.99994018
C      70.35165034      92.89981511      92.88588704
H      72.31696571      93.31366517      92.43046300
C      69.67701804      94.72340100      95.08741819
H      70.20803113      93.87680361      96.88832737
H      67.66068006      94.47017768      95.42945866
C      70.26472293      97.53720348      94.98915242
C      68.38444524      99.27953114      95.11387436
H      66.40212234      98.80709956      95.24237575
C      68.88333300     101.77396988      94.93057091
H      67.41312591     103.16102899      95.21591958
C      71.36832309     102.70749467      94.46380851
O      71.97681497     105.20004368      94.19546737
H      70.59164558     106.37356372      94.20680573
C      73.35064600     100.87634988      94.35798384
H      75.25171067     101.61901232      94.31074068
C      72.77427947      98.30254264      94.67545786
H      74.16700776      96.80776912      94.69057567
C      70.23448731      90.09924071      93.78539676
O      68.21814932      88.93894876      93.94035432
N      72.46436436      88.82934463      94.22381327
H      74.07252145      89.86113520      94.25971807
C      72.76294112      86.10057984      94.20113655
H      70.94313467      85.32579205      94.77561335
C      73.53961863      85.00264885      91.55929917
H      75.50304426      85.45618316      91.13222102
C      73.01994389      82.23231007      91.26072241
H      73.77961387      81.18162224      92.86132060
H      74.00449129      81.66728191      89.54107146
H      71.02817235      81.72586342      91.11521348
O      72.13177253      86.16483053      89.65634477
H      72.61743218      87.91282737      89.62988860
C      74.66022632      85.15193723      96.19668754
O      76.45357660      86.79032994      96.92801162
N      74.55629138      82.89749373      97.12454316
H      73.24482133      81.73531205      96.36487318
C      76.63688006      81.72586342      98.65522147
H      78.35653099      82.71985946      98.11287002
C      76.20980191      82.30411967     101.52760547
H      75.57107441      84.26187613     101.50681848
C      74.42401055      80.49565159     103.02237898
H      74.27283243      81.05879003     104.99714298
H      75.21769559      78.59458692     102.97702555
H      72.61365274      80.55612283     102.04161102
C      78.62865159      82.25120734     103.13387283
H      80.18389635      82.78977934     101.89610210
H      78.91211053      80.27833307     103.65543730
C      78.68723311      83.88393087     105.60374512
H      80.58262860      84.14471310     106.36530483
H      77.58552266      82.88615538     107.03048849
H      77.79528228      85.73019348     105.40910331
C      77.04128148      78.98576027      97.78783709
O      75.64099429      77.93129298      96.17968000
N      78.73447626      77.78011488      99.35819966
H      80.00059289      78.63805063     100.49959435
C      78.73636599      75.03623227      99.59630518
H      76.78616844      74.39372533      99.43189899
H      79.75114901      74.46931438     101.29894858
C      79.87020177      73.72854166      97.20769112
O      82.09818909      74.25010613      96.64833213
N      78.36975908      72.34715173      95.72425596
H      76.72758692      71.94275030      96.60297870
C      78.29039058      72.49832983      92.96336582
H      79.59430174      73.97987526      92.36999175
C      79.15210577      69.98499384      91.60654232
H      77.57796375      68.66029569      91.72748481
C      79.39021130      70.44230761      88.70014326
H      81.11175196      71.53078996      88.39967677
H      77.68000898      71.30591253      87.94236300
H      79.62453736      68.53179430      87.97070890
C      81.64465479      69.05524849      92.80273908
H      81.17411293      68.49022032      94.72648047
H      82.97502211      70.62750078      92.83108498
C      82.52904670      66.74411321      91.31741420
H      83.36619545      67.46031948      89.57697626
H      80.92466905      65.59704934      90.72781959
H      83.99736404      65.70287401      92.31707942
C      75.58997168      73.30713270      92.23015201
O      73.76449605      71.95219893      92.99549116
N      75.44635247      75.17985147      90.57286203
H      77.10742190      76.07180229      90.27239555
C      73.17868091      75.80346116      89.09887551
H      72.79128701      74.42774040      87.61355063
H      73.63221522      77.49098675      88.00661370
C      70.81841273      76.27589273      90.68435588
O      68.93813506      76.46864482      89.32564266
N      70.86187644      76.35904069      93.15989735
H      72.54751232      76.14361189      94.02539201
C      68.70947816      76.91839968      94.73214965
H      67.08998271      75.81668924      94.10098106
C      69.14222549      75.71275429      97.36642813
H      70.77116958      76.62927155      98.23381250
H      69.78284272      73.76255674      97.17745550
C      66.90289981      75.45953097      99.11064551
N      66.09976613      73.21453611     100.16511280
H      66.79896487      71.50433379      99.68512231
C      64.07775897      73.63594507     101.73169591
H      62.96659990      72.30935720     102.81072963
N      63.51839999      76.13983244     101.64854795
H      61.91213262      76.91839968     102.32506997
C      65.17380024      77.27366823      99.93456619
H      65.21915366      79.24843222      99.41867090
C      68.20303151      79.87204191      94.95324762
O      69.53339884      81.18162224      96.46313895
N      66.18102436      80.54856393      93.73815361
H      65.13222625      79.06134932      93.15422817
C      65.08687283      83.12237117      93.44902548
H      66.63833813      84.31856792      92.80273908
C      63.04218896      83.20173967      91.39867243
H      61.16002154      82.93717799      92.19424721
H      63.32942735      81.52177298      90.24215993
C      62.75117110      85.55066948      89.54863037
H      64.53885220      85.66972224      88.52817816
C      60.65546462      85.10091462      87.55118966
H      60.57798585      86.62025457      86.16224082
H      58.79975339      85.13303996      88.44880966
H      61.00695371      83.32079243      86.57609088
C      62.39779228      87.97707806      91.10954430
H      61.51906954      87.38748345      92.87643841
H      61.30553047      89.29421730      89.96059071
H      64.19870146      88.87091861      91.55362999
C      64.07775897      84.10313912      95.98125874
O      62.67936151      82.73119782      97.20769112
N      65.06230638      86.22719150      96.93746025
H      66.43046823      87.13614986      95.96614093
C      64.20059118      87.28354851      99.37142774
H      63.73382879      85.74531129     100.66211082
C      66.34921001      88.77076312     100.53738888
H      65.76150512      89.58901461     102.33262888
H      66.76683952      90.35624349      99.29016951
C      68.59798431      87.05867108     101.02115882
H      69.29340360      86.13270518      99.31662568
C      70.68046272      88.83501381     101.76571098
H      71.32863883      90.13892497     100.30873200
H      72.33586297      87.62747870     101.98113978
H      70.26661266      89.83089958     103.51937700
C      67.98004382      85.11036325     102.98269473
H      66.98982722      83.49275752     102.17956105
H      66.74416281      85.79255445     104.48124769
H      69.68268722      84.22408161     103.73291607
C      61.79307986      88.88036724      98.96891604
O      59.99028096      88.67060762     100.47124846
N      61.54363600      90.37892021      96.95824724
H      62.88912113      90.12191743      95.62787992
C      59.32509729      92.02298210      96.44046223
H      57.50340114      91.06678059      96.54061773
C      59.27218496      94.09601187      98.43223377