 %block lattice_cart
   137.614   0.000   0.000
   0.000 142.646   0.000
   0.000   0.000   160.855
 %endblock lattice_cart

 %block positions_abs
N      90.60971733      36.32810327      80.77993396
H      89.43430757      35.62323536      79.44767691
H      90.39806799      35.60055864      82.52982053
H      92.26322787      35.75173675      80.02404344
C      90.37350154      39.13245712      80.96323741
H      91.97976891      39.79386133      82.07250676
C      90.72688036      40.05842302      78.21368563
H      89.31336509      39.31198112      76.91355392
H      92.59581970      39.49339485      77.55417114
C      90.78168243      43.09521320      77.79794584
H      89.10171573      43.76984549      78.78249325
H      90.64940158      43.49394545      75.78160786
S      93.38572530      44.72037783      79.01870904
C      91.76622984      47.68346869      79.94278520
H      93.34604103      48.93635723      80.36419417
H      90.46420842      47.40567892      81.51881695
H      90.75333654      48.61888321      78.41210689
C      87.98110803      39.85811203      82.24825131
O      86.11027898      38.57498786      81.77204027
N      87.86583473      41.86311164      83.77137071
H      89.48533018      42.74561383      84.26080983
C      85.70965700      42.41680145      85.46645522
H      84.36039243      40.87289506      85.28882094
C      86.81136745      42.63411998      88.08183643
H      88.04346900      44.28574078      88.10829260
H      88.02079228      41.08076495      88.69221803
C      84.92353087      43.13489745      90.28336759
O      82.79380930      43.89645716      89.79014902
N      85.86461456      42.64545834      92.73812207
H      84.87250825      43.24261185      94.25557230
H      87.66741346      42.03885619      92.90819744
C      84.38684858      44.80163606      84.44411328
O      85.51312547      46.65734730      83.87719539
N      81.78280573      44.85265867      84.35340642
H      80.87951655      43.19536869      84.62552701
C      80.27291440      47.14300696      83.74491455
H      80.97211314      47.74393993      81.90243139
C      77.51013453      46.42869042      83.45578642
H      77.59328249      44.79407716      82.20478760
C      76.23834872      45.83153690      85.96723269
H      77.34194890      44.55030246      87.14642191
H      74.48846217      44.77329017      85.71400936
H      75.79615277      47.49071660      87.10484793
C      75.96622813      48.48282292      82.07817594
H      75.54859862      50.19113551      83.14965076
H      74.17098814      47.55118785      81.68511286
C      77.18132216      49.43146553      79.52893514
H      78.51735867      48.02172970      78.84107476
H      78.30192986      51.03017399      80.18844962
H      75.78481441      49.80374161      78.06061780
C      80.68676446      49.33697921      85.62141277
O      81.07037890      51.41000898      84.79938183
N      80.83416313      48.98360039      88.13663850
H      80.74156654      47.16001450      88.69032831
C      81.40675020      51.02072536      89.91487096
H      80.04992671      52.57030093      89.83928190
C      81.37273511      50.16089988      92.67954055
H      81.66375297      51.89944809      93.74345647
H      82.91097233      48.87777572      93.16708994
C      78.75168473      49.28028742      93.43732080
C      77.92587432      46.73482608      92.92142552
H      79.19199095      45.44792246      91.96711373
C      75.55615753      45.83720608      93.78503045
H      74.96656291      43.94181059      93.30503996
C      74.07650182      47.48882688      95.18342792
H      72.15087071      47.04663092      95.70121293
C      75.02703417      49.86421285      95.84483213
H      73.91020590      50.90356233      97.20354535
C      77.32116190      50.96025411      94.85461554
H      77.71233525      52.91612085      95.29492177
C      83.95221154      52.24337828      89.27803319
O      84.30181090      54.59230809      89.27614346
N      85.77768715      50.67112599      88.83205778
H      85.28635832      48.83620174      89.02669959
C      88.43464235      51.44213432      88.40120018
H      88.92975064      53.11832156      89.49157226
C      90.19775700      49.24816208      89.13252426
H      92.02512234      50.13822317      88.80182216
H      89.90484942      47.50016524      88.08183643
C      89.94642341      48.35243180      91.82160481
H      91.17852496      46.77073088      92.28458775
H      88.09638134      47.57575429      92.28458775
C      90.37350154      50.54451433      93.58282973
O      88.46676770      51.29662540      94.85461554
O      92.42952377      51.46481104      94.13462981
C      88.79935952      52.31896733      85.69133265
O      90.71932146      53.67390110      85.23023943
N      87.12695174      51.71803437      83.89987210
H      86.01390294      50.23648894      84.35151669
C      87.11372366      52.83864207      81.14465114
H      88.99778079      53.02950443      80.33584828
C      85.38084462      51.19269045      79.38342622
H      83.50434640      50.99804864      80.21301607
H      86.29547216      49.35398675      79.20957139
C      85.10872405      52.38699748      76.64332306
H      86.90774349      52.63266190      75.67200374
H      84.19598623      54.22003200      76.86253131
S      83.10372442      50.43679993      74.74603784
C      82.52735789      52.58163929      72.32340871
H      81.05337137      51.80118232      71.11020442
H      84.30181090      52.87265714      71.31618458
H      81.83193861      54.40900464      72.96780538
C      86.00256459      55.66378291      81.22212992
O      87.24033533      57.34752905      80.28293594
N      83.92764510      55.95858021      82.71123425
H      83.19632101      54.36743066      83.46901450
C      82.89207507      58.50971074      83.19689391
H      82.93931824      59.78905545      81.58306764
C      80.14063357      58.37554017      84.14553652
H      79.42253756      60.25392812      84.59340166
H      80.02724998      57.03383448      85.70456073
C      78.34917301      57.53083251      82.15187526
H      78.61562442      55.48992809      82.12352937
C      75.60718013      57.70468733      82.93233223
H      75.08183623      59.68701023      83.11185623
H      75.28214721      56.56896181      84.61985783
H      74.44499846      56.76171390      81.51503750
C      78.69310320      58.51726964      79.44767691
H      78.70822101      60.57707132      79.39665430
H      77.27391875      57.85019625      78.11164041
H      80.53936581      58.06940450      78.65210213
C      84.81014728      60.07062467      84.79560238
O      84.70432261      62.39876749      84.62930646
N      86.55058521      58.91411217      86.26202999
H      86.17641941      57.04895230      86.42076700
C      88.25889781      60.41455486      88.02892410
H      87.27624013      62.01137359      88.87363176
C      89.19431232      58.74214707      90.10762304
H      89.96721039      56.97336324      89.38952704
H      87.59560387      58.36042236      91.35295268
C      91.20120167      59.90054930      91.96144455
H      90.27901524      61.38020500      93.05937554
H      92.52212036      61.16855566      91.01847112
C      92.41251623      58.05617642      93.75857428
H      93.67674315      59.05584164      95.04358817
H      93.50288833      56.81840569      92.52458300
N      90.59837898      56.47825495      95.09839023
H      90.57003308      54.61687453      94.67887099
C      89.17730479      57.15666670      96.95599120
N      89.10927464      59.43756636      97.93486943
H      88.31747931      59.62464926      99.66207928
H      90.34704537      60.85108164      97.60416733
N      87.70898744      55.47292055      97.87061874
H      86.63751262      55.84519663      99.40507650
H      87.60883195      53.84019702      96.88985078
C      90.34704537      61.47847077      86.40186974
O      91.06136192      63.67622248      86.77603555
N      91.66607434      59.97424863      84.81638936
H      91.03301604      58.17522918      84.74646949
C      93.74288356      61.14020976      83.17799665
H      94.88238854      62.46490791      84.26836873
C      95.57969755      59.25993208      81.96479236
H      97.18974436      60.27282539      81.17299703
C      96.46219973      57.64988526      84.17388242
H      97.13116284      59.06151082      85.51747783
H      98.10437189      56.64077141      83.45389669
H      95.08080979      56.23636998      84.76158730
C      94.08303430      57.56295785      80.10341194
H      93.25911362      58.74781625      78.63320487
H      92.64495258      56.50282139      81.12764360
C      95.69497085      55.63543701      78.68800693
H      94.49121519      54.10286897      78.01715409
H      97.11226559      54.62065398      79.78593792
H      96.48109700      56.60864606      77.04961422
C      92.58637106      62.67277780      80.96701687
O      93.96209181      64.34329586      79.93522630
N      90.09382206      62.47624627      80.34340718
H      89.09415683      61.05139263      81.12197442
C      88.89384585      64.44912054      78.65210213
H      90.11460904      64.60974727      77.00048133
C      86.46932698      63.26426214      77.63542938
H      84.91975140      63.68000193      78.92800217
H      86.76601401      61.34241048      76.95323818
C      85.53580218      64.61163700      75.22791805
O      86.79247018      64.26959654      73.20591090
O      83.52702311      65.90232007      75.34886054
C      88.42519371      67.14953944      79.75948175
O      89.43430757      68.93911026      78.89965628
N      86.90963321      67.14764971      81.80416562
H      86.12161735      65.53571317      82.44856229
C      85.87217347      69.46256445      83.05516444
H      85.53769191      70.95922769      81.67755396
C      83.33805048      68.85218285      84.37419341
H      83.65741424      67.20812095      85.57416962
H      82.07193385      68.08873342      82.93800141
C      81.96232973      70.98001467      85.71400936
H      83.35883748      72.25746966      86.53037113
H      80.76424325      70.06160769      87.11240684
C      80.55070417      72.35951488      83.40854326
O      78.58538880      71.44866680      82.42399585
O      81.36706594      74.23601311      82.49202600
C      87.64662648      70.63041531      84.99780309
O      88.24377999      72.92076360      84.76914621
N      88.55936429      69.01658904      86.73824103
H      88.03402037      67.18355451      86.76847665
C      90.74388790      69.55705076      88.35584675
H      92.24055114      70.65687148      87.46767538
H      91.41663047      67.73535460      89.04370713
C      90.08437342      71.21434074      90.53470119
O      87.97732858      72.10629156      91.01658140
N      91.94953329      71.65275724      92.18254253
H      93.68430204      70.98757358      91.74034658
C      91.58859556      72.99257320      94.67509154
H      89.56280895      73.04737526      95.03980872
C      93.02100812      71.51858667      96.76512884
H      95.00711046      71.76236137      96.26813082
H      92.54101762      69.53248432      96.52324387
C      92.64684230      72.26502857      99.58460050
H      92.92841153      74.28703572      99.84727246
C      89.84437818      71.91164975     100.41608008
H      88.83337461      73.38185682      99.38428951
H      89.49477882      72.10818128     102.43619751
H      89.13006164      70.06160769      99.86050054
C      94.43263366      71.08394962     101.39873776
H      93.64839724      69.19989249     101.68030698
H      94.51767136      72.17243198     103.14295515
H      96.32802917      70.90631535     100.61261162
C      92.40495733      75.74023526      94.79981348
O      94.63861384      76.41675728      94.14218872
N      90.69664475      77.33327454      95.53491701
H      88.94297873      76.63407580      95.81648623
C      91.06892084      79.97133247      96.31915343
H      93.04557456      80.51179420      96.52513360
C      89.71965624      81.74389575      94.39163259
H      89.86516516      83.73188784      94.90563815
H      87.74111279      81.17508813      94.25368257
C      91.15206878      81.68720396      91.87829660
H      91.33726196      79.71810915      91.30381980
H      93.12116360      82.27868830      91.99734935
C      89.91051860      83.30291996      89.78070039
H      91.52434487      83.92086047      88.66009269
H      88.91274311      84.88462089      90.64808477
N      88.31747931      81.71366013      88.20844810
H      87.76756896      80.04125235      88.94355163
C      87.33860108      82.11995129      86.00313749
N      87.36505725      84.29124682      84.79938183
H      86.26712627      84.52557289      83.25547543
H      88.41196564      85.75956417      85.42299151
N      85.99689541      80.51746338      84.97701610
H      85.31659394      80.98800523      83.25736516
H      85.65296521      78.83371723      85.81038541
C      89.82170147      80.20187908      98.82115107
O      87.48222028      80.09983386      99.14807372
N      91.32025443      80.69131820     100.87150412
H      93.21376019      80.59683188     100.64851642
C      90.58893034      80.97477714     103.53979767
H      89.16785617      79.57071049     104.03490597
C      92.85282247      80.34927773     105.23299245
H      92.28212512      81.22422102     107.00933518
H      94.53845834      81.37161967     104.63772866
C      93.74666301      77.59594650     105.42007536
H      94.23043295      76.78336418     103.59082028
C      96.13905653      77.48067319     106.97154066
H      97.65839648      78.23467399     105.80368980
H      96.60770865      75.54748317     107.51578184
H      95.95764280      78.52947130     108.73276558
C      91.69630996      75.98967913     106.55202142
H      92.47865667      74.09995282     106.79768584
H      90.00878436      75.77991951     105.39172946
H      91.13695098      76.72856212     108.39072512
C      89.28690891      83.49567205     104.04624433
O      88.00945393      83.74322619     105.91329392
N      89.72532542      85.52334838     102.46643313
H      90.58326116      85.11705722     100.81103288
C      88.32125878      88.01211793     102.72343591
H      87.62583949      88.25778235     104.64528757
C      90.09760151      90.23065663     101.98266319
H      88.93541982      91.92196168     101.83337481
H      90.64562213      90.11727305     100.00034029
C      92.07614496      90.84670740     103.96876555
H      93.14195059      89.17429962     104.52056563
H      91.01411876      91.42874311     105.63550416
C      93.77500892      92.84981730     103.12783734
H      92.60904777      94.27467094     102.19809199
H      95.00522075      91.92196168     101.75967549
C      95.20742146      93.94207910     105.45220070
H      95.96898117      92.29801721     106.43485839
H      93.89973084      94.56757851     106.91295914
N      97.12171421      95.84503350     104.66796428
H      98.23665273      96.52344525     106.05880285
H      96.01622432      97.19996727     103.90640458
H      98.19129931      95.15339367     103.24877982
C      86.03468994      87.93463916     100.97543907
O      86.38995848      86.97087874      98.81359217
N      83.97110879      89.06469549     101.80502892
H      83.99000607      89.62405448     103.63050454
C      81.81304135      89.82625519     100.39340336
H      80.85683984      88.09904534      99.80569848
C      80.02536025      91.47031709     101.93353031
H      79.69465815      90.33270185     103.61916618
C      81.23100564      93.91562294     102.86894483
H      83.07537853      93.74176811     103.77223401
H      79.95921983      95.08158407     103.99522172
H      81.44832417      95.05512790     101.16819115
C      77.39486123      91.83125481     100.56725818
H      76.64841933      89.93963877     100.23844581
H      77.61595920      92.75533098      98.73989284
C      75.47678903      93.22398311     102.09793650
H      73.53792982      92.98587759     101.44220147
H      75.93977196      95.20630601     101.77857275
H      75.57505479      92.59848370     104.05947241
C      82.79002986      91.14339443      97.94242834
O      84.37739996      92.84792757      97.99156122
N      81.75823929      90.39884227      95.79380952
H      80.54314526      88.96642972      96.13018080
C      82.26468594      91.12449717      93.19543584
H      83.36450665      92.86682483      93.22000228
C      84.04102867      89.23477086      91.88207605
H      85.64162686      88.88139204      93.12929542
H      84.68731508      90.12672168      90.14352784
C      83.03002509      86.54946977      91.50413079
C      82.15886126      85.86160939      89.10228864
H      82.00390370      87.29969111      87.66420692
C      81.57493584      83.43520080      88.48812759
H      80.89463437      83.01757129      86.60784991
C      82.01524206      81.47744434      90.20399908
O      81.40675020      79.13418372      89.38574759
H      80.80203778      78.96788780      87.68310418
C      82.95065659      82.04247251      92.61151041
H      83.27379980      80.53636064      93.95132636
C      83.41174981      84.60494139      93.31448859
H      84.18275814      84.99989419      95.16075120
C      79.79670337      91.74243768      91.71955959
O      77.68965853      91.34370542      92.65497411
N      80.21244316      92.67974193      89.33850443
H      81.99256535      92.98398786      88.72245365
C      78.28870177      92.84036866      87.33728427
H      76.41976245      92.16195692      87.87585627
C      77.85217499      95.51244167      86.35273686
H      76.45944671      95.62960470      84.84095581
H      79.57938484      96.07558011      85.37952781
C      76.99045979      97.42106525      88.35206730
H      78.30948876      97.71964200      89.90542233
H      75.34639791      96.85225763      89.45755719
C      76.49535151     100.01376975      87.02736915
H      76.33472477     101.49531518      88.45033306
H      74.62830191      99.91172453      86.15620532
C      78.63074223     100.85280823      85.34929219
H      78.90664229      99.69629573      83.66743577
H      80.23700960     100.63737943      86.62107799
N      78.28303259     103.45685109      84.72568250
H      77.54981878     104.57745879      86.08628545
H      77.00368789     103.64015454      83.31783640
H      79.86284380     104.39793479      84.21356667
C      79.12962998      91.24166020      85.07150242
O      81.36517621      90.98465742      84.59529139
N      77.42320713      90.02278673      83.76381181
H      75.60340068      90.11160387      84.34017833
C      77.78414485      88.50344678      81.52637585
H      79.68898898      87.72298981      81.43755872
C      76.16464940      85.98255187      81.41866145
H      74.39208611      86.25845192      80.41143733
H      75.79048359      85.37028055      83.35185147
C      77.65186400      83.89251457      80.05238933
O      77.78036540      83.97566253      77.67889308
O      78.58916826      81.99144990      81.16165868
C      77.49879617      90.34404020      79.20768167
O      76.99423925      92.60415287      79.42877965
N      77.79548320      89.36327225      76.86064159
H      78.10539832      87.48299457      76.78316281
C      78.14508258      90.90150947      74.61564673
H      79.88929996      91.97109456      74.85375224
C      78.67420594      89.33114690      72.23837103
H      77.03014405      88.26912071      71.59019490
C      79.36962522      91.07347456      70.08219330
H      80.32771646      89.81869629      68.76316434
H      80.74723570      92.51344601      70.60375776
H      77.65564346      91.93141031      69.32630278
O      80.69621310      87.62283431      72.69001561
H      80.65085966      86.33026152      71.41822981
C      76.00024321      92.70052892      74.08085418
O      76.29881996      94.97386967      73.64810686
N      73.66265176      91.75188631      74.54383713
H      73.40186954      89.93963877      75.08807831
C      71.23435346      93.18618858      74.23581174
H      71.54993774      94.47120247      72.65600054
C      68.98935859      91.36449241      73.74826235
H      68.29771876      90.78434644      75.60019414
H      69.79060254      89.97932303      72.45191010
C      66.68200276      92.35281927      72.26104774
H      65.61619712      93.56413384      73.54228218
H      65.55950533      90.71820601      71.69790930
C      67.51537207      93.76822428      69.71747612
O      68.69456128      92.44919532      68.12254712
O      67.08640420      96.12282327      69.39055347
C      70.76381159      94.78489704      76.66788950
O      68.59818524      95.22142382      77.35574988
N      72.70456053      95.68629649      78.03227190
H      74.49413133      95.26299780      77.52393552
C      72.43243994      97.13382685      80.38120171
H      71.00947602      98.57190857      79.98813864
H      74.17476759      98.02766739      81.02937783
C      71.39498018      95.65228142      82.69422672
O      71.39875964      96.78044803      84.77103593
N      70.47279375      93.22776256      82.47123901
H      70.68444309      92.42840833      80.75158807
C      68.94022570      92.19408226      84.65387290
H      67.71379332      93.73042976      85.26425450
C      67.22435422      90.03034564      84.02081459
H      66.43444862      89.52200926      85.85384911
H      68.39787426      88.54502075      83.20823227
C      65.36864298      90.38939364      81.96479236
C      64.38976475      88.29179743      80.80827986
H      65.03794086      86.40585057      81.23724773
C      62.74192340      88.76044955      78.75792681
H      62.12776235      87.12394657      77.70156980
C      62.13343152      91.14906361      77.93211641
O      60.47992101      91.39850749      75.91766816
H      60.30039701      93.18996803      75.68901127
C      62.81184328      93.24665982      79.36452895
H      62.09185754      95.03056146      78.68044803
C      64.43889762      92.82903031      81.36196966
H      64.95857236      94.46553329      82.46556983
C      70.78648831      91.35882323      86.86296296
O      72.54393378      89.97554357      86.37163412
N      70.06839231      91.98054319      89.21945167
H      68.34307219      92.79312551      89.28748182
C      71.55749665      91.59314930      91.48901298
H      73.54548873      92.13928020      91.41342392
C      70.64097938      93.25799818      93.64330097
H      71.54993774      92.48510012      95.32137794
H      68.59629552      93.22587283      93.87195786
C      71.67088023      95.99999106      93.41653382
C      69.95122928      97.66106049      92.21655761
H      68.11063585      97.23398234      91.44176982
C      70.84884929     100.14227114      91.94254729
H      69.53359976     101.50098436      91.17720813
C      73.08439551     100.95107400      93.07827281
O      73.53792982     103.47007917      93.34850367
H      72.57605913     104.45840604      92.17120418
C      74.68688343      99.15016482      94.33116135
H      76.29504051      99.88148891      95.35350329
C      74.00280249      96.67840281      94.50690590
H      75.11585129      95.49921359      95.74656636
C      71.76725627      88.75667010      92.29592611
O      69.83406625      87.49244320      92.37529462
N      73.84784494      87.92330080      93.31826805
H      75.30293420      89.15918181      93.34661394
C      74.31271761      85.28524286      93.50157150
H      72.52881598      84.30636463      93.81904552
C      75.33316982      84.30825436      90.87485192
H      77.30604410      84.82037019      90.57438544
C      75.15364582      81.40185529      90.72745327
H      73.21100717      80.88973946      90.27958814
H      76.05693500      80.50234557      92.34505900
H      76.34039395      80.86517302      89.13063454
O      73.72312301      85.16807983      88.84339614
H      74.17665731      86.81781090      88.24435290
C      76.15709049      85.07926270      95.65396977
O      77.55359825      86.81214173      96.31915343
N      76.21189255      82.84938565      96.74245213
H      74.90231223      81.55303340      96.24545411
C      78.08083188      82.00845744      98.57359692
H      79.79670337      83.14796240      98.50556678
C      77.04715158      82.37884379     101.20031650
H      76.59550701      84.38951259     101.16252197
C      74.59806629      80.82359904     101.83148509
H      74.95711429      78.79592271     101.75211658
H      72.99746810      81.17886759     100.58237599
H      74.00091278      81.53791559     103.66829906
C      78.96522379      82.00089853     103.41696546
H      79.89685886      80.18676127     103.11649898
H      78.12051614      82.08215676     105.29535342
C      81.04203302      84.06447967     103.58137165
H      82.32704691      83.83015360     101.98644264
H      82.02091124      83.93597828     105.38983973
H      80.18220754      85.93530872     103.62294563
C      78.96711353      79.17953715      98.12762151
O      77.83894691      77.59027732      96.76323912
N      81.30848443      78.59939117      98.90240930
H      82.39318732      79.95432494      99.69609435
C      82.37240033      76.05959900      99.19342715
H      80.93809806      74.99001391     100.21387936
H      83.98433689      76.20699766     100.46899242
C      83.09616551      74.79348237      96.70276787
O      84.84227262      75.79125787      95.51224030
N      81.75634956      72.77903412      96.24545411
H      80.40897469      72.11951964      97.42464333
C      81.84138724      71.16898731      93.96833390
H      83.22655663      72.00046688      92.69087891
C      82.68042572      68.52337047      94.73934223
H      81.06470973      67.65787582      95.67475676
C      83.05081209      67.25725384      92.16553500
H      81.34627896      67.07206066      91.02414030
H      83.63662724      65.33729190      92.62473849
H      84.56448287      68.06794643      91.02980948
C      85.16919529      68.46100950      96.19254177
H      84.83471373      68.95800752      98.16163659
H      86.35972286      69.95011383      95.41397453
C      86.57326194      65.81350294      96.35883768
H      88.00945393      65.95901186      97.82526530
H      87.77890732      65.65476592      94.69776826
H      85.38840353      64.16188214      96.69331924
C      79.34316906      71.34284213      92.49434737
O      77.58005440      69.86318642      92.70410700
N      79.05404094      73.35162120      90.98823550
H      80.36551099      74.73490086      91.03736839
C      76.95644472      73.70688974      89.22701058
H      76.50291042      72.14975526      87.95711450
H      77.46856055      75.25835505      87.97412203
C      74.25791555      74.41175766      90.27580868
O      72.36063033      74.11507063      88.98701534
N      74.16342923      75.30559821      92.68332001
H      75.82071921      75.63063113      93.56960165
C      71.61607817      75.63819004      93.88707567
H      70.20067316      74.42687547      93.01213238
C      71.67654941      74.97300637      96.68765006
H      72.53637487      76.38652166      97.91408244
H      72.55338242      73.13619240      97.00323436
C      68.82873186      74.72734195      97.60038787
N      67.39442958      72.52770053      97.76479406
H      67.97457556      70.82883657      97.11472821
C      65.43667312      72.99446292      99.17641962
H      63.74347834      71.86251686      99.32192854
N      65.24770050      75.56827016      99.62050530
H      63.77749341      76.37518330     100.53324311
C      67.42466520      76.69076759      98.59816337
H      67.99536255      78.61639871      98.95910109
C      70.68444309      78.38018292      93.52046876
O      71.28915552      80.15085647      94.95666076
N      68.99313804      78.77513572      91.81215618
H      68.45834550      77.44287867      90.55359845
C      67.37553232      81.14674224      91.57971984
H      68.59251606      82.76056851      91.18854649
C      65.57840260      80.64785449      89.23267976
H      64.39921337      78.96032889      89.28559210
H      66.67444385      80.29069622      87.52625690
C      63.54316736      82.84182674      88.86607285
H      62.14665961      82.73033289      90.37407445
C      64.42000036      85.56492236      88.69410776
H      62.75893093      86.76867802      88.49757622
H      65.57462315      85.79168952      87.00469244
H      65.62942520      85.93341899      90.31927239
C      61.92178217      82.23711432      86.45667180
H      61.00148546      83.99078034      85.89353336
H      60.63487857      80.66864148      86.81194035
H      63.17845017      81.53413613      84.98268528
C      66.01870883      81.83460262      94.02124624
O      64.20268183      80.56281681      94.77146758
N      66.83696031      83.92275019      95.19476628
H      68.09173859      85.06036543      94.31415381
C      65.61052795      85.43831070      97.15441246
H      64.78282781      84.37061533      98.70776749
C      67.50025426      87.15229246      98.38273457
H      66.46468423      88.24266454      99.78869094
H      68.24858588      88.36171730      96.89174051
C      69.69044705      85.80680733      99.84916218
H      70.65609720      84.51801398      98.56225857
C      71.54048911      87.99322067     100.55403010
H      70.47657320      89.18374825     101.85605153
H      72.39275568      88.81525162      98.86461478
H      73.13919757      87.16552055     101.55369532
C      68.78715787      84.32337217     102.24911460
H      70.31405673      84.12117146     103.61538673
H      68.17488654      82.47333011     101.57826176
H      67.19978778      85.38917781     103.02012294
C      63.28427485      86.81214173      96.05648147
O      61.07140534      86.22632657      96.53647196
N      63.58474133      88.79068517      94.51635453
H      65.38376078      89.12894618      93.98156198
C      61.48336567      90.25711279      93.31826805
H      59.86953940      89.04579823      92.90441798
C      60.48559018      92.33392201      95.24011971