 %block lattice_cart
   137.614   0.000   0.000
   0.000 142.646   0.000
   0.000   0.000   160.855
 %endblock lattice_cart

 %block positions_abs
N      88.17291525      42.53774394      77.29149918
H      86.96726986      43.04041114      75.90066061
H      87.64568162      40.76518066      77.76015130
H      89.94736826      42.50183914      76.59230045
C      88.04630360      44.01362019      79.67255434
H      89.14612431      43.12166937      81.16921758
C      89.20281610      46.67435484      79.29271934
H      87.97827345      47.98204545      78.27415687
H      90.95459239      46.61010414      78.21179589
C      89.60343808      47.97448654      81.85140878
H      90.47271219      46.78773842      83.29326995
H      87.65701997      48.46392566      82.31250199
S      91.39678835      50.92623904      81.76259164
C      94.53751347      49.87555121      82.73958014
H      95.66190063      51.59898161      82.66588082
H      95.57686295      48.50738936      81.60385464
H      94.55263129      49.35776620      84.73324141
C      85.39501757      44.01739964      80.72891135
O      83.66213855      43.72449206      79.20012277
N      84.96604970      44.20448255      83.31783640
H      86.29641703      43.69236672      84.58584275
C      82.57932537      44.87722511      84.55749686
H      81.12801556      43.74149960      83.63908986
C      83.01018297      44.38022709      87.40153495
H      84.40480099      45.76728621      88.01380628
H      83.86055981      42.54530284      87.79081858
C      80.72361413      44.62211206      89.16653934
O      78.88680016      45.90334650      88.84150640
N      81.16769981      43.45048175      91.28492253
H      79.59166808      42.90813030      92.21277815
H      82.79853363      42.50561859      91.57783012
C      82.01996639      47.63622553      84.19466941
O      83.55631388      49.23493399      84.83906608
N      79.64647013      48.24660713      83.48602203
H      78.49751653      46.79340760      83.03626718
C      78.60145149      50.86954725      83.42933024
H      79.37623927      51.89188919      81.81550398
C      75.81221544      50.75805340      82.67910890
H      75.54009486      49.46170115      81.10118743
C      74.21728644      49.72626283      84.92032431
H      72.29921423      49.31808195      84.29293517
H      74.25886041      50.97915138      86.55493757
H      75.14325232      47.95747901      85.42110178
C      74.87680091      53.26760994      81.80038616
H      74.83522694      54.45435807      83.48224258
H      72.91526501      52.85564961      81.32795458
C      76.07866685      54.54695466      79.52515568
H      76.91392588      53.10509348      78.31573084
H      77.45816706      55.76960758      80.44734213
H      74.68215911      55.80551238      78.68989666
C      79.11545703      52.40967420      85.84629021
O      79.69182356      54.59230809      85.60440524
N      79.10600841      51.30796376      88.01569602
H      78.69215834      49.44280389      88.03459327
C      79.82599414      52.62132355      90.46100186
H      78.81310082      54.41089436      90.58005461
C      78.92081523      50.74482532      92.58316451
H      80.00929759      49.01761547      92.30348502
H      76.90636697      50.39900540      92.32994118
C      79.25529679      51.54417955      95.24200943
C      77.35612184      52.75171466      96.58182539
H      75.48151333      52.97848182      95.80514787
C      77.70761093      54.04428746      98.86650449
H      76.39236142      55.37276506      99.68853545
C      80.13024007      53.78161550     100.14773894
H      80.51385451      54.55262384     101.99778101
C      82.06343008      52.34920296      98.92319628
H      83.86055981      52.03739811      99.83782382
C      81.57777043      51.23993361      96.47222127
H      83.08766174      50.26861429      95.49901221
C      82.78908499      53.35831681      90.68209984
O      83.73772761      54.60553617      92.39419187
N      84.34621947      52.51927832      88.86040367
H      83.61111593      51.26450005      87.62452267
C      87.13545551      53.10887293      88.51458375
H      87.90646384      54.27105462      90.03203398
C      88.54708107      50.59553694      88.51836320
H      90.56341904      51.01127673      88.46734059
H      87.89701522      49.56374637      86.85729378
C      88.15401800      49.20469837      90.93721289
H      86.44759514      48.05574477      91.00524304
H      88.06898032      50.56341159      92.48300901
C      90.30452654      47.21103711      91.14130334
O      91.99961104      47.66268170      92.67954055
O      90.38011560      45.28729572      89.78259012
C      87.56820283      54.51482931      86.14864642
O      89.32753804      56.05873571      86.10140326
N      85.97516355      54.27483407      84.17955159
H      84.69392912      52.87454687      84.37986259
C      86.00917863      55.83952746      81.86463686
H      87.82331588      55.42567739      80.98591412
C      84.04575299      54.84364169      80.00514617
H      82.17870340      54.88332594      80.88008945
H      84.46149278      52.84242152      79.74625367
C      83.76607350      56.08897133      77.44834646
H      85.48761416      55.89999870      76.33151821
H      83.57521113      58.11853739      77.73936432
S      81.20927380      55.17812325      75.55106126
C      82.70971649      55.42000822      72.48781490
H      82.90435830      57.33997015      71.76782918
H      81.53430672      54.58663891      71.01760782
H      84.52007430      54.43924026      72.47080736
C      85.51218060      58.65710939      82.30494309
O      87.12600689      60.19345688      81.60574436
N      83.53741662      59.47725061      83.74680427
H      82.14657805      58.23381070      84.14931598
C      83.07443366      62.19278732      84.08128583
H      82.89113022      63.14709911      82.26525885
C      80.53464150      62.65199081      85.31149766
H      80.12268116      64.66832879      85.33606410
H      80.75951893      61.81862151      87.18043699
C      78.35956652      61.38587419      83.95845361
H      78.98317619      59.61331090      83.11563569
C      76.09000521      60.69801381      85.74046552
H      76.92148479      59.50559650      87.19933424
H      74.50074538      60.00637398      84.63119618
H      75.52497705      62.42900311      86.70800540
C      77.15014168      62.89387578      81.72857656
H      75.74985448      61.94523317      80.55316680
H      78.55798777      63.23780597      80.26592841
H      76.47172993      64.74769730      82.30872254
C      85.12289699      63.63275877      85.35118191
O      85.18336823      65.83617965      84.88064005
N      86.80664314      62.37042159      86.70800540
H      86.57987597      60.47880556      86.62107800
C      88.92880579      63.30772585      88.23301453
H      88.26929129      64.91399321      89.34039416
C      89.81130798      61.15343785      89.93754767
H      91.62733496      61.59563381      90.80493204
H      90.12311282      59.53961158      88.69788721
C      87.83465424      60.56951242      92.05215141
H      85.91847176      60.04794796      91.50791023
H      87.75906520      62.26459692      93.21811256
C      89.03652019      58.39821688      93.63385234
H      90.85821634      59.04639301      94.35194834
H      89.02896128      56.88265638      92.24112404
N      87.32442815      57.73870240      95.63318277
H      86.32287319      56.12865558      95.40074645
C      87.20348566      58.67789638      97.95754615
N      88.55086052      60.61108640      98.53580239
H      88.46960229      61.31028513     100.31025540
H      89.48816478      61.67122286      97.25456795
N      85.85044161      57.48925853      99.56003405
H      86.16224647      58.03916888     101.36283295
H      85.01896204      55.78283567      99.36161280
C      91.03963007      64.26959654      86.47934851
O      92.69125088      65.67744264      87.29004111
N      91.25127943      63.14709911      84.26458927
H      89.95303745      61.86586467      83.70523030
C      93.10888038      63.90865881      82.24447186
H      94.32775385      65.36941725      83.03626718
C      94.90412038      61.83184960      81.40543336
H      95.97748494      62.56506340      79.80861463
C      96.77872888      61.09863579      83.38397682
H      95.86410136      60.53738707      85.14331201
H      97.84453453      62.77293330      83.93388717
H      98.08264005      59.64921570      82.72257261
C      93.70981335      59.29583688      80.62119695
H      92.32086452      58.91600189      82.09329375
H      95.17435124      57.84830653      80.55316680
C      92.35865904      59.43000745      77.94345477
H      91.20214653      61.10808442      77.64487801
H      91.25316914      57.71791541      77.64109856
H      93.74571815      59.39599238      76.42222509
C      91.84654321      65.16154736      79.90121122
O      93.11265983      66.31239068      78.29683359
N      89.35021475      65.30327683      79.70656941
H      88.25795294      64.20723557      80.82339766
C      88.05197277      66.49002496      77.61275266
H      89.37667092      66.83017569      76.07451543
C      85.97705329      64.62486509      76.65655115
H      84.71471611      64.19967667      78.22880344
H      86.81420203      62.82584564      76.10475106
C      84.65046542      65.42799877      74.22825284
O      86.05264234      65.97979885      72.46891763
O      82.25996162      65.70389881      74.09786171
C      86.74050271      68.93533081      78.19667809
O      86.78585614      70.71545299      76.74725800
N      85.51407034      69.12808289      80.33206882
H      85.41958401      67.55772032      81.40921282
C      84.75817982      71.50346887      81.60952381
H      84.36322702      72.87352044      80.12230920
C      82.44893426      71.14631059      83.30082885
H      82.79664389      69.83861998      84.85418388
H      80.83888744      70.38664061      82.26336911
C      81.82154511      73.66909522      84.63119618
H      83.44104057      74.35128642      85.70456072
H      80.62345863      73.00013210      86.16943341
C      80.69715797      75.62118250      82.86052262
O      78.38980213      76.11818052      82.99469319
O      82.15602667      76.94021147      81.45078679
C      87.00128495      72.54092861      83.16098912
O      87.88945631      74.55915631      82.73202123
N      87.86300015      70.82505712      84.88252979
H      87.28663361      69.00525068      84.79938183
C      89.37478119      71.51480722      86.93855201
H      90.62011083      73.06816225      86.41509783
H      90.60310330      69.87263506      87.13319383
C      87.88756659      72.13085800      89.24590785
O      85.60477719      72.07983539      89.47456472
N      89.30297160      72.82816701      91.24901773
H      91.14734448      73.23823762      90.96933824
C      88.56408860      73.06249307      93.86628867
H      86.54019172      73.20611227      94.21966750
C      89.41446544      70.79860095      95.53680673
H      91.43836233      70.63608449      95.18153818
H      88.35621872      69.11107535      95.01713201
C      89.20470582      71.11796470      98.42052908
H      90.16279707      72.85651291      98.97421890
C      86.45137458      71.29937842      99.39751760
H      85.21360386      69.67043434      99.15752235
H      85.44792992      72.54848752      98.10494479
H      86.32854238      71.86629632     101.37417132
C      90.66546426      69.09028836      99.75089641
H      90.43113820      69.16020824     101.79558028
H      92.63266935      69.45878499      99.26712647
H      90.12500253      67.23835658      99.02902097
C      89.81508743      75.53614482      94.53903124
O      92.14323025      75.72889690      94.72233470
N      88.17669471      77.36728961      95.26468615
H      86.33232183      76.99879298      94.93398404
C      88.92691605      79.78802902      96.52324387
H      90.94514376      79.73322696      96.93709394
C      88.71715643      82.16530472      94.74690114
H      89.22927226      83.83771251      95.83349376
H      86.73483354      82.41663832      94.24990311
C      90.45381492      82.03869306      92.50946519
H      92.20181175      81.01257167      92.87796181
H      90.94514376      83.94542691      91.90097331
C      88.93069550      80.93887235      90.33061075
H      87.38111993      82.18420199      89.79581820
H      88.27118103      79.04158713      90.79170397
N      90.51806562      80.47966885      88.12152069
H      92.40590220      80.75178944      88.18577138
C      89.78674152      79.37228923      86.00124776
N      87.38867884      79.04725631      85.45889630
H      87.10333016      78.07593698      83.84129058
H      85.99217110      79.19843441      86.75335884
N      91.37222191      78.46711033      84.49702562
H      90.66546426      77.25768549      83.19878364
H      93.25249959      78.76757681      84.60474002
C      87.49450351      79.90519205      99.09705111
O      85.17391960      79.60661530      99.12539700
N      88.98360784      80.64974422     100.94520345
H      90.82798073      80.19809963     100.74111300
C      88.08031866      80.58360380     103.69097577
H      86.31909375      79.53102624     103.87427923
C      89.98327306      79.40252485     105.46920823
H      89.23116200      80.06392906     107.26822768
H      91.80118978      80.30203458     105.09693215
C      90.15145871      76.51502305     105.01945338
H      90.23460667      76.05770928     103.01256403
C      92.32842342      75.39063589     106.40462276
H      94.01027984      76.32038124     105.66385005
H      92.51928578      73.47067396     105.69219595
H      91.98260351      75.30181875     108.43229909
C      87.64757134      75.29048040     105.71487265
H      87.68914532      73.25902461     106.03990559
H      86.34554991      75.69299210     104.16907653
H      86.87089382      76.14841614     107.41940579
C      87.14490414      83.28213297     104.36938753
O      85.34777442      83.45976725     105.78857199
N      88.15023855      85.21910244     103.11649898
H      89.88689702      84.89406952     102.39084407
C      87.25261854      87.79668914     103.30358188
H      86.44759514      87.92330080     105.19330819
C      89.43903188      89.66751819     103.46042916
H      88.59621395      91.46653764     104.01222925
H      90.55208068      89.51067090     101.73510905
C      91.40623698      88.94942219     105.57692263
H      91.80307950      86.95765065     105.23110272
H      90.47838136      89.12705646     107.40617771
C      93.91957297      90.27601006     105.44653153
H      94.27673125      90.85426631     103.50200315
H      95.46536909      89.17618934     106.24966521
C      93.69091610      92.83847894     106.74666322
H      93.26383795      92.58525561     108.74410393
H      92.19992204      93.96853527     105.88305830
N      96.03417672      94.23498668     106.51989607
H      95.90189588      95.88471776     107.46853867
H      96.58408708      94.79434567     104.77945813
H      97.33808788      93.12004816     107.35515509
C      85.31942853      88.38628375     101.24378021
O      85.65202035      87.63417267      99.18775798
N      83.33710562      89.94341823     101.70865288
H      83.00451380      90.80891288     103.37539148
C      81.45115877      90.83158959      99.83404437
H      80.85778471      89.26122703      98.64162706
C      79.14191321      92.31502475     101.16252198
H      78.54286996      91.07347456     102.69509000
C      80.13401953      94.66017510     102.40596189
H      79.13813376      95.19118820     104.12750256
H      80.06032020      96.21353013     101.05480758
H      82.06531982      94.57135797     103.11838871
C      76.80054230      92.69108029      99.45798884
H      75.94638602      90.84670740      99.11783809
H      77.32588623      93.64917153      97.71377144
C      74.73885090      94.25766340     100.60505270
H      73.16470888      94.28600929      99.27657511
H      75.48151333      96.10959519     101.11716853
H      73.93382748      93.22587283     102.19242281
C      82.60389181      92.65895494      97.81770639
O      83.99095092      94.46175384      98.45265443
N      81.92170061      92.22620761      95.39129782
H      80.85022580      90.67663204      95.09272105
C      82.98372681      93.33925641      93.02158102
H      83.64324128      95.21008546      93.58282973
C      85.17580932      91.70464315      92.13151992
H      86.22649716      91.50811161      93.89274485
H      86.26996087      92.79312551      90.76713753
C      84.34432975      89.25744758      91.37562940
C      84.28385851      88.76422901      88.89063929
H      84.81109215      90.23065663      87.57350006
C      83.38056933      86.33782042      87.98923984
H      83.30875972      85.99955941      85.97857104
C      82.53397194      84.44431466      89.63708118
O      81.55887316      82.20687870      88.85473450
H      81.93492869      81.80058754      87.12563492
C      82.78341582      84.90918733      92.26191103
H      82.12390132      83.61661453      93.69810304
C      83.69048445      87.24677878      93.07260362
H      84.14401875      87.48299457      95.04925735
C      80.85778471      93.54712631      91.18287732
O      78.67326109      93.12004816      91.75924384
N      81.26974503      94.26711203      88.72623311
H      83.00640351      94.86804500      88.21222754
C      79.26852487      94.43718740      86.70422594
H      77.41092391      93.84759279      87.36940961
C      78.85656453      97.07902479      85.73101690
H      77.44871843      96.92784668      84.23435366
H      80.65747372      97.93507080      85.21323188
C      77.68682395      98.82513190      87.66042746
H      79.10033922      99.07268605      89.13630371
H      75.81977435      98.04656466      88.04971109
C      77.26919444     101.53310970      86.64564444
H      76.46417103     101.24587131      84.76914620
H      79.11734677     102.38915572      86.35084713
C      75.39836539     103.08646473      88.24813234
H      76.40936895     102.74820372      90.00935728
H      73.64469937     102.01310019      88.38608236
N      75.36812976     105.72452267      87.39019660
H      74.50263510     105.84357542      85.69322238
H      77.13502386     106.44828785      87.39775550
H      74.37602344     106.69206254      88.70544612
C      80.05465101      92.88761182      84.25325093
O      82.24862326      92.75533098      83.65987685
N      78.05910004      91.97676374      83.09484869
H      76.43582513      92.40006243      84.00569677
C      78.16114526      90.79568479      80.57773324
H      79.88835510      89.68452572      80.42277569
C      76.09945384      88.91540711      80.53804899
H      74.43082551      90.09459633      80.79883122
H      76.20905798      87.36205208      81.88731358
C      75.77820038      87.68141583      77.93967531
O      77.33722457      86.06192038      77.24236630
O      74.03020353      88.35226867      76.52804976
C      78.20271923      92.70997755      78.30439248
O      77.53186639      95.02678201      78.73525008
N      78.82632892      91.85204180      76.03861063
H      79.38379818      90.06625044      75.65877564
C      78.68081998      93.38838930      73.75582126
H      79.93370853      95.01355393      73.93912471
C      79.87323729      91.95786648      71.50893666
H      79.86567838      93.17107077      69.84408778
C      82.52263358      90.99221633      72.08341347
H      83.84544200      92.56635835      72.22136349
H      83.00640351      89.56925242      70.67367763
H      82.59255346      89.91129288      73.83518975
O      78.50318572      89.79601957      70.95146740
H      79.48206394      88.53368240      71.80940316
C      76.01252644      94.21797915      72.96402592
O      75.92748875      95.88471776      71.35964828
N      73.96595283      93.04823856      73.86164593
H      74.21350699      91.25866774      74.47769670
C      71.34301272      93.99310172      73.75204181
H      71.05955377      94.83969910      71.89633056
C      69.33423365      91.79723974      74.11108979
H      69.27754186      91.52700888      76.15199422
H      70.13358787      90.06247099      73.34008146
C      66.73963941      92.20920008      73.08685813
H      65.82879134      93.68885578      74.19045830
H      65.59824473      90.52167448      73.39110407
C      66.62247638      92.96698033      70.26738647
O      67.65426695      91.53267806      68.65167048
O      65.60580362      94.98520803      69.47937060
C      70.76664619      96.24754521      75.63420920
O      68.90526578      97.60625843      75.23925640
N      72.41070809      96.71430761      77.43700811
H      74.00185763      95.66173005      77.36519852
C      72.21606628      98.86481615      79.30594744
H      70.87625031     100.31234651      78.71068364
H      73.93193776      99.98920331      79.12075426
C      71.35246134      98.24498592      81.96668209
O      71.38836614      99.79456150      83.63531041
N      70.31500160      96.05857258      82.37297323
H      70.36224476      94.82458129      80.91599425
C      69.12258429      95.10048134      84.77103593
H      68.11536018      96.72375624      85.54393400
C      67.34624157      92.90461936      84.05293994
H      66.52987979      91.97865347      85.70078127
H      68.65204245      91.48732463      83.32728503
C      65.38092620      93.57925165      82.14620608
C      64.83668502      91.95975620      80.03727151
H      65.88548313      90.22498745      79.80672491
C      62.73341963      92.63249877      78.39509936
H      62.37059217      91.46464791      76.76237582
C      61.34636052      94.76599978      78.75225762
O      59.61348149      95.48409578      77.06851148
H      58.58547037      96.85981653      77.65432663
C      61.81123319      96.28345001      80.82528738
H      60.43929189      97.74987763      81.18811485
C      63.68773143      95.58614100      82.54682806
H      63.73686430      96.61415211      84.30805298
C      71.07845104      94.17829489      86.69666704
O      73.04754585      93.08603309      85.97668132
N      70.72129276      95.06835599      89.03992768
H      69.06400279      95.99999106      89.21756194
C      72.22740462      94.03656542      91.22256157
H      74.20216863      94.39372369      90.75957862
C      71.50552917      95.21008546      93.75290509
H      72.30110396      94.11971338      95.30814986
H      69.45706585      95.31402041      93.95132635
C      72.43527453      97.93507080      93.96644417
C      70.78554346      99.94196015      93.36362148
H      68.91093495      99.41472651      92.75701932
C      71.47529356     102.51954684      93.71322084
H      70.19972829     104.09935804      93.49779205
C      73.91304049     103.10158254      94.57682576
O      74.67648994     105.54688839      94.94154295
H      73.20250340     106.60324540      94.99256555
C      75.72528804     101.07390621      95.01146282
H      77.61123489     101.42917476      95.70877183
C      74.93160299      98.58135720      94.84894636
H      76.27708811      97.09981177      95.24578888
C      71.92504841      91.18685814      91.48334379
O      69.89926181      90.16451621      91.75546439
N      74.08689533      89.80168875      91.62885273
H      75.75552365      90.72009574      91.53625614
C      74.35523646      86.98032737      91.90853222
H      72.52220193      86.30002590      92.55859807
C      75.09600918      85.97121352      89.33094553
H      76.73818134      86.70253760      88.32561112
C      75.52308731      83.09693980      89.19866469
H      73.62580210      82.29191639      89.21378250
H      76.81943957      82.43931504      90.65753340
H      76.53220117      82.65285411      87.46011648
O      73.07589175      86.38128413      87.71333981
H      72.76597663      88.15951659      87.53759526
C      76.39236142      86.28679781      93.98156199
O      77.96839317      87.88361655      94.59005386
N      76.04276205      84.19676051      95.26279643
H      74.34200838      83.35772203      95.04169845
C      77.84934040      83.24244872      97.27724467
H      79.84300167      83.74511592      97.13551520
C      76.95927932      84.04936186      99.81892656
H      76.26574976      85.98444160      99.68853545
C      74.80877077      82.39774106     100.98110825
H      73.39903495      81.81192590      99.59593885
H      73.96406311      83.32748641     102.61194205
H      75.51741814      80.58549353     101.65763026
C      79.19482555      84.25534203     101.63117410
H      80.48550862      85.70287238     100.93764454
H      80.22661612      82.48844792     101.85794125
C      78.53153160      85.02068118     104.34293135
H      80.37023532      85.31547849     105.21976437
H      77.70383148      83.44086998     105.37283220
H      77.59233764      86.85371571     104.42041013
C      77.88146575      80.33415993      96.95221174
O      76.39614088      79.16819879      95.58404989
N      79.65024959      79.13607344      98.19565166
H      81.00707307      80.19054073      99.02524152
C      79.85622975      76.42053673      98.41674964
H      77.97217263      75.72889690      98.87595314
H      81.10722857      75.83661130      99.94553823
C      80.79353400      75.29048040      95.92798009
O      82.17303422      76.56604566      94.60328194
N      79.79764823      73.04170608      95.36106219
H      78.79420357      72.03637169      96.63851718
C      79.97717224      72.07416621      92.72867343
H      81.72894854      72.68643754      91.83105344
C      80.12268116      69.18477468      92.82882893
H      78.50318572      68.42510470      93.85117087
C      80.09244555      68.00747519      90.17754292
H      80.29275653      65.95712214      90.20966825
H      81.71572044      68.80682942      89.19677495
H      78.31421309      68.40053826      89.21567222
C      82.64546580      68.45723005      94.36517642
H      82.47539043      68.92966163      96.36261713
H      84.15346738      69.63452954      93.60172700
C      83.48261454      65.65476593      94.17431407
H      81.93303897      64.35085477      94.54659015
H      84.97549833      65.37130698      95.56515264
H      84.25362288      65.21634942      92.31482338
C      77.60367598      73.02658827      91.36807049
O      75.66103734      71.75858192      91.64397053
N      77.81910479      75.19788381      90.03014426
H      79.51229957      76.08038600      90.01691618
C      76.01441615      76.11440107      88.22356590
H      75.75741339      74.53647960      86.92343421
H      76.56243679      77.72444789      87.06327394
C      73.38769659      76.80604090      89.04559686
O      71.68127373      77.36539989      87.70200145
N      73.00597186      77.03280806      91.55893284
H      74.51019401      77.02713888      92.73245288
C      70.54554820      77.78869858      92.67954055
H      69.14904047      76.59061210      91.75168493
C      70.46806943      77.05737450      95.41208479
H      71.24852639      78.62395761      96.50056715
H      71.47718328      75.29048040      95.72388964
C      67.77142998      76.69454705      96.40230138
N      66.42216540      74.56482549      96.55158976
H      66.80200039      72.87729989      95.75034580
C      64.02410270      75.24701669      97.17897891
H      62.41216616      74.03192267      97.48133512
N      63.81245336      77.78491913      97.17708917
H      62.28744423      78.69765694      97.87439818
C      66.16705235      78.73734119      96.70843705
H      66.69239626      80.70454628      96.57237675
C      69.65548711      80.61383942      92.32616173
O      70.59657083      82.22955542      93.73778728
N      67.78843751      81.06359428      90.60273133
H      66.99286274      79.62173311      89.63708118
C      66.55822568      83.58826864      90.39864089
H      68.16260332      84.85438527      90.64430531
C      65.28643988      83.65251933      87.82294393
H      63.53277387      82.57159588      87.79459804
H      66.35791470      82.57915479      86.42832591
C      64.78188296      86.32081289      86.79304308
H      66.50720308      87.41874387      87.01981025
C      64.15638354      86.19609095      83.92065909
H      65.81178379      85.43453124      82.95878839
H      63.83701980      88.17085495      83.42933024
H      62.46318876      85.10193941      83.50680902
C      62.54822645      87.51134046      88.18955084
H      63.12270325      88.42785772      89.94132712
H      61.16305707      86.03546421      88.57505499
H      61.82446127      89.08926193      87.07650204
C      64.82534666      84.07014885      92.62851794
O      63.08490872      82.59805205      93.13874405
N      65.31289605      86.10727381      93.93620854
H      66.89459698      87.02757053      93.38818792
C      64.11480957      86.84993625      96.20765958
H      63.83890952      85.18508737      97.38684879
C      65.81745298      88.84170779      97.57204197
H      64.89148708      89.60515722      99.24633948
H      66.08390439      90.38939364      96.24167465
C      68.45362119      87.48488429      98.16352632
H      68.97707537      86.37561495      96.50812606
C      70.61924753      89.35760307      98.65674487
H      70.06366801      90.90717865      99.89451561
H      71.36757915      90.11916277      96.89740969
H      72.15559502      88.37683511      99.61861558
C      68.14181633      85.85782994     100.46521297
H      69.91248989      84.98855583     101.06236648
H      67.23663744      84.06258994     100.02112727
H      67.46340460      86.78946501     102.17352554
C      61.39927285      87.58126034      95.51790948
O      59.59647396      86.11672244      95.24956833
N      61.09691665      90.05302235      94.96421967
H      62.72019154      91.05079785      95.04547790
C      58.89349576      91.12638690      93.66975713
H      57.77855724      89.78468122      92.57749534
C      57.01321808      92.31691448      95.51224029