 %block lattice_cart
   137.614   0.000   0.000
   0.000 142.646   0.000
   0.000   0.000   160.855
 %endblock lattice_cart

 %block positions_abs
N      91.27868045      38.45310052      82.56005614
H      90.18452892      37.13407155      81.72101766
H      91.29190854      38.15074431      84.44411328
H      93.09470744      38.17153130      82.03660196
C      90.36783236      41.11005571      82.03093278
H      91.40529211      42.57081415      83.04760553
C      90.81191804      41.53146468      79.18878440
H      89.56280895      40.35983437      78.04361026
H      92.83959438      41.37839685      78.86942066
C      89.98421792      44.17897124      78.48580621
H      88.15496286      44.61171857      79.32484470
H      90.00311518      44.41329731      76.43923262
S      92.20086688      46.50900379      79.67255434
C      90.28657413      49.17729734      78.38943017
H      90.19397754      50.76466745      79.69712078
H      88.35905329      48.54423903      78.03983080
H      90.94608862      49.67618509      76.50159359
C      87.68442099      41.17619613      82.59785067
O      86.26145709      39.47733218      81.55661147
N      86.63184345      42.77679432      84.18711050
H      87.92252652      43.68008350      85.26236477
C      83.95788071      43.26812316      84.57261467
H      82.88262644      42.11916956      83.24035762
C      83.12073195      42.22688396      87.20689315
H      82.95821550      40.17464119      87.19933424
H      81.14596796      42.61049840      87.64153020
C      84.25456775      43.41174236      89.58983803
O      84.95376647      45.56792008      89.39141677
N      84.33960543      42.19475862      91.71200068
H      85.00856853      42.97899504      93.31826804
H      83.81237178      40.35983437      91.69877259
C      83.05837098      46.19719895      84.08317555
O      84.52857805      47.98110059      83.78081934
N      80.59794733      46.64506408      84.26269955
H      79.34883824      45.22965907      84.54237905
C      79.57749512      49.26611448      84.11152145
H      80.21811234      50.05979953      82.32195063
C      76.65597824      49.13005418      84.17955159
H      76.00780212      47.83181221      82.71879315
C      75.57694452      47.99810812      86.55115812
H      73.52092228      48.10960198      86.55493757
H      76.34417339      48.73699111      88.31427277
H      76.09472953      46.00633659      86.61162936
C      75.30482393      51.81346555      83.69011248
H      75.84717538      53.30068016      85.00725172
H      73.24691196      51.83236281      83.76759126
C      75.80371166      52.81502050      81.07473126
H      74.37696831      54.16050563      80.44734213
H      75.73001235      51.24087848      79.75192284
H      77.68776881      53.64650007      81.01237029
C      80.45432813      51.12371545      86.18266149
O      80.29937057      53.47831443      85.91432035
N      81.46722143      50.19774955      88.29915496
H      81.52391322      48.31180269      88.59017281
C      82.41019486      52.10637313      90.25124224
H      81.25746181      53.79956790      90.04337234
C      82.07949276      51.17851751      92.91764607
H      82.80703739      52.61093005      94.20643941
H      83.36639638      49.58925768      93.15953103
C      79.52269306      50.39050164      93.66030851
C      78.49279221      48.02456429      92.87796181
H      79.63985609      46.85860316      91.65530889
C      76.07772198      47.27812240      93.60928590
H      75.56938561      45.51311802      92.71733508
C      74.60373546      48.76911646      95.21555326
H      72.74613450      48.03212320      95.63129305
C      75.68087945      51.12749490      96.04892257
H      74.49791079      52.36526563      97.16197137
C      78.11862641      51.97598201      95.28358341
H      78.86506830      53.67862542      96.12829107
C      85.24289461      52.75265953      89.49913117
O      85.99878512      54.76521805      90.29092649
N      86.48633451      51.17851751      88.02892409
H      85.74178235      49.48721246      87.55460279
C      88.84849241      52.13660875      86.91020612
H      89.76500967      53.15328151      88.44844334
C      90.52656938      49.86893717      86.22234574
H      92.35015526      50.49254686      85.49291138
H      89.79524530      48.88627949      84.56694549
C      91.03112630      48.04535128      88.34261866
H      89.13006162      47.50488956      88.92654409
H      92.07236549      49.02045006      89.82983327
C      92.53156900      45.84382013      87.26358494
O      94.98254402      45.95342425      86.96878763
O      91.18608386      43.93897600      86.79682254
C      88.54613620      53.86759805      84.71623387
O      89.68375144      55.95385590      84.68410852
N      86.93986883      53.28745207      82.90020688
H      86.03280021      51.61693401      83.05327471
C      86.25011873      54.81057148      80.66655038
H      87.92819569      54.90127834      79.47791253
C      84.02780058      53.22887056      79.41366183
H      82.54247571      52.94352188      80.81205931
H      84.71755069      51.34103397      78.96579670
C      82.91664151      54.57813515      77.10630601
H      84.43220202      54.52522281      75.71357771
H      82.50846062      56.50754571      77.70345952
S      80.45432813      52.73376226      75.75515169
C      81.59761255      52.11960121      72.63899300
H      81.52769267      53.89027477      71.59208462
H      80.64141104      50.54545919      71.71491683
H      83.58749436      51.58291894      72.63332382
C      85.37139600      57.55256436      81.32606486
O      86.48822424      59.37048107      80.37364280
N      83.61772998      57.83980276      83.08162061
H      82.92042097      56.29778609      83.96601252
C      82.74656615      60.34369013      83.92632827
H      82.31381882      61.50587181      82.28037665
C      80.25401713      60.03566474      85.49669084
H      80.15008219      61.69106499      86.71745403
H      80.67353637      58.50120697      86.81005062
C      77.78792429      59.41205505      84.06616802
H      78.15642093      57.82657468      82.80383084
C      75.55048835      58.92450567      85.73101690
H      75.27836776      57.14438348      86.72879239
H      73.72123328      59.21174406      84.83150717
H      75.22356570      60.36447712      87.16531917
C      77.09061528      61.68350608      82.43722393
H      78.54381482      62.07089998      81.02748810
H      76.90353239      63.39181867      83.57294945
H      75.35395680      61.46996701      81.35063130
C      84.81581646      61.95751640      85.20567298
O      84.93486922      64.21762907      84.84473526
N      86.47688589      60.65549497      86.61918827
H      86.18208859      58.77332756      86.74579993
C      88.71999102      61.70996225      87.93065833
H      88.17952929      63.42205429      88.94166190
C      89.42863838      59.92606061      90.07549769
H      91.30702634      60.38715383      90.78603479
H      89.46643291      57.99853977      89.35173251
C      87.69197990      60.15660722      92.46033230
H      85.86839402      59.50276192      91.76113356
H      87.59749358      62.05389244      93.25401735
C      88.34960467      58.25554255      94.54847987
H      89.26801165      56.63793683      93.66408796
H      86.54113657      57.48264449      95.16264093
N      90.01256382      59.35725299      96.49489798
H      91.56402911      60.31345451      95.92798008
C      89.71587679      59.35536326      98.98933671
N      87.94331351      57.92484045      99.97766357
H      87.93008542      57.54500546     101.84849262
H      86.69420442      56.81179165      99.06114631
N      91.21631948      60.70651758     100.46143351
H      91.02923657      60.63659770     102.35871873
H      92.66951902      61.71752116      99.74522724
C      90.75900572      62.66805349      86.08061627
O      92.14795455      64.37258663      87.03492805
N      90.79868996      61.80822802      83.77703989
H      89.67241309      60.29266752      83.49925012
C      92.48999502      62.67939185      81.78148890
H      94.10571101      63.60724747      82.65832191
C      93.56902874      60.27943943      80.23380305
H      91.96276137      59.15127282      79.61019337
C      94.90128578      61.05611695      77.75826158
H      96.39039012      59.75787497      77.17244643
H      95.62127152      62.97229943      77.97558011
H      93.48021161      61.27343547      76.28427506
C      95.44174752      58.76765838      81.80794507
H      94.75955631      59.01521253      83.73357619
H      97.31068683      59.62559413      81.72857657
C      95.46253451      56.11826209      80.76670587
H      96.26755791      54.81246121      82.14431636
H      96.70408470      55.89527439      79.13965152
H      93.51611641      55.57969009      80.36230444
C      91.27301127      64.66360448      79.96546192
O      92.65629093      66.34546090      79.02248849
N      88.83904378      64.50864692      79.36452895
H      87.88095254      63.05922684      80.15254482
C      87.33860109      66.48908010      77.95479312
H      88.21165464      66.71206780      76.10286133
C      84.72888905      65.47807652      77.30661699
H      83.49678748      67.00875483      76.68111758
H      83.59316354      64.68817092      78.83351586
C      84.66085890      63.75842557      74.96902555
O      86.33137695      63.79810983      73.34764037
O      82.84672163      62.23719589      74.60052891
C      87.03057569      69.09879213      79.25114537
O      86.92097157      70.86001706      77.63731910
N      86.85294142      69.17438119      81.76826082
H      87.04191406      67.59079054      82.81705892
C      86.58271056      71.59134114      83.10618705
H      87.23088669      73.09178383      81.85329850
C      83.81237178      72.24329672      83.93766663
H      83.03569427      70.93182666      85.32472574
H      82.69176409      72.03542682      82.22368486
C      83.37395528      74.91725945      85.05827433
H      84.92164113      75.69204724      86.17132313
H      81.68265023      75.00418686      86.23179437
C      82.87695726      76.82777275      82.79438221
O      80.65085966      77.37012421      82.40698831
O      84.80825755      77.26807899      81.38842583
C      88.00567448      71.73496034      85.58172852
O      89.39462332      73.54153870      85.92943816
N      87.86583472      69.66759975      87.09350957
H      87.07403939      68.06511184      86.42454645
C      89.07525956      69.48996548      89.63141201
H      91.10293590      69.76019634      89.38952704
H      88.91274311      67.60590835      90.44966350
C      88.12850669      71.57433360      91.41909310
O      86.09894062      72.65147760      90.74824026
N      89.47399182      72.12991314      93.49401259
H      91.21065030      71.34189727      93.56015301
C      88.42330399      73.50752362      95.79947869
H      86.51468042      73.91192505      95.13807448
C      88.29858205      71.73496034      98.22021810
H      87.32348328      70.02097858      97.62306459
H      87.19120244      72.57210910      99.74144778
C      90.81758722      71.28520548      99.30303128
H      92.10071140      71.20016779      97.69487419
C      91.43174828      72.98784889     101.47243709
H      93.00211085      72.32077550     102.62894959
H      89.88028298      73.42248594     102.75556125
H      92.28590458      74.69238202     100.69764930
C      90.88372765      68.63014001     100.51434584
H      92.70542382      68.34857079     101.43464256
H      90.72877009      67.27331652      98.97043945
H      89.24344521      68.63769891     101.76156521
C      89.72721515      76.03597743      96.20954930
O      91.94953329      76.44226859      95.78436088
N      88.19086766      77.76507701      97.25645768
H      86.35594341      77.45894134      97.67975638
C      89.20565068      80.16313970      98.17486467
H      91.25411401      80.32943561      98.28257907
C      88.23244163      82.18703658      96.45521372
H      87.99055666      83.84621628      97.65141048
H      86.57704138      81.43114605      95.48956358
C      90.18074945      82.54230512      94.53903124
H      90.49444403      80.68659389      93.70188249
H      91.85315725      83.19426070      95.55192455
C      89.43619729      84.37911910      92.36395626
H      91.24655510      84.77785135      91.46444653
H      88.34204576      86.04207826      92.88930017
N      87.82804019      82.97694218      90.48934775
H      86.88695650      81.46705085      91.18098758
C      87.17986407      83.76306832      88.22167618
N      87.93953405      85.88145152      87.38452742
H      87.02112707      86.62978314      85.88975391
H      88.92408147      87.02473594      88.55237828
N      85.71910564      82.29475098      86.94611092
H      84.72888905      82.92780929      85.44188877
H      85.30714529      80.58832812      87.69066308
C      87.94709296      80.31620753     100.86394521
O      85.89107073      79.33732930     101.22488294
N      89.40407194      81.29697548     102.73477426
H      90.95742698      82.26451536     102.18486391
C      88.57448210      81.32154193     105.53534866
H      87.29513737      79.73417182     105.82447678
C      90.79680024      80.44470892     107.22476398
H      90.10893986      80.56187195     109.16362318
H      92.34637582      81.76940706     106.92618722
C      91.79268601      77.68948795     106.74288377
H      91.53190378      77.16792349     104.76811978
C      94.56680424      77.51563313     107.72743118
H      94.63294466      78.12412501     109.69463627
H      95.82536196      78.68348399     106.59170567
H      95.30568722      75.59945065     107.60837842
C      90.44531115      75.52953078     108.17907577
H      88.49322387      75.52386160     107.52334074
H      90.69286528      75.96416783     110.17840621
H      91.47143254      73.76452640     107.91829354
C      87.22899695      83.69503818     106.44619674
O      85.98177759      83.75361969     108.38127649
N      87.52190454      85.86822344     105.10071161
H      88.72754993      85.74350150     103.62672508
C      86.09138171      88.21337379     105.60148908
H      84.57015204      87.79574428     106.92618722
C      87.75056142      90.45080974     106.37249741
H      88.83337459      89.71570621     107.96364697
H      86.42775300      91.90022983     106.99421737
C      89.49477880      91.33331193     104.20876079
H      88.21543410      92.13266616     102.80847359
H      90.46042895      89.78373636     103.25255927
C      91.49599898      93.28917867     105.06669653
H      92.59581968      92.66745871     106.69375089
H      90.61160706      95.08819812     105.53534866
C      93.32147459      93.79940477     102.92563662
H      92.20086688      94.54395694     101.36472269
H      94.08870348      91.95503189     102.41918997
N      95.34915093      95.58330641     103.73443948
H      94.62727548      97.34642106     103.84215388
H      96.67762853      95.80440439     102.38328517
H      95.81213388      94.86710014     105.44275207
C      84.39440749      88.99949994     103.27712571
O      84.71755069      88.15479227     101.18330896
N      82.25145785      90.25616793     103.73066003
H      82.27980374      91.04796326     105.46731851
C      80.28614248      90.80796802     101.83526454
H      79.74001157      89.00327939     101.00189523
C      77.93343323      91.85865585     102.96910033
H      78.34917302      93.63877803     103.92152239
C      75.94166170      92.61832583     101.05480757
H      76.82605360      93.86365547      99.67341764
H      74.40342447      93.68224174     101.92219195
H      75.11396156      90.95725640     100.16285675
C      76.74101592      90.04073913     104.82481156
H      78.22823053      89.18469312     105.95864735
H      75.59017259      88.61777522     103.87427923
C      74.82672317      91.42212907     106.45564537
H      74.21067238      90.42435358     108.14884015
H      73.16376401      91.80007433     105.29913287
H      75.74324042      93.16256700     107.06980642
C      81.32927141      92.26494701      99.54302652
O      82.39696677      94.27939526      99.72066079
N      80.72266927      91.35409892      97.25078850
H      79.88741024      89.63822743      97.20732480
C      81.71099613      92.21203467      94.77146758
H      82.80703739      93.91278835      95.15508202
C      83.57426627      90.30530082      93.57149137
H      85.01045826      89.64389661      94.89241006
H      84.43976092      91.41268044      92.06537950
C      82.49523255      87.83920798      92.60395150
C      81.35572758      87.60110246      90.24179361
H      81.44832417      89.32264314      89.15142152
C      80.42787196      85.18792196      89.41598321
H      79.56237730      85.06508975      87.57161033
C      80.56960143      83.06386959      90.97878687
O      79.97622736      80.67147608      90.12274085
H      79.35639713      80.53163633      88.42576662
C      81.88674067      83.29252647      93.30692969
H      82.03413932      81.54263991      94.35005861
C      82.84294218      85.65279464      94.08360720
H      83.53647175      85.86066453      95.99223078
C      79.57560539      92.89044641      92.93276388
O      77.52336261      91.72637501      92.94221251
N      79.96299928      94.74426793      91.19421567
H      81.39730155      95.99526675      91.30948897
C      78.19232573      95.19969197      89.06071466
H      76.28370216      94.77828300      89.71078051
C      78.21122299      97.89444169      88.17443302
H      77.10195364      98.17979037      86.46234098
H      80.18409727      98.22136434      87.67554527
C      77.33627970      99.90511049      90.02447508
H      77.97311747      99.43645836      91.92365003
H      75.28025749      99.76716047      90.04337234
C      78.16586956     102.54127870      89.20244413
H      77.11896119     102.90599587      87.46767538
H      80.12929519     102.61497802      88.58639336
C      77.49123726     104.57651393      91.09028072
H      78.64774978     104.31006252      92.77780632
H      75.49190683     104.38565158      91.54192531
N      77.96933802     107.02937869      90.04148262
H      79.86851297     107.05205540      89.84117163
H      77.20777831     108.40887890      91.11862662
H      77.21722696     107.08040130      88.28781660
C      78.66286759      93.39500334      86.91965475
O      80.72833845      93.26839168      85.91243062
N      76.86384813      91.85487640      86.19022039
H      75.14041773      91.99849560      86.99902325
C      77.10573310      90.02751105      84.01892486
H      78.91231146      89.11288352      84.38931122
C      74.85128961      88.14534364      84.41009821
H      73.16187428      89.18469312      83.85640840
H      74.70578069      87.68425042      86.41320810
C      75.28214721      85.68114053      83.10429732
O      77.42320711      85.16902470      82.50714381
O      73.51903255      84.20715401      82.59218149
C      77.25502148      91.31441467      81.39031556
O      77.18132216      93.68602119      81.24858608
N      77.63863591      89.74972128      79.49114061
H      77.45722219      87.87889223      79.82184272
C      77.77658593      90.43758166      76.83796487
H      79.50190607      91.53173320      76.57907236
C      78.26980450      88.12644638      75.18256462
H      77.85784417      88.81997594      73.28527940
C      80.98534122      87.19859076      75.19579270
H      82.22878114      88.51573000      74.21691447
H      80.99667958      85.32209253      74.34730559
H      81.81493108      87.05497156      77.07607038
O      76.58227892      86.03262963      75.65877565
H      77.62729757      84.58887872      76.00270584
C      75.54859862      91.95314216      75.85341746
O      76.12685486      93.51216637      74.17534049
N      73.22801471      92.03062094      76.97780462
H      72.65164818      90.58687004      78.08896369
C      71.21545619      93.92223698      76.34285657
H      71.71812338      94.61198709      74.46824807
C      68.74747362      92.50683197      75.92522706
H      67.86497142      92.01172368      77.71857733
H      69.27092780      90.63033374      75.25059477
C      66.43255888      93.67846229      74.43612273
H      66.13965131      95.59653450      75.12965228
H      64.72235656      92.59564911      74.80839881
C      67.14120626      93.68413147      71.63176888
O      66.20012254      92.08731273      70.15400290
O      68.66243593      95.27528102      70.80973793
C      71.03593219      96.13510649      78.31762057
O      69.08384491      97.41256148      78.46312950
N      72.87274616      96.25604898      80.02593316
H      74.30326897      94.99938098      79.88609341
C      73.05415989      98.16656228      82.09707320
H      72.27559265      99.91455912      81.33740322
H      75.06860814      98.53316919      82.31250200
C      71.70111585      97.55429096      84.41387766
O      71.61985762      99.12465352      86.13541833
N      70.29893892      95.41323104      84.53482014
H      70.19311425      94.33230759      82.96823703
C      68.86463665      94.61387681      86.87808077
H      68.12386394      96.32785858      87.74924460
C      66.47413287      93.10398549      86.37352384
H      65.07573539      93.39311361      87.85695900
H      66.86719593      91.08386806      86.24502246
C      65.17400115      93.83908902      83.94522553
C      64.57306820      91.87755311      82.24636158
H      65.17778062      89.94058364      82.47312873
C      63.21624470      92.48037581      80.05994823
H      62.59641446      91.02906600      78.76548571
C      62.37153704      95.05229332      79.56106049
O      60.53661279      95.33386254      77.76582049
H      60.09819629      97.05729294      77.41433139
C      62.74381313      96.96469635      81.29960869
H      61.83863421      98.77883361      81.06150318
C      64.28394006      96.34108666      83.43688915
H      64.59196545      97.94357458      84.66143180
C      70.35752043      93.38933416      89.03236877
O      72.02236932      91.72637501      88.59395226
N      69.92855257      94.15089387      91.36240131
H      68.70400992      95.60031395      91.57216093
C      71.23813290      93.34587046      93.69810303
H      73.16187428      93.97892877      93.31259887
C      70.41232249      94.83875424      95.98656160
H      71.11908014      93.98459795      97.72133035
H      68.37141809      94.66300970      96.23033629
C      70.95089450      97.65633618      95.99789996
C      69.24447163      99.45535563      95.01146282
H      67.52860014      98.95079870      94.03069486
C      69.75091828     102.00270670      94.88863061
H      68.46779412     103.41055280      94.15919625
C      72.01481041     102.94379040      95.92986981
O      72.31527689     105.48169284      95.90908282
H      70.75814241     106.25270117      95.37995945
C      73.79115314     101.16177849      96.97488846
H      75.53537053     101.79861625      97.81959612
C      73.29415513      98.55017672      96.94654257
H      74.72278821      97.29350872      97.68164610
C      70.98113011      90.57553168      94.34627916
O      68.92510789      89.52484385      94.80737238
N      73.14297703      89.31319450      94.60706139
H      74.83428208      90.19002751      94.51446480
C      73.29037568      86.51073038      94.55603878
H      71.70678503      85.42035830      95.29303204
C      74.13697307      85.78129603      91.85750960
H      75.73568153      86.89434482      91.19421567
C      74.41098338      82.86166887      91.37940885
H      72.54015433      82.00184340      91.40019584
H      75.63363630      81.89790845      92.72678371
H      75.15175609      82.58198938      89.47645445
O      72.09228920      86.57498108      90.46100186
H      72.00725150      88.38344916      90.57627516
C      75.43899450      85.65846382      96.34183015
O      77.09817419      87.23449556      96.78969528
N      75.57127533      83.35110799      97.33771591
H      74.08217099      82.24183864      96.89363023
C      77.62918729      82.45159826      99.02524151
H      79.33561015      83.55330870      98.69264968
C      76.82794334      82.86544832     101.78046247
H      76.38007819      84.87422740     101.84282344
C      74.27114363      81.48405839     102.27557077
H      72.62897147      82.24939755     101.30047199
H      73.74768945      81.68814883     104.25600394
H      74.43743955      79.48094850     101.82770563
C      78.71200047      82.27207426     104.00467034
H      79.16742450      80.26707464     103.88561759
H      78.04303735      82.82765380     105.87171994
C      81.35383785      83.35299771     103.91018403
H      81.35572758      85.27295965     104.65473620
H      82.32893662      83.43614567     102.09604677
H      82.50468118      82.07365300     105.04024036
C      78.27169423      79.71527456      98.36572703
O      76.70322139      78.36412025      97.43787141
N      80.47889457      78.74584496      99.18964770
H      81.67887078      79.83054787     100.20632046
C      81.02691520      76.10778703      99.04980795
H      79.57749512      74.80387587      99.71688134
H      82.73900724      75.76574657     100.14584921
C      81.37840429      75.15158551      96.36639659
O      82.81648601      76.24762678      94.90185869
N      80.13685410      73.14469617      95.84861158
H      78.84617103      72.36045975      97.01835217
C      80.11228766      72.06377272      93.22945091
H      81.59761255      72.82155297      92.01813634
C      80.66408775      69.15359420      93.31448859
H      79.11073271      68.27676119      94.35005861
C      80.72644872      67.88936729      90.71611491
H      81.25746181      65.90137521      90.63674641
H      82.18531743      68.91170923      89.68243462
H      79.00679777      68.32778380      89.66731681
C      82.98656139      68.49030026      94.93020459
H      82.96388466      69.73562990      96.57048703
H      84.67597670      68.76997976      93.78692017
C      83.53269228      65.92783138      96.10372463
H      83.45143406      64.40471197      94.72044497
H      82.03224959      65.36469294      97.39629743
H      85.28446858      65.74263820      97.16953027
C      77.62540784      72.75541255      91.86506851
O      75.56938561      71.54409798      92.05215141
N      77.86351335      74.89269301      90.43076624
H      79.53214168      75.77519520      90.14352784
C      75.61851850      75.96416783      89.10984755
H      74.91176085      74.43537924      87.92498915
H      75.93977197      77.72350303      88.09128506
C      73.22234552      76.57265970      90.80493205
O      71.10585205      77.00918648      89.83172300
N      73.29793457      76.59155697      93.26346598
H      74.93254784      76.46494530      94.23856476
C      70.93010750      76.88635427      94.76012922
H      69.55816621      75.65992189      93.83605305
C      71.08884452      75.64669381      97.49645292
H      72.27937209      76.73895562      98.77579764
H      72.02803850      73.81554901      97.36417208
C      68.50747837      75.54842804      98.77201818
N      66.57806781      73.87979971      98.27313044
H      66.70845893      72.24140699      97.30181111
C      64.58062709      74.29364977      99.77735258
H      62.80428437      73.28831537      99.77735258
N      65.15321416      76.30242884     101.15307334
H      64.05717291      76.82210358     102.62705986
C      67.54371795      77.16603376     100.43875679
H      68.54149345      78.74206551     101.26267746
C      69.86619160      79.56598618      94.83382855
O      70.73546570      81.16658437      96.43253701
N      67.82339744      80.14802189      93.39763655
H      67.08829391      78.91969978      92.13151992
C      66.43822807      82.58387910      93.49401259
H      67.92922212      83.92936424      93.03480910
C      64.59763463      82.50262087      91.19610540
H      63.29561320      80.90769186      91.23201020
H      65.55761560      82.30608934      89.38385786
C      62.74192340      84.75328491      90.97878687
H      61.73658899      84.86477876      92.77024741
C      64.48236132      87.08520718      90.39864089
H      63.38065088      88.64423139      89.62196338
H      65.82973619      86.68836466      88.89441875
H      65.37431215      87.73149358      92.14096855
C      60.99392656      84.21282319      88.73379201
H      59.64844141      85.75483986      88.49190704
H      59.92623118      82.48372361      89.07583247
H      61.89910545      83.88779026      86.91209584
C      65.27415665      83.10922302      96.12262189
O      64.47291269      81.38390290      97.46810703
N      65.20045733      85.62633847      96.76701857
H      65.87131016      86.94536743      95.56137318
C      64.00804002      86.47104613      98.99500589
H      63.25403922      84.88178630     100.06837043
C      65.98091429      87.62377918     100.83181987
H      64.91888810      88.59698823     102.30013721
H      66.93711580      89.21303901      99.93231014
C      67.83851526      85.93814331     102.29635776
H      68.63597977      84.69092394     100.86205549
C      69.89453749      87.48582916     103.61538672
H      69.15376477      89.02406638     104.77000950
H      71.10774179      88.35321354     102.19620226
H      70.90932052      86.24616870     104.91173897
C      66.79538634      84.21471291     104.34860053
H      68.28071121      82.82954352     104.69442045
H      65.15699362      83.26229085     103.54357712
H      66.36830819      85.29563636     106.04935422
C      61.94445889      88.30408065      98.28257907
O      59.70135375      88.01684225      98.91941684
N      62.67956243      90.26372684      96.86717406
H      64.46913324      90.38088987      96.21332876
C      61.16022247      92.41234566      96.15474724
H      59.28750369      91.56385854      96.02057667
C      60.85786626      94.27939526      98.37328593