 %block lattice_cart
   137.614   0.000   0.000
   0.000 142.646   0.000
   0.000   0.000   160.855
 %endblock lattice_cart

 %block positions_abs
N      92.62605532      42.05302913      79.07445596
H      94.28523502      42.94497995      78.75698194
H      92.33503746      40.95887760      77.53810847
H      92.56747380      41.22154956      80.79032745
C      90.68152694      43.97299107      79.19728817
H      91.27679073      45.08981932      80.82245280
C      90.54357692      45.53201528      76.62915011
H      88.78802117      46.59971064      76.75576178
H      90.79680025      44.33014934      74.97563959
C      92.53345873      47.64283957      76.53844325
H      92.31425047      48.65573287      74.76021079
H      94.44775148      46.96820727      76.90127070
S      91.77945793      50.11460159      78.74186413
C      94.77845359      51.77189156      78.63037028
H      94.76900495      53.42918154      79.85302320
H      95.23954681      52.39361152      76.72174670
H      96.32802916      50.60026125      79.31634093
C      88.10394025      43.09237861      79.99475268
O      87.19687162      41.14973996      79.34468683
N      86.89640514      44.78935284      81.37803234
H      87.76567924      46.48443734      81.49141592
C      84.39629722      44.64573364      82.36824893
H      83.47222106      43.06781216      81.41960632
C      84.60416712      43.74622391      85.12346989
H      85.62839878      45.29768921      86.00786180
H      85.86461457      42.12105928      85.08567536
C      82.24767841      43.10560669      86.45572694
O      81.13462961      44.76856585      87.73318193
N      81.21399811      40.88139882      86.53320572
H      79.46600127      40.68108783      87.27586816
H      82.10594893      39.51323697      85.54676858
C      82.87695727      46.98899426      81.94306051
O      83.95032181      48.99210416      81.31000219
N      80.37684936      46.96253810      82.32100577
H      79.34127934      45.36571936      82.47029415
C      78.75735390      49.34737270      82.35691057
H      78.82349433      50.10515295      80.44450754
C      75.86607265      48.70486576      82.49864004
H      75.37474380      47.63339094      80.80922472
C      75.23490406      47.01922988      84.85512875
H      76.43488027      45.34871182      84.97607124
H      73.30927294      46.29168525      84.76253216
H      75.40119997      48.11716087      86.58989751
C      74.04626621      50.98765514      82.78776817
H      74.35618132      52.03834297      84.53009583
H      72.07528166      50.39239135      82.87847503
C      74.47145463      53.06824381      80.75253293
H      73.83083741      52.38605261      78.91760868
H      76.40275492      53.68996377      80.38781575
H      73.69666684      54.87293244      81.37992206
C      79.46411155      51.37126958      84.28065195
O      79.66064308      53.56524183      83.63247583
N      80.28614249      50.60782015      86.56344134
H      80.22378152      48.74266028      86.95839414
C      81.35950704      52.25188205      88.41915258
H      80.24645824      53.94318710      88.80654647
C      81.41430910      50.77033662      90.95327557
H      82.85050110      51.39961548      92.28931207
H      82.01335234      48.82580824      90.62635291
C      79.04270258      50.76844689      92.55009430
C      77.08305639      48.85604386      92.17025931
H      77.58950304      47.41040323      90.81910500
C      74.82861290      48.87305140      93.58188487
H      73.44911269      47.48032310      93.01496697
C      74.53948477      50.74010099      95.42814748
H      72.85384890      50.97631678      96.55631408
C      76.66542688      52.40117042      95.97427838
H      76.34795286      53.71264049      97.50495669
C      78.79703816      52.40117042      94.57777063
H      80.23889933      53.78067063      95.01240769
C      84.02402114      53.24587809      87.83711688
O      84.74211714      55.38504827      88.42293203
N      85.61139124      51.53567577      86.98107086
H      84.95943566      49.77634058      86.63147149
C      88.23811082      52.01377653      86.64469957
H      89.06392122      52.85281501      88.33411490
C      89.38895414      49.42485148      86.30832829
H      91.28245991      49.58925767      85.51653296
H      88.04535873      48.45542188      85.08189591
C      89.70264871      47.62394230      88.64025056
H      90.18452892      45.73421599      87.98262580
H      87.82048130      47.62394230      89.47928904
C      91.41096130      48.35904584      90.86634816
O      93.52745477      47.35182172      91.10634340
O      90.66262968      49.95208512      92.45938744
C      88.89573557      53.47075552      84.42805061
O      90.87994820      54.66128309      84.32222593
N      87.17797436      53.63516171      82.60068526
H      86.15941187      52.04212242      82.34746194
C      87.13829010      55.19040646      80.38403630
H      89.01478833      55.37748937      79.55444645
C      85.64162686      53.80712680      78.42439011
H      83.87662249      53.01722120      79.13492720
H      86.74333730      52.31802247      77.52865984
C      84.98778156      55.52677775      76.15104936
H      84.76290413      54.28900701      74.51832582
H      86.40318657      56.87793206      75.50665268
S      81.90563794      57.16328073      76.45529529
C      79.65875336      54.64805501      75.96018700
H      79.86095407      53.27422398      77.48141668
H      80.26913496      53.49721169      74.36714772
H      77.68965854      55.20174482      75.70885340
C      86.39184821      57.91539181      80.89804185
O      87.71276690      59.73141879      80.03632666
N      84.48511436      58.37270557      82.50241949
H      83.21899773      57.09525059      83.14114699
C      83.51946421      60.92761555      82.85201886
H      83.40608063      61.67594717      80.93583638
C      80.81904531      60.86525458      83.99530328
H      80.57527062      62.59246443      85.08945482
H      80.55448363      59.22875159      85.21606648
C      78.70444157      60.50620658      82.07912080
H      79.19199096      58.97930772      80.78843773
C      76.37818848      59.55567425      83.43216484
H      74.83239235      59.34591462      82.08478998
H      75.80371168      60.80667306      84.96473288
H      76.58038919      57.68106574      84.26742387
C      78.19610519      62.92694599      80.65237743
H      79.98000683      63.38614948      79.73397045
H      77.98445584      64.51431609      81.94872968
H      76.58605837      63.02332203      79.36925327
C      85.47344122      62.55466990      84.37513827
O      85.51501520      64.84690792      84.38269718
N      87.24033532      61.36981151      85.67338025
H      86.86239006      59.51976945      85.94550084
C      89.39840277      62.61703087      86.97918113
H      88.99400134      64.10424548      88.34545325
C      90.73065982      60.69706894      88.57977932
H      92.46731831      61.39437795      89.44149452
H      91.26545237      59.08702212      87.41192846
C      88.90896366      59.91661197      90.60745565
H      87.37072644      58.87726250      89.71739456
H      88.23244164      61.51154098      91.72428390
C      90.28657414      58.07412882      92.46127716
H      91.71898669      59.06812486      93.55542870
H      91.23143730      56.49431762      91.53720100
N      88.40251701      57.19351635      94.26407607
H      87.41607987      55.69118393      93.62156912
C      87.83937857      58.01176785      96.48639421
N      88.66329924      60.05267227      97.48983888
H      88.19653684      60.43061753      99.30019669
H      90.10705014      60.97674843      96.64891067
N      86.04602829      56.84580671      97.80920263
H      85.66241385      57.42028351      99.58743509
H      85.84004813      54.99009547      97.40480120
C      91.34104142      63.94172902      85.08756509
O      92.29724294      65.92594165      85.70928505
N      91.71520723      63.04410902      82.78965789
H      90.97254479      61.29989163      82.57044964
C      93.30257734      64.16282700      80.79221718
H      94.58381178      65.59712927      81.53298990
C      94.93530087      62.11436367      79.46562931
H      96.18818942      63.03843984      78.11447500
C      96.62849565      60.87659294      81.44039331
H      95.54757220      59.43473176      82.44005853
H      97.34848137      62.29010822      82.75375309
H      98.21208630      60.04889281      80.41616164
C      93.47265270      60.06967980      77.99164279
H      92.04024016      60.84068814      76.72930561
H      92.47109776      58.86781387      79.33334847
C      95.06569199      58.39538229      76.31545555
H      96.60770866      59.57079206      75.61625681
H      93.98476854      57.40894515      74.86792519
H      95.89150238      56.82690945      77.36236392
C      91.81914218      65.72752038      78.90816005
O      92.93030125      67.38103091      77.64960232
N      89.23399658      65.37792102      78.63603946
H      88.44220126      64.03432561      79.73774990
C      87.67308265      66.66104518      76.69906999
H      88.70109376      66.91237878      74.93028616
C      85.45076451      64.93383533      76.12270346
H      84.11850745      64.82612093      77.68739685
H      86.14051461      62.99308641      76.13026237
C      84.10905882      65.50453268      73.50354279
O      85.35816792      65.45351007      71.51177126
O      81.73178312      65.84657314      73.60936747
C      86.69798387      69.17060173      77.53999820
O      86.55625440      71.06599722      76.26632266
N      86.18208859      69.31989010      80.04766501
H      86.26712627      67.67204876      81.00575625
C      84.90463360      71.39480960      81.43850358
H      84.92731032      73.09178383      80.27443217
C      82.33460582      70.52742522      82.17171739
H      82.48389419      68.66037562      83.02776341
H      81.23289537      70.18538476      80.46529453
C      80.93620834      72.42093098      83.95939848
H      82.03035988      73.26374892      85.48629734
H      79.34505879      71.51953153      84.90993082
C      79.54914923      74.53553473      82.25675507
O      80.73022818      76.39691515      81.38559124
O      77.32683109      74.12924357      81.70117554
C      86.55058522      72.10345696      83.76853612
O      87.02868598      74.33144429      84.20317318
N      87.24789423      70.34034231      85.42015692
H      86.94175857      68.52053587      84.93827671
C      88.95431709      70.97151090      87.61601890
H      90.59270980      71.94094050      86.82989275
H      89.60438294      69.25563941      88.55332315
C      87.93953406      72.27353233      90.06510420
O      86.00067486      73.56799486      89.90636719
N      89.33226235      72.08078025      92.18537712
H      90.97065507      71.10568147      92.13057506
C      88.58204101      73.12768862      94.64958023
H      86.52979823      73.30910235      94.68737476
C      89.60627267      71.11890955      96.35978255
H      91.62072092      71.16426299      95.92325577
H      88.90140475      69.24808050      95.86467425
C      89.30958564      71.60645894      99.22082819
H      89.77445831      73.54909759      99.71593648
C      86.49956261      71.45150139      99.75184128
H      85.73233373      69.55799562      99.48350014
H      85.46588232      72.83667077      98.63501303
H      86.11783789      71.84645418     101.73605391
C      90.66829886      69.81121895     101.02740654
H      90.84215368      67.88558783     100.31875917
H      89.83115010      70.17971558     102.87366915
H      92.59770942      70.52742522     101.13134149
C      89.74989187      75.76196711      95.12201181
O      91.97409974      75.95471919      95.56609750
N      88.10016080      77.68570849      95.11445291
H      86.34460505      77.27941733      94.48328432
C      88.61416635      80.30297944      96.04608798
H      90.62294542      80.62423291      96.37679008
C      87.68253128      82.00751257      93.76518832
H      87.62206004      83.97093821      94.38501855
H      85.79847415      81.37067480      93.23039577
C      89.44186648      81.76373788      91.49562702
H      89.26234248      79.83810676      90.78886938
H      91.41474075      81.71460499      92.08522163
C      88.80880816      83.65913337      89.47928904
H      88.56692320      85.47705008      90.41848302
H      86.96443528      83.06197985      88.78198003
N      90.92152218      83.77629640      87.49129696
H      91.86827506      85.43358638      87.52153258
C      91.49221953      82.19837493      85.75463848
N      90.43208307      80.07810200      85.34078842
H      90.87238930      78.85544908      83.94239094
H      88.99211162      79.60756015      86.50108037
N      93.53123422      82.73127775      84.30332867
H      94.14917472      81.42925632      83.05421958
H      94.64995220      84.25061770      84.59434652
C      87.30458602      80.68092470      98.63879248
O      85.08604733      80.43148082      98.98083294
N      88.67463760      81.27996794     100.77607294
H      90.50956185      81.58610360     100.33954616
C      87.96787995      81.16469463     103.36310826
H      86.24822901      80.03274857     103.34988018
C      89.96721039      79.92503417     104.99583180
H      89.70264871      80.43715000     106.97248552
H      91.77000930      80.88312541     104.72371121
C      90.42830361      77.07154744     104.75961601
H      90.88372766      76.56699051     102.81319791
C      92.74699780      76.16447881     106.31864022
H      92.30291212      76.50085009     108.30096312
H      94.36271380      77.34933721     105.84809837
H      93.24588555      74.17837646     106.10510114
C      88.07559435      75.51630268     105.51928599
H      88.30803069      73.48484690     105.26606266
H      86.46176808      75.84889452     104.28340498
H      87.48222029      75.88290959     107.45625546
C      87.12506202      83.68558954     104.26072826
O      85.51123575      83.79519366     105.95392304
N      88.19275739      85.80397273     103.21193016
H      89.76123023      85.45059391     102.18580877
C      87.25356341      88.36266216     103.26673222
H      86.31814888      88.71037180     105.06953112
C      89.54958088      90.16546106     103.15523837
H      89.08281848      92.17046068     103.25161441
H      90.53979747      89.76105963     101.39779290
C      91.32214416      89.72326511     105.38511542
H      91.71520723      87.72960385     105.72715588
H      90.38672964      90.68513580     106.94980881
C      93.85248769      91.06308106     105.10165647
H      94.71231317      90.99505091     106.97437525
H      93.44052736      93.05485260     104.77284409
C      95.68930167      89.94625281     103.24405551
H      94.97120567      90.39411795     101.36566755
H      95.45497561      87.90345867     103.37255689
N      98.30846234      90.79851938     103.53129391
H      99.55379198      90.20703504     102.21037521
H      98.82435762      89.99727542     105.18669416
H      98.40483838      92.70147378     103.53885281
C      85.23722543      88.68769509     101.28629905
O      85.22588707      87.30063597      99.35121930
N      83.39852173      90.43191247     101.59999361
H      83.38340392      91.43535715     103.22137879
C      81.23856455      90.76450430      99.80853307
H      80.50913020      88.90123416      99.32098368
C      78.94443681      92.06841546     101.08031888
H      78.81782515      90.95725639     102.80752873
C      79.43009647      94.74426792     101.93069572
H      79.70599651      96.02550236     100.33954616
H      81.11195289      95.08441866     103.07020068
H      78.02225037      95.57952695     103.17980481
C      76.29126107      91.79062569      99.66680360
H      76.13252406      89.74216237      99.50806658
H      76.38763711      92.69013542      97.81487181
C      74.07272238      93.04540396     100.89890515
H      72.47968309      93.40445196      99.64223715
H      74.58483821      94.93890973     101.52818401
H      73.46045105      92.22148329     102.68469652
C      82.25901676      91.96637024      97.35377859
O      84.06559512      93.40445196      97.27252036
N      81.23100565      91.21803862      95.26941046
H      79.88741024      89.87255348      95.09366592
C      81.86595369      92.24227028      92.80709708
H      82.62373394      94.13199659      93.11323274
C      83.89929920      90.63411319      91.71861472
H      85.27501996      90.49616317      93.24740331
H      84.89896442      91.65078595      90.23706929
C      83.04325318      88.04329841      90.82288445
C      82.16075099      87.60110246      88.23773885
H      82.00390371      89.12422186      86.88847427
C      81.41241937      85.22760621      87.47995860
H      80.79447887      85.01028768      85.54676858
C      81.57871529      83.34732853      89.22795544
O      80.66219803      81.00406790      88.64403001
H      80.31070893      81.00217817      86.86579755
C      82.09272085      83.71204570      91.79609350
H      81.90941740      82.16624958      93.11512247
C      82.97333331      86.05530633      92.49907169
H      83.30025596      86.35010364      94.49084322
C      79.46033209      92.63911281      91.11012285
O      77.31549273      92.42746346      92.07955245
N      79.78914447      93.29295811      88.68749372
H      81.53147213      93.09075740      87.93349292
C      77.75390923      94.02617192      86.99429894
H      75.83961648      93.67846228      87.67082096
C      78.14319285      96.89855592      86.37068926
H      79.90252805      97.01571895      85.30677334
H      78.46255660      97.92278758      88.13002445
C      76.12685488      98.37821162      85.07055755
H      74.42610120      98.27994585      86.22518033
H      75.69410755      97.55429095      83.23185385
C      76.92998856     101.16933738      84.62647187
H      78.61940388     101.25437507      83.45295183
H      77.57438523     102.06317793      86.36879953
C      74.83050263     102.84741435      83.53987924
H      73.22801471     102.52616088      84.79087806
H      74.34106351     102.27293755      81.62180703
N      75.52781164     105.55539216      83.52287170
H      74.04248675     106.73836083      83.72696215
H      76.54826385     106.03916209      81.98463448
H      76.57660974     105.89743262      85.08000619
C      77.95044077      92.58620047      84.50552939
O      79.99134519      92.37077167      83.46240046
N      75.88685964      91.47693112      83.75530804
H      74.33350461      91.62244005      84.85701848
C      75.52403218      90.15790216      81.41204741
H      77.20966805      88.98249239      81.26086931
C      73.00502701      88.61399576      81.54621798
H      71.34584731      89.77806717      81.91471461
H      73.29415513      87.09087635      82.90115175
C      72.37952760      87.44236545      79.08768405
O      73.39053118      85.35988705      78.48864081
O      70.53326499      88.56486288      77.99164279
C      75.33694928      92.01550312      79.19539845
O      74.71144987      94.28128497      79.57145398
N      75.86040347      91.23882561      76.86914536
H      76.56338166      89.48138014      76.62159121
C      75.79048359      92.78651146      74.57690734
H      76.83739197      94.53450830      74.88304300
C      77.27958793      91.45047496      72.44718578
H      77.23045504      92.73926830      70.84280814
C      79.94410203      90.88166734      73.19740713
H      80.10850822      89.12422186      74.25565386
H      80.80014805      92.30274152      74.41817033
H      81.07793782      90.81552691      71.47586646
O      75.93410279      89.14689858      71.90105488
H      75.16687391      89.68547058      70.34769985
C      73.23368389      93.50082801      73.60747774
O      73.15431539      95.20158169      71.98042338
N      70.97546095      92.51628060      74.42006005
H      70.98679931      90.99883037      75.57846228
C      68.51125784      93.78239723      74.20652098
H      68.17866600      94.59308981      72.34325084
C      66.18689447      91.88511201      74.45974431
H      65.89209717      91.79629487      76.49686927
H      66.75948154      90.01617268      73.80967845
C      63.77182424      92.87721832      73.00276532
H      62.98191864      94.51561104      73.96841546
H      62.19012332      91.56007908      73.09725163
C      64.15921814      93.24571495      70.18896284
O      64.31606542      91.28795849      68.74899139
O      64.27827089      95.42834884      69.38960861
C      68.22779889      96.07274552      76.04711441
O      66.56106028      97.62421082      75.96774590
N      70.04193615      96.17668046      77.85558249
H      71.49135623      94.94457891      77.72897083
C      70.32917455      98.24215132      79.69806565
H      69.39753948      99.97314063      79.07823542
H      72.34362280      98.65600139      79.79255196
C      69.52226141      97.70357933      82.47029415
O      69.87752996      99.22291928      84.17671701
N      68.43188933      95.50582762      82.72351747
H      68.26748314      94.30963087      81.24764122
C      67.14687544      94.52883912      85.01008631
H      66.29271914      96.11431950      86.00786180
C      65.52549026      92.41990455      84.20695263
H      64.52393532      91.94936270      85.94550084
H      66.72735620      90.88733651      83.53421006
C      63.55450572      92.91879230      82.23029891
C      62.51326652      90.92513104      80.77331992
H      63.07262551      89.01461774      81.22307478
C      60.77660804      91.29362767      78.79477647
H      60.20213124      89.68925003      77.67227904
C      59.73725856      93.70491845      78.55667095
O      57.93823911      94.30585141      76.73497479
H      57.38643903      96.03117154      76.82946110
C      60.73314433      95.79684548      80.01176021
H      60.20780042      97.72625604      79.59791015
C      62.55861995      95.44535638      81.86747145
H      63.40710706      97.01382922      82.86524695
C      69.12163943      93.63310885      86.93949688
O      71.19088975      92.94146902      86.12691456
N      68.45456605      93.29295811      89.42448698
H      66.73491510      93.87310409      90.01408159
C      70.23279851      92.46336826      91.30287493
H      72.00347206      93.36854716      90.76430293
C      69.66399089      93.63310885      93.80487257
H      70.88664381      92.74115803      95.20138032
H      67.63820428      93.32319373      94.01085274
C      70.16476836      96.49982366      93.72739379
C      68.15220984      98.03050198      93.13779918
H      66.46846369      97.13477171      92.41214428
C      68.40354344     100.72525170      93.02063615
H      66.75948154     101.71357856      92.32332714
C      70.70523009     101.71924774      93.57999514
O      71.00758630     104.31573169      93.37212525
H      69.32950933     104.83918588      92.92237038
C      72.82739273     100.19990779      94.28297333
H      74.66420671     100.95012913      94.76485354
C      72.53826461      97.51460669      94.21305346
H      74.08406073      96.24471061      94.61367543
C      70.53893417      89.69680894      91.60334142
O      68.76637089      88.30597037      91.75640925
N      72.87085644      88.93902869      91.80743186
H      74.32216625      90.17490969      91.89624900
C      73.69666684      86.36333172      92.38001893
H      72.04315631      85.27106991      92.94126765
C      74.46200600      85.08209728      89.85345485
H      75.01002663      83.13378945      90.22006176
C      72.36440979      84.76651299      88.06577376
H      73.17321265      83.63834638      86.54076463
H      71.77292545      86.53529682      87.19460993
H      70.87530545      83.47582991      88.66670673
O      76.17598776      86.51262010      88.41159367
H      77.80493184      86.59954751      89.20716845
C      75.66576166      86.03451934      94.37934937
O      77.32683109      87.49338806      94.78941998
N      75.66765138      83.71960461      95.42814748
H      74.27114364      82.50073114      94.97083371
C      77.52336262      83.05442095      97.34244023
H      79.31482317      84.00495328      96.97772305
C      76.58605837      83.92558478      99.98616734
H      75.68654865      85.77373711      99.86144541
C      74.54137450      82.08877080     100.94236886
H      72.89542288      82.25128726      99.71404675
H      73.91020591      82.65379897     102.82264654
H      75.12152048      80.12345544     101.12945176
C      78.74979500      84.00495328     101.92880599
H      80.36551100      84.94414726     101.06331134
H      79.52836224      82.10010916     102.03274094
C      78.48712304      85.12934044     104.61032763
H      77.63485648      86.99827976     104.44781117
H      80.39007744      85.29374663     105.38322569
H      77.40242014      83.95393067     105.90856961
C      77.96366885      80.07810200      97.00795867
O      76.56905083      78.47561409      96.07632360
N      80.21622262      79.17103337      97.87723278
H      81.50312624      80.51840824      98.28919311
C      81.07982754      76.56888024      98.11911774
H      79.48678826      75.55409721      98.93925896
H      82.82593466      76.33266445      99.18681311
C      81.48233925      75.41047801      95.55664886
O      83.10561415      76.45360694      94.16392057
N      80.31637811      73.32988934      94.93681863
H      79.22600603      72.66281595      96.35411337
C      80.34283428      71.74251924      92.61623472
H      82.02847015      72.46061524      91.67326129
C      80.63196241      68.84556880      93.05276150
H      79.02191559      68.20117213      94.16392057
C      80.98534123      67.41315625      90.54698441
H      79.20899849      67.59079053      89.51708357
H      81.18187276      65.40248746      90.95516529
H      82.64263120      68.05755293      89.50952466
C      83.05081209      68.27865091      94.74595628
H      82.79380931      69.13847638      96.59977779
H      84.64196164      69.15170446      93.76896777
C      83.61772998      65.58201146      95.49617762
H      85.18809255      65.25508881      96.78686069
H      84.12039718      64.25920304      93.99951438
H      81.84705643      64.84501820      96.24261952
C      77.90130789      72.48896113      91.13846874
O      76.00780212      70.99607734      91.13846874
N      77.91075652      74.76230189      89.92337473
H      79.56804649      75.70149586      89.80999115
C      75.89063909      75.70905477      88.35490189
H      75.74513016      74.51474774      86.68249410
H      76.46511589      77.60822971      87.80310180
C      73.19210991      75.78086437      89.64180550
O      71.41009800      75.65236298      88.17915734
N      72.93888659      75.96983700      92.20805384
H      74.48468271      75.84700479      93.32110264
C      70.58239787      76.63124121      93.45716293
H      69.10085245      75.31599170      92.89024504
C      70.94522533      76.29864938      96.29742158
H      72.04693577      77.82365851      97.14212924
H      72.10740701      74.65080803      96.71883055
C      68.32984411      75.84322534      97.51629505
N      67.00136651      73.59256130      97.51629505
H      67.37175287      71.92015351      96.67536684
C      64.86030660      74.01963944      98.88634663
H      63.31451048      72.68927212      99.00917884
N      64.75259220      76.46872475      99.68003168
H      63.36742281      77.26052007     100.72694006
C      66.82373224      77.64413451      98.58776987
H      67.32639944      79.62267796      98.64257193
C      69.59974019      79.25040188      92.72016967
O      70.62775131      81.29319602      93.47039101
N      67.41521657      79.45449232      91.38980234
H      66.60452399      77.85389413      90.74729540
C      65.97335540      81.71838444      90.94760639
H      67.46057001      83.09788465      90.59233784
C      64.50503805      81.48594811      88.54387452
H      63.03105153      80.10644790      88.95016567
H      65.76737523      80.59210756      87.18327157
C      63.53371873      83.90668751      87.10012361
H      62.20713086      85.04430275      88.19238542
C      65.71824235      85.50350625      86.18360635
H      64.83196070      87.09087635      85.21795621
H      67.18278024      84.65123968      85.01386576
H      66.80105552      86.14412347      87.81444016
C      62.06540138      83.05631067      84.77576025
H      63.16900155      81.97727695      83.40948812
H      61.14888412      84.65123968      83.84979436
H      60.51771553      81.80531185      85.30488362
C      64.70534904      82.45159825      93.46472184
O      63.73025026      80.86422815      94.79130971
N      64.61464218      84.84021231      94.03541918
H      65.23258268      86.00617345      92.65591897
C      63.74158862      85.84365699      96.39001817
H      63.18033991      84.39990608      97.74873139
C      65.81839784      87.50850587      97.76006975
H      65.01715388      88.52139917      99.36255766
H      66.60641371      88.90501361      96.46749695
C      68.02181872      86.05341661      98.81831648
H      68.94778461      84.77974107      97.48983888
C      70.18555535      87.77495728      99.88034267
H      69.55249703      88.51761972     101.69447993
H      70.38586634      89.29807669      98.50840137
H      71.88063985      86.72804890     100.40568658
C      67.27726655      84.38478827     101.10866477
H      66.90688020      85.65468435     102.69036570
H      68.67755375      82.97127299     101.63967787
H      65.58218205      83.31331345     100.63812292
C      61.30762113      87.39890174      95.87601261
O      59.34041604      86.86032974      96.79630933
N      61.65155132      89.31508422      94.30942950
H      63.25592896      89.39067327      93.27952866
C      59.54828593      91.20481054      93.73117325
H      57.86453979      90.02751104      93.60456158
C      59.28561398      93.13989028      95.80231329