 %block lattice_cart
   137.614   0.000   0.000
   0.000 142.646   0.000
   0.000   0.000   160.855
 %endblock lattice_cart

 %block positions_abs
N      88.98927703      37.92586687      81.22590937
H      88.31842418      36.78069273      82.59785067
H      90.77317866      37.43075857      80.76292642
H      87.88000768      37.72366616      79.68767215
C      89.01573319      40.56959398      82.02526360
H      90.49160944      40.49589466      83.46145560
C      89.40123736      42.43097441      79.85963724
H      87.73449875      42.34026754      78.65399186
H      91.01506363      41.81870308      78.73525009
C      89.72627029      45.04068644      80.82528739
H      87.93669947      46.03846194      81.03882646
H      90.58231631      45.89862219      79.15854878
S      91.92024254      45.54335364      83.44066861
C      91.64056304      49.02611924      83.61830288
H      92.04496447      49.79523785      85.48535248
H      89.90201483      49.60059604      82.67910890
H      93.16179272      50.02956391      82.65643219
C      86.54397118      40.98533378      83.50869875
O      84.46338251      40.33715764      82.60918903
N      86.83876848      42.12105929      85.72345799
H      88.56975778      42.65774156      86.32250123
C      84.68448048      43.01489984      87.39208633
H      83.30120082      41.48989069      87.36374043
C      85.90902314      43.09993752      90.05282098
H      87.63245353      44.22810413      90.04904152
H      86.46838212      41.16863722      90.49312721
C      84.12134204      44.16007398      92.07104868
O      81.85178074      44.56447541      91.49657188
N      84.84510722      44.28290619      94.44643465
H      83.39190769      44.44920210      95.67475676
H      86.43814650      43.40418346      95.01713200
C      83.56765223      45.58870708      86.44344372
O      84.82998941      47.55591217      86.08628545
N      81.07888268      45.49611049      85.92565871
H      80.22661611      43.79157735      86.02959366
C      79.67292630      47.75622316      85.35874081
H      80.15480651      48.40250956      83.46334532
C      76.85912382      46.94742030      85.26425450
H      76.70038681      45.42997006      83.87719539
C      75.54954349      46.01200576      87.82672338
H      75.07144273      47.62394232      89.01914068
H      76.90258753      44.91596450      88.92843382
H      73.75052404      45.18241591      87.26736439
C      75.09978862      48.83903633      84.06427829
H      74.82199886      50.48309822      85.26992368
H      73.24029793      48.00755676      83.75814263
C      76.17315317      49.96153375      81.62464162
H      76.78164504      48.48565750      80.32073046
H      77.32021704      51.62827237      82.00636634
H      74.66515157      50.77411608      80.47946747
C      79.90536264      49.99176938      87.16153972
O      80.17937295      52.19707999      86.27903753
N      80.21149830      49.65728782      89.67865517
H      80.25874146      47.85637864      90.30415458
C      80.60645110      51.64527991      91.40775474
H      79.03797826      52.97564723      91.30759925
C      80.62156891      50.51711330      94.10817364
H      81.77619169      51.68496416      95.34783411
H      81.68170537      48.75777809      93.95699554
C      77.89091439      50.15050640      95.16075120
C      76.61723885      47.77134097      94.90374842
H      77.47328487      46.10649208      94.09494556
C      74.09256450      47.55402244      95.76168417
H      73.10612736      45.76634135      95.74656636
C      72.93416227      49.81602484      96.75945966
H      71.15026063      49.50233026      97.70243309
C      74.28153713      51.97787174      97.26968577
H      73.26108492      53.58035965      98.01234821
C      76.70038681      52.19330053      96.35883768
H      77.76619245      53.91862065      96.59694320
C      83.07821312      52.96619860      90.98823550
O      83.02719051      55.25087771      90.94855125
N      85.06620520      51.48465316      90.33627992
H      84.84699695      49.66106728      89.81471546
C      87.56442339      52.53345127      89.69944216
H      87.96882482      53.94885627      91.13563415
C      89.62611479      50.41317834      89.88085588
H      91.43458287      51.34292370      89.55204350
H      89.27273597      49.04690623      88.37852346
C      89.55052574      49.17162817      92.52836245
H      91.24372052      48.01511566      92.71733508
H      87.95370701      47.87716563      92.64174602
C      89.43903189      51.02733939      94.79981347
O      87.43781172      51.15017161      96.17931368
O      91.15301365      52.57313552      95.13429503
C      87.64946107      53.65027953      86.95744928
O      88.86644481      55.65149968      86.73068212
N      86.30775539      52.79990268      85.09039968
H      85.51596006      51.07080311      85.25291614
C      86.08665741      54.10570356      82.67343972
H      87.95559673      54.63104748      81.98368962
C      84.65802432      52.45975195      80.80827985
H      82.77963636      52.19707999      81.61330326
H      85.72571968      50.70608593      80.97268604
C      84.55219964      53.51043978      78.10219177
H      86.26240196      52.90572736      77.12709300
H      84.28196878      55.55134419      78.15321438
S      81.93681843      52.18952109      76.33151822
C      79.53497628      54.43640567      76.72080184
H      79.32899611      55.08836125      78.66344049
H      77.86634795      53.33658495      76.22191409
H      79.53308656      56.04456277      75.43200849
C      84.69014966      56.61337039      82.96445758
O      85.83910326      58.48041998      82.07439648
N      82.64357607      56.90438823      84.37230368
H      82.20138011      55.48142431      85.56472098
C      81.21872243      59.41016533      84.69922633
H      80.91825594      60.14715858      82.79816166
C      78.57688504      58.78088647      85.83117239
H      77.65091915      60.41172028      86.67965951
H      78.89813851      57.65460958      87.52436717
C      76.74385052      57.42595269      84.12285981
H      77.40147527      55.57402090      83.50680903
C      74.25130151      57.30501022      85.41543260
H      74.40814879      55.99542987      86.99902325
H      73.04943558      56.24109430      84.12474953
H      73.45194728      59.14182418      85.89920254
C      76.33566963      58.84891660      81.63409025
H      75.76308256      60.75187100      82.17455198
H      74.85790366      57.68106574      80.80261067
H      77.94382673      58.84702688      80.34529691
C      82.63223771      61.42083412      86.19211012
O      82.08421708      63.66582898      85.94266625
N      84.50873594      60.69517922      87.63586102
H      84.66558322      58.80356318      87.83617201
C      86.16791564      62.35057947      89.10039891
H      84.93203463      63.84913244      89.78447984
C      87.39056856      60.61392099      90.95611015
H      88.63211875      59.26087694      90.02447508
H      86.18681290      59.20607488      91.85939933
C      88.97982839      62.02365682      93.04425773
H      87.60977682      62.84568777      94.35005861
H      90.14389980      63.46929745      92.15419664
C      90.59176494      60.00731883      94.50312644
H      91.65757058      61.12036764      95.86939857
H      91.93913980      59.33646599      93.09905979
N      89.10644006      57.87759729      95.75790472
H      89.47115724      56.08991620      95.19854573
C      87.71938094      57.90972264      97.81014749
N      87.34332541      59.97897295      99.07437439
H      86.10366495      60.05267227     100.52379448
H      88.34299063      61.48319508      98.45643389
N      86.61011160      55.87448740      98.54903048
H      85.72382996      55.90094356     100.23844580
H      86.70837737      54.27955839      97.50401183
C      88.25984267      63.46551799      87.51113909
O      88.79085576      65.70484368      87.83050283
N      89.35210448      62.00098010      85.77637033
H      89.08187361      60.11881270      85.94833542
C      91.26639723      62.97040970      84.03215294
H      92.54385222      64.24030579      85.03370789
C      93.12210847      60.79722444      83.22523981
H      94.72270666      61.76854377      82.36730406
C      94.36176893      59.46496739      85.50802919
H      92.92179748      58.90371868      86.87052186
H      95.57308350      60.76887854      86.54359921
H      95.29151428      57.80200824      84.72757223
C      91.78040279      58.98497691      81.47157379
H      90.57664713      59.93172979      80.09396331
H      90.55019096      57.76232398      82.58462259
C      93.45659003      57.04800744      80.01837425
H      94.81152380      58.02499593      78.81461859
H      92.31708506      55.74031683      78.90532546
H      94.64144843      55.82346478      81.17866621
C      90.24972448      64.48408047      81.83062179
O      91.54418700      66.10546565      80.78560314
N      87.87811795      64.21762906      81.34874158
H      86.98427741      62.78899597      82.24258212
C      86.39846225      65.33067786      79.16232823
H      87.56442339      65.24186073      77.46724373
C      84.13645985      63.75842558      78.57462335
H      82.64168634      63.75653585      79.99569754
H      84.62400924      61.75909514      78.62186651
C      82.97805762      64.44250650      75.91766815
O      84.02874545      63.65449063      73.96936033
O      80.97116828      65.63114434      75.81562293
C      85.46871690      68.03487621      79.66499543
O      85.65957926      69.58823125      77.90377051
N      84.49550785      68.50919752      82.00447661
H      84.33866057      66.96718086      83.11941513
C      83.75095569      70.97151091      83.07595143
H      83.46938647      72.10345696      81.37708747
C      81.26596558      70.52931495      84.60096056
H      81.77808141      69.22918325      86.11463134
H      79.81843523      69.64681276      83.43121998
C      80.24551338      72.68171323      86.04471147
H      81.82154512      73.60200994      86.99902325
H      78.95672003      71.95794804      87.48279319
C      78.78286521      74.58088817      84.42710574
O      79.85245030      76.68793300      83.89420292
O      76.46795048      74.23884771      83.72412755
C      85.85044162      72.11479532      84.58206330
O      86.25484305      74.46561486      84.42521602
N      87.27529526      70.80710472      86.28659643
H      86.69514928      69.01564418      86.59273210
C      89.07620444      71.85401309      88.12530014
H      90.28184982      73.21650576      87.15776026
H      90.31586490      70.29876834      88.65631323
C      87.88378713      73.02753313      90.39864089
O      86.09610604      74.52797582      90.24935251
N      88.91746743      72.38124673      92.57938506
H      90.34987997      71.12646846      92.44143504
C      88.32031391      73.54720787      95.03036008
H      86.26618141      73.69838598      95.11350804
C      89.41824490      71.80865966      97.05614669
H      91.44970068      71.63102539      96.75945966
H      88.35621871      70.04365528      97.02591107
C      89.02140237      72.87446531      99.81325738
H      89.61666616      74.83411150     100.03246564
C      86.26807113      72.67604404     100.58048627
H      85.10211000      73.81176956      99.31814909
H      85.96004575      73.61901747     102.38517489
H      85.52351897      70.75986156     100.44820542
C      90.69192043      71.38347125     101.49700353
H      90.72971496      69.35201546     101.16630142
H      90.14578953      71.48551646     103.48121616
H      92.48149125      72.36612892     101.21732403
C      89.21415446      76.29486994      95.29492177
O      91.44970068      76.92603851      94.92264568
N      87.60788709      78.18459624      96.10372463
H      85.73516831      77.92192428      96.37962467
C      88.40913105      80.64124046      97.07504396
H      90.44436629      80.44848837      97.32826728
C      87.77796246      82.62734281      95.05870598
H      87.30931033      84.42069308      95.96010543
H      86.13012111      82.01696121      93.98534143
C      89.97382443      83.25662167      93.15953103
H      90.75428140      81.59744197      92.21655760
H      91.34009656      84.19014646      94.38785314
C      89.13478595      85.27295965      91.23389992
H      90.91679786      85.61311038      90.26069087
H      88.54708107      86.92835989      92.31104392
N      87.02963084      84.44525952      89.48779281
H      86.61767050      82.58198938      89.53503597
C      86.05264233      85.62822819      87.45255757
N      86.64979585      87.93936347      86.68910814
H      85.46493745      88.66123892      85.37952780
H      87.73449875      89.06941980      87.77759050
N      84.41991880      84.45848760      86.00124776
H      83.85111118      85.69058915      84.65954208
H      83.94370777      82.64624007      86.36218549
C      87.25828772      81.23272478      99.61672585
O      85.00195450      80.76596238      99.99656084
N      88.72471534      81.98672558     101.50834189
H      90.58042658      82.33254551     101.23433157
C      87.95559673      81.85822419     104.23710668
H      86.12256221      80.95871447     104.50355809
C      89.91713264      80.42392193     105.79802062
H      89.41257572      80.80186718     107.75955653
H      91.80874868      81.19870972     105.53912811
C      89.98327307      77.53830984     105.77723363
H      90.51995534      77.16225431     103.82325662
C      92.18291449      76.42904050     107.38161127
H      93.80996885      77.68948794     107.47798731
H      92.52684468      74.47695322     106.82036255
H      91.54796645      76.27975212     109.33747800
C      87.43592200      76.29864939     106.59737485
H      87.42269391      74.23884771     106.60682348
H      86.17736427      76.73139671     105.02323283
H      86.84065821      77.20760774     108.34726141
C      87.25828772      84.43959034     105.27645615
O      86.05831151      84.61344517     107.22665371
N      87.92536111      86.47671530     103.94986828
H      89.16313185      86.01373236     102.57036807
C      86.90112945      89.02406637     104.22387860
H      86.12445193      89.14689859     106.12683299
C      89.05541745      90.98371256     103.88372786
H      88.03118578      92.75249640     103.62294563
H      90.04563403      90.39222822     102.17730500
C      90.98671774      91.24827425     106.13061245
H      91.97693433      89.46437260     106.42352003
H      89.91902237      91.69991884     107.83136613
C      93.02006325      93.18335400     105.59581990
H      94.24838535      93.54807117     107.20775645
H      92.15834805      94.99182207     105.11016024
C      94.89278203      92.26305727     103.46231889
H      93.77973323      91.44102632     101.93542003
H      96.35165074      90.95158721     104.08592858
N      96.01338973      94.33419732     102.25478378
H      97.33430842      93.68413147     101.04157949
H      97.06407756      95.41323103     103.42830382
H      94.84742860      95.49826873     101.29102336
C      84.85077640      89.56830755     102.29068858
O      84.75629008      88.23982996     100.36316774
N      83.18970697      91.40134208     102.82359140
H      83.19915560      92.42557374     104.43363822
C      81.02408062      92.15156343     101.14551443
H      80.07921746      90.38088987     100.68064176
C      79.13624403      93.91656779     102.48533039
H      78.81688028      93.15878754     104.37505670
C      80.41747847      96.53761819     102.85193729
H      78.95105085      97.61665193     103.81947717
H      80.57999493      97.55618068     101.06992538
H      82.06154036      96.30329213     104.06703131
C      76.43960458      94.05073837     101.24755965
H      75.49474142      92.26683672     100.82804041
H      76.80432176      94.81796726      99.37295115
C      74.39492071      95.57574751     102.49099957
H      74.96561806      97.49192999     102.98421814
H      73.97729119      94.64033298     104.27868066
H      72.81133006      95.61354202     101.17386033
C      82.02185611      93.17201564      98.61139145
O      84.07220916      94.31718978      98.48289006
N      80.57432575      92.78840120      96.64040690
H      79.00774264      91.71692638      96.81615145
C      81.19604571      93.39122388      94.04959213
H      82.07287872      95.24882486      93.88896539
C      82.87601240      91.57330717      92.68709946
H      84.76573872      91.69802910      93.49779204
H      83.08388230      92.28762371      90.76524780
C      81.90658280      88.83698348      92.45277339
C      80.68204015      88.31730874      90.13785866
H      80.34566887      89.79885416      88.77158654
C      79.95071607      85.88145152      89.58038940
H      79.18159746      85.53752133      87.72089871
C      80.58944356      83.99361494      91.40964447
O      80.23228529      81.55586798      90.91264645
H      80.02441540      81.21949671      89.14197289
C      81.62879304      84.51517939      93.83605305
H      81.74784579      83.06197986      95.26657587
C      82.31287396      87.00016949      94.30470518
H      83.05364668      87.62944835      96.09805545
C      78.74696041      93.68602118      92.44899394
O      76.78164504      92.83564434      93.19732556
N      78.87168235      94.88221795      90.29281622
H      80.53842095      95.63243930      89.74479559
C      76.72873271      95.00693989      88.50891458
H      74.89947764      94.61576654      89.36874005
C      76.57755460      97.72436633      87.40342469
H      75.70072159      97.67712317      85.54015454
H      78.54286997      98.28372530      87.14642191
C      75.37757839      99.84652897      89.10795782
H      76.36023608     100.03550161      90.91075672
H      73.43305002      99.24181655      89.40653458
C      75.46261608     102.46568963      87.61507403
H      74.01319599     102.42789512      86.15053614
H      77.36746020     102.70757460      86.86863214
C      74.69727692     104.64265435      89.28937155
H      76.13346892     105.06784278      90.70477655
H      73.08156092     104.19856867      90.48556830
N      74.56688580     107.02370950      87.61507403
H      73.80721583     106.59852108      85.91809980
H      76.32811073     107.73424661      87.40909386
H      73.34990206     108.25581106      88.42009744
C      77.06888344      93.19847180      86.30549370
O      79.18348719      93.08508822      85.36252027
N      75.24718728      91.62244005      85.60818469
H      73.69761170      91.64700649      86.72123349
C      75.21317220      90.11632819      83.38775627
H      76.79298340      88.81619649      83.61452343
C      72.61290880      88.75950470      83.38019736
H      71.09167911      90.10876928      83.04004663
H      72.41070808      87.92802511      85.25291614
C      72.35023684      86.76395371      81.31850596
O      71.57166960      87.63322780      79.26059400
O      72.65826223      84.39612664      81.69645122
C      75.60623528      91.73582364      80.97835522
O      75.45316745      93.96759041      81.05583400
N      75.52686677      90.75316596      78.55572609
H      75.74607502      88.86343963      78.42155552
C      76.00118808      92.25171891      76.13876613
H      77.47895405      93.61043213      76.59607990
C      76.80621149      90.53584743      73.98825759
H      74.89947764      89.94058363      73.48748012
C      78.28397746      91.84731748      71.97191961
H      79.04931662      90.59631867      70.52438926
H      79.75796399      92.89233613      72.96024648
H      77.01408138      93.21736907      71.10453524
O      78.35578706      88.55163480      74.65344125
H      78.82821864      87.72015522      73.11142458
C      73.74863431      93.80129450      75.43578795
O      74.13791793      95.79117630      74.33218778
N      71.52631617      93.01705807      76.22947300
H      71.57544905      91.49015922      77.37464714
C      69.16604800      94.35687404      76.10475106
H      68.97707537      95.40189269      74.33974668
C      66.99286274      92.38966894      76.52993948
H      66.81900792      91.85487639      78.51226238
H      67.44450733      90.67001799      75.49059001
C      64.35291508      93.00382999      75.45657493
H      63.49497934      94.51939050      76.55828537
H      63.28332999      91.29362768      75.87231472
C      64.24520068      93.50838691      72.67867725
O      63.95229310      91.66968321      71.16878593
O      64.42472468      95.75149204      71.90011001
C      69.04699524      96.36565311      78.06439725
O      67.11569495      97.76971976      78.43478360
N      71.00664143      96.65478122      79.67822352
H      72.48818686      95.46992282      79.45712554
C      70.92916265      98.36309382      81.81361425
H      70.31689133     100.23581259      81.21079156
H      72.93038282      98.41033698      82.29738419
C      69.59123642      97.71869714      84.28159682
O      69.54399326      99.14166106      86.10329298
N      68.42905474      95.48693037      84.55560713
H      68.01520468      94.59308982      82.92099387
C      67.29521895      94.55529530      86.92343420
H      66.31445100      96.23337226      87.60373567
C      65.37336729      92.36321277      86.45289235
H      64.44929112      92.23093192      88.28970633
H      66.57712295      90.72670978      86.10896216
C      63.58946565      92.76194502      84.25892010
C      62.82601622      90.53773716      82.93989113
H      63.56111976      88.84454238      83.80727551
C      60.96274608      90.47159673      81.09740798
H      60.30323159      88.79163003      80.14687564
C      59.91205825      92.80351900      80.34907636
O      58.17917922      92.70336350      78.43478360
H      57.72186545      94.45136035      78.25714933
C      60.76054536      95.10331593      81.42244090
H      60.12181787      96.94390935      80.81583876
C      62.63326414      95.05796249      83.38397682
H      63.12459298      96.68501685      84.51214343
C      69.13014320      93.85987601      88.99646397
O      71.02364897      92.54651623      88.57505500
N      68.89392741      95.04095495      91.13752388
H      67.23852716      95.98014893      91.27358417
C      70.40003928      94.33608704      93.39763655
H      72.29921423      95.00693989      92.96866868
C      69.25297541      95.67212355      95.78247116
H      70.31500160      94.98426316      97.40763579
H      67.23663744      95.24882486      95.83727322
C      69.60824396      98.47647739      95.80136842
C      67.61647243      99.96369201      94.93587377
H      65.73997420      99.16622749      95.01524227
C      67.79788615     102.48836636      94.66186345
H      66.15949344     103.66566585      94.35194834
C      70.12224952     103.59763570      95.15697175
O      70.45106189     106.11475115      94.89241006
H      69.03565689     106.99347389      94.17620379
C      72.22362518     102.10853137      95.88451638
H      74.06232888     102.95701848      96.14907806
C      72.01197583      99.50448851      96.16041642
H      73.63525073      98.35742464      96.62150964
C      70.42838518      91.44669551      93.88518594
O      68.58968148      90.27695493      93.25590708
N      72.52787111      90.46403782      94.80926211
H      73.98485010      91.64700649      95.14752312
C      73.00786160      87.66724289      94.77146758
H      71.18994488      86.80552768      95.21366354
C      73.73729595      86.89623454      91.98979045
H      75.59678665      87.61810999      91.47956434
C      74.04532134      84.15424167      91.31893761
H      72.20094846      83.31709291      91.68932396
H      75.48718252      83.36433607      92.55670834
H      74.41003852      83.99928410      89.29882018
O      72.01008610      87.68236069      90.13218948
H      71.40348396      89.38311437      90.29848540
C      75.03931738      86.93780853      96.77079802
O      76.50952445      88.41368478      97.72699953
N      75.15459069      84.46226706      97.47944539
H      73.82611309      83.20181960      96.93709393
C      77.01030193      83.43047649      99.28791347
H      78.85656454      84.31297868      99.05358740
C      76.14102782      83.76495805     102.06014197
H      75.52686677      85.73216314     102.05258306
C      73.98673983      81.90924681     102.67619275
H      72.44283343      82.10766807     101.32881789
H      73.35746096      82.03018930     104.63394921
H      74.60657006      79.95338008     102.50422765
C      78.47106037      83.26418058     103.84782306
H      79.07199333      81.29697548     103.71932167
H      77.93059864      83.66669228     105.79235144
C      80.73684222      85.02918494     103.45664971
H      79.84678112      86.66379822     102.56847835
H      81.86311910      84.32998621     101.87872824
H      81.89146499      85.48271927     105.09882188
C      77.57533009      80.67147607      98.72099557
O      76.02197507      79.36378547      97.51346046
N      79.75796399      79.72283347      99.50523199
H      81.06187514      80.91714050     100.22710745
C      80.30409489      77.00729675      99.49578336
H      78.72239397      75.95093974     100.28568896
H      81.94437733      76.90525153     100.73733355
C      80.90880731      75.99062399      96.91441722
O      82.30531506      77.26618926      95.53869646
N      79.87134757      73.84767436      96.34560960
H      78.99262483      72.97273108      97.79691941
C      79.85245030      72.72139748      93.83038388
H      81.48895329      73.39036058      92.77402687
C      80.08299691      69.83578539      93.99101061
H      78.50885489      69.14792501      95.12862585
C      79.94882634      68.51486671      91.40397529
H      80.13590925      66.47018282      91.57405066
H      81.24895805      69.26886749      89.99612919
H      78.18193224      68.84556880      90.39675117
C      82.67759114      69.03643117      95.10972859
H      83.06309531      70.41026220      96.59694320
H      84.00606874      69.50697301      93.60739617
C      83.02908023      66.31900473      96.13773970
H      85.01707232      66.14137045      96.64985553
H      82.34499931      64.79966477      94.92831486
H      81.88579581      66.29254855      97.85172147
C      77.33344513      73.70783460      92.63985630
O      75.38702702      72.47573306      92.83260838
N      77.41848281      76.03408770      91.69310342
H      79.09089060      76.94871524      91.75168493
C      75.57033048      77.08666526      90.01502645
H      75.17915713      75.88668904      88.38608237
H      76.31110319      78.90269224      89.38763731
C      72.90392665      77.60822971      91.06382455
O      71.07089213      77.37957284      89.68999352
N      72.64692387      78.11656609      93.52424821
H      74.12280012      78.31687708      94.72044497
C      70.25642008      78.24695722      94.82626964
H      68.86558152      77.33610913      93.61117562
C      70.41515709      76.72761726      97.26212686
H      71.63592029      77.61956807      98.65863461
H      71.43182985      74.97395123      96.90118913
C      67.86591630      76.16825826      98.50178732
N      66.42405512      73.96672711      98.49800787
H      67.01364973      72.32644468      97.71944063
C      64.22252397      74.32577511      99.74711696
H      62.58035180      73.13146808      99.53357789
N      64.31323083      76.65013848     100.54269174
H      62.74664772      77.63279617     101.01323359
C      66.45051129      77.94838046      99.77168340
H      66.96451685      79.86078349     100.26679170
C      69.36824872      80.97572200      95.14563339
O      70.27720707      82.30230988      96.73111377
N      67.56922927      81.50673510      93.49212287
H      67.08356961      80.05731503      92.34694872
C      66.06122767      83.84054710      93.13685432
H      67.33490320      85.38445350      92.64741520
C      64.17339108      83.50984500      90.98256632
H      63.39671357      81.60122141      90.99012523
H      64.97841449      83.60055185      89.09095028
C      61.99831610      85.53374188      90.88996973
H      61.14982898      85.41657885      92.76268851
C      62.86759020      88.18124843      90.27391895
H      63.92583694      88.08676213      88.50702485
H      64.11291984      88.67068756      91.84050207
H      61.16494679      89.29807669      89.97156274
C      60.06512608      84.59643762      88.80749134
H      60.38826928      84.71926984      86.77603555
H      58.42295391      85.76617821      89.23456948
H      59.72497534      82.70482158      89.55204350
C      64.83290557      84.68714449      95.65774922
O      63.60269374      83.10922301      96.93142476
N      65.03699601      87.00961813      96.42119865
H      65.95729272      88.20203542      95.24956834
C      64.10347121      88.20959433      98.76823873
H      63.71418759      86.46915641      99.80191902
C      66.21807495      89.59665344     100.04758345
H      65.34880085      90.40356658     101.73321932
H      67.02120864      90.94780776      98.71721612
C      68.44039310      88.09243130     100.83937877
H      68.75030821      86.74694616      99.30870046
C      70.62302699      89.97270898     101.35716378
H      72.38425191      89.15445750     102.04502416
H      70.19594884      91.40512152     102.77067906
H      71.20884215      90.75127622      99.54113679
C      67.76576080      86.59198861     103.24877982
H      67.86969575      88.10565938     104.64528757
H      69.25108569      85.23705484     103.70231413
H      65.96296190      85.59421312     103.20720584
C      61.67328317      89.79507471      98.35627840
O      59.76088014      89.33398149      99.45420938
N      61.99075719      91.55629963      96.54970004
H      63.68773142      91.85676611      95.72577937
C      59.82702056      93.06241151      95.61428552
H      58.23776073      91.75850035      95.48200467
C      58.92562111      95.26772211      97.30748029