 %block lattice_cart
   137.614   0.000   0.000
   0.000 142.646   0.000
   0.000   0.000   160.855
 %endblock lattice_cart

 %block positions_abs
N      89.51178635      40.37967649      80.97079632
H      91.41096130      40.44392719      80.80072096
H      88.49133414      39.49150512      79.62342145
H      89.03746505      39.37812155      82.52415135
C      88.61983553      42.97238099      81.62842108
H      89.85949599      43.18214061      83.26114462
C      89.14895890      44.95659362      79.64420845
H      88.04724846      46.58553770      80.26403867
H      88.50834168      44.39912436      77.76771021
C      91.88906205      45.92224377      79.56672966
H      93.20620129      44.48416204      78.90721518
H      92.61660668      46.75750280      81.30149843
S      92.61471696      48.43180031      77.39732387
C      90.52278993      50.92245959      78.83162613
H      90.93475027      52.78950919      78.07006642
H      90.65129132      51.27583841      80.85741275
H      88.55369511      50.40845403      78.51415212
C      85.72666455      43.06875703      82.17077252
O      84.30559036      41.34910609      81.55472176
N      84.91219251      45.03974158      83.52759603
H      86.28413381      46.15279038      84.24758174
C      82.22689141      45.66713071      84.11908035
H      81.00423849      44.75628263      82.73391097
C      81.75257011      44.72415728      86.85729378
H      82.34405445      42.74939329      86.91398557
H      79.73434241      44.39534491      87.09728902
C      82.77680177      46.19814381      89.15331126
O      82.94876687      48.48849210      89.03236877
N      83.44765461      44.83565114      91.08083210
H      84.48133491      45.56319577      92.50946518
H      83.46844160      42.93836592      90.88996973
C      81.74690093      48.58108869      83.69578166
O      83.29458678      50.17034852      83.29326995
N      79.36584578      49.13099905      84.03782212
H      78.13941340      47.73260158      84.46678999
C      78.25468670      51.68968847      83.79404743
H      78.73656691      52.39644612      81.92132865
C      75.34828764      51.36276582      83.62964124
H      74.73223686      50.14767180      82.08573484
C      74.38641694      50.25916566      86.24124301
H      75.12907938      48.38455715      86.67021087
H      72.32850499      50.30829854      86.30927315
H      75.10451294      51.54040010      87.68688363
C      74.07272237      53.95924978      83.29138023
H      74.59995602      55.14788763      84.89197841
H      72.04504604      53.67579083      83.51058848
C      74.71333959      55.43134657      80.80827985
H      76.71267003      55.90755761      80.70245518
H      73.46045105      57.05273175      81.00859084
H      74.24090802      54.36554093      79.10941590
C      79.22411630      53.47170039      85.85195938
O      79.74946022      55.58630413      85.11496612
N      79.62095883      52.74037630      88.11585150
H      79.22222658      50.92056987      88.52781185
C      80.89652409      54.48270397      89.84873053
H      79.77024721      56.20424464      89.72589833
C      80.82282476      53.37910380      92.58505424
H      81.84327697      54.69057386      93.80203798
H      81.94532219      51.68401930      92.91386661
C      78.21122300      52.79895782      93.64897016
C      76.86762759      50.55963214      92.98000703
H      77.70477635      49.04974082      91.88774523
C      74.41665256      50.13633345      93.76613319
H      73.55115791      48.34298317      93.31448860
C      73.35084692      51.84464603      95.42342317
H      71.53481994      51.42512679      96.25301301
C      74.53570532      54.11042788      96.16230615
H      73.57572435      55.48992809      97.31692892
C      77.06604885      54.59608754      95.30059095
H      77.97311748      56.32896657      95.87695747
C      83.64607588      55.19513079      89.01725096
O      84.34716434      57.46847154      89.02103041
N      85.09549596      53.31863256      88.18577138
H      84.41141503      51.53851037      88.27836797
C      87.67686210      53.68146001      87.18610616
H      88.96565545      54.41278409      88.61851870
C      88.76345473      51.04907125      86.35084713
H      90.48877486      51.45536241      85.30204903
H      87.37639562      50.05129576      85.20189353
C      89.35871852      49.42390663      88.75646872
H      87.55402989      49.29162578      89.73912641
H      90.68908584      50.33097526      90.04148262
C      90.51145157      46.64033977      88.26136044
O      89.25100412      44.98682924      86.99335407
O      92.41062652      45.89767733      89.48968253
C      87.56347852      55.47103083      84.82772772
O      89.23021713      57.15666670      84.56127631
N      85.71721591      55.03828350      83.08162061
H      84.60605684      53.53406136      83.45956587
C      85.37139600      56.62565360      80.85174356
H      87.14017983      56.52738784      79.80105574
C      83.24545390      55.28583765      79.55161186
H      81.48422897      55.54284043      80.59096134
H      83.64229642      53.29973529      79.18122550
C      82.68798464      56.65210977      77.08173956
H      84.06937457      56.03605899      75.68334210
H      82.81270657      58.67411693      77.45968483
S      79.37718413      56.03227954      75.83074074
C      80.02724999      55.88677062      72.46702791
H      80.29748085      57.81807091      71.79617508
H      78.60050662      54.86442868      71.38988391
H      81.85272560      54.93434855      72.38576968
C      84.95943566      59.41866909      81.61708271
O      86.33326669      61.04761318      80.65710175
N      83.39852173      60.03471987      83.48035286
H      82.58593941      58.70435255      84.58395304
C      83.06592990      62.76726412      84.32317079
H      82.73522779      63.85574648      82.60729930
C      80.39196716      62.82395591      85.66487649
H      79.70788624      64.68911578      86.20722793
H      80.55259390      61.51815503      87.25035686
C      78.11295723      61.79405507      84.02459404
H      78.50224085      59.80417326      83.65798713
C      75.57316507      61.72413520      85.36440999
H      75.81316031      60.32951718      86.86107323
H      74.09161964      61.25926252      84.01136596
H      75.34261846      63.57228753      86.24313273
C      77.78414485      63.25481351      81.60763409
H      79.31104371      62.97702374      80.25647978
H      77.49312700      65.26737203      81.93266701
H      76.23645900      62.40821612      80.54182844
C      85.20510008      64.22613283      85.60629496
O      85.44509533      66.47112769      85.06394352
N      86.74144758      62.70301343      86.95744927
H      86.08193309      60.94934741      87.32405618
C      89.15462808      63.58173616      87.98168094
H      88.55558484      65.25414395      89.02669959
C      90.50767212      61.73736328      89.65975790
H      92.26322786      62.43845174      90.47800940
H      91.18419414      60.20857469      88.45789197
C      88.96943490      60.63754257      91.83672261
H      87.14206955      59.95535137      91.17720814
H      88.66518896      62.20790513      93.13496459
C      90.50200294      58.65710939      93.19921529
H      92.18385936      59.68889996      93.79069963
H      90.74010845      56.98659133      92.01813634
N      89.06770067      57.80295310      95.32893684
H      88.46298825      56.01905146      95.00957310
C      88.64251225      58.87820737      97.61550568
N      89.18297397      61.16477621      98.23344618
H      88.35527385      61.98491743      99.74711697
H      90.30925086      62.21168459      97.10338985
N      87.78835595      57.37965440      99.36917170
H      87.47655111      57.78027638     101.20787540
H      87.65229566      55.50315617      99.04791822
C      90.91018382      64.63809317      85.95967379
O      92.14417511      66.58829073      86.54170949
N      90.71176256      63.61197178      83.66365631
H      89.41918976      62.20979486      83.55972137
C      92.41629569      64.09763145      81.53582449
H      94.24933022      64.77037401      82.18778006
C      93.03801565      61.78271671      79.87853451
H      91.31269553      60.84352273      79.25870428
C      94.78979194      62.39876749      77.67322390
H      96.45275110      63.46457313      78.25336988
H      93.81847262      63.64787658      76.35419493
H      95.15639885      60.68667545      76.58663128
C      94.34948571      59.47725061      81.35441076
H      93.57847738      59.38276429      83.26303433
H      96.37149287      59.81551162      81.15598950
C      93.76367056      56.87698720      80.23380305
H      94.75388714      55.55417878      81.46212517
H      94.61215767      56.74470636      78.36297400
H      91.74355313      56.48581386      80.16388319
C      91.28057018      66.04027010      79.76893039
O      92.52401009      67.82984091      79.04516520
N      88.81636707      66.00247557      79.47791254
H      87.81481212      64.49825342      80.09207358
C      87.60694223      67.94322449      77.88109379
H      88.55747456      68.65565131      76.19923737
C      85.02746581      66.95300790      77.00048133
H      84.28480337      68.80682942      76.49970386
H      83.77835672      66.08184407      78.38943018
C      84.99534046      65.47713165      74.49092479
O      86.14051461      66.40309755      72.57285258
O      83.64418615      63.47969094      74.45124053
C      87.29891684      70.49435502      79.31728580
O      87.38206480      72.45778065      78.04172053
N      86.72444004      70.49435502      81.80416562
H      86.12728652      68.88997738      82.64698355
C      86.41641465      72.93210196      83.14587130
H      86.79624964      74.54970768      81.93077729
C      83.82559988      73.18532528      84.28537628
H      83.77268754      71.60551409      85.60440524
H      82.32893664      72.81493893      82.91721442
C      83.25679226      75.65519758      85.77637033
H      84.73077878      76.04826065      87.16153972
H      81.37462485      75.40575370      86.57194512
C      82.75979423      78.03436300      83.98490978
O      84.23567049      78.50301513      82.18966979
O      81.04581247      79.51779816      84.42332629
C      88.49511359      73.26847324      85.20567299
O      89.77445831      75.13552284      85.17354764
N      88.95431709      71.47512297      86.78170474
H      88.05669709      69.79137683      86.74391020
C      90.57381254      71.72456684      88.94355164
H      92.36338336      72.48801628      88.26513988
H      90.93663999      69.90287068      89.83361272
C      89.63461856      73.48957122      91.05815537
O      87.43686686      74.38530149      91.02980948
N      91.17852496      73.89397265      93.01024265
H      92.89439645      73.05682390      93.03480910
C      90.26578715      75.00702145      95.35539302
H      88.22677246      75.04103652      95.63696223
C      91.00278041      73.37051846      97.72133035
H      93.06069237      73.41398217      97.62306458
H      90.20720563      71.52236613      97.28858303
C      89.98799738      74.30593299     100.35938830
H      90.81191805      76.11062162     100.91307810
C      87.18931271      74.54970768     100.59938353
H      86.42208383      74.56860495     102.50989684
H      86.26145709      73.06438280      99.51468062
H      86.58837975      76.39408056      99.90396424
C      90.74010845      72.41242722     102.32848311
H      92.79046150      72.22723404     102.39651326
H      90.07681452      70.54159817     101.77668302
H      89.88595216      73.10028760     104.07270049
C      91.19175304      77.69232254      95.87506776
O      93.46320407      78.31593222      96.07159928
N      89.32848290      79.37039951      96.53080278
H      87.59182442      78.94143163      95.86939857
C      89.63272884      81.85161016      98.00856875
H      91.60182365      82.02546498      98.58871473
C      89.21320959      84.05881049      96.13773971
H      89.10171574      85.86349912      97.12795629
H      87.49166892      83.67708577      95.07193406
C      91.27112155      84.53691125      94.21210859
H      91.71331751      82.77190687      93.24078927
H      92.97565468      84.87706198      95.32137794
C      90.64751187      86.50978552      92.11073293
H      92.36338336      87.60771651      91.80459727
H      89.50989662      88.06692000      92.83260838
N      89.65162610      85.49122304      89.81849492
H      89.82737065      83.60149672      89.61062502
C      88.47810606      86.54191087      88.02325491
N      87.76756896      88.91540711      87.93821723
H      86.88695650      89.65995928      86.42076700
H      88.46676770      90.00199974      89.34228389
N      88.01512311      85.10571887      86.03715256
H      87.01923734      85.51389975      84.45923110
H      88.68030677      83.31803778      86.11463134
C      88.09071216      81.93475811     100.28946841
O      85.77768716      81.36217104     100.16852593
N      89.27368084      82.58293424     102.37761599
H      90.90640437      83.55803302     102.23588652
C      88.11716833      82.28624721     104.84559855
H      86.97010446      80.58549353     104.64906702
C      90.06169671      81.31114843     106.75989132
H      89.30958564      81.71366014     108.63449981
H      91.80402437      82.40529997     106.66540499
C      90.75900572      78.44065416     106.64839746
H      91.22387839      77.73767597     104.77000950
C      93.05691291      78.13073905     108.49466007
H      93.96587127      76.29392507     108.30379772
H      92.56747380      78.17042330     110.49776997
H      94.52523026      79.49323172     108.01089013
C      88.53857730      76.80793063     107.65184213
H      89.02990614      74.81237964     107.53089965
H      86.79813937      77.15375054     106.60304403
H      88.22677246      77.38429715     109.60392941
C      86.34838450      84.34793862     105.66762951
O      84.98967128      83.99078034     107.58570171
N      86.62428455      86.56080813     104.51111700
H      88.15118341      86.64017663     103.36783259
C      85.09738568      88.93241465     104.82292184
H      83.72166493      88.66407351     106.33092344
C      86.99278118      91.24732938     105.18763902
H      88.18708821      91.27378555     103.50956206
H      88.15874231      90.99032661     106.86760571
C      85.42052888      93.77578319     105.47865687
H      84.80447811      93.60003864     107.43830306
H      83.83315878      94.00821953     104.18797380
C      87.05514214      96.17195616     105.30669177
H      88.91841229      95.76377527     106.08147956
H      85.99500568      97.64405295     106.27990082
C      87.61072168      96.94674394     102.64595712
H      88.41763482      95.32157932     101.67085836
H      89.07336985      98.38671540     102.82926058
N      85.32415284      98.00121123     101.37417132
H      83.80481289      96.84847818     101.46298845
H      85.76823853      98.24498592      99.53357790
H      84.79502947      99.61314777     102.24722488
C      83.22655663      89.14406400     102.73099482
O      83.78213617      88.13495015     100.72788492
N      81.23289537      90.75600054     102.97287979
H      81.25179264      91.60070821     104.68497182
C      79.67009171      91.83503427     100.89418083
H      78.49657167      90.36482720     100.05703209
C      77.95610995      93.95530719     101.81069809
H      79.25435192      95.02111283     103.00311540
C      77.05282077      95.71842184      99.79058068
H      75.82827812      97.22453371     100.47655133
H      75.65631302      94.61293195      98.75312092
H      78.43799016      96.44785620      98.45076471
C      75.85473429      92.77611797     103.50956206
H      76.77125155      91.99944046     105.18196984
H      74.76436220      91.49488353     102.32281393
C      74.14642170      94.79056622     104.62072112
H      72.77637012      94.11593393     106.00022133
H      73.12407976      95.74865746     103.10894007
H      75.21411707      96.10203628     105.79802061
C      81.12140152      92.63060905      98.55847911
O      83.03380455      93.88349759      98.65863461
N      80.25779660      91.88038770      96.28324864
H      78.77814089      90.67852176      96.40041167
C      80.98723095      92.82714058      93.81148662
H      81.88863040      94.67718264      93.88140649
C      83.10372442      91.04134922      92.92142552
H      84.53802670      90.98276770      94.39919149
H      83.92386564      91.96164593      91.26980473
C      82.37429007      88.47132143      92.11262267
C      82.02658043      87.97432341      89.42165239
H      82.16642017      89.36516198      87.93632750
C      81.85650506      85.47610522      88.70355639
H      81.46722144      84.93942295      86.77225610
C      81.93398384      83.53535630      90.54981900
O      82.04358796      81.09571963      89.62952229
H      81.89996876      81.20910321      87.82672339
C      82.38184897      83.99833925      93.07449335
H      82.23822977      82.46199176      94.41241958
C      82.44420994      86.57025676      93.92864965
H      83.02435592      87.09560067      95.81270678
C      78.51546894      93.23154201      92.23545487
O      76.37062957      92.89517073      93.12551597
N      78.97278270      94.06869077      89.94321686
H      80.78314051      94.58080660      89.62385310
C      76.86573786      94.48632029      88.12530014
H      75.06293896      93.77956264      88.82827832
C      76.64463989      97.15461384      87.33539454
H      75.52970136      97.23965152      85.60629496
H      78.37373946      98.11270508      86.75524856
C      75.42387669      98.73820449      89.33661470
H      76.87518650      99.56401489      90.54226009
H      74.29004090      97.59303034      90.62162860
C      73.67021067     100.85658769      88.21978645
H      72.71400916     100.07991017      86.56816566
H      74.66798616     102.57434890      87.66798637
C      71.58584255     101.57279396      90.10762304
H      72.60818448     102.65938659      91.52869723
H      70.80727531      99.86826082      90.96177933
N      69.58273265     103.02221404      88.92276465
H      70.34807181     104.46596494      87.93821723
H      68.21268108     103.88014979      89.93754767
H      68.69267156     101.83735564      87.71900898
C      77.22100641      93.04067966      85.70645046
O      79.38285331      92.57958644      84.92221405
N      75.09884376      92.29612749      84.48190780
H      73.46612023      92.76477961      85.35118191
C      74.78136974      91.20197595      81.96668209
H      76.14953159      89.71854080      81.56417038
C      72.01670015      90.26278198      81.81361426
H      70.97735067      91.91062332      81.14654086
H      71.33072949      89.48043528      83.58995698
C      71.68977749      88.20487002      79.91821877
O      72.39653513      88.65273516      77.72802597
O      70.95656368      86.01656695      80.41332705
C      75.37096435      93.25610846      80.10341195
O      74.97601155      95.40283755      80.69111682
N      76.51802822      92.83847894      77.95101367
H      76.63141180      91.02434168      77.36897796
C      76.61062481      94.58836551      75.90632980
H      77.65942292      96.20408150      76.63198471
C      78.03358873      93.85515170      73.54606164
H      77.80682157      95.36315329      72.16089224
C      80.69243365      93.39027902      74.39265903
H      81.67509133      92.69108029      72.72403069
H      81.01935630      91.86526989      75.73814415
H      81.51446459      95.13449641      75.12398311
O      77.06793858      91.59125957      72.58608066
H      77.96933803      90.94686290      71.14988867
C      74.00091277      95.44441153      75.02760706
O      73.88563947      97.60247898      74.20935557
N      71.98646452      94.02900652      75.48870028
H      72.26614402      92.36982681      76.38821001
C      69.38431139      94.58836551      75.29972765
H      69.03660175      95.54078757      73.50637739
C      68.04638516      92.09392677      75.06540159
H      68.21646053      91.16607115      76.89654638
H      69.07250655      90.87694303      73.75771098
C      65.28927447      91.95975620      74.22258365
H      64.17433595      93.05957692      75.56050988
H      64.74125384      90.01900728      74.63832344
C      64.62598054      92.89139128      71.55617982
O      65.48580601      94.85103746      70.52438926
O      63.06317687      91.44953010      70.48470500
C      68.40543316      96.45541510      77.44834647
O      66.07540062      96.92217750      77.43889784
N      69.96634710      97.38705018      79.15098989
H      71.77103572      96.79178639      79.32106524
C      69.43722373      99.16906209      81.15409977
H      68.17677628     100.62793080      80.42655514
H      71.17955139     100.00621085      81.86274714
C      68.10118723      98.00688041      83.47657341
O      67.81394883      99.31268129      85.35685109
N      67.27726655      95.60125881      83.30271859
H      67.19600832      95.01355393      81.48858132
C      66.35885956      94.01199898      85.33039493
H      64.70723877      94.84347856      86.23557382
C      65.68422727      91.38716913      84.20411805
H      64.94156483      90.43852652      85.87463611
H      67.30372272      90.31947376      83.51247821
C      63.85119275      91.14150471      82.01392524
C      63.75670643      88.74722147      80.60796887
H      64.86219632      87.13906438      81.20323265
C      62.01815822      88.49210842      78.52171101
H      61.85753149      86.78001638      77.42566976
C      60.36842715      90.49332859      78.01337463
O      58.69979882      90.09648606      76.05372845
H      57.27494518      91.21331431      76.17278121
C      60.42889839      92.81013305      79.21524057
H      59.14955368      94.32191410      78.71824255
C      62.13721098      93.04634883      81.15409977
H      62.31106580      94.87749363      82.03849168
C      68.29204958      93.80979826      87.61885348
O      70.57105952      94.33325245      87.23712878
N      67.68544744      92.72698509      89.84306136
H      65.99603211      91.84637263      89.99612919
C      69.34840659      92.42273915      92.04837197
H      71.16254385      93.34492559      91.71766987
C      68.20134272      93.55468521      94.51257508
H      69.11030108      92.72320564      96.16419587
H      66.26437325      92.85170702      94.52202371
C      68.26370369      96.40817195      94.78091621
C      66.38342601      97.82735641      93.58282973
H      65.00959498      96.66895418      92.61340014
C      66.21713009     100.43517872      93.81526607
H      64.91132921     101.45374120      92.62095903
C      67.75725704     101.77688440      95.37806973
O      67.58718167     104.28644094      95.70499238
H      66.10752596     104.92705816      94.87162308
C      69.82461762     100.40872255      96.46655208
H      71.19844865     101.19295897      97.75534543
C      70.04382587      97.78389270      96.16230615
H      71.53293021      96.73698432      97.08638231
C      69.89264777      89.56925242      92.50379600
O      68.25614478      88.00644876      92.17309391
N      72.26425429      89.13461537      93.21811256
H      73.39431063      90.65773477      93.43543109
C      73.45856132      86.66096362      93.52991739
H      71.89953711      85.32114767      93.63007289
C      74.81916427      86.02223613      91.07138346
H      76.66164742      86.93497394      90.96555878
C      74.92498894      83.15552131      90.64808476
H      73.15242566      82.20309925      91.09028072
H      76.58038919      82.49411710      91.68365478
H      75.45411231      82.91741580      88.67143104
O      73.60218052      86.92552531      88.92276465
H      74.29382035      86.18664232      87.41854249
C      75.36151572      86.42852729      95.72955882
O      76.42354191      88.28612825      96.64418635
N      75.79048359      84.16652489      96.61395074
H      74.90042250      82.56025752      96.09805546
C      77.56304687      83.59393782      98.77957710
H      79.39041222      84.53313179      98.63784761
C      76.26291517      84.18731188     101.30992062
H      75.60340069      86.13184026     101.12850690
C      73.98579496      82.49033765     102.16029746
H      72.74991396      82.54324999     100.51245612
H      72.97290166      82.96465895     103.88939704
H      74.73979576      80.61761887     102.57792699
C      78.27547369      83.94353718     103.53223877
H      79.93654312      85.13406476     103.27334626
H      78.66475731      81.93475811     103.75711620
C      77.51202426      85.14162367     106.01722888
H      76.31771723      86.80458282     105.79424116
H      79.10317382      85.80491760     107.14350576
H      76.46322616      83.83582278     107.21909480
C      78.13185449      80.56659626      98.68131132
O      76.67298578      79.02457959      97.86305984
N      80.44110005      79.88440506      99.48444500
H      81.79981327      81.20721348      99.70932243
C      81.09872481      77.20477315      99.50145255
H      79.46033209      76.10873189     100.09671633
H      82.67664628      77.01769025     100.81103287
C      82.07193386      76.36951412      96.87851242
O      83.17364430      77.69043282      95.40074644
N      81.51068514      73.85995758      96.29647671
H      80.59038843      72.80171084      97.59093924
C      81.64863516      72.87163072      93.75668455
H      83.26813061      73.46500478      92.63229739
C      81.98311672      69.94822411      93.99856952
H      80.38251853      69.50980761      95.21933272
C      81.82815916      68.69344584      91.35484240
H      79.81182119      68.52526020      90.97311769
H      82.37995925      66.71490239      91.49846160
H      82.83727301      69.77058984      89.91676068
C      84.63251301      69.03170685      95.11161831
H      84.84794181      70.15798373      96.82182063
H      86.11027899      69.50035897      93.75668455
C      84.87250825      66.26892698      95.91097256
H      83.51001558      65.82106184      97.38873853
H      86.61105646      65.87586391      96.94276311
H      84.73077878      64.97824391      94.31226408
C      79.18443205      73.68232331      92.40930969
O      77.18321189      72.37652242      92.32049255
N      79.17120397      76.05392983      91.62318354
H      80.73589735      77.01769025      92.14285828
C      77.30604410      77.27658275      89.87140726
H      77.41375850      76.29014562      88.06671862
H      77.95610995      79.20977277      89.58983803
C      74.51869778      77.22744987      90.69154847
O      72.97857084      77.11973547      88.87930094
N      74.00658195      77.21800124      93.19732556
H      75.47678902      77.21233206      94.41241958
C      71.41198773      76.94588065      94.04014351
H      70.48035265      75.71944827      92.67387138
C      71.39309046      75.77047088      96.65741445
H      72.46456528      77.16319917      97.73266871
H      72.62897147      74.12451926      96.61584046
C      68.87786474      75.39063589      97.81014749
N      67.30939190      73.39130545      97.33960565
H      67.63631455      71.87574495      96.22844657
C      65.02849224      73.83728086      98.67753187
H      63.27671595      72.79415194      98.61706064
N      65.37809161      76.04259147      99.97577384
H      64.08551881      76.65864225     101.23811102
C      67.81205910      77.01580052      99.52223953
H      68.50369893      78.63529597     100.55214037
C      69.98335463      79.53858515      94.00990787
O      70.70334036      81.31492788      95.36673138
N      67.87819952      79.74645504      92.61528986
H      67.23191312      78.19498974      91.71011096
C      66.31161641      82.11806157      92.44521449
H      67.65521182      83.55992274      91.84050207
C      64.31606542      81.77035192      90.27202923
H      63.00270563      80.24912224      90.72556354
H      65.28171557      81.11650662      88.57316528
C      62.87042479      84.32526190      89.65786818
H      64.05150374      85.92397036      90.19644017
C      62.10508563      84.45376329      86.80816090
H      63.94567906      84.38762287      85.88786418
H      61.37754100      86.33593070      86.39620056
H      60.79172585      83.00434321      86.15998477
C      60.47992100      84.49533727      91.21689238
H      60.72369570      84.31959272      93.25401736
H      59.30073179      82.89095963      90.68398956
H      59.49159414      86.12995053      90.44966350
C      65.28360529      82.82670893      94.99256557
O      64.22724828      81.15241142      96.37584523
N      65.37053270      85.26823533      95.64452114
H      66.65365687      86.24333411      94.62406893
C      64.09685717      86.33593070      97.76857351
H      63.36553308      84.83737773      98.97421890
C      65.91855333      88.09715562      99.15374291
H      64.86597578      89.20453524     100.53513283
H      66.68389249      89.38216951      97.74022762
C      68.14087148      86.60994101     100.49166913
H      68.80794487      84.92619487      99.50712172
C      70.15343000      88.45431389     101.18708842
H      71.28915552      89.03257015      99.56759296
H      71.30994250      87.60960623     102.66674412
H      69.17266204      89.96609494     102.18297419
C      67.03160213      85.78035116     103.04279965
H      68.27693177      84.87706198     104.41474095
H      65.91855333      84.09660502     102.62894959
H      65.99603211      87.22410206     104.08781830
C      61.68934585      87.84204257      96.83126927
O      59.72214075      87.76645352      98.02746602
N      61.74414791      89.34248526      94.87918199
H      63.23892142      89.19886606      93.70188250
C      59.46135852      90.51411558      93.79447907
H      57.87209869      89.20642497      93.86439895
C      58.70168854      92.69674947      95.48956358