 %block lattice_cart
   137.614   0.000   0.000
   0.000 142.646   0.000
   0.000   0.000   160.855
 %endblock lattice_cart

 %block positions_abs
N      90.64089782      43.10182725      82.18966978
H      91.06797597      41.87917432      80.78938258
H      89.54107710      42.20987643      83.46901450
H      92.34543095      43.55158211      82.92666304
C      89.26328734      45.38461663      81.33740322
H      89.79807989      46.83214699      82.70178561
C      89.83587442      46.11783044      78.64643295
H      89.52029011      44.46998910      77.45023619
H      91.81630759      46.68096888      78.61808705
C      88.13134127      48.34959722      77.90754997
H      86.18114372      47.73921562      78.17400137
H      88.39212351      48.78801372      75.91199897
S      88.50550709      51.27489355      79.79727628
C      91.90323500      51.28812163      79.82940162
H      92.64211798      53.17973767      80.16955235
H      92.54574195      50.67207086      77.97369038
H      92.49093989      49.71586934      81.02559838
C      86.38145472      44.97076657      81.92699783
O      85.22305248      43.21710055      80.95567850
N      85.21549357      46.79813191      83.34618229
H      86.18681290      48.22298555      84.16065433
C      82.51885413      46.88127987      83.73546591
H      81.65335948      45.64917832      82.32950953
C      82.09933489      45.51500775      86.30927314
H      83.04230831      43.68197322      86.29037588
H      80.17937296      44.81202956      86.56816566
C      83.01207270      46.82647781      88.74890982
O      83.72638924      49.00155279      88.81127078
N      82.62656852      45.68697284      90.92209508
H      83.11411791      46.61482846      92.51891381
H      81.88201636      43.93708628      91.06949373
C      81.36990053      49.61193439      83.41043298
O      82.83065898      51.43741001      83.01736991
N      78.95483031      49.97854130      83.59940561
H      77.73217738      48.51967258      83.45767614
C      77.66036777      52.42762660      83.61641315
H      78.15547607      53.37626921      81.85707795
C      74.75018925      52.06857860      83.59373643
H      74.30988303      50.78545443      82.04605058
C      73.98107065      50.61537907      85.94266624
H      75.37568866      49.18674597      86.44344372
H      72.17827175      49.70264126      85.53826481
H      73.72973704      52.04779161      87.40153495
C      73.22329040      54.50065637      83.09673841
H      73.63147127      55.92173055      84.52915096
H      71.19183460      54.16806453      83.01548019
C      73.91115077      55.75732436      80.62308667
H      74.10390286      54.45719266      79.03760629
H      75.69127296      56.72297451      80.99914221
H      72.40314917      57.08769169      80.17144208
C      78.44271448      54.10948302      85.81038540
O      78.92648440      56.26566074      85.20189353
N      78.94349195      53.19485548      88.04404191
H      78.14791716      51.49599153      88.39364127
C      79.84489140      54.59892213      90.16431482
H      78.64302546      56.21841758      90.59517243
C      79.82032496      52.98320614      92.56615697
H      80.65558399      54.06979877      94.10250446
H      80.92392512      51.28434218      92.20332953
C      77.25407662      51.98165119      93.42598244
C      76.24307305      49.79145839      92.23356515
H      77.16903894      49.15273090      90.53092173
C      74.11902066      48.63494589      93.21055364
H      73.45005756      46.81324972      92.57938505
C      73.00786159      49.58925768      95.42531288
H      71.50741890      48.67651987      96.46277262
C      74.11335148      51.68496416      96.72544458
H      73.10423764      52.36904508      98.36194757
C      76.23173469      52.86793283      95.75790471
H      76.84400602      54.54412007      96.75001102
C      82.43570617      55.88204630      89.73345722
O      82.90435829      58.02688567      90.66698202
N      84.22716671      54.60837077      88.52781184
H      83.90213379      52.76777734      88.13474876
C      86.69136982      55.59102845      87.69822198
H      87.56253365      56.73620259      89.17220851
C      88.58298586      53.36682058      87.01603079
H      90.16090734      54.09436521      85.91054089
H      87.54930558      52.15361628      85.71211963
C      89.66390931      51.75677376      89.07016330
H      88.14078991      51.18229696      90.33439019
H      90.95081294      52.83202803      90.26258059
C      91.00183555      49.38705696      88.04971108
O      93.37155234      49.22831995      88.09317478
O      89.74894701      47.85637865      86.77603554
C      86.61011160      57.44484996      85.46267577
O      87.66835833      59.51787973      85.60818468
N      85.30809016      56.78722520      83.47090422
H      84.64479624      55.00143384      83.37263846
C      84.73739283      58.18940213      81.13142305
H      86.44759514      58.62781863      80.07128659
C      82.72105484      56.78344575      79.70278996
H      81.03919842      56.46975118      80.85174355
H      83.54308579      54.99765439      79.09429808
C      81.78753004      57.94562743      77.34441152
H      83.14246381      57.58091026      75.83640992
H      81.81398621      60.00164966      77.47291291
S      78.68081998      57.06501497      76.20301682
C      78.61467957      58.61270082      73.17567527
H      79.61812423      57.37870954      71.86798466
H      79.38568790      60.52321413      73.18512390
H      76.63991556      58.96041046      72.70135397
C      83.70182281      60.80856280      81.70967930
O      84.45771333      62.69073021      80.67977846
N      82.26185136      60.98619707      83.79404742
H      81.36801080      59.43662150      84.46301054
C      81.00329362      63.36914195      84.59907083
H      80.44771409      64.51998528      82.98335484
C      78.57121586      63.17072069      86.10896216
H      78.13468909      65.00942439      86.92721365
H      78.84711590      61.71374170      87.53948497
C      76.34700799      62.42427880      84.34773723
H      76.91959506      60.89549021      83.08917951
C      74.09256450      61.23942040      85.80471622
H      72.46173069      60.90871829      84.59151193
H      73.50863906      62.49797812      87.32783563
H      74.80121186      59.54055644      86.73068211
C      75.43615990      64.70895791      82.74335960
H      75.00341259      66.26798212      84.01703514
H      73.76186239      64.25731332      81.63031079
H      76.89880808      65.15871277      81.36385938
C      82.88735076      65.07934427      85.97101213
O      82.99317543      67.33567748      85.49291138
N      84.70715719      63.99842081      87.44121921
H      84.55975854      62.11058423      87.67932473
C      86.88412191      65.18138949      88.62607760
H      86.30964511      66.99363702      89.41787293
C      87.71182203      63.82078654      90.94099234
H      88.55275024      62.04633353      90.31927238
H      86.01862727      63.30678098      91.99734935
C      89.63745316      65.15682304      92.47545010
H      89.32942777      67.19205828      92.39230215
H      91.30608148      64.90926890      91.29059171
C      89.97571416      64.35557909      95.21555326
H      88.19559197      64.59179488      96.22277739
H      91.58954044      65.36658267      95.99978968
N      90.21948885      61.60413758      95.42153344
H      88.73605369      60.64982579      96.15285751
C      92.00716995      60.08101817      94.58816412
N      93.96681614      60.92761556      93.55448383
H      95.21403550      59.63693248      92.90441798
H      94.46570388      62.73230418      93.93242909
N      91.84465348      57.65460958      94.95666076
H      93.29029411      56.57935531      94.32927162
H      90.14201008      56.85336563      95.27980395
C      88.96471059      65.91460330      86.86485268
O      90.37255669      67.60968780      87.50735964
N      89.10077087      64.78643669      84.58017357
H      87.87811795      63.38614949      84.14175706
C      90.77317867      65.51965050      82.44289311
H      92.40023301      66.57600751      83.13264322
C      91.68780619      63.12347753      81.00103194
H      89.92847101      62.21451918      80.43600376
C      93.23927151      63.71874132      78.68611720
H      93.94224970      61.97452393      77.83951981
H      94.95325327      64.82801067      78.95634807
H      92.23393710      64.75053189      77.21591014
C      93.20147698      61.43406221      82.76603631
H      92.67424333      61.55122524      84.75402839
H      95.21970468      61.83090473      82.63186574
C      92.93502557      58.64104672      82.01392524
H      93.78351269      57.58468971      83.56350081
H      93.61910649      58.07601855      80.15443455
H      90.93191567      58.26121173      81.71723821
C      89.47682642      67.28843433      80.70623464
O      90.72404579      68.81911264      79.44389745
N      86.91246781      67.47740696      80.59663050
H      85.74083749      66.36435816      81.61330326
C      85.80319846      69.54665727      79.15665905
H      86.90679862      70.10601626      77.50881771
C      83.05931585      68.88714279      78.46312949
H      81.97650268      70.59734510      78.08518423
H      82.15791640      68.12180363      80.14876536
C      82.89490967      67.25441925      76.01782364
O      84.62022979      67.58134190      74.32651859
O      81.23572997      65.65949024      75.77782840
C      85.73705804      71.89558708      80.83284629
O      86.95404179      73.68515790      80.03160233
N      84.39913182      71.76897541      82.97957538
H      83.91725161      70.03987584      83.62964123
C      83.64513102      73.90436615      84.61796809
H      83.62245429      75.63913490      83.50491931
C      80.97116827      73.42815512      85.76125251
H      80.68770933      74.90403137      87.17098834
H      80.81243127      71.63858430      86.76847664
C      78.89624878      73.40736813      83.83940085
H      77.09533962      72.60234472      84.43466464
H      79.51607902      72.25652480      82.24825130
C      78.32744116      76.05298497      82.89642742
O      76.47361965      77.17548240      83.83373167
O      79.73528728      77.08099608      81.39787447
C      85.66524845      74.59600598      86.51903277
O      85.83532381      76.83155221      87.03681778
N      87.16191169      72.78564817      87.49602127
H      86.56286843      70.98284927      87.31460755
C      88.93636469      73.42437566      89.59172775
H      90.27429091      74.94749507      89.22701057
H      89.89256620      71.62535621      89.88085588
C      87.62111517      73.82121819      92.12774046
O      85.27407510      73.72295242      92.24301377
N      88.97604895      74.58277789      94.10061473
H      90.82420127      74.83600122      93.69810303
C      88.05386250      74.88324438      96.63095827
H      86.05075260      74.41081280      96.54970004
C      89.29541269      72.60990362      98.05014273
H      91.30608148      72.85745777      97.67219746
H      88.75684069      70.84111979      97.13929464
C      88.84187837      72.31510632     100.87528357
H      89.35588393      74.11223604     101.74077822
C      85.83910327      72.23384809     101.41385556
H      84.86589421      73.65303255     100.28379923
H      85.49328334      72.85556804     103.34893531
H      85.07565383      70.33278342     101.18897813
C      90.14578952      70.08711900     102.23966597
H      92.11488434      70.49529988     101.79369055
H      89.66957849      68.22951803     101.48188571
H      89.70926275      70.01341967     104.25222449
C      88.77951740      77.60067082      97.77424269
O      91.00939446      78.02774896      98.30714551
N      87.00506440      79.35244711      97.97644340
H      85.19659631      79.11434159      97.41141523
C      87.27529526      81.83365776      99.18775797
H      89.21604419      82.24183864      99.74144778
C      86.84065820      83.96904849      97.23378096
H      86.26429169      85.75106040      98.08793725
H      85.26651619      83.32843127      96.07159928
C      89.20470583      84.41691363      95.52168892
H      89.94547854      82.53852567      95.12295667
H      90.62389029      85.32965144      96.70276787
C      88.50172763      85.69058916      93.02158101
H      90.27051146      86.28774268      92.15041718
H      87.67024806      87.55385931      93.29748105
N      87.09388153      84.14479304      91.33216568
H      86.47216158      82.39868592      91.79514863
C      86.29641702      84.70037257      89.02292013
N      86.94081370      86.77340234      87.86262817
H      86.27563004      87.21559830      86.12785942
H      87.91969194      88.12833611      88.78481461
N      84.80542297      83.00150862      87.83050283
H      84.69392912      83.29630592      85.94644569
H      84.23661535      81.42736660      88.74513036
C      85.72949913      82.17758795     101.61416655
O      83.49962208      81.51618374     101.72188095
N      87.09577126      82.70860104     103.57003330
H      88.96849004      83.01473670     103.36405312
C      85.85800052      82.65568870     106.07581038
H      84.28763795      81.32532138     106.03423641
C      87.67402752      81.79397350     108.24332646
H      86.60444241      81.67303102     110.00077193
H      89.15935239      83.09221548     108.83481080
C      88.70581807      79.03308336     107.77089488
H      90.10610528      79.37512382     106.29690836
C      90.14012034      78.09955856     110.03289728
H      91.32497874      79.48283822     110.99665770
H      91.41190615      76.53864463     109.59448077
H      88.77006877      77.52697149     111.46153037
C      86.71215682      76.96383305     106.92618722
H      85.47060663      76.25518568     108.40773265
H      87.79685973      75.29331499     106.40651248
H      85.58399021      77.44382353     105.26889724
C      84.60700171      85.30130554     106.91106942
O      83.45615838      85.57531586     108.87071561
N      85.20415522      87.31953324     105.48243632
H      86.47972049      87.11544280     104.07836967
C      84.03630435      89.91034802     105.44842124
H      82.86089460      90.00483433     107.13594684
C      86.13201084      91.89267092     105.45220070
H      87.17891921      91.80574351     103.68152714
H      87.34899458      91.31630440     107.01122490
C      85.31753880      94.56852338     105.88494802
H      84.24417426      94.92568165     107.60837842
H      84.05142217      95.17512553     104.37883615
C      87.72316039      96.10676060     105.94919872
H      88.74928178      96.33352776     104.18041489
H      88.98171812      95.37165706     107.40239825
C      87.05608700      98.73725963     106.65973581
H      85.87311834      98.67678838     108.34537168
H      85.65579981      99.39866384     105.30291232
N      89.35777366     100.18856943     106.89784133
H      90.87711361      99.26260354     107.58570170
H      88.98549757     101.45468606     108.27545181
H      89.97760388     101.16744767     105.38039111
C      82.10689380      90.25238848     103.33381750
O      82.67759114      89.27351025     101.17575005
N      79.91103182      91.46559277     103.71176276
H      79.39702626      91.76227981     105.52401030
C      78.17437333      92.34053606     101.69731451
H      77.29376088      90.73048924     100.76378972
C      76.00685725      94.23215210     102.50044819
H      76.86857246      95.92156742     103.30358188
C      74.49318648      95.05985222     100.23088689
H      73.85067953      93.30618620      99.36539224
H      75.58166884      96.13699622      98.85327641
H      73.00408214      96.35431475     100.82237123
C      74.56310636      92.76950393     104.58103687
H      75.85189970      92.47470663     106.16084806
H      73.92248914      90.89489543     104.01411897
C      72.31622176      94.10931989     105.59770962
H      72.68093894      95.92723660     106.49532962
H      71.31088736      92.93391012     106.95831257
H      70.97640580      94.54017749     104.09348748
C      79.71450028      93.66901366      99.58460049
O      81.18848680      95.40756186     100.07592934
N      79.38379817      92.88099778      97.26590631
H      77.98162125      91.63566814      96.92008639
C      80.70471686      93.68224174      94.94910185
H      81.33210600      95.60031395      95.36295191
C      82.64546580      91.85109694      94.04392294
H      84.11567286      91.59976334      95.46499713
H      83.63190293      92.83942380      92.52836244
C      81.68548483      89.22248764      93.24267899
C      80.96171965      88.95414650      90.67076148
H      81.26785530      90.53017825      89.41220375
C      80.23228529      86.52017901      89.76936202
H      79.89024482      86.10821868      87.79837748
C      80.25496200      84.41880335      91.45121844
O      79.70127220      82.07932218      90.49123748
H      79.83355303      82.38545784      88.71111529
C      80.58566412      84.79107944      94.02124623
H      80.70471686      83.20370933      95.29870122
C      81.44737930      87.14189897      95.03413953
H      82.01429721      87.36299695      96.98433710
C      78.80554192      93.97703904      92.72867343
O      76.56243679      93.34776018      93.03480909
N      79.80520714      95.03339605      90.58005461
H      81.61934441      95.61921121      90.48367857
C      78.18382197      95.53228380      88.33694948
H      76.15236619      95.52661462      88.67521050
C      78.67326108      98.21947462      87.39586577
H      78.18760142      98.42356506      85.40409424
H      80.68959906      98.62387605      87.29760002
C      77.20494374     100.10731120      89.06638384
H      78.34066925     100.31707082      90.77280670
H      75.32466605      99.47047344      89.61818392
C      76.87991082     102.72836160      87.84373091
H      76.20905797     102.41844648      85.91998952
H      78.67704054     103.70723983      87.61696376
C      74.87113174     104.29116526      89.50480034
H      75.47773389     104.28171663      91.47389517
H      73.08911982     103.25937469      89.43677019
N      74.70294610     106.91221566      88.60340089
H      76.34322853     107.88731443      88.59962144
H      73.53887468     107.81550483      89.81660519
H      73.95272476     106.94245128      86.84784514
C      78.72995287      93.65956502      86.24502245
O      80.88046141      93.37610608      85.43621959
N      76.73818133      92.32919770      85.37574835
H      75.01286122      92.84698271      86.00691693
C      76.70416626      90.57931113      83.15531993
H      78.48806790      89.57397673      82.93611169
C      74.43649468      88.64612112      83.47846313
H      72.74707937      89.79129526      83.21957062
H      74.58956251      88.00361417      85.43055041
C      74.20405836      86.20648445      81.70967930
O      72.07622652      85.38634323      81.01048056
O      76.21283743      85.51484461      80.73647026
C      76.48684773      92.21392439      80.73647026
O      76.19016070      94.47214734      80.75536751
N      76.94605123      91.07441943      78.62942542
H      77.09344988      89.18847257      78.89209737
C      77.40903418      92.23282166      76.17656065
H      79.13624402      93.34398073      76.31451068
C      77.63202189      90.16357134      74.19045830
H      77.66036777      91.02339682      72.31773952
C      80.24362364      88.92580061      74.43612272
H      81.56265262      90.50372208      74.58163165
H      80.82187991      87.68425042      72.89977523
H      80.64802508      87.92424566      76.18978875
O      75.59678664      88.41746423      74.17345076
H      76.00118808      87.37055585      72.74859712
C      75.23395919      94.02617193      75.44334686
O      75.65158870      95.98203866      74.15266377
N      72.93227255      93.45925403      76.23892162
H      72.76597662      91.83219968      77.21968958
C      70.59846054      94.79340081      75.59263522
H      70.84790442      95.81574275      73.82196167
C      68.51787187      92.86399025      75.31106601
H      67.84890877      92.69202515      77.25181493
H      69.05077470      90.92702077      74.86320087
C      66.21051604      93.78428696      73.77471851
H      65.58123718      95.60220367      74.50982206
H      64.74408843      92.36321277      74.05250829
C      66.62625583      93.88633218      70.91367287
O      68.46118008      95.09386730      69.95747136
O      64.99920149      93.01516835      69.50582677
C      70.10902144      96.80784906      77.64298827
O      67.87914438      97.53539369      78.15132465
N      72.03276281      97.71302796      79.04138575
H      73.75241377      97.08563883      78.51037265
C      71.84945937      99.54795221      81.01992919
H      70.66838042     101.08618943      80.32639964
H      73.55399250     100.66100101      81.34874157
C      70.74396948      98.54261782      83.51058848
O      70.92538319      99.64999744      85.58739769
N      69.86524673      96.18612910      83.53704464
H      70.11658033      95.27339129      81.87786494
C      68.50086434      94.92001247      85.60062578
H      66.98719356      96.24282089      86.05416010
C      67.27254224      92.42935319      84.82205854
H      66.16516261      91.58086608      86.33572931
H      68.80888973      91.11599341      84.43655438
C      65.88737285      92.42179429      82.36352460
C      65.38659537      89.95381172      81.29582924
H      66.39004005      88.36455189      82.09329374
C      63.40994165      89.68925004      79.43066937
H      63.00365050      87.84676688      78.65021240
C      62.15327365      91.90967846      78.56895418
O      60.32968777      91.76605926      76.75292718
H      59.61348149      93.39689307      76.42033535
C      62.84869294      94.30963088      79.39476457
H      61.74887222      95.97825921      78.98658368
C      64.48330619      94.49104460      81.47724296
H      64.45873976      96.34297639      82.33706843
C      70.17516185      94.56852338      87.93443777
O      72.49007658      94.27561580      87.74735487
N      68.87503014      94.79529054      90.06415933
H      67.09490797      95.48504064      90.09628469
C      70.05421936      94.41167610      92.53970080
H      72.05732927      94.88977685      92.46978093
C      68.72385205      96.02172291      94.54847987
H      69.28699049      95.03528578      96.26813081
H      66.69995517      95.76094068      94.26691065
C      69.73674535      98.74859798      94.75823949
C      68.16260333     100.95201887      95.16075120
H      66.14437563     100.81406884      95.43665124
C      69.43438914     103.27638223      95.64074168
H      68.37992186     105.01493044      95.81081706
C      72.03843199     103.50881857      95.68420538
O      73.16848834     105.73680589      95.82593486
H      71.93827651     106.94812046      96.38529386
C      73.45950618     101.29972851      95.22122244
H      75.49474143     101.46224497      95.17775873
C      72.27086834      98.94512952      94.93020458
H      73.55777196      97.37476695      94.72611414
C      69.85579811      91.68102157      93.49212286
O      67.88481357      90.61332621      93.46188724
N      71.98740939      90.60576730      94.27824902
H      73.45194727      91.82653050      94.22533667
C      72.51086358      87.91668676      94.25746202
H      70.75719756      86.93213935      94.69020934
C      73.78453912      87.25528255      91.66664724
H      75.66103734      88.09810048      91.61373491
C      73.98862956      84.40179582      91.16775950
H      75.24907701      84.32809649      89.54070514
H      72.20661764      83.53441144      90.60462105
H      74.74640980      83.47960938      92.84583646
O      72.31055258      88.07920322      89.57094076
H      71.89103334      89.80452334      89.94699630
C      74.33255974      87.20614966      96.41363974
O      76.01252643      88.59887796      97.16386110
N      74.00374736      84.95926508      97.57015224
H      72.89069856      83.87456217      96.45899317
C      75.67237569      83.94637177      99.64507174
H      77.28242251      85.18414251      99.99278139
C      74.23240424      83.63267721     102.18864335
H      73.13447326      85.35988706     102.42296942
C      72.16315393      81.52941182     102.16029746
H      72.92660337      79.66614168     101.72188095
H      70.59090165      82.06609409     100.94520344
H      71.43560930      81.31776247     104.07459022
C      75.81410517      83.33787990     104.66985400
H      76.84589573      81.55586799     104.69442044
H      74.70672556      83.31331346     106.40651248
C      77.51296912      85.46382200     105.15929312
H      76.67582037      87.27040036     104.63394920
H      79.12679540      85.31642335     103.88939704
H      77.96083427      85.77184739     107.14539548
C      76.53031144      81.29130630      98.90051957
O      75.19805439      79.98739515      97.56259334
N      78.67326108      80.46171645      99.95687658
H      79.73339755      81.43303578     101.20976512
C      79.17592828      77.71405439     100.14206976
H      77.57721983      76.70683027     100.96032125
H      80.71416550      77.39658037     101.47621653
C      79.91103182      76.54998299      97.57960088
O      81.46249712      77.64035507      96.16419587
N      78.91703578      74.27097305      96.97488846
H      77.83989177      73.39980922      98.28824824
C      79.22506116      73.05398931      94.50879562
H      80.84266688      73.76830585      93.45243861
C      79.54064546      70.21751011      94.51635452
H      77.78131027      69.38414081      95.18531764
C      80.09622500      69.23674215      91.83105344
H      80.16614487      67.18638910      91.99923907
H      81.97083349      69.89814636      91.28870198
H      78.71294534      69.76586552      90.39864089
C      81.61367522      69.64114359      96.50245689
H      80.89746895      70.00586076      98.39785237
H      83.08010284      71.08111504      96.35127877
C      82.99884461      67.16560212      96.28135890
H      83.99095093      67.08434388      94.47667027
H      81.87445745      65.47051761      96.60072265
H      84.45204415      67.01820346      97.73644816
C      76.87991082      73.81932846      92.98000703
O      74.86546257      72.50785840      92.74190151
N      77.05187591      75.95660892      91.95766509
H      78.65247410      76.96761250      92.20899869
C      75.26986399      77.00729675      90.02825453
H      74.91459545      75.50307461      88.66576186
H      76.08055658      78.55120315      88.93410299
C      72.75652799      77.80854071      90.91075672
O      71.10301748      78.31309764      89.38574758
N      72.13291831      77.86901195      93.37684957
H      73.48407262      77.62523726      94.70532715
C      69.58556724      78.23939831      94.34060999
H      68.45929037      77.33799886      92.87040290
C      69.19628363      76.87123646      96.96355010
H      70.76286674      77.25296117      98.24667426
H      69.55344190      74.86434711      96.65930416
C      66.61491747      77.00918648      98.30903523
N      65.11825423      74.90970055      98.63595788
H      65.68328240      73.21083659      97.97833313
C      63.03010666      75.46528008      99.84538272
H      61.50509752      74.21995044     100.38395472
N      63.13026215      78.01641060     100.21387936
H      61.92839623      79.13512858     101.18519868
C      65.35635975      79.07465734      99.20098606
H      65.92894682      81.02485489      99.39184841
C      68.78999246      81.04186243      94.18943187
O      69.11502540      82.65757843      95.79380951
N      67.38025663      81.54075018      92.12396101
H      66.98908328      80.02141022      91.03547865
C      65.72107693      83.83865737      91.90286303
H      66.96451684      85.44114529      91.52869722
C      64.17528080      83.50606554      89.37251950
H      62.97908406      81.83176803      89.29882017
H      65.28455016      83.50984500      87.63775074
C      62.15705311      85.70759670      88.98323588
H      61.16872625      86.02885017      90.76146834
C      63.46852317      88.15101282      88.12907958
H      64.29055411      87.65023535      86.30738342
H      64.82534666      88.91824170      89.47456472
H      62.02477227      89.55885892      87.70767062
C      59.95930140      85.00650824      87.11996573
H      58.84814233      86.73560781      87.00469243
H      58.67995670      83.63078748      87.96467340
H      60.67739741      84.17880811      85.37385862
C      64.22252396      84.29786087      94.25935174
O      62.50098329      82.97316272      95.00768336
N      64.60235895      86.51828929      95.41775397
H      66.04422014      87.57653602      94.75068059
C      63.40238274      87.41212983      97.68542555
H      63.07357037      85.90034878      99.04602850
C      65.03321655      89.30374587      99.11594837
H      64.20929589      90.38655905     100.66174449
H      65.65304679      90.78718103      97.83093449
C      67.46340460      88.10187994     100.34049102
H      68.11158072      86.89245510      98.80225380
C      69.43249941      89.86499459     101.20220622
H      68.96006784      90.49994263     103.10138116
H      69.41549188      91.55440991     100.01923755
H      71.27120312      88.94280815     101.29291308
C      66.60735858      86.39545708     102.56658862
H      68.02087385      85.16713497     103.42263464
H      65.10691589      85.08209729     102.05069333
H      65.94028518      87.69558878     104.01789842
C      60.88904676      88.64234166      97.02969052
O      58.91050330      87.86755387      97.91597216
N      61.03077622      90.32608781      95.20232517
H      62.69373538      91.04796326      94.60328193
C      58.97664373      91.85298667      94.15919625
H      57.23620579      90.79662966      93.84172223
C      58.15650250      93.93735479      96.13018080