 %block lattice_cart
   137.614   0.000   0.000
   0.000 142.646   0.000
   0.000   0.000   160.855
 %endblock lattice_cart

 %block positions_abs
N      90.15712788      41.11761461      85.25291615
H      89.01573319      40.86061184      86.75902801
H      91.89756582      41.34627149      86.00313748
H      90.13067172      39.48867053      84.25703037
C      89.37478119      43.20198274      83.57483918
H      90.01161896      44.90651587      84.53859960
C      90.35743887      42.97521559      80.80261067
H      89.77729290      41.22532901      79.88231397
H      92.40779192      42.88261900      80.99725249
C      89.83776414      45.40540362      79.24358647
H      87.82898507      45.75878244      78.95445835
H      90.82798073      45.15973920      77.45401564
S      91.23616161      48.13038896      80.71757299
C      91.24372051      49.85759882      77.91321914
H      92.43802754      48.77856508      76.62820525
H      91.98638296      51.76811211      78.12297876
H      89.34076612      49.87082689      77.12898273
C      86.43247732      43.20009301      83.28193160
O      85.44037101      42.10027229      81.60385464
N      85.08888191      44.75911722      84.78426402
H      86.00728890      45.94586535      85.95967379
C      82.33366095      45.34304265      84.43466464
H      81.78941977      44.64762337      82.57328424
C      81.02597034      43.68008349      86.31305260
H      81.81776567      41.78090855      86.27147863
H      79.09089060      43.37016838      85.68188402
C      80.93337375      44.81769873      88.97756671
O      78.97750702      45.65862694      89.81282574
N      82.94215282      44.69864597      90.42698678
H      82.65491442      44.87061107      92.30726447
H      84.44259551      43.68764240      89.82038465
C      81.79508895      48.18708075      84.86363252
O      83.56009333      49.65539809      85.49480112
N      79.43293106      49.01856034      84.78615375
H      78.07043839      47.84693001      84.14175707
C      78.59767203      51.64150045      85.23212915
H      79.48962285      52.57880470      83.63342069
C      75.73284694      51.91551076      85.02236953
H      75.10545780      51.12182571      83.22712954
C      74.45539195      50.57002563      87.38830687
H      75.35301195      48.76155755      87.78892886
H      72.43905397      50.27900779      87.07272259
H      74.83144749      51.70197169      89.06827356
C      74.47806867      54.63860639      84.89575787
H      75.00341258      55.84236205      86.48123825
H      72.43716425      54.44018512      84.70300579
C      75.58355856      55.98787097      82.61107876
H      75.07900163      55.17150920      80.78938260
H      77.63202188      56.13149017      82.77170550
H      74.68404883      57.83224386      82.44100339
C      79.88457565      52.90383764      87.61129458
O      80.95605047      55.04111810      87.37318907
N      79.68237493      51.79645801      89.88841479
H      78.82443919      50.09381460      89.96589357
C      80.80109291      52.78100541      92.21466788
H      79.89969346      54.55923789      92.72489399
C      80.12268116      50.87049212      94.36328669
H      81.38879779      51.29945999      95.93364926
H      80.41558874      48.88250003      93.91164210
C      77.47517460      51.13694352      95.34972384
C      75.38324757      49.85003991      94.25746203
H      75.80654626      48.53856984      92.75135015
C      72.92849309      49.84059127      95.23256081
H      71.41293259      48.89950758      94.24045449
C      72.60723962      51.44874837      97.52857828
H      70.77987427      51.93251831      98.29769689
C      74.66893102      52.42573687      98.82304079
H      74.54609881      53.63138226     100.46521297
C      77.12179578      52.36526564      97.67975637
H      78.62412820      53.29501097      98.70209832
C      83.69993307      53.07958217      92.09372540
O      84.63912705      54.78411531      93.33338586
N      84.94526271      51.47709426      90.61029024
H      83.91536187      50.20908791      89.62385311
C      87.76662410      51.83047308      90.16809429
H      88.67369273      52.53534099      91.87640687
C      89.23305172      49.39083641      89.52180789
H      91.26828696      49.61949329      89.29315100
H      88.52440435      48.89194867      87.65286855
C      88.94203387      47.24221759      91.34728351
H      86.91624726      47.34804227      91.71389041
H      89.83965386      47.57480942      93.17275912
C      89.72816001      44.58526240      90.52336283
O      91.96937542      44.05046986      90.20966827
O      87.87811795      43.16985739      90.05471071
C      88.31842418      53.71453021      88.10073370
O      90.25917311      55.07324343      88.24624263
N      86.58176570      54.06601931      86.30549369
H      84.88857092      53.23265000      86.59273210
C      87.08065345      55.53433666      84.14553652
H      89.13100650      55.56268255      83.95845361
C      85.61044638      54.54600980      81.87219577
H      83.62623375      54.96552904      82.23691295
H      86.03185534      52.53156155      81.83251152
C      86.70459791      55.49654213      79.36263923
H      88.63400848      54.83513792      79.07162138
H      86.48538966      57.54311572      79.44767691
S      84.94715244      54.84836601      76.51860113
C      82.48294933      57.17461909      76.54316757
H      81.03541897      56.34502924      75.33752218
H      83.27285493      58.89615976      75.73247498
H      81.77808141      57.52232874      78.44801168
C      86.43436705      58.22152748      84.51403316
O      87.81197753      59.77677223      83.48035287
N      84.49172840      59.04922760      86.06171901
H      83.37678987      57.78689042      86.95366983
C      83.95126667      61.72508005      86.41320810
H      83.64891046      62.46396304      84.51592288
C      81.40013615      62.09924587      87.93821723
H      81.28675257      64.06267150      88.55048856
H      81.27730394      60.72352512      89.46511609
C      79.15892074      61.34146562      86.20533821
H      79.55387354      59.55378452      85.26425450
C      76.90825670      61.09013201      87.97223231
H      76.62290803      62.82112132      89.05315576
H      76.75140942      59.48764411      89.25535647
H      75.14703178      60.60636209      87.02169998
C      78.38791241      63.20095630      84.20600777
H      76.91770534      62.39971235      83.00225210
H      80.05465102      63.68283651      83.09673842
H      77.79453834      65.02643192      84.95622911
C      86.24728414      63.05355765      87.62830211
O      86.53263282      65.35335458      87.23901849
N      87.87055905      61.69295471      88.92654409
H      87.38489938      59.87503799      89.25724620
C      90.18736351      62.51309593      90.12085113
H      90.03240595      64.21762906      91.26791499
C      91.34765546      60.49297850      91.70633151
H      93.01250434      61.17894915      92.70410700
H      92.00528022      58.88860087      90.59139298
C      89.42391408      59.66716811      93.64519069
H      87.82709534      58.58624466      92.91575635
H      88.75306123      61.31500945      94.68265045
C      90.65790536      57.83980275      95.44421014
H      92.45881453      58.50120696      96.19254177
H      91.05096843      56.31857308      94.11195310
N      89.13100650      56.97430810      97.54747554
H      88.37700570      55.23387017      97.32259810
C      88.55275024      58.16105624      99.58271078
N      89.11210923      60.48164015      99.88884644
H      89.07998389      61.25075875     101.63495355
H      90.28562927      61.33012725      98.64162707
N      87.29608225      56.92328550     101.17763978
H      87.27907471      57.69240410     102.92563662
H      87.04285892      55.04111810     100.99055687
C      92.17157613      63.46551799      88.22167617
O      93.26761740      65.39681828      88.76402764
N      92.35298986      62.32979247      85.99368886
H      91.28151504      60.77832718      85.70078127
C      94.10665588      63.27276590      84.07750637
H      95.62221638      64.38392498      84.92221403
C      95.43702320      61.01454297      82.67343973
H      96.35731992      61.98964175      81.10685661
C      97.55918585      59.80322839      84.26080982
H      96.95069398      58.82623990      85.96912242
H      98.79128741      61.31311972      84.92599349
H      98.71191890      58.45774327      83.21201172
C      93.46981811      59.02277143      81.69834094
H      92.04685420      60.02810583      80.59852024
H      92.60810291      58.32735214      83.43688916
C      94.57908746      57.14249376      79.92577766
H      93.02762215      56.01432714      79.17366660
H      95.82630682      55.96330453      81.06339291
H      95.49938417      58.06279046      78.33084865
C      92.86321596      65.20784565      82.32761980
O      94.06508190      66.88214317      81.40543337
N      90.32153407      64.80344422      81.75692247
H      89.57698191      63.14426452      82.33895817
C      88.79463521      66.09412729      79.98435919
H      89.81508742      66.12058346      78.19478837
C      86.48727938      64.43872704      79.44956663
H      85.07187438      64.64659693      80.93111207
H      86.83687875      62.40916098      79.43066938
C      85.30620044      65.20784565      76.95134845
O      86.38334444      65.51776076      74.85186252
O      82.98372680      65.56122448      77.03071696
C      88.01606797      68.85312771      80.64954284
O      88.13701046      70.49907934      79.11697480
N      87.26395690      69.30477231      83.03626718
H      87.27340553      67.67960767      84.03782213
C      86.59877324      71.65559183      84.20600777
H      86.27563004      72.98028998      82.66210136
C      83.92103105      71.36079453      85.50236002
H      84.01173791      69.76775525      86.80438145
H      82.61334044      70.67671361      84.06805775
C      82.78908499      73.65681199      86.68532869
H      83.89268516      74.60545461      88.14230767
H      81.20927379      72.89903175      87.76625214
C      81.66469783      75.48417735      84.56316604
O      79.33277556      75.73551095      84.74835922
O      83.02152133      76.62179258      83.04382609
C      88.45826393      72.78942763      86.25636082
O      88.76817904      75.09867318      86.28092726
N      89.73004974      71.18504999      87.76814187
H      89.40690654      69.30477231      87.71900899
C      91.42702397      72.12613368      89.72211888
H      92.59865428      73.56799487      88.83583723
H      92.41535083      70.42538001      90.33439019
C      90.11555391      73.33933798      91.90664249
O      87.94047892      74.10656687      91.70066232
N      91.45914931      73.57555376      94.13085037
H      93.23549205      72.90281121      94.31226409
C      90.54074233      75.04387112      96.21143903
H      88.50361736      74.82088341      96.43631647
C      91.75016717      73.45839073      98.55658939
H      93.79107158      73.32799963      98.31092496
H      91.31553011      71.49874455      98.09360643
C      91.26450750      74.16325866     101.28346446
H      92.05819256      76.03597742     101.60660766
C      88.54897079      74.39002581     102.12061322
H      88.42802831      74.97773070     104.09348748
H      87.68347614      72.52864539     101.94108922
H      87.81008780      75.83944589     100.86016577
C      92.44747618      72.29053988     103.02012294
H      94.49216005      72.21117136     102.79335578
H      91.68969592      70.38569576     102.82359141
H      92.19425285      72.87446531     104.97976913
C      91.22860270      77.90680647      96.33049179
O      93.31675028      78.53797506      95.63696223
N      89.56375382      79.24851216      97.51157074
H      88.11433374      78.16569899      98.11628316
C      90.02862650      81.69759747      98.62084008
H      92.06953091      81.83176803      98.86461478
C      89.26706679      83.99928411      96.87095351
H      89.30486132      85.77373712      97.91408243
H      87.40001719      83.54386007      96.13018080
C      91.14167529      84.26195607      94.68642990
H      91.07931433      82.64057089      93.42031327
H      93.08620367      84.47360541      95.33460602
C      90.77128894      86.60521669      93.25590707
H      91.62166578      88.18124845      94.27257984
H      88.76817904      87.09087636      93.23323036
N      91.68213702      86.39923653      90.70477656
H      93.08431394      87.54441067      90.10006413
C      90.49916835      85.41657885      88.71489475
N      88.62078039      83.77440667      88.58450364
H      88.12378237      82.89379421      86.96311846
H      88.29574747      82.76340310      90.17187374
N      91.24372051      86.31041939      86.53226086
H      90.25161420      85.56208777      85.08473050
H      93.00116599      86.97938251      86.20155876
C      88.93825441      82.10010917     101.26456719
O      86.63467804      81.79019406     101.55369531
N      90.44436628      82.63679144     103.21287503
H      92.27362136      82.80497709     102.69131056
C      89.79241071      82.99394971     105.86416104
H      88.66991328      81.35177755     106.39895359
C      92.16590696      82.74450583     107.36082427
H      91.60654797      83.30764428     109.26377867
H      93.62666540      84.02574028     106.67485362
C      93.52273045      80.12723490     107.57247363
H      93.72871062      79.42803616     105.64684252
C      95.94535958      80.30297945     109.13338755
H      96.42723979      78.46238602     109.92140344
H      95.56741432      81.69570773     110.60548436
H      97.39666939      81.03241379     107.86538121
C      91.82764595      78.29609009     109.01055535
H      90.16279706      78.10144829     107.81246886
H      91.49505411      79.13890804     110.86059741
H      92.76117074      76.48195284     109.28267594
C      88.34677008      85.41090967     106.33281317
O      87.14301442      85.70192752     108.25088537
N      88.54897079      87.33843051     104.66796428
H      89.56375382      87.01528731     103.08437364
C      87.64190216      89.97459871     105.05913763
H      86.96538014      90.00483433     107.00366600
C      89.93602991      91.84542776     105.00433557
H      90.78829647      91.82464078     103.12972706
H      91.27962531      91.19914137     106.42540976
C      89.18202911      94.51183158     105.86605076
H      88.40535159      94.44002199     107.77089489
H      87.55686448      95.08441867     104.73599443
C      91.45348014      96.15778321     105.61471717
H      92.21881929      96.13132703     103.70420386
H      92.86510569      95.55685025     106.98665847
C      90.50294780      98.71836237     106.42729947
H      89.59020999      98.64655276     108.27167237
H      89.25005925      99.27016244     104.88906227
N      92.70447895     100.50037427     106.62572075
H      91.98638296     102.09719302     107.38539071
H      93.46792838     100.67989827     104.88528281
H      94.01594902      99.82196253     107.83703531
C      85.63879227      90.65678992     103.10327090
O      86.00917863      89.64767606     100.99055687
N      83.62245429      92.10809971     103.63239427
H      83.51096044      92.79973956     105.40873699
C      81.53808617      92.65423062     101.85227208
H      80.48172916      90.99694064     101.24000075
C      79.59166807      94.64222270     102.93886471
H      80.63857645      96.32785858     103.48877506
C      77.66414723      95.46425366     100.89985001
H      78.52775215      96.84942304      99.64129229
H      75.81599490      96.24660035     101.35527406
H      76.95361014      93.71058763     100.08726770
C      78.14035826      93.85798628     105.42952399
H      79.37812900      92.89989505     106.76933994
H      76.73251216      92.48982444     104.80213484
C      77.09156016      96.19368800     106.83170091
H      76.58700323      95.54551188     108.72142722
H      75.62891199      97.16500733     105.75833637
H      78.65058436      97.52405533     107.04901944
C      82.80609253      93.68035201      99.41830459
O      84.04008381      95.69857972      99.58837996
N      82.32043286      92.52383950      97.18653781
H      81.15825118      91.01394819      97.29236248
C      82.96105008      93.53673282      94.68265045
H      83.85678036      95.37543652      94.90941761
C      84.96793943      91.68102158      93.66975715
H      86.35310882      91.34465029      95.15697175
H      86.00917863      92.69580461      92.20899870
C      83.89835434      89.07886844      93.04425774
C      83.56576250      88.41179505      90.47800940
H      83.88134680      89.73082401      88.95300027
C      82.53019249      86.07609333      89.80337710
H      82.13901914      85.73027341      87.83050284
C      82.19571093      84.23738963      91.74223631
O      81.20738407      81.87523173      91.34539378
H      80.80109291      81.39146179      89.64464009
C      82.66058360      84.79674861      94.21021887
H      82.24106436      83.33410045      95.57271153
C      83.54497552      87.19103186      94.89429980
H      84.13645985      87.41401955      96.83504871
C      80.53086205      93.77672806      93.01591183
O      78.41625830      93.24760468      93.88518593
N      80.74440112      94.32474869      90.57816490
H      82.49050823      94.65923025      89.88274560
C      78.71483506      94.24726990      88.79993244
H      76.92148479      93.76538969      89.69188326
C      78.43326584      96.82485659      87.65853773
H      76.84589574      96.49037503      86.38864166
H      80.05843047      97.42012039      86.53981977
C      77.72272874      98.81662814      89.72400860
H      79.44048996      99.00371103      90.84839575
H      76.21283742      98.24215134      90.99957386
C      76.84967519     101.29594906      88.31616250
H      75.22640029     100.84430447      87.13130410
H      78.43704529     102.06695738      87.25791577
C      76.01441616     103.47858294      90.03959289
H      77.52430748     103.66188639      91.42854173
H      74.26263987     102.83796573      90.91642590
N      75.47584416     105.71412917      88.70355638
H      77.02541974     106.46812997      87.88719463
H      74.94861052     107.01804033      89.99423947
H      74.14169738     105.45712640      87.36185071
C      79.19482554      92.59942856      86.55493757
O      81.28864230      92.23660111      85.64597921
N      77.17092866      91.45047496      85.57983880
H      75.48151334      91.86810447      86.36407521
C      77.16336976      90.15034325      83.21012200
H      78.74507068      88.83887320      83.05705416
C      74.69160774      88.71226153      82.94178086
H      73.05321503      89.95948091      82.88886853
H      74.67271048      87.40268121      84.53104070
C      74.57255498      87.23827501      80.45868049
O      76.38858197      85.95137139      79.86530642
O      72.58267317      87.56141822      79.03193712
C      77.28053279      92.11565862      81.12008470
O      76.80054230      94.39277884      81.59062655
N      78.04776167      91.26150234      78.81650832
H      78.68459944      89.47004179      78.64265350
C      78.00807742      92.76005530      76.50348331
H      79.69749274      93.92979589      76.63387443
C      78.46917064      90.99883037      74.15266378
H      76.62857721      90.60009813      73.32307393
C      80.02063594      92.17046068      72.18734842
H      78.98506592      93.85609656      71.61098189
H      80.57054630      90.85899063      70.69824408
H      81.63257249      92.91123341      73.23236707
O      79.90158318      88.77462250      74.80839882
H      80.07354828      87.53874149      73.49125957
C      75.58355856      94.20758566      75.91766816
O      75.69883186      96.09164279      74.62509535
N      73.35179178      93.61421160      77.06662175
H      73.50674934      92.38777921      78.51982129
C      70.92538320      94.91434329      76.75859637
H      71.22018050      96.34864556      75.31106601
C      69.13392265      92.99249164      75.85530719
H      68.64448354      91.78495652      77.45401564
H      69.93138716      92.05707711      74.20179667
C      66.72074215      94.21514455      74.79706046
H      66.10469137      95.72125643      76.05939763
H      65.12392342      92.91312312      74.86698033
C      66.77932367      95.20536114      72.18923815
O      66.11414000      97.43334846      71.64877642
O      67.70151011      93.77105888      70.46580775
C      70.29610433      96.42045517      79.20390221
O      68.18150059      96.88910730      79.92199822
N      72.21039709      97.06674157      80.73080108
H      73.94138639      96.66422986      80.03349207
C      72.29921423      98.43490342      83.13831239
H      71.50363945     100.33218864      83.02114936
H      74.30421384      98.86576102      83.32917475
C      71.31088736      97.11587445      85.50236002
O      71.36190998      98.20057736      87.55838225
N      70.13736732      94.89355631      85.23590861
H      70.12413924      94.05262810      83.52192684
C      68.99408291      93.58586569      87.32972536
H      67.62781078      94.87465905      88.17254329
C      67.74686354      91.12166258      86.58517319
H      66.75475722      90.20136586      88.13852823
H      69.33423364      89.89145076      86.12407998
C      65.93272628      91.44858523      84.46112082
C      65.43383853      89.11855270      83.23846789
H      66.38248114      87.52551342      84.08884474
C      63.69529032      88.97682321      81.16543813
H      63.30033752      87.29496681      80.08073522
C      62.53877782      91.34087084      80.55505652
O      60.89660565      91.36354755      78.68611721
H      60.52810902      93.05863206      78.15132465
C      62.87703883      93.66901366      81.82117315
H      61.94729348      95.40567214      81.29393952
C      64.66849937      93.76916915      83.81105496
H      65.14848986      95.61543176      84.53670987
C      70.92538320      93.26083277      89.41787294
O      72.96817734      92.15723261      88.94922082
N      70.35090640      94.07341509      91.77625138
H      68.69172670      94.98237345      92.03703361
C      72.20661764      93.69546983      93.88518593
H      74.09823368      94.23971101      93.27102489
C      71.69639153      95.43590776      96.19632123
H      73.08156092      95.07497004      97.67597693
H      69.88225427      94.88032822      96.99567545
C      71.99874774      98.33663764      95.83349377
C      69.81800358      99.88810296      96.16608559
H      68.01520468      98.93757061      96.27568973
C      70.10146252     102.47324855      96.09994518
H      68.47251844     103.69401174      96.25868218
C      72.42582589     103.58818708      96.02246640
O      72.73385128     106.05994908      96.35505824
H      71.13514282     106.87631085      96.61584047
C      74.63491595     102.06506767      95.50468140
H      76.54164980     102.79261229      95.55003482
C      74.36468509      99.43456864      95.55759373
H      75.92181957      98.12876775      95.37429028
C      72.31811149      90.85899063      94.79036484
O      70.38114202      89.53996167      95.06248543
N      74.64247485      89.94625282      95.31003958
H      76.24874222      90.98182284      95.27602451
C      75.10167835      87.24016474      95.49523276
H      73.38958631      86.41813380      96.29269727
C      75.84434079      86.08932142      92.97055841
H      77.75674382      86.63545231      92.43765559
C      75.50796951      83.25095250      92.92709470
H      76.26763948      82.41758318      91.20177458
H      73.49730071      82.82009489      93.06315500
H      76.65503338      82.25884618      94.31982299
O      74.14358711      86.92647016      91.06760401
H      74.43271523      88.69525400      90.78036561
C      77.32966567      86.76395371      97.42464333
O      78.79609329      88.43825122      97.94053861
N      77.33911430      84.55297393      98.56225857
H      75.96528327      83.31520319      98.08982699
C      79.30631940      83.68936899     100.39529309
H      81.09022103      84.42636226      99.67341764
C      78.79231384      84.87611711     103.05224829
H      78.45216310      86.89812428     102.87839347
C      76.48873746      83.36433607     104.05758268
H      74.95805915      83.53063198     102.68753111
H      75.83111271      84.16369029     105.83581514
H      76.94038205      81.37634399     104.35804916
C      81.15636146      84.50573076     104.82103212
H      82.85144596      85.42602747     104.09159776
H      81.40958478      82.60655582     105.57314319
C      80.69715796      86.12900567     107.23421262
H      82.42814726      85.99861454     108.34159224
H      79.21750226      85.24461376     108.36237922
H      80.17559350      88.07353405     106.79957556
C      79.66914685      80.78863911     100.46710269
O      77.89280411      79.43559507      99.76790396
N      81.90469308      79.88723966     101.39117886
H      83.19537615      81.16280491     101.98077346
C      82.56798701      77.33988858     101.53101860
H      80.95227101      76.37612816     102.37005708
H      84.17992356      77.08288581     102.78768661
C      83.34088507      76.34778227      98.86272505
O      84.40480099      77.67625987      97.25645769
N      82.26563080      74.11034632      98.33738114
H      81.40769506      73.13713727      99.73766834
C      82.13146023      73.12390917      95.62562388
H      83.44482002      74.12735385      94.39730178
C      83.02341105      70.31955534      95.39696699
H      81.66469783      69.18382981      96.44765483
C      82.94593227      69.57500316      92.56237753
H      83.57710086      67.62291588      92.36017681
H      84.27818932      70.66726497      91.43043146
H      81.14691282      69.91515390      91.61751437
C      85.78619092      69.76586552      96.23789520
H      86.24161496      70.55955058      98.08415781
H      87.14490414      70.55010194      94.89996896
C      86.60066296      67.01442400      96.52702333
H      88.45826393      66.65915546      97.34338510
H      86.42680814      65.92783137      94.78658540
H      85.38934840      66.03554578      97.87439819
C      79.58221944      73.52642089      94.38407369
O      77.83611232      72.00141174      94.53903125
N      79.22506116      75.88290960      93.41086463
H      80.68392988      77.11123170      93.37118039
C      76.92526424      76.25707540      91.89152467
H      76.38669224      74.50340938      90.95988961
H      77.09722934      77.62901670      90.36462581
C      74.66893102      76.93359743      93.42409272
O      72.82077869      77.44193381      92.24490350
N      74.64436458      77.00918648      95.94876708
H      76.06543877      76.61801313      97.16197136
C      72.26708888      77.29642487      97.20165562
H      70.94805991      76.03219798      96.25112329
C      72.59212181      76.52541654      99.98333276
H      73.82611309      77.86523250     100.94331372
H      73.42927056      74.64891832     100.13262114
C      70.03910156      76.47817339     101.30236172
N      68.44039310      74.51474775     101.36661242
H      68.70117533      72.77242009     100.62961916
C      66.30878181      75.25363074     102.47777149
H      64.75542679      74.01585999     102.94642362
N      66.42216539      77.70838522     102.97287977
H      64.93117133      78.86300800     103.26389764
C      68.87125069      78.48128327     102.30769611
H      69.16226855      80.49951098     102.23399679
C      71.24663667      79.94393145      96.79536447
O      72.54865810      81.77129679      97.57771116
N      68.76920547      80.19337531      96.21521849
H      67.64481832      78.73261688      95.72577937
C      67.65426695      82.68214488      95.86183967
H      68.97140619      83.83487793      94.77713676
C      65.25809398      82.37978867      94.10250446
H      63.93528557      81.10989258      95.03602926
H      65.76832009      81.50673511      92.30915420
C      63.77276910      84.87800685      93.63574207
H      63.37403685      86.02885018      95.29870123
C      65.23352754      86.57687080      91.80648700
H      65.47163306      85.61122065      90.00179836
H      67.02687781      87.03796403      92.70977618
H      64.26976712      88.36077244      91.44365955
C      61.41250094      84.37156020      92.15986582
H      61.47297218      82.89757366      90.72556354
H      60.60558780      86.03262962      91.24712801
H      59.97441921      83.83298819      93.53369685
C      66.86436135      83.81220121      98.55092020
O      65.70217967      82.54797430     100.08348824
N      67.21018127      86.34065501      98.86461478
H      68.23441293      87.28173872      97.55881390
C      66.12736809      87.88834087     100.90929865
H      65.42816935      86.60710642     102.36249817
C      68.26086910      89.65523497     101.96943511
H      67.51442720      90.88544680     103.44153191
H      69.13959183      90.53017825     100.32537321
C      70.55121739      88.18124845     103.15996268
H      71.21640105      86.93213934     101.66518918
C      72.62046770      89.99538571     103.94041965
H      74.11713094      88.84832182     104.77189922
H      71.94394568      91.26339205     105.41440617
H      73.16659860      91.03851463     102.25100432
C      69.64792821      86.63923177     105.34826575
H      69.28888021      87.94503266     106.89973106
H      70.94428046      85.16146579     105.96809599
H      68.00953550      85.50728571     104.81914239
C      63.85213761      89.12611159      99.84916218
O      61.84524826      88.85777047     100.95087263
N      64.16772190      90.89867487      98.17297495
H      65.91949819      91.31819413      97.53613718
C      61.96241129      92.16101206      97.09016177
H      60.53944738      90.69269472      96.85772544
C      61.05912212      94.28128498      98.98366754