 %block lattice_cart
   137.614   0.000   0.000
   0.000 142.646   0.000
   0.000   0.000   160.855
 %endblock lattice_cart

 %block positions_abs
N      89.46454319      39.77590894      82.09423861
H      89.54769115      38.81970741      83.74207996
H      91.06325165      39.47355273      81.09268367
H      88.24377999      38.81592797      80.98496927
C      88.74266774      42.49522509      82.49486059
H      90.12972685      43.43630880      83.68916762
C      88.71432185      44.00511642      80.07034173
H      87.41419014      43.32859441      78.61903192
H      90.62672487      43.81614378      79.33334847
C      88.36094303      46.76222712      80.50686851
H      86.76223456      47.30646828      81.68416800
H      88.08126353      47.63906013      78.66438535
S      91.11049481      48.40439928      81.88825844
C      91.10671536      51.29945998      80.17994586
H      92.21976416      52.74888008      81.13236792
H      89.26423220      52.19707999      79.97774514
H      91.94386411      51.16906887      78.30344763
C      86.16130160      42.58971141      83.90837587
O      84.30181090      41.60138455      82.96351272
N      86.17830913      44.05235957      85.89258850
H      87.96976968      44.53423978      86.33856391
C      84.13362526      44.58526240      87.56310656
H      82.66719764      43.16796766      87.27775789
C      85.13329048      44.06936711      90.32210698
H      86.92097157      44.97076656      90.80965637
H      85.80225360      42.12294902      90.39013713
C      83.04325318      44.51912198      92.19104630
O      80.88707546      43.97110134      91.65814348
N      83.56292792      45.67752420      94.31698840
H      82.08327221      45.91751944      95.49995708
H      85.34305010      46.14050715      94.83099396
C      83.12262169      47.15151074      86.76564206
O      84.66085890      49.01100143      86.66548656
N      80.65652885      47.34048336      86.47651393
H      79.55103895      45.89295300      87.04910100
C      79.27702864      49.65350838      86.19683444
H      79.94788148      50.39806053      84.39592526
C      76.44054944      49.15462062      85.78865355
H      76.17787749      47.50677927      84.57922871
C      75.43521504      48.61604863      88.44182930
H      73.51714284      47.89417317      88.23206968
H      75.56560616      50.32058175      89.59078289
H      76.49913096      47.13072374      89.39047191
C      75.07994650      51.49410179      84.79654724
H      75.86418292      53.26477535      85.49952543
H      73.06927770      51.42418192      85.23685347
C      75.22923488      51.34103396      81.85991255
H      74.51491833      49.51177889      81.24197204
H      77.20966805      51.63016210      81.37614261
H      74.08028128      52.85659447      81.06433777
C      79.86284380      51.75866348      88.08467102
O      79.82882872      54.05090150      87.36657502
N      80.47889457      51.28056272      90.50163098
H      80.37306990      49.42107203      90.92303995
C      81.13273988      53.34981303      92.35545249
H      79.96110956      54.85781463      91.58822361
C      80.59227815      52.62982731      95.09744537
H      80.87573710      54.36837553      96.16514074
H      81.98122699      51.29945998      95.83065918
C      77.95988940      51.68496416      95.79286465
C      77.12652009      49.28879120      95.05965084
H      78.24523807      47.91307043      94.04486781
C      74.71711905      48.54423902      95.96482975
H      74.03492785      46.80380109      95.14468853
C      73.21289690      50.10137350      97.40669093
H      71.29293497      49.43052067      97.56731766
C      74.06894292      52.49943620      98.05297732
H      72.88219480      53.72208912      99.17736448
C      76.50668986      53.29879042      97.41991901
H      77.08683584      55.14883248      98.06053623
C      83.84449714      54.34380907      91.97183805
O      84.40007667      56.31668335      92.91670121
N      85.28068914      52.97186777      90.40714466
H      84.64007192      51.30512916      89.73629182
C      87.81292239      53.92240012      89.70605620
H      88.34204576      55.42473254      91.01374681
C      89.77445831      51.75299431      89.82132951
H      89.06203149      50.27900779      88.57222041
H      89.88028298      51.00655242      91.73940171
C      92.42007515      52.33691973      88.85567936
H      92.98699304      54.15105700      89.64936441
H      92.38417035      52.47486976      86.79965713
C      94.17374116      50.23743380      89.55298837
O      95.07514062      48.92029456      87.78231481
O      94.41373641      49.67429536      91.82254967
C      87.67308265      55.51732911      87.32500105
O      88.51590058      57.74342671      87.20216884
N      86.59026947      54.50254608      85.29921444
H      85.82682004      52.76777733      85.50708433
C      86.22555229      55.67984558      82.82178324
H      88.02268202      55.78000108      81.82022830
C      84.44354038      53.91484121      81.38370152
H      82.57082160      54.10759330      82.21896055
H      85.04447335      51.94763611      81.48952619
C      84.24322939      54.54412007      78.56234013
H      86.00823377      54.73687216      77.51732148
H      83.24734362      56.32424226      78.28266064
S      82.55192434      52.20085944      76.61592203
C      82.18720716      53.79578844      73.60369829
H      81.02124603      55.47953460      73.83802435
H      81.03447411      52.47864920      72.52088511
H      84.02591086      54.08302684      72.72308583
C      84.89140551      58.28766789      82.59123663
O      85.80981250      60.03944418      81.43094468
N      82.85239082      58.75443029      84.13892248
H      81.90185849      57.34469447      85.00819659
C      81.61273036      61.11091900      84.57166981
H      81.43320636      62.12570204      82.78965789
C      78.91231146      60.58179563      85.53165077
H      78.02602982      62.30900549      86.21762143
H      79.11073272      59.39882696      87.20405856
C      76.98857007      59.10969884      83.82333819
H      77.99012502      57.41272462      83.22240522
C      74.58861766      58.43317683      85.26897882
H      73.66454149      60.13393050      85.97384673
H      74.99490881      57.17839854      86.85067974
H      73.15053593      57.62626368      84.03309781
C      76.13441378      60.73486347      81.58590223
H      77.75768868      61.77232322      80.85457815
H      74.91365058      62.22018836      82.31911604
H      74.84562043      59.84480238      80.24797600
C      83.18876211      63.04032958      86.19116526
O      83.02813537      65.34768540      85.73385149
N      84.51912943      62.08223833      88.02986896
H      84.84416236      60.20007092      88.02986896
C      86.17075023      63.61858582      89.70983565
H      85.08604732      65.16438195      90.53375633
C      87.07214968      61.85925063      91.80932159
H      88.18141903      60.35691820      90.93626803
H      85.34871928      60.90304912      92.40458537
C      88.49511359      63.35591386      93.75007051
H      87.30647574      64.58234624      94.90280356
H      90.05413780      64.33101265      92.82221489
C      89.86327544      61.46051837      95.46783173
H      90.96498588      62.52632402      96.84355248
H      91.22954757      60.41361000      94.33588567
N      88.20787519      59.48197493      96.66024903
H      88.12094778      57.69429383      95.99884482
C      86.60538728      59.81078730      98.51785000
N      86.36350231      61.98019311      99.58554536
H      85.60383233      61.94806777     101.33732166
H      87.58993469      63.39937758      99.24539463
N      85.26935078      57.97019387      99.46271315
H      84.40385613      58.34813913     101.12189286
H      85.73422345      56.19763059      98.92792061
C      88.41007591      64.68250174      88.30576900
O      88.98455271      66.97473976      88.57599986
N      89.48533018      63.17827959      86.51997764
H      89.30580618      61.29422245      86.75808315
C      91.62072092      64.07967904      84.89292328
H      92.96431632      65.20784565      85.97195701
C      93.31013624      61.84602254      83.91215532
H      94.97876457      62.70206857      83.05799903
C      94.27011721      60.23786544      86.23462896
H      92.70920327      59.10969884      86.96595305
H      95.02411800      61.50587180      87.67082096
H      95.62316125      58.89615976      85.45228227
C      92.19897717      60.30967504      81.70684472
H      91.38261540      61.41327521      80.17049722
H      90.53034883      59.36103244      82.45328661
C      93.70886849      58.29144734      80.41805137
H      95.51166739      59.04544814      79.76798552
H      92.73565944      57.70374247      78.69840043
H      93.97154045      56.81179164      81.82589747
C      90.75333654      65.92783137      82.76887090
O      92.04401961      67.82889605      82.19628383
N      88.40629646      65.58957037      81.87692009
H      87.36694698      64.01920780      82.18494547
C      87.41985932      67.33378776      79.98530405
H      88.96376572      67.63425424      78.65682645
C      85.12384185      65.98263345      78.72485660
H      84.02024168      65.11902851      80.23285819
H      85.91374745      64.51620583      77.51543175
C      83.48733886      67.69472549      77.05622826
O      84.43976093      68.57722766      75.03611083
O      81.32738169      68.23896665      77.77432426
C      86.85105170      70.05688337      81.13992682
O      87.46332303      71.88802816      79.80766977
N      85.90996800      70.13814161      83.47562855
H      86.01201322      68.55077151      84.53009583
C      84.89896442      72.53053512      84.58867734
H      84.18464787      73.68515790      83.03910177
C      82.76546341      71.99007339      86.44249886
H      83.55158956      70.92993693      88.02231006
H      81.49178788      70.65025744      85.53354050
C      81.17998304      74.10278741      87.52909149
H      82.32704691      75.40291912      88.63836083
H      79.65308418      73.51508252      88.78198003
C      79.67198144      75.73551095      85.51086379
O      77.95988940      74.61679297      84.23718825
O      80.14063356      78.00129279      85.38803157
C      87.02868597      73.77019558      86.17604745
O      87.21765861      76.11345621      86.24029814
N      88.51023140      72.24896589      87.40625928
H      88.45353961      70.39136493      86.97540168
C      90.26956660      73.09745301      89.36023628
H      91.46387363      74.60356488      88.62135330
H      91.50355788      71.48362674      89.70038702
C      89.10549519      74.07633123      91.78664487
O      86.91152294      73.74940858      92.20805384
N      90.74010845      75.31221224      93.29086702
H      92.53345872      75.42748556      92.64458062
C      90.24122071      76.51596792      95.71727560
H      88.29291288      76.12479457      96.25962705
C      92.11582921      75.54464859      97.66369370
H      92.40306761      76.80320631      99.26807134
H      94.01878361      75.62401709      96.87945728
C      91.46765308      72.99162834      98.74839661
H      91.10671536      71.56488497      97.30653543
C      93.79768563      72.04676518     100.19781669
H      95.31513586      71.40236850      98.96193568
H      93.24588554      70.60301428     101.55841964
H      94.45720011      73.55287705     101.43936688
C      89.31336509      72.95194409     100.58710031
H      88.95431709      70.99418762     101.11244423
H      87.69386964      73.83255655      99.67058305
H      89.85382681      73.92326341     102.32186907
C      90.44531115      79.38079301      95.65302491
O      92.51645119      80.23116984      94.83288369
N      88.50834168      80.76218293      96.44859968
H      86.85861061      79.81731978      96.62245451
C      88.63684307      83.49094774      97.12323198
H      90.61538652      84.02574028      97.31031488
C      87.21765861      85.07642811      95.01240769
H      86.97766336      86.99072087      95.73617286
H      85.48666930      84.06353481      94.53241720
C      88.87305886      85.48838844      92.72205940
H      89.77256858      83.70637654      92.21939220
H      90.49255431      86.64679068      93.25496222
C      87.39529288      86.63923177      90.51485906
H      88.68786568      87.31197434      89.05976980
H      86.43153246      88.23038132      91.39736125
N      85.71721591      84.81753561      89.42070753
H      85.33549120      83.30953401      90.52619742
C      84.96321511      84.72871847      87.05288046
N      85.34682956      86.66001875      85.52787132
H      84.16953006      86.52773792      84.03120808
H      86.05547692      88.25683749      86.30076938
N      83.83882796      82.73127776      86.15337073
H      82.69176409      82.77852092      84.62647187
H      83.70654712      81.22138643      87.31366269
C      87.46521275      83.78196558      99.71971593
O      85.16730556      83.71582516      99.81987143
N      88.87872804      83.66291283     101.77384843
H      90.75333654      83.33221072     101.63400869
C      87.75056143      83.66480255     104.31742005
H      86.08571254      82.46860580     104.13222687
C      89.59304458      82.65379898     106.39611900
H      88.68030677      82.90135312     108.22537407
H      91.31080580      83.78763477     106.43391352
C      90.65885022      79.94393145     106.03896072
H      91.76245039      79.88346019     104.30041252
C      92.36149363      79.36000601     108.23860215
H      91.50544761      79.50740466     110.10565175
H      94.00366580      80.60155620     108.12521857
H      93.28934925      77.55153793     107.91356923
C      88.63495334      77.88224003     106.16179293
H      89.57603704      76.04920551     106.10510114
H      87.31592437      78.02207979     104.58387146
H      87.64662648      78.40569423     107.88900278
C      86.58649002      86.19892554     105.16968662
O      85.09927541      86.08365224     107.00272114
N      87.06081132      88.41935396     103.78262751
H      88.20409574      88.29085256     102.25950810
C      85.78524606      90.90623378     104.41001664
H      84.61739520      90.64545156     106.08620388
C      87.97543886      92.79407038     104.81630780
H      88.91085338      92.70714295     102.98327328
H      88.94486846      92.28195453     106.55863546
C      87.13829010      95.61921120     105.17913525
H      86.16130160      95.78361740     106.98193415
H      86.14996324      96.26360788     103.49160965
C      89.47966100      97.28783954     105.39645378
H      90.70420365      96.60942780     106.91012455
H      88.85416159      99.23236791     105.66479491
C      91.11994344      97.37854640     102.91146368
H      90.45098033      98.76182607     101.53763265
H      90.67585776      95.75338178     101.72849500
N      93.96398154      97.33508271     103.39145416
H      94.50444327      98.47269795     104.82575643
H      95.04112554      98.10420131     102.01762313
H      94.59703986      95.53795297     103.49538911
C      84.05047731      91.42401879     102.21982384
O      84.38306914      90.50750154     100.12600709
N      82.08894139      93.01138889     102.81508763
H      82.06815440      93.71247736     104.59143037
C      79.93654312      93.54996089     101.14267985
H      79.05971011      91.77928735     100.55875442
C      77.98256611      95.04473440     102.64123281
H      77.71044553      94.11120962     104.45725980
C      78.41909289      97.89633142     102.79430064
H      80.45054868      98.13632666     103.03051643
H      77.39675096      98.89032746     104.28151525
H      77.92209487      98.76560552     100.99528119
C      75.37474380      94.67812751     101.20315109
H      75.12152048      92.65423062     100.92536132
H      75.26891913      95.37543652      99.26807134
C      73.03526263      95.42456940     102.66390953
H      72.88975370      97.47681218     102.78863146
H      73.31872157      94.52694940     104.49505433
H      71.35340621      94.57986173     101.82865050
C      80.64330076      94.94457892      98.60666713
O      82.28925238      96.58864080      98.53296781
N      79.52458279      94.12065825      96.55631408
H      77.97122776      93.07374986      96.91914154
C      79.99323491      95.16000772      94.05242672
H      80.94187752      96.98548333      94.15258221
C      81.88863040      93.26461223      92.75796420
H      83.64985533      93.34776018      93.81999038
H      82.41775377      93.90144998      90.87201734
C      81.02691520      90.50183236      92.34600386
C      80.18031782      89.82531033      89.91014664
H      80.01969108      91.18024410      88.39080669
C      79.84394653      87.22882637      89.45661233
H      79.11073272      86.61277560      87.65570315
C      80.38251853      85.35421788      91.20838862
O      79.94410203      82.87867641      90.63013237
H      79.26002110      82.49128251      88.99551911
C      81.21021866      86.18569745      93.60834104
H      81.38029403      84.76273353      95.05965084
C      81.57115638      88.72359990      94.22061236
H      82.02280097      89.28484861      96.13112566
C      77.61217976      95.34142144      92.48395388
O      75.60151096      94.62899463      93.49117800
N      77.82193938      96.18234965      90.00463296
H      79.17120397      97.31807516      89.27708833
C      75.65442330      95.90078043      88.13758336
H      74.10484772      94.82552616      88.96339376
C      74.74546494      98.69379591      87.48373806
H      73.18644073      98.58230207      86.14203237
H      76.17598776      99.87676459      86.59178724
C      73.71367437     100.26793794      89.64747468
H      74.82105399      99.77660909      91.31610302
H      71.82394806      99.51960632      89.97628706
C      73.79871206     103.15355002      89.34700820
H      75.63552603     103.69023230      88.58733822
H      73.44911269     104.00392686      91.18949136
C      71.63497543     103.80172615      87.51208395
H      69.99091354     103.11575550      88.54387452
H      71.85985286     102.56584514      85.88125014
N      71.57639391     106.57017520      86.92059961
H      71.11908015     107.39031642      88.58355877
H      70.20823206     106.87631085      85.62613709
H      73.19022018     107.36952942      86.28943103
C      76.29126106      94.49293433      85.65070353
O      78.51357921      94.22270346      84.87591574
N      74.44688818      93.44791568      84.33356429
H      72.71589888      93.95058287      84.96284315
C      74.50546970      92.06652573      81.87692009
H      76.11173706      90.79662966      82.11313587
C      72.06772275      90.36199260      81.83534611
H      70.31783619      91.44669551      81.86369200
H      72.06583303      89.23193627      83.55688678
C      71.85796313      88.74249715      79.46940876
O      72.97857084      86.65057013      79.48263685
O      71.02081438      89.78373636      77.45307079
C      74.76625193      94.02806166      79.68105811
O      74.49224161      96.32407912      79.98908350
N      75.49568629      92.96225602      77.39448927
H      75.64875412      91.06497080      77.24520089
C      75.80182195      94.41356583      75.02477247
H      77.04715159      96.00093593      75.43484308
C      77.40997904      92.93013067      73.08024410
H      76.11740624      91.43535716      72.49442894
C      78.47767441      94.37766102      70.72942456
H      76.92242965      94.95780699      69.51055109
H      79.68709925      93.21736906      69.53322781
H      79.61339992      96.01794347      71.24154040
O      79.59072321      91.84920722      74.16872645
H      79.36017660      90.19758642      74.88871218
C      73.30171404      95.42078994      73.93251067
O      73.01447564      96.98359360      72.21474945
N      71.22112537      94.57608228      75.11925879
H      71.36852402      93.16067727      76.39482405
C      68.74180444      95.65700573      74.77532860
H      68.59251607      96.66234014      72.98386806
C      67.02782268      93.29673757      74.61281214
H      66.98813843      92.29707235      76.41372131
H      67.99158310      92.09109219      73.24842974
C      64.32551405      93.65200612      73.71897159
H      63.36742281      94.99749125      74.94918342
H      63.39954816      91.83786885      74.02510725
C      64.21590992      94.43435281      70.85792595
O      64.99636689      96.55651545      69.92818061
O      63.52993927      92.71092241      69.37071135
C      67.69678579      97.29728818      76.88804262
O      65.82406702      98.62954523      76.49497955
N      68.99313804      97.48437107      79.06689706
H      70.61452322      96.51494148      79.33334847
C      68.51503729      99.69157141      80.93016720
H      67.17900078     101.05595381      80.15915887
H      70.30649783     100.70824416      81.01520489
C      67.37553232      99.05851309      83.49830526
O      66.89932129     100.76493595      85.04977056
N      66.80672470      96.61698671      84.06900261
H      66.88231375      95.55873997      82.48163251
C      65.81839784      95.48882010      86.44060913
H      64.69967986      96.97792442      87.32311132
C      64.22913801      93.23248688      85.58645284
H      63.10664058      92.49927306      87.15114622
H      65.62375603      91.81897160      85.03843221
C      62.55484049      93.38177526      83.40759840
C      62.06729111      91.17079546      82.08856943
H      62.68901106      89.27351024      82.51942703
C      60.66511418      91.39945236      79.77743415
H      60.24748467      89.85176651      78.51698670
C      59.51616058      93.68791092      79.26909777
O      57.74359730      93.77105887      77.37748173
H      56.84219785      95.33575226      77.54566738
C      59.83174488      95.88944208      80.73552539
H      59.05506736      97.61287246      79.96640678
C      61.51360130      95.68535162      82.66682568
H      61.97847397      97.46736354      83.54365869
C      67.75536731      94.75560628      88.37001970
O      69.80383063      93.93357534      87.61412917
N      67.26214874      94.88410767      90.80020774
H      65.45557039      95.22236869      91.31043384
C      69.10652162      94.44380145      92.68993405
H      70.85073901      95.27339129      91.96805860
C      68.41866124      95.97447976      94.99162070
H      69.66210116      95.20158170      96.44104078
H      66.50814794      95.50771735      95.60767148
C      68.69267156      98.80151032      94.54564529
C      66.85774731     100.31518109      93.44015539
H      65.07951485      99.41378165      92.99984916
C      67.07695556     102.95701849      93.22472659
H      65.53304916     104.14187688      92.61056554
C      69.34651686     104.11353098      94.16581030
O      69.48824634     106.63253617      94.28864251
H      68.11252558     107.29016092      93.30787455
C      71.27025825     102.65655200      95.18248306
H      73.06738797     103.57495898      95.48483927
C      71.00002739     100.01093515      95.32421253
H      72.60251530      98.89221719      95.90624823
C      69.42966482      91.55440990      93.24551358
O      67.62119674      90.08798228      93.28141838
N      71.78237408      90.83820363      93.77463695
H      73.13730785      92.17990932      93.68393009
C      72.68944271      88.21904296      93.98061712
H      71.08317535      87.11355307      94.64202133
C      73.65131340      87.28929763      91.37657426
H      75.60906987      87.82220045      91.02697489
C      73.45856132      84.50951022      91.07610778
H      74.67554507      83.79330395      92.57466074
H      74.15209088      83.62700802      89.34889793
H      71.59718090      83.79708340      91.59767224
O      72.06016385      88.24171969      89.37724382
H      72.62708174      89.85365622      88.76875195
C      74.84751016      87.75983948      95.90435851
O      76.26291517      89.39067329      96.58465998
N      75.04215197      85.59988230      97.09866554
H      73.59651134      84.37722937      96.85111139
C      77.15297626      84.91391164      98.63312330
H      78.82727378      85.94570221      98.01518280
C      76.65219879      85.90412824     101.37700591
H      75.75835824      87.74850111     101.15968738
C      74.78892865      84.32809649     102.88122805
H      73.17321265      83.94637178     101.66046486
H      74.35618132      85.54319050     104.48560569
H      75.56560616      82.52340786     103.49349938
C      79.13151971      86.33498583     102.93980957
H      80.52046855      87.36866613     101.82487105
H      79.94221230      84.45281843     103.13445138
C      78.76302308      87.45181408     105.52873462
H      77.45911193      89.04485336     105.50983736
H      80.62062405      88.02818061     106.21092582
H      77.95233049      85.98727620     106.72871083
C      77.90886679      82.07932218      98.76729387
O      76.48401315      80.41636302      98.05675678
N      80.12173630      81.52185291      99.65168579
H      81.48233925      82.85410997      99.78207690
C      81.10439398      78.98017103     100.11655846
H      79.74001159      77.90680647     101.22393808
H      82.79002985      79.14079776     101.29196822
C      82.00201398      77.49862560      97.76195947
O      83.54025120      78.41703259      96.26340651
N      80.85683984      75.33488897      97.44259573
H      79.32616152      75.04387112      98.54619589
C      80.78314051      73.89302779      95.09366592
H      82.20988388      74.66781558      93.82376984
C      81.32738169      70.96395200      95.38846322
H      79.68143007      70.17782585      96.34277501
C      81.68831941      69.62224633      92.91859093
H      79.99701436      69.74696825      91.74885034
H      82.18720716      67.65315150      93.26063139
H      83.23222581      70.55577111      91.92459489
C      83.73678274      70.55955058      97.04953265
H      83.97677798      72.17715630      98.30431092
H      85.45265423      70.36679849      95.92892495
C      83.45143406      68.08778856      98.58588014
H      85.20510008      67.79677071      99.62711934
H      83.15852649      66.61380202      97.17614432
H      81.86406396      68.08211938      99.89735021
C      78.15453121      74.38057717      93.81999038
O      76.62574262      72.72517692      93.51196499
N      77.78036540      76.63880013      92.91670121
H      79.33749988      77.73295166      93.07354849
C      75.76780688      77.26429952      91.00240845
H      75.50513492      75.70527533      89.68148976
H      76.60684536      78.76663195      89.87046239
C      73.29226541      77.83310716      92.22317165
O      71.45356170      78.20538323      90.77753102
N      72.83495164      77.79909208      94.74028710
H      74.22579020      77.60633999      96.03285990
C      70.28382112      78.06932294      95.46783173
H      69.09518326      76.91092070      94.24517880
C      70.18366562      77.34555776      98.29108284
H      71.14553631      78.70994015      99.49861795
H      71.05860890      75.49740542      98.53485753
C      67.60985838      77.14335705      99.31720423
N      66.03193691      75.20449785      99.04508364
H      66.57806782      73.47161881      98.45926848
C      63.75292698      75.79220274      99.98994680
H      62.21846921      74.47317376     100.24883930
N      63.87575919      78.24695721     100.81575719
H      62.39043431      79.12756968     101.63400869
C      66.28516024      79.16725392     100.22238313
H      67.01648432      81.05320079     100.48127564
C      69.22368465      80.79052884      95.05209194
O      69.93989093      82.65946815      96.29553185
N      67.31506108      81.06264941      93.36645607
H      66.61397262      79.36567519      92.84867106
C      65.89776634      83.38701278      92.78631009
H      67.11097064      84.80619725      91.91325653
C      63.83418521      82.76718256      90.76808239
H      62.80428437      81.24406314      91.69404828
H      64.84329906      82.20971330      89.05976980
C      61.78194243      84.85533012      90.10100900
H      60.33063262      85.19737059      91.52019346
C      63.04427961      87.47638052      89.56621645
H      64.32740378      87.20992911      87.97884635
H      64.12142361      88.19447652      91.16681464
H      61.70446365      88.92580061      88.97284239
C      60.70290871      83.76684778      87.70672576
H      59.16656122      85.02918496      87.16626404
H      60.03205587      81.88279064      88.19805460
H      62.00681986      83.96526904      86.12502484
C      64.67700314      84.26762525      95.17681388
O      63.64332285      82.69159351      96.54686545
N      64.65621616      86.66757766      95.70026806
H      65.49903409      87.87700251      94.48706377
C      63.22380361      87.64267645      97.69203960
H      62.82885081      86.07420361      98.97138431
C      64.94345455      89.28484861      99.31720423
H      63.62631531      90.10687956     100.66835854
H      65.99792184      90.82308583      98.44415067
C      66.97680007      87.85810525     100.83843391
H      68.04071598      86.52773792      99.68381113
C      69.23502301      89.71003703     101.44125660
H      69.91343476      90.41301522      99.62711934
H      70.69767118      88.77084305     102.54674650
H      68.70589964      91.26717151     102.68091706
C      65.96768622      86.43703106     103.13256165
H      64.89621140      84.87044794     102.33131770
H      64.87353468      87.65590452     104.38167075
H      67.53426933      85.58098503     104.15490359
C      60.81629229      88.92013143      96.93236962
O      58.89255090      88.71982044      98.37234107
N      61.04872862      90.53017825      94.98217207
H      62.77404875      90.67568718      94.18092811
C      59.07018517      92.17990932      94.14502331
H      57.38832876      91.01961737      93.88991026
C      58.40689124      94.15845277      96.09711059