 %block lattice_cart
   137.614   0.000   0.000
   0.000 142.646   0.000
   0.000   0.000   160.855
 %endblock lattice_cart

 %block positions_abs
N      91.48938494      39.97149561      80.37742226
H      90.78073756      38.91135915      78.95823780
H      90.70136906      39.41402634      82.02526360
H      93.36210372      39.78819216      80.70245518
C      90.85443690      42.57742819      79.81050436
H      91.63678359      43.54307834      81.45267653
C      92.00339050      43.51284272      77.31606563
H      90.61822111      43.13300772      75.83829965
H      93.86666064      42.66813506      77.07796011
C      92.56085975      46.33609383      77.26882247
H      93.24305096      46.94647543      79.11508508
H      90.89790059      47.54929811      77.23480740
S      94.63388951      47.32253096      74.76304538
C      96.21370072      50.07397248      76.24270108
H      97.96358729      50.57852940      75.28083039
H      96.76739052      49.44469362      78.12486849
H      94.92868682      51.66701176      76.47702715
C      88.08220839      42.85332824      79.85018862
O      86.72727462      41.12611838      79.18689468
N      87.13545550      44.98304979      80.74780861
H      88.35810844      46.27751231      81.43566899
C      84.32165303      45.45737109      81.29393952
H      83.04797749      44.40857299      80.06372769
C      84.07976806      44.81108470      84.10207282
H      84.07220915      42.78340836      84.45734137
H      82.21838764      45.32131080      84.82583800
C      85.84099298      46.05074516      86.11463134
O      86.96160068      48.05952423      85.69700183
N      85.91658204      45.04730048      88.26891934
H      87.31875897      45.43280465      89.50669008
H      84.87534283      43.47693792      88.56938582
C      83.72449952      48.26550440      80.95945796
O      85.30431071      49.89633821      80.68544765
N      81.18848680      48.92501888      81.24858609
H      79.99984896      47.45292208      81.51125805
C      80.15858597      51.49693638      81.17866621
H      80.78786482      52.11676662      79.31728580
C      77.15770057      51.53473091      81.50180941
H      76.45850185      50.38199787      79.94278521
C      76.35834635      50.31585745      84.09262419
H      74.31744192      50.16278961      84.31561189
H      76.96305876      51.46481103      85.69133265
H      77.27297388      48.49983045      84.42899547
C      75.73095722      54.06696417      81.13331278
H      76.63235667      55.37276506      82.44667257
H      73.73918568      53.81752029      81.59440600
C      75.92937847      55.08741638      78.41777607
H      77.60745544      56.10975832      77.79983557
H      74.47806866      56.53872619      78.58785144
H      75.31521743      53.64366548      77.08362929
C      81.24517859      53.43390586      83.06650280
O      81.41336424      55.75260004      82.42021640
N      81.99539993      52.65722835      85.40031480
H      82.12768078      50.75994313      85.55149290
C      83.19915559      54.32963614      87.19366507
H      82.23350545      56.11542750      87.53759526
C      83.28041384      52.95958456      89.62385311
H      84.01173791      54.39388682      90.90886700
H      84.67314212      51.44969323      89.45755719
C      80.71038604      52.23392965      90.70855601
C      79.95260579      49.67146077      90.53281146
H      81.13557447      48.27684274      89.62574283
C      77.62068353      48.90801133      91.56460203
H      77.06321426      46.95025487      91.39074721
C      76.02953396      50.82986299      92.62662822
H      74.25319124      50.16089989      93.37684956
C      76.98195603      53.22603596      92.92898443
H      75.77820037      54.47325534      94.00612843
C      79.30631940      53.98570595      92.18443226
H      80.16425514      55.75826923      92.71733508
C      85.62556419      55.43512603      86.25636082
O      85.86177998      57.75570993      86.23179438
N      87.43403226      54.00460320      85.24157779
H      87.03341029      52.15267142      85.01670036
C      89.64690178      54.85875950      83.85829813
H      90.66924371      56.07763297      85.16409901
C      91.19458762      52.50982970      83.09862815
H      90.24027584      51.73504191      81.44511762
H      91.23427188      51.01883564      84.51970234
C      94.00650038      53.19957980      82.38053215
H      94.09720724      54.92112047      81.25425527
H      94.49027032      51.73693162      81.01237030
C      95.80929928      53.21091816      84.61418865
O      98.13177292      53.14099828      84.20222831
O      95.06474712      53.54162025      86.85162461
C      89.03463045      56.66344813      81.62086217
O      90.46704299      58.54183608      81.31472651
N      87.11088906      56.00393365      80.22057497
H      86.31342457      54.35042311      80.74213944
C      86.10555466      57.06973928      77.93022668
H      87.66646861      57.38721331      76.62253607
C      84.07031942      55.38221368      76.80961898
H      82.40169110      55.10631365      77.98880820
H      85.03219012      53.61154013      76.38821001
C      82.87034322      56.59919744      74.52305014
H      84.43125715      56.76360363      73.19079309
H      82.35066848      58.52104909      75.05973241
S      80.10945308      55.01371706      73.16622665
C      80.61589973      55.66000345      69.91778711
H      79.16458993      54.31640805      69.33764114
H      82.53397193      55.13654926      69.37732539
H      80.28519762      57.64043664      69.45291444
C      85.21738330      59.73047394      78.44423224
O      86.64223694      61.48791940      77.81306365
N      83.25962684      60.10463975      80.01837426
H      82.51696440      58.53994635      80.82339767
C      82.43759590      62.53293806      81.18811485
H      81.56454233      63.57606698      79.64231872
C      80.24551338      62.17389006      83.10618705
H      80.11512226      63.78582660      84.37986259
H      80.54031068      60.45801857      84.20600777
C      77.80776642      61.93956400      81.67566423
H      77.97028289      60.73769805      80.01081535
C      75.93504766      60.79250013      83.44633779
H      75.12057561      62.02649141      84.88064006
H      76.76274777      59.24670400      84.52915097
H      74.35712618      59.99692534      82.38809105
C      76.73062244      64.40943628      80.58529215
H      74.84845502      64.12219789      79.79916601
H      77.93248836      65.26737203      79.14721043
H      76.28464702      65.54327208      82.24636158
C      84.51629483      64.07873417      82.43911366
O      84.71660583      66.41065645      82.03093278
N      86.27940949      62.86741962      83.76759126
H      85.87311834      61.01359810      83.99057897
C      88.41480022      64.09574172      85.07717160
H      87.71371176      65.51492617      86.39431084
C      89.90579428      62.16633115      86.64564444
H      90.87522388      60.73202887      85.52881619
H      88.49038927      61.13076114      87.72467816
C      91.96559597      63.51748547      88.20088919
H      91.23049242      65.35051999      88.79237353
H      93.57753252      64.00503486      87.01792052
C      92.85376734      62.19845650      90.61973887
H      94.13122232      63.45134504      91.64019108
H      93.88744762      60.44856993      90.27391896
N      90.72026632      61.57484682      92.23923432
H      89.70737302      60.15377263      91.47011571
C      90.18169432      62.05294758      94.72989360
N      91.44214177      63.87842319      95.89774447
H      90.76750949      64.20156639      97.65330021
H      92.78195774      65.01225897      95.15319230
N      88.42424886      61.12887140      96.09616573
H      88.19937142      61.69767902      97.90274408
H      87.33387677      59.64543624      95.58971908
C      90.03807513      65.49980837      83.09106924
O      90.98104856      67.59740457      83.72790701
N      90.73160468      64.33573696      80.96323741
H      89.71871137      62.74836686      80.63820449
C      92.19047339      65.53760290      78.88264874
H      93.69091608      66.76025582      79.58940638
C      93.36399343      63.40599162      77.28205056
H      91.79363088      62.13987499      76.85875186
C      94.59987444      64.18455886      74.75170702
H      93.26950713      65.17477544      73.53283355
H      95.30096291      62.49514353      73.80684387
H      96.24015689      65.41855014      74.92745157
C      95.42379512      62.05105785      78.77115489
H      94.66979432      61.80728316      80.67410929
H      97.19824813      63.04883333      79.07729055
C      96.30062813      59.45457389      77.91132942
H      97.61587764      59.50559650      76.32584904
H      94.60743335      58.52293882      77.19890260
H      97.19446867      58.53994635      79.52893514
C      90.41791011      67.39898331      77.26315329
O      91.42891370      69.33028361      76.24648054
N      87.96315563      66.87552912      76.92678201
H      87.35277403      65.13887064      77.43511839
C      86.38145472      68.66509995      75.35075026
H      87.38111994      69.31894525      73.67456303
C      84.07409888      67.19300315      74.48903507
H      82.93081446      68.54604719      73.43645751
H      83.25017822      66.36530301      76.18411957
C      84.57865580      65.29571793      72.40466694
O      86.25484305      65.50169809      70.82296602
O      83.07254393      63.46268341      72.16845115
C      85.61044637      71.04426537      76.80583953
O      85.43281210      73.06438280      75.55673043
N      84.96415998      70.92143316      79.38720567
H      84.74495172      69.30193771      80.37742226
C      84.07409888      73.09650815      80.98591413
H      83.70182279      74.79348238      79.88042424
C      81.50974027      72.29148473      82.27659720
H      81.60800604      70.55104680      83.37263846
H      80.14535788      71.98723880      80.76481615
C      80.49306751      74.28703573      84.04727076
H      81.75540469      74.38152204      85.67243539
H      78.69404807      73.57271918      84.75213867
C      80.17559350      76.97422653      82.80572057
O      80.11701199      78.87340149      84.25325093
O      79.61245505      77.21611151      80.54560790
C      86.21326907      73.93932609      82.79816166
O      86.86333493      76.15219560      82.62241712
N      87.02207193      72.24424158      84.34584751
H      86.08287796      70.58506188      84.25325093
C      88.95337222      72.49746491      86.26769917
H      90.57286767      73.40642327      85.37574836
H      89.50328258      70.71923245      87.14453218
C      87.90268439      73.96767198      88.51647349
O      86.04319370      75.28670095      88.43899471
N      89.45792914      73.75980209      90.53659092
H      91.14167529      72.87163072      90.39864090
C      88.97415922      74.60262001      93.18409748
H      87.02963084      74.09617336      93.64519070
C      90.59554438      73.03603691      95.14563339
H      92.65156661      73.02847800      95.03224981
H      89.84532305      71.12552360      94.97744775
C      90.20626076      73.89964183      97.98778177
H      90.78640674      75.87440583      98.04825301
C      87.42269391      73.88263430      98.82304080
H      86.49672802      72.04959977      98.67186269
H      86.42680814      75.28859067      97.69298446
H      87.58521038      74.53270015     100.76945890
C      91.91079391      72.57494369      99.81703684
H      91.20781571      70.70033518     100.30269650
H      91.84843294      73.72200756     101.52534943
H      93.75705652      72.31605117      98.94209356
C      89.50328258      77.38051770      93.45432834
O      91.65379112      78.03247328      92.82127003
N      87.92725083      78.80915078      94.50690590
H      86.18303344      78.03436301      94.55792851
C      88.52818380      81.29981007      95.65585950
H      90.58231631      81.42642174      95.77869171
C      87.57009256      83.43709053      93.87384758
H      87.78930082      85.14162366      95.01335255
H      85.56320322      83.26890488      93.44487971
C      89.25005925      83.83393306      91.50791024
H      89.52217984      82.01790607      90.57249572
H      91.08687323      84.42541740      92.22978569
C      88.28251939      85.92963954      89.85628944
H      89.83209496      86.97087873      88.99079479
H      87.35277403      87.25811714      91.12618553
N      86.54397117      84.84682636      87.94199669
H      85.74650666      83.18197748      88.43521526
C      86.05831151      85.55925318      85.57605934
N      86.83120958      87.71732062      84.70300579
H      86.42113896      88.37494539      82.96067813
H      87.90835357      88.90406875      85.73857581
N      84.80920242      84.15896599      83.95467417
H      84.73928254      84.72399415      82.13297800
H      84.27818932      82.39396161      84.44600301
C      87.34899458      81.43398063      98.28068935
O      85.04541821      81.00690250      98.47344143
N      88.88912152      81.86861769     100.28946842
H      90.76184030      82.12373075     100.02112728
C      87.98016318      81.55492313     102.85571675
H      86.52318419      80.11306194     103.07114555
C      90.25917311      80.89162918     104.48844028
H      89.98894225      81.30547925     106.48966045
H      91.85788156      82.11617184     104.05380323
C      91.26639723      78.09861369     104.44497658
H      91.30419176      77.49957046     102.47588176
C      93.99516202      78.01546574     105.66385005
H      94.12177368      78.41986716     107.68018803
H      95.25560947      79.24189811     104.59426496
H      94.83420050      76.21266684     105.12338833
C      89.42958325      76.52636141     106.10982546
H      87.47749597      76.76446691     105.49566441
H      89.40312708      76.93454229     108.12805316
H      89.79807988      74.55159741     105.65251169
C      86.70081846      84.11361255     103.82136690
O      85.45926827      83.93030909     105.76967473
N      86.73483353      86.11483272     102.37950572
H      87.78363164      86.12239163     100.78457671
C      85.37423058      88.54502076     102.85949620
H      84.36322700      88.55446939     104.65473620
C      87.56442338      90.52734366     102.88406265
H      88.47338174      90.53868202     101.03591031
H      88.92691605      90.21553882     104.39395397
C      86.60633214      93.17296049     103.57570248
H      86.00350945      93.22587284     105.54290757
H      85.02463121      93.53956740     102.30958585
C      88.67180301      94.97764912     103.18641886
H      89.65824013      94.86993473     101.38173023
H      89.96815525      94.45230521     104.70008963
C      87.75150629      97.68940638     103.59648947
H      86.44003623      97.85381258     105.17441094
H      86.67058284      98.06357220     101.88250770
N      89.78296208      99.49598474     104.04246488
H      90.54074232      99.22008470     105.77345418
H      89.18769828     101.30067337     103.87805869
H      91.15490338      99.26543813     102.73477427
C      83.39757687      88.96831945     100.93386509
O      83.48828373      87.87983709      98.89296067
N      81.45682793      90.37805528     101.78613166
H      81.38312862      91.05079785     103.57192302
C      79.29876049      90.98843688     100.13451086
H      78.37657404      89.24988867      99.52601899
C      77.19171565      92.60604260     101.23433157
H      77.77186162      94.56946824     101.45920901
C      74.97884613      92.50021793      99.52412926
H      75.59300719      93.30146189      97.72510981
H      73.44249865      93.67940714     100.22710745
H      74.67082075      90.48010050      99.27090593
C      76.22228605      91.69708424     103.78924155
H      77.70383148      91.31535953     105.16496230
H      75.17537767      89.95097714     103.45664972
C      74.43838442      93.62460508     105.01378420
H      72.53920946      92.89139128     104.70008963
H      74.54231936      95.50110332     104.17285599
H      74.62924677      93.81546745     107.05657834
C      80.28897708      92.31691448      97.81959613
O      81.73650743      94.10459557      98.06337082
N      79.82599414      91.28323418      95.58782935
H      78.58822339      89.87727781      95.22689162
C      80.38157367      92.59659397      93.18787693
H      81.30753956      94.40695178      93.51668931
C      82.28830751      90.99788550      91.58727875
H      83.87378789      90.54624091      92.82504948
H      82.97238844      92.11849322      90.00179837
C      81.44926904      88.36927621      90.83138822
C      80.34755859      87.89117545      88.40686936
H      80.11512226      89.39161815      87.04248696
C      79.61056534      85.38539836      87.76058296
H      78.73373233      84.89595925      85.98424023
C      79.93748799      83.38795765      89.49724144
O      79.46127696      81.04280730      88.82071942
H      79.32899611      80.81792986      87.02547943
C      80.85400524      83.87928649      91.88207605
H      81.13368474      82.38640270      93.24456872
C      81.61178549      86.38128413      92.54348026
H      82.11067325      86.66474308      94.50123672
C      77.97595207      93.04823855      91.53247668
O      75.89158394      92.39817271      92.36206653
N      78.22350622      94.25766340      89.26858456
H      79.96205443      94.99087721      88.97567698
C      76.16748399      94.56379906      87.44688839
H      74.58011389      93.71342222      88.44088443
C      75.45505716      97.42295498      86.87808077
H      76.98762521      98.12593317      85.69511210
H      75.34923249      98.45663527      88.65631323
C      72.80377115      97.61381732      85.80093678
H      71.44316821      97.24721043      87.30137947
H      72.51275329      96.34203153      84.20789749
C      72.26897861     100.19896293      84.54615850
H      70.22807418     100.21786019      84.27781737
H      73.16659861     100.41061228      82.70367535
C      72.77731499     102.43450916      86.15809505
H      74.80688104     102.77465989      86.21289711
H      72.16126420     102.21530091      88.11207206
N      71.80977511     104.77210061      85.13764284
H      70.12602897     104.60391497      84.25325093
H      73.15526024     105.34468768      83.91310019
H      71.70772989     106.04199669      86.55871703
C      76.83833683      93.15973240      84.97134692
O      78.85278507      93.60192837      83.86207758
N      75.14325233      91.53267806      84.03971185
H      73.60879456      91.18874787      85.11874558
C      75.57788937      90.09081688      81.68133341
H      77.54509447      89.49555308      81.82684234
C      73.90737132      87.74755624      81.70589986
H      71.99118884      88.49021870      81.54527312
H      73.97351174      86.82914926      83.55027274
C      74.78609405      85.88050666      79.60452420
O      73.59178703      85.80491760      77.55984032
O      76.61912858      84.57281605      79.87097561
C      75.51552842      91.68196644      79.36452895
O      74.60468033      93.84381334      79.38342622
N      76.49062718      90.64639641      77.26126357
H      77.65469859      89.14406400      77.41055195
C      76.16748399      91.92385141      74.81406799
H      76.52086280      93.93829966      75.06540159
C      77.89847330      90.90906838      72.77505330
H      77.59611709      91.88983633      70.98926193
C      80.67259151      91.12827662      73.37031709
H      81.04108815      93.15217351      73.48559039
H      81.69115401      90.20797991      71.83585932
H      81.31887792      90.46876214      75.20902079
O      77.55643283      88.30502552      72.66733890
H      79.13813375      87.53590691      72.23081212
C      73.41982192      92.14305966      74.00715486
O      72.97006706      93.69074551      72.28750391
N      71.52253672      90.70119847      75.06162214
H      72.09134434      89.79601958      76.64332306
C      68.87503014      91.07914374      74.49470424
H      68.66716025      91.05079785      72.44435120
C      67.59946489      88.70186804      75.60397359
H      67.76198135      88.89462013      77.64676774
H      68.77487466      87.12394657      74.98981254
C      64.81211857      88.38250430      74.91989267
H      63.78410745      90.15884703      75.09941667
H      63.89182186      87.04268834      76.18600930
C      64.43795277      87.59826788      72.15333334
O      63.16994641      85.66318813      71.88499221
O      65.50375840      88.53368239      70.27494539
C      67.82434232      93.51878041      75.61153250
O      65.74564338      94.50899700      74.95390774
N      69.20573226      94.43340794      77.50692799
H      70.97262636      93.78523182      77.81684310
C      68.19661841      96.34203153      79.30783716
H      66.74719832      97.59869952      78.55572609
H      69.84445974      97.51933102      79.68389270
C      67.11758468      95.63149442      81.87597522
O      65.77020982      97.25476934      82.96067813
N      67.72607654      93.59247973      83.07028225
H      68.63314518      92.21297953      82.11219101
C      66.63570447      92.85359675      85.49291139
H      65.10691587      94.01010926      86.24502246
C      65.20140220      90.40262172      84.81638937
H      64.51165210      89.55224487      86.56060675
H      66.60357912      89.00044480      84.25325093
C      62.98853269      90.61805052      83.04571581
C      62.55578535      88.70186804      81.26559362
H      63.67828279      86.99922463      81.31283678
C      60.36370283      88.56391801      79.85585779
H      59.85914591      87.10693903      78.51982129
C      58.62893408      90.63505806      80.09963249
O      56.55779404      90.69174985      78.61808706
H      55.45419388      91.97298429      79.27382209
C      58.91806220      92.61171178      81.86274714
H      57.58391543      94.14239010      82.06116840
C      61.08935774      92.61360151      83.39153573
H      61.45218519      94.08002913      84.76347703
C      68.65960134      92.48887957      87.68688364
O      70.68349822      91.56669313      87.13130410
N      68.13992662      93.39594820      90.08116687
H      66.51854144      94.38616479      90.24368334
C      69.71595835      92.83092004      92.31860283
H      71.60946413      93.41295574      91.75924384
C      68.96951646      94.58080659      94.39163259
H      69.90115153      94.00632979      96.13962943
H      66.93617095      94.52789427      94.71666552
C      69.84257001      97.27933578      93.96644417
C      67.98874851      99.00087645      93.71511057
H      65.99508725      98.59080583      93.87573731
C      68.64637327     101.51043299      93.33338586
H      67.14026139     102.85780785      93.05559609
C      71.12758392     102.13971185      92.98945567
O      71.56033123     104.61147387      92.90819744
H      70.07689609     105.63381580      93.12362624
C      73.00408214     100.50131914      93.42976190
H      74.86924201     101.32712953      93.42787217
C      72.40692863      98.00310096      93.69054413
H      73.91681995      96.63493910      93.80203798
C      69.69517136      89.92074151      93.02347074
O      67.67883339      88.79635436      93.28614270
N      71.98740938      88.88895095      93.13118514
H      73.57288976      89.82625520      92.62851794
C      72.50519440      86.23388548      93.34472422
H      70.81577907      85.26823533      94.01746678
C      73.09289927      85.10382913      90.80682178
H      74.68215910      86.23388548      90.14163812
C      74.06232888      82.38829243      90.45911214
H      75.69505242      81.88940468      91.61184519
H      74.48562757      82.29947528      88.44655361
H      72.52409165      81.04280730      90.72367382
O      71.15215036      85.44209015      88.93788246
H      71.00664142      87.18441781      88.45411252
C      74.66515157      85.62917306      95.25901697
O      76.19016070      87.31480893      95.83160405
N      74.85034475      83.22922064      96.19632122
H      73.53509524      81.86861769      95.93364927
C      76.86479300      82.40341024      97.81014749
H      78.54664942      83.44086999      97.23756042
C      76.41125868      83.23488982     100.65418560
H      75.69694214      85.16430038     100.57670682
C      74.20783780      81.74389576     101.89951524
H      74.73696118      79.76346258     101.69164534
H      72.47495878      82.18609172     100.88095275
H      73.89981241      82.38640270     103.83270525
C      78.83010837      83.19520557     102.26045296
H      80.40991956      84.02479541     101.23244185
H      79.16081046      81.26390527     102.89351128
C      78.88113098      84.94887157     104.44875603
H      80.61589973      84.64651536     105.51456167
H      77.32021703      84.60116194     105.74699801
H      78.79042411      86.93119449     103.89695595
C      77.42793144      79.49323172      97.53046800
O      75.79331817      77.92286915      96.84071790
N      79.68237493      78.79781243      98.28446880
H      80.87290250      80.21888662      98.73800311
C      80.67259151      76.11629079      98.13140097
H      79.00018373      75.04670569      98.68131133
H      82.22783628      75.83094211      99.45420939
C      81.38690807      75.15630983      95.51790948
O      82.63223770      76.51124360      94.06848940
N      80.78030591      72.79982112      94.74879087
H      79.89213455      71.71322849      96.04325339
C      80.51952368      72.29148473      92.03703361
H      81.84611155      73.49713012      91.02603003
C      81.53430671      69.60051447      91.61562464
H      80.29275653      68.25502934      92.55859807
C      81.47761492      68.89942601      88.84339614
H      82.45460343      70.29593374      87.68877336
H      79.51985846      68.82005750      88.20088919
H      82.04075337      66.96812571      88.39931046
C      84.33488112      69.12430344      92.56237752
H      84.75251062      70.41876595      94.10817365
H      85.68414571      69.67043434      91.10350881
C      85.04541821      66.41065645      93.10094952
H      83.62434402      65.64909674      94.38407369
H      86.97293905      66.30294204      93.82093525
H      85.10777918      65.50925700      91.24901774
C      77.74540547      72.72612179      90.93910262
O      76.11457166      70.94222015      91.01469167
N      77.24840744      75.02213925      89.87896616
H      78.68270972      76.25991000      90.11518195
C      74.91081599      75.46433522      88.48812759
H      74.53853990      73.94499526      87.14831164
H      75.10545781      77.08572040      87.23523905
C      72.33511902      75.74779417      90.04904153
O      70.28098653      75.67409484      88.93221328
N      72.25197107      76.12573943      92.48867820
H      73.96784256      76.37518329      93.28992215
C      69.88036455      76.35628604      93.95510582
H      68.45173146      75.01458036      93.32204750
C      70.47940779      75.47945302      96.69709870
H      71.68883263      76.86462241      97.62684404
H      71.32411545      73.60295480      96.80670282
C      68.06433756      75.14497146      98.17486467
N      66.52987979      72.98123484      98.07848863
H      66.82656683      71.40898255      97.03724943
C      64.52488018      73.41587190      99.40318678
H      62.84869294      72.25557994      99.34082581
N      64.53243907      75.66653593     100.43119789
H      62.90538473      76.58683265     100.81292261
C      66.74908805      76.71722376      99.70932244
H      67.29710868      78.61450898     100.23277663
C      69.06589250      79.03780768      93.86439895
O      70.20917692      80.71399492      95.13618476
N      67.13837167      79.52724679      92.49812683
H      66.26720784      78.15908494      91.49468216
C      65.77398926      81.97255263      92.45088367
H      67.19884291      83.35961176      91.91987058
C      63.85024789      81.68153479      90.38919226
H      62.41216616      80.33038047      90.98067660
H      65.03321656      81.30358953      88.74702010
C      62.54444700      84.27612902      89.86006890
H      63.67828279      85.87294775      90.49501694
C      62.33846684      84.50289618      86.90075749
H      61.06857075      82.94954114      86.44344372
H      64.20362671      84.11172283      86.11652107
H      61.69784962      86.43608619      86.58328347
C      59.92906579      84.22510641      91.10350881
H      58.94073891      82.43553559      90.85784439
H      58.58169093      85.54791483      90.27769841
H      60.18984802      84.63517702      93.10661870
C      64.68550692      82.52624245      95.04169845
O      63.84457871      80.87273193      96.44387537
N      64.93306105      84.86950307      95.85617049
H      65.70973858      86.25089301      94.79225457
C      63.89938077      85.71232102      98.27879962
H      63.53088414      84.04747212      99.43720185
C      65.91382902      87.38283908      99.56948269
H      65.04644464      88.71887557     100.87717330
H      66.82089765      88.68863995      98.25990236
C      67.99252795      85.77846144     100.89418084
H      68.39881912      84.07014885      99.81892657
C      70.30366324      87.52834800     101.05102812
H      71.09356883      87.91196244      99.18586825
H      71.73985523      86.81592117     102.34171119
H      69.69328164      89.29146265     101.92219195
C      67.30466759      85.01879145     103.66262989
H      66.82467709      86.65151499     104.81725266
H      68.88636850      83.97377281     104.47143275
H      65.75320228      83.66196797     103.67207852
C      61.22730775      86.83292872      97.77802215
O      59.43773694      85.79546896      98.66241406
N      61.14604953      88.82092080      96.28891781
H      62.76176553      89.35193389      95.42342316
C      58.98609235      90.25333335      95.22689162
H      57.38738389      88.95509137      95.15697175
C      58.15272305      92.16573637      97.04858779