 %block lattice_cart
   137.614   0.000   0.000
   0.000 142.646   0.000
   0.000   0.000   160.855
 %endblock lattice_cart

 %block positions_abs
N      90.55397041      39.65591131      80.60607914
H      89.79807988      38.91513860      82.19344924
H      92.42290973      39.26662770      80.58718187
H      89.84532304      38.43325839      79.32106524
C      89.90957373      42.30530761      80.28104622
H      90.87144444      43.31442146      81.79471700
C      90.95081293      43.21804541      77.71479788
H      90.17224569      42.07665071      76.18789903
H      92.99927626      42.98749881      77.75637187
C      90.19303268      45.97515611      77.24425602
H      88.16913580      46.19436435      77.55984032
H      90.59176493      46.62333222      75.32996327
S      91.97693433      48.05763451      79.36452895
C      90.97915883      50.95647467      77.95857258
H      90.53885260      50.98293083      75.94412433
H      92.40212274      52.44179955      78.03983080
H      89.16502157      51.35520692      78.85241312
C      87.15057332      42.59065628      80.68544764
O      85.66524843      40.99572726      79.78782765
N      86.26051222      44.60510453      81.93833620
H      87.59843846      45.93925130      82.19533897
C      83.67914608      45.04163131      82.75847742
H      82.45082398      43.74527905      81.72857658
C      83.67725635      44.12700376      85.64031003
H      84.56353799      42.26751308      85.72345800
H      81.73461771      43.76606605      86.21667657
C      84.93203464      45.76539649      87.66987610
O      85.71060188      47.87433104      87.16909863
N      84.88290174      44.98493952      90.07549769
H      85.62178474      45.97704582      91.53058696
H      84.38590372      43.16513307      90.36651554
C      82.80987199      47.87244133      82.43344448
O      84.25362288      49.44280389      81.54527312
N      80.42692711      48.25227632      83.16287884
H      79.31198857      46.76884116      83.61641316
C      79.05498579      50.76372259      83.02492883
H      79.04553716      51.37599391      81.05772373
C      76.20149907      50.63900065      83.74113510
H      75.24151810      49.49571623      82.31817118
C      75.69694214      49.17257302      86.21856630
H      73.73540622      48.70959008      86.64753416
H      76.39425114      50.29507046      87.79837749
H      76.81943956      47.44725290      86.08817518
C      74.91081600      53.17501335      83.75436317
H      75.63458117      54.68112523      84.95811884
H      72.98329516      52.89722358      84.42710575
C      74.71050500      54.29562105      81.04449564
H      73.44438837      55.92078568      81.06528264
H      73.89414324      52.98793045      79.67822353
H      76.51897308      54.97025336      80.32073046
C      80.26441063      52.76116330      84.64820373
O      80.54597985      54.94001773      83.82806251
N      80.99951418      51.89755837      86.98768490
H      80.92014567      50.00594232      87.23523905
C      82.33933013      53.37910379      88.86796259
H      81.14124365      55.02316570      89.20055441
C      82.26185136      51.92212482      91.19799513
H      82.95160146      53.08808595      92.74946042
H      83.31064946      50.15523071      91.05815537
C      79.72016945      51.17757264      92.29214667
C      78.00240824      53.00493798      93.23889954
H      78.46161173      54.98726089      93.40897492
C      75.55899211      52.18290705      94.02124624
H      74.18138164      53.43201613      94.86217444
C      74.82766803      49.59020255      93.75479483
H      72.84534514      49.23682371      94.08549693
C      76.55676761      47.92724338      92.92898442
H      76.06921822      45.98271501      92.54348026
C      79.01530154      48.60943459      92.19199117
H      80.16236541      47.14867615      91.34161432
C      84.93203464      54.61120536      88.19899946
O      85.20604495      56.90533310      87.91743025
N      86.78396642      52.92367976      87.57538978
H      86.52507392      51.03962262      87.72845761
C      89.13289622      53.59264288      86.31494233
H      90.15712788      54.88899513      87.54137470
C      90.70136906      51.04151235      85.86329774
H      92.40401248      51.52528229      84.80883046
H      89.55052574      49.82830806      84.65954208
C      91.61410688      49.71870392      88.33505976
H      90.13823063      49.71492448      89.77314148
H      93.04651942      50.84120136      89.29504073
C      92.40779192      46.89356309      88.14608712
O      92.19803230      45.85610335      86.07872654
O      92.96526119      45.70681496      90.16620456
C      88.73983315      55.08741638      83.77892963
O      90.33287243      56.62187416      83.14020213
N      86.82554039      54.59608755      82.23313350
H      85.58965939      53.19202089      82.61485821
C      86.31531430      56.20991382      80.05805851
H      87.86866932      56.11542749      78.70690420
C      84.09866532      55.03261432      78.71824256
H      82.46594179      55.09497529      79.97113110
H      84.66180377      53.07296814      78.42344524
C      83.53552688      56.07007407      76.07451545
H      85.19092713      55.62031921      74.93312074
H      83.32576726      58.11853739      76.07073598
S      80.80487236      54.32018750      74.88776732
C      81.12234638      55.55984797      71.59019491
H      82.65869387      54.59986699      70.60753722
H      81.47005602      57.58941403      71.59019491
H      79.45182833      55.23859449      70.42990294
C      85.76351421      59.00103958      80.64387367
O      87.10521990      60.65455010      79.71034887
N      83.90969269      59.52260405      82.22746432
H      82.94782201      57.94657230      82.71312398
C      83.20482478      61.96790989      83.17421719
H      82.47539043      63.09607649      81.61141353
C      80.90502785      61.21012964      84.86363252
H      80.78408537      62.63687300      86.34328822
H      81.24895804      59.59819309      86.09762380
C      78.33311034      60.69045491      83.53326519
H      78.67515080      59.06906972      82.31250200
C      76.35078745      60.08763220      85.57794908
H      75.47962362      61.92633592      85.90109227
H      77.03675809      59.05395191      87.22201096
H      74.92026462      58.88954572      84.70678523
C      77.45249788      63.06773061      82.08951430
H      75.57410992      62.92600113      81.25236553
H      78.76396794      63.35307927      80.52671064
H      77.58477873      64.74580758      83.27437269
C      85.24761892      63.39654299      84.79560238
O      85.34210524      65.72657553      84.72001332
N      86.91435753      62.07751401      86.16565395
H      86.44759514      60.25014867      86.46801016
C      89.11966813      63.23969570      87.29948975
H      88.20504060      64.73257949      88.38608238
C      90.37444641      61.30083650      89.04370712
H      92.24527546      62.00948386      89.53503597
H      90.85254717      59.63031845      87.94010696
C      89.08565307      60.62242475      91.41909311
H      87.13734523      60.01393289      91.14319307
H      89.07620443      62.22302295      92.71544535
C      90.60688275      58.67033748      92.73434262
H      92.37377685      59.56417803      93.30315024
H      91.32308903      57.21524822      91.46633626
N      89.29730241      57.49870716      94.91886623
H      88.30141664      55.89055006      94.66753264
C      89.59776890      57.96924902      97.32826728
N      91.17380065      59.70968695      98.21454893
H      91.02829171      60.20857470     100.04947318
H      92.14700970      60.62431448      96.85205625
N      88.30330638      56.79950842      99.09516138
H      88.55841942      57.25304274     100.93008563
H      87.06742536      55.45402328      98.53958185
C      91.10954994      64.39998766      85.45133741
O      92.46070427      65.95901186      86.31683206
N      91.18513899      63.68189166      83.04193636
H      90.15901761      62.20412568      82.40698832
C      92.74038375      65.03682543      81.22590938
H      94.36176893      65.97979885      82.08195539
C      93.80240994      63.26615186      79.19067413
H      92.09220763      62.47057709      78.35919456
C      95.15734370      64.70990278      76.99481216
H      93.66634964      65.51303646      75.82318185
H      96.36298909      63.61008205      75.74003389
H      96.39133499      66.22168382      77.66188555
C      95.39355950      61.07217962      80.26592840
H      96.35731992      60.10086030      78.72769118
H      94.00461065      59.79283490      81.09173881
C      97.48170708      61.87153385      82.05360950
H      96.79951587      62.54805587      83.87530566
H      98.67790383      63.28693886      81.15598950
H      98.79317714      60.29361238      82.22179514
C      91.18702873      67.22701822      80.06183796
O      92.22259874      69.23768702      79.46279472
N      88.67936191      66.97001545      79.68767216
H      87.82142616      65.31272546      80.08829413
C      87.27529526      68.84840340      78.37809182
H      88.04063441      69.20745140      76.49970387
C      84.53897155      67.80527448      78.17022193
H      83.38623850      69.40020347      77.55606088
H      83.77174267      67.36307851      80.02971261
C      84.17047493      65.74169333      76.13309695
O      85.58210048      65.79460567      74.14888432
O      82.46594179      64.12408762      76.37498193
C      87.08254317      71.39764419      79.83129136
O      87.18269867      73.43476915      78.73147063
N      86.88979109      71.19166402      82.37108351
H      86.68948011      69.39831376      82.99469321
C      86.73861299      73.34217256      84.02270431
H      86.57609652      75.11851531      82.98902403
C      84.41802907      73.15131021      85.81416486
H      84.65991404      74.49112616      87.35807125
H      84.35377837      71.25969418      86.62485745
C      81.77808142      73.98467951      84.85040444
H      80.16992432      73.81838360      86.12785942
H      81.53619645      72.50880326      83.43688916
C      81.74406634      76.76446692      83.83373169
O      80.54597985      78.29892469      85.16409900
O      82.43003699      77.38807660      81.64920806
C      89.20470582      73.26091433      85.59117715
O      90.43680739      75.18276599      85.74991417
N      89.81130798      71.01780921      86.73635130
H      88.63778794      69.51736652      86.62863691
C      91.02451226      70.92710234      89.22512086
H      92.89534131      71.76992028      89.05315576
H      91.48560549      69.03170685      89.88652507
C      89.54674628      72.13652719      91.45688763
O      87.77040356      73.65775686      91.03547866
N      90.28373955      71.36740857      93.74723592
H      91.93725008      70.45278104      94.00234898
C      89.18013938      72.49557519      95.94309789
H      87.16191167      72.85462318      95.73333827
C      89.58643054      70.63230504      98.11250370
H      89.46359832      71.79070726      99.81136765
H      91.50828219      69.90098095      98.24478455
C      87.85733096      68.22857317      98.28635852
H      87.62111517      67.67488336      96.31726371
C      89.00250510      66.07050571      99.77924232
H      89.25005925      66.91710310     101.64062273
H      90.78640674      65.32784327      99.07437440
H      87.61922544      64.54549658      99.73577861
C      85.20037576      68.84462394      99.29358265
H      83.77552212      67.49913881      98.66430379
H      84.80164351      70.82316739      98.87595314
H      85.16447096      68.92588217     101.35149460
C      90.46326354      75.09394887      96.44387536
O      92.77061937      75.34339273      96.10750409
N      88.91746742      77.01580053      96.96921928
H      87.05419728      76.63029635      97.09772068
C      89.65824013      79.55748241      98.12195234
H      91.70292400      79.52535706      98.36005785
C      88.99683592      81.87428687      96.45332400
H      89.10077087      83.42764191      97.80069887
H      87.04852811      81.77413137      95.79380952
C      90.67113344      82.20687870      94.19510105
H      90.87522388      80.30581403      93.42976191
H      92.52873440      82.87773155      94.78280595
C      89.46548806      83.97566253      92.27135967
H      89.59020999      85.80491760      93.21055365
H      87.43214255      83.71677003      92.07671787
N      90.90734923      84.13628927      89.81093601
H      92.48527071      85.20020519      89.94321686
C      90.43869710      82.91930552      87.59428705
N      88.76062014      81.15619088      87.25224658
H      88.11055429      81.01635112      85.46267577
H      87.68725559      80.51368392      88.69410776
N      91.65757057      83.57126111      85.54015455
H      91.55741509      82.27679858      84.14364679
H      92.93502556      84.99233528      85.58172853
C      88.23527623      79.72755777     100.77323836
O      85.88256696      79.49890090     100.90929865
N      89.65257096      80.10739277     102.71776673
H      91.50261302      80.23211471     102.26612214
C      88.71904617      80.35494691     105.31236096
H      86.85577602      79.48189335     105.44275208
C      90.34610051      78.93576246     107.24744071
H      89.32942776      78.78458434     109.03134234
H      92.09787680      80.00156809     107.44964142
C      90.96782047      76.12951888     106.62005156
H      91.85599185      76.01991476     104.76623005
C      92.68558169      75.12796393     108.65906625
H      93.19202834      73.13430268     108.55702104
H      91.84843294      75.46811467     110.50910832
H      94.37310729      76.31093261     108.68552243
C      88.62455984      74.46278028     106.39706387
H      89.15557293      72.85651291     105.21976437
H      87.16380140      75.47378384     105.35393493
H      87.66646861      73.99979733     108.16206824
C      88.21259950      83.13284459     106.18919397
O      87.92158165      83.50134123     108.52678542
N      87.74961656      84.74667086     104.29190875
H      88.19937142      84.18353242     102.52501464
C      86.91057807      87.46976648     104.48844028
H      86.07909850      87.77023297     106.34793097
C      89.18013938      89.35382361     104.23710669
H      89.84532304      89.11004893     102.30391667
H      90.67680262      88.84170778     105.55991511
C      88.59243449      92.23376651     104.87583417
H      87.50962132      92.38305490     106.62194129
H      87.42080419      93.13138652     103.43964218
C      91.03018144      93.76822429     105.21220546
H      92.03551584      93.60381809     103.41885520
H      92.24338574      92.71186728     106.49910909
C      90.72215605      96.37226714     106.50477826
H      90.21948886      96.03967531     108.47387308
H      89.33509693      97.48531594     105.46731852
N      93.12588793      97.81601805     106.73343515
H      93.08242422      99.59614024     107.42507498
H      94.03673600      97.77255435     105.05724790
H      94.21814973      96.75588158     107.88427846
C      84.84888667      88.08770698     102.55147082
O      84.79975379      86.92552530     100.63906778
N      83.15191244      89.89617508     103.14673461
H      83.25584739      90.66151423     104.89095199
C      81.30942928      90.81458206     101.30047199
H      79.91670099      89.41996404     100.69953903
C      79.64080096      92.83280977     102.43619750
H      80.91825594      94.23498668     103.23744147
C      78.05154112      94.21986888     100.45009515
H      77.05754508      95.76377528     101.38550967
H      76.62668748      93.02178240      99.57137241
H      79.22317143      95.29134369      99.13862509
C      77.83233287      91.51000135     104.33348272
H      78.99073510      90.64072723     105.79991035
H      76.69282791      90.12294223     103.32436888
C      76.02764425      93.38272011     105.52212058
H      74.40814879      93.58870029     104.26356286
H      77.11045742      95.06646627     106.00778023
H      75.38324757      92.73454399     107.37027292
C      82.67381169      91.73109933      98.84004834
O      84.65235513      92.76477961      98.88729149
N      81.68359509      90.91662727      96.67442198
H      79.99040032      90.03601482      96.68198089
C      82.60389181      91.39850748      94.08549693
H      83.77741185      93.08603308      93.99856953
C      84.43881606      89.04957769      93.34472421
H      85.73705803      88.37494539      94.79603402
H      85.64824090      89.74310723      91.82916372
C      83.15191244      86.62316909      92.47922956
C      83.19159669      85.99766969      89.97723192
H      83.93614887      87.21654315      88.52025294
C      82.12957051      83.75834400      89.15142153
H      82.12201160      83.31047887      87.16153972
C      81.53052726      81.87428687      90.88241084
O      80.82565935      79.60283585      89.89975315
H      81.04486761      79.34772279      88.11963096
C      81.72894852      82.26357049      93.50157151
H      81.10911830      80.89351892      94.88296143
C      82.53208222      84.69753798      94.25557230
H      82.65113497      84.88084143      96.28513836
C      80.25685173      91.46842736      92.19010144
O      78.17059388      91.09426156      92.92898442
N      80.70093741      92.09770622      89.75046477
H      82.46594179      92.13739048      89.01914068
C      78.59578231      92.65328577      88.04404191
H      76.89124917      92.62682960      89.19866468
C      78.59011312      95.31968959      87.01225134
H      77.25407662      95.61070745      85.47212439
H      80.49495724      95.41606563      86.22990465
C      77.90981165      97.23398235      89.01158179
H      79.49340230      96.96753093      90.30415457
H      76.11079220      96.62926993      89.81282574
C      77.88146575     100.03077728      88.18199193
H      76.37157443     100.21974991      86.79493281
H      79.68048520     100.54100340      87.31460755
C      77.53186639     101.75609741      90.50068612
H      79.10033922     101.74286933      91.83483290
H      75.80843599     101.27988638      91.52113832
N      77.31643758     104.44706769      89.53314624
H      79.01908099     105.08012600      88.94922082
H      76.57566488     105.65271307      90.81438069
H      76.28464702     104.57367935      87.93254805
C      78.31043363      90.75222109      85.86518747
O      80.23228528      89.79035040      85.09417914
N      76.24874223      90.47065186      84.60285029
H      74.63491595      91.27945474      85.22834970
C      75.63458117      89.45208938      82.06683759
H      76.80432175      87.77212270      81.83251152
C      72.90581638      88.69619886      82.19155951
H      71.55466207      90.20797991      82.55249724
H      72.62424716      87.60582677      83.91687964
C      72.13102858      87.36016235      79.77648928
O      73.22895958      85.23988943      79.27382209
O      70.40948791      88.27856934      78.44990141
C      76.17882234      91.22654239      79.78782765
O      76.63802584      93.46586808      80.25459005
N      76.16748399      90.28545870      77.38409578
H      75.83678188      88.43163718      77.07796011
C      76.26197031      91.98810210      75.06729132
H      78.07610757      92.96131114      75.14099065
C      76.01441615      90.44041624      72.64088274
H      74.22106589      90.83725877      71.70735794
C      78.11768154      91.17363006      70.84753247
H      77.70383148      90.41584980      68.97670342
H      79.96961333      90.54813065      71.49948803
H      78.34633842      93.21264475      71.02705646
O      76.16937372      87.85716038      73.05284307
H      74.55554745      87.02757053      73.04528416
C      74.28342685      94.12727229      74.80461935
O      74.80121186      96.11337463      73.67456302
N      72.17449229      93.85326197      76.20679628
H      71.85512854      92.15628775      77.01748887
C      70.11280088      95.68818622      76.14821477
H      70.38114203      96.95997202      74.55328576
C      67.58623680      94.29923738      75.74381333
H      66.11602973      95.56346428      76.43356345
H      67.44828678      92.37738572      76.47324769
C      67.25742442      94.14427982      72.89410605
H      68.82778699      93.01233376      72.19490733
H      67.49175048      96.00943969      72.05695730
C      64.74408843      92.90650908      72.21569432
O      64.71574254      90.52734365      72.24215048
O      62.85814156      94.28789903      71.76027027
C      69.98429949      97.31902003      78.63131515
O      68.14181633      98.64371818      79.06217274
N      72.05921899      97.10359123      80.18467017
H      73.40848357      96.00566025      79.40232348
C      72.56566563      98.56623939      82.42777530
H      71.89103334     100.48053214      82.08195539
H      74.56499607      98.80623463      82.85296372
C      71.51119836      97.45508032      84.90898596
O      71.88725389      98.51521679      86.88186022
N      69.98052004      95.52189030      84.79371266
H      69.29832884      94.79812512      83.16287884
C      68.83534589      94.49009974      86.97067737
H      67.99063823      96.05290340      88.01002684
C      66.67538873      92.70241864      86.09951353
H      65.52643512      92.31880421      87.76436241
H      67.41049225      90.88072247      85.48157303
C      65.18439465      93.70964276      83.85640840
C      64.30756166      92.10904459      82.00069715
H      64.91227407      90.16262649      82.10274238
C      62.65594085      92.69297002      80.02593316
H      62.13437639      91.33614653      78.59163089
C      61.54100232      95.18173957      80.04672016
O      59.84969727      95.87337940      78.20612673
H      59.79678494      97.66483994      77.93211641
C      62.43106342      96.93162614      81.79093753
H      61.48431053      98.73631477      81.86652659
C      64.12425819      96.15872807      83.71467893
H      64.61747676      97.37382209      85.27748259
C      70.72696193      93.16351187      88.80749133
O      72.62613688      92.18463363      88.06293917
N      70.09579335      93.52633932      91.23767937
H      68.56889448      94.56379906      91.72333903
C      71.64914837      92.41895969      93.32771668
H      73.60123565      92.91028854      92.89307962
C      70.99719279      94.03656543      95.79758897
H      72.18583064      93.04067966      97.15441247
H      68.99975208      93.70775305      96.17553424
C      71.53954425      96.82202200      95.82215541
C      69.59501588      98.48876062      95.17964846
H      67.67883339      97.86704065      94.85461555
C      70.03154265     101.09280347      95.20799437
H      68.50464379     102.31545639      94.63162784
C      72.34834711     102.06979198      95.96955406
O      72.60912934     104.63226085      96.34560961
H      71.02742842     105.49586579      96.14718833
C      74.35145700     100.33502323      96.50812606
H      76.08244630     101.10981102      97.25834742
C      73.95272475      97.72153173      96.36261714
H      75.56466130      96.55935005      96.82182063
C      71.57922851      89.64862093      93.64141125
O      69.54777271      88.45620362      93.36362148
N      73.70328087      88.54502075      94.07415857
H      75.32844550      89.54090652      94.14596818
C      74.11902066      85.85216076      93.80581743
H      72.33889848      84.82603937      93.96455445
C      75.38513729      85.42886207      91.19421567
H      77.13502386      86.51356497      91.15453141
C      75.49474143      82.52246299      90.59706216
H      76.79487312      81.74200602      91.99168017
H      76.32244155      82.11806157      88.75457900
H      73.69572197      81.61161492      91.00713276
O      73.92626859      86.42474784      89.28937154
H      73.87335624      88.22943647      89.47267500
C      75.92181956      84.91485651      95.97522324
O      77.45060815      86.43986564      96.89929942
N      75.68371405      82.60561096      96.90496859
H      74.52342210      81.48311353      95.88451638
C      77.39580609      81.53791559      98.76823873
H      79.16458993      82.55080890      98.46210308
C      76.46039156      82.11428211     101.46676790
H      76.38102306      84.17030435     101.58015149
C      73.77886993      80.85761412     101.92219196
H      74.10768230      78.82993778     101.77479329
H      72.57322454      81.51523887     100.38962392
H      72.94361090      81.37917857     103.73254975
C      78.09311510      81.15430115     103.58137165
H      78.64869463      79.17197825     103.50389288
H      76.98573548      81.13918333     105.31803014
C      80.44960381      82.84560620     103.80057991
H      80.05465101      84.85060581     104.05191351
H      81.78941977      82.78135551     102.23588652
H      81.62123413      82.20498898     105.36905275
C      77.97595207      78.75245901      98.37517567
O      76.34133882      77.35028207      97.64007213
N      80.36645585      77.96633286      99.00823397
H      81.59099850      79.29103100      99.63184365
C      81.32076764      75.34150301      98.67942159
H      80.16614487      74.00546651      99.73766833
H      83.17647888      75.37740781      99.57326215
C      81.69115400      74.60262001      95.94498762
O      83.24072958      75.75724279      94.66753264
N      80.18693185      72.83005673      95.04925735
H      79.02663990      71.98156963      96.30592535
C      79.89024482      72.17432170      92.35450762
H      81.11100802      73.25524515      91.09217046
C      80.48739835      69.29437880      92.08805621
H      79.41592352      68.27581632      93.52424822
C      79.87701674      68.62919514      89.23645921
H      80.69715797      69.92554739      87.86262819
H      77.87579657      68.93722053      88.85473450
H      80.55920794      66.72813048      88.82260915
C      83.41458440      69.25658427      92.57560561
H      83.80008856      69.60807338      94.56737714
H      84.34810920      70.58128242      91.30193008
C      84.80542296      66.71490239      92.10317403
H      86.79719450      66.83206542      92.61151041
H      84.67314212      66.00247556      90.17565319
H      84.17236465      65.16343708      93.29937079
C      77.13124441      72.95099923      91.59861711
O      75.17726740      71.81149425      92.33561036
N      76.97439712      74.91631458      90.10384359
H      78.56932613      75.75724279      89.47645445
C      74.66893103      75.92353872      88.84906532
H      73.77131102      74.42876519      87.75302405
H      74.97695641      77.52602663      87.58861787
C      72.42960534      76.84005597      90.50068612
O      70.80444071      78.15719522      89.38574759
N      72.16315393      76.09172435      92.95922004
H      73.28376163      74.84450499      93.87195786
C      69.76698096      76.72289294      94.17998325
H      68.18150059      75.95755379      93.10850842
C      69.69328164      75.67787429      96.97677819
H      71.12002501      76.45833126      98.24100510
H      70.03910156      73.65208768      96.83882816
C      67.01364974      75.86117775      98.03124548
N      65.02943710      74.04326104      97.94053861
H      65.11636451      72.33494844      97.09205150
C      63.15860805      75.00324199      99.46554774
H      61.25754338      74.33805833      99.79058068
N      63.82190198      77.29736974     100.36694719
H      62.78066278      78.56159664     101.34771516
C      66.25964894      77.74523487      99.62050530
H      67.44450732      79.20977278     100.40663145
C      69.03376715      79.56693105      94.37462505
O      70.62302698      80.93509289      95.44987932
N      66.70940379      80.45699214      93.64708042
H      65.22974809      79.35528170      93.15953104
C      66.03099205      83.10827815      93.49023315
H      67.87536492      84.02101597      93.42220300
C      64.73086034      83.63173235      90.85217520
H      63.22663819      82.27112940      90.49501693
H      66.16516261      82.84560620      89.60117639
C      63.79733554      86.29435672      89.98290110
H      65.25242481      87.69086447      90.39297172
C      63.16049777      86.65907390      87.16342945
H      62.50665247      88.59793310      86.93477257
H      61.75265167      85.21721272      86.73446157
H      64.91794325      86.37750467      86.12596971
C      61.32557352      87.08993150      91.25090746
H      60.62637479      88.93241466      90.65375395
H      61.21785912      86.76489856      93.28236324
H      59.84969727      85.80302787      90.61406969
C      64.62692540      84.20998859      95.69176429
O      62.68806619      83.33315559      96.79347474
N      65.71162831      86.39829167      96.47222127
H      66.85491272      87.36772127      95.28925260
C      65.01809875      87.80613777      98.83248943
H      64.41338633      86.27356973     100.06648071
C      67.45206623      89.15540236      99.77924232
H      66.93239149      90.51222585     101.24000075
H      68.06055810      90.27412034      98.15974687
C      69.50241929      87.38472880     100.88284248
H      70.09579335      85.93908817      99.54302653
C      71.91937924      88.96265028     101.47810626
H      71.48474218      90.27601006     103.00311541
H      72.45417178      90.26656143      99.97577385
H      73.44060892      87.72676927     102.10927485
C      68.48952599      86.02979504     103.20342639
H      67.79410669      87.38850826     104.58670606
H      70.13358787      85.01123256     103.90829430
H      67.06089288      84.59549277     102.82170167
C      62.84680321      89.60704695      98.52068458
O      60.89282620      89.39728732      99.75467588
N      63.07923954      91.31913898      96.77079803
H      64.80266994      91.51000135      95.97333352
C      61.07046047      93.14839405      95.97333352
H      59.26955129      92.15439801      96.08104791
C      60.93628990      95.31402040      97.94053861