 %block lattice_cart
   137.614   0.000   0.000
   0.000 142.646   0.000
   0.000   0.000   160.855
 %endblock lattice_cart

 %block positions_abs
N      92.03929529      43.04324573      81.37897721
H      91.37789108      42.73899979      83.14398157
H      93.93847024      43.24166699      81.39220528
H      91.82764595      41.42564000      80.38687089
C      90.59176494      44.96887684      80.03160235
H      90.81286292      46.71498395      81.10118743
C      91.55930481      45.36760909      77.24803549
H      91.24372052      43.64228897      76.16711204
H      93.57186333      45.80980505      77.26126357
C      90.27807037      47.54079435      75.91010926
H      88.28062966      47.26867376      75.47736192
H      91.06797596      47.57291970      74.00904458
S      90.48782999      50.88938938      77.04583476
C      93.69469555      51.28434218      76.31073123
H      94.01216956      53.31957742      76.23514217
H      94.17657575      50.64750441      74.41155628
H      94.80585461      50.52656193      77.86975544
C      87.75717546      44.33959798      80.15632428
O      87.06931510      42.69175663      78.72958091
N      86.18870262      45.61516324      81.56228065
H      87.00884385      46.92663330      82.67910890
C      83.57332142      45.40351389      81.90432111
H      82.64735552      44.38684114      80.37175307
C      83.11978709      43.56858964      84.21545639
H      84.01740710      41.75445238      83.84507003
H      81.10911830      43.15662931      84.40253931
C      83.54119607      44.83092682      86.86674242
O      83.76985294      47.06836277      87.08217121
N      83.55064469      43.43441907      88.90197765
H      84.16102629      43.75567255      90.68209985
H      83.10655901      41.60138455      88.62229816
C      82.59822264      48.20597801      82.12541910
O      84.11567286      49.89350361      82.31250199
N      80.09622500      48.49888559      82.20856706
H      78.98128647      46.95308947      82.09140403
C      78.90002824      51.01222159      81.94211565
H      79.34600364      51.73220731      80.06372769
C      75.87268668      50.86671266      81.95912318
H      75.25474618      49.69319262      80.38309144
C      74.82388858      49.47020492      84.33450916
H      75.82166408      47.69197246      84.63497563
H      72.92849309      48.73888083      83.98868924
H      74.68593857      50.69663729      85.98235049
C      74.58389335      53.48398361      81.62464163
H      75.44938799      54.92206533      82.81705892
H      72.58645262      53.19485548      82.02715333
C      74.74640981      54.50065636      78.90343573
H      76.57755460      55.36993047      78.53871856
H      73.38202741      56.02188604      78.64265350
H      74.19460972      52.96241914      77.65054718
C      79.99795922      53.00588285      83.84129058
O      80.50629560      55.14127358      82.97390620
N      80.47794971      52.45786222      86.27714780
H      80.34377915      50.69852702      87.00280270
C      81.83099376      54.17184398      87.97790148
H      80.70849632      55.89149493      88.11396178
C      81.81020677      52.74510062      90.55170872
H      82.39980138      54.20396933      91.88396578
H      83.14813299      51.18796614      90.39486145
C      79.15703102      51.94952584      91.29815061
C      77.73406711      53.51232950      92.90630771
H      78.50129599      55.25087771      93.64897016
C      75.25096673      52.73943144      93.57527082
H      73.87902543      53.87326723      94.57682578
C      74.26830904      50.42073725      92.81371112
H      72.39181082      49.76689195      93.27858380
C      75.82355380      48.78801372      91.33783487
H      75.16214959      46.88316959      91.03925811
C      78.18193225      49.58736795      90.41564844
H      79.44237969      48.30235406      89.45188802
C      84.58243527      54.88049135      87.16531918
O      85.34399497      57.01966154      87.64908911
N      86.04508343      53.02666984      86.19588957
H      85.10966891      51.43929974      85.69511210
C      88.68125163      53.58224937      85.21512161
H      89.59776890      54.84836600      86.55493757
C      90.32153407      51.16150997      84.89575787
H      92.18480422      51.81157582      84.30238381
H      89.69981412      49.95586458      83.34807201
C      90.50483752      49.57602959      87.35807125
H      88.64534683      48.81635961      87.81727474
H      91.40812671      50.72498319      88.80938106
C      92.02606721      47.00411208      86.85918351
O      94.30318741      46.89261823      87.40531441
O      90.75995059      45.26556387      86.06360874
C      88.61700095      54.79167421      82.70934453
O      90.58798548      55.84236204      81.99124853
N      86.61956023      54.66128310      81.27882171
H      85.30242098      53.30445961      81.53960394
C      86.20571016      56.12204154      78.90910492
H      87.89701522      56.09747510      77.73558486
C      83.94181804      54.86348381      77.54472251
H      82.34121985      55.34914348      78.74847818
H      84.13834958      52.81124104      77.52771498
C      83.45426865      55.88015657      74.91422349
H      84.93014490      55.24142908      73.62543013
H      83.72638925      57.91917126      74.81028854
S      80.27007982      55.55323392      73.66133493
C      80.91636622      56.05968057      70.41100568
H      82.25429245      54.63860638      69.75149119
H      81.36801081      58.05334183      70.16723099
H      79.29120159      55.67606613      69.20725001
C      85.60666693      58.90560840      79.73491530
O      86.99372604      60.62714907      78.88264875
N      83.96638448      59.35725299      81.63975944
H      82.96105009      57.91917126      82.38809105
C      82.90435830      61.94995749      81.91188002
H      82.47916987      62.56222881      79.99002837
C      80.34755860      61.90082460      83.38964599
H      80.33622024      63.58079130      84.58206330
H      80.14346815      60.16794557      84.48568725
C      78.17437334      61.94428831      81.60385464
H      78.34633844      60.54022166      80.10341195
C      75.66670651      61.47185673      82.93044251
H      73.94516584      61.33390671      81.80794507
H      75.25663590      62.88348229      84.37419340
H      75.64402981      59.72763934      84.02648376
C      77.84745069      64.53510308      80.31506129
H      76.09567440      64.31967428      79.25303510
H      79.32710639      64.81856203      78.91099464
H      77.98351098      65.98641289      81.77204027
C      84.94526272      63.70740296      83.21957063
O      84.73550310      66.03554578      82.84162536
N      86.82176094      62.66427403      84.57261468
H      86.72349518      60.77076827      84.77859484
C      89.11588868      64.02676671      85.55338263
H      88.39779269      65.56500392      86.72123348
C      90.74861222      62.09168696      86.97634655
H      92.74038376      62.61325142      86.95744927
H      90.64656701      60.39471273      85.81227513
C      89.75272645      61.66271909      89.63708118
H      87.77040356      61.11091901      89.54448460
H      89.82642578      63.42394401      90.70288683
C      91.46859794      59.87314827      91.03547866
H      93.16557217      60.63848743      91.91798084
H      92.30385698      58.51443505      89.73345724
N      89.95303745      58.54656040      92.93276388
H      88.52629408      59.45551875      93.81715579
C      90.09287719      56.05023194      93.30315024
N      91.76339526      54.56868651      92.29781583
H      91.45914931      52.73754171      92.74379125
H      93.32052974      55.41717362      91.59105819
N      88.37889542      54.84080710      94.64107646
H      88.64534683      52.95863969      94.80926210
H      86.95404179      55.72330929      95.55759373
C      90.77317866      65.38359020      83.45767614
O      91.73882882      67.48874531      84.10207281
N      90.98104856      64.28187976      81.23346828
H      90.07775939      62.60569252      81.08795935
C      92.14700970      65.32122923      78.83540558
H      94.15011958      65.76531491      79.01492959
C      92.06008228      63.22741248      76.87575939
H      90.15145871      62.59246443      76.42411480
C      93.37344208      64.12881193      74.39265903
H      93.66445992      62.69639938      72.94134922
H      95.18191015      64.91682780      74.98603309
H      92.31708507      65.65949024      73.50637739
C      93.48871537      60.89171075      77.88865270
H      93.07108587      59.40071669      76.53371893
H      92.65912553      60.27754970      79.67066461
C      96.34787128      60.87470322      78.41966579
H      96.67668367      62.14837875      80.00514617
H      97.34375705      61.71374170      76.82473678
H      97.10943099      59.17583926      79.30216799
C      90.65412591      67.59079053      77.79227665
O      91.82764595      69.17249146      76.64143333
N      88.26362213      67.79488097      78.36675346
H      87.28474389      66.59112531      79.47791254
C      86.69136983      69.79421141      77.28016082
H      87.64379189      70.35357040      75.54350235
C      84.13645985      68.64147836      76.52616002
H      82.70026785      70.04554501      76.07073598
H      83.17269943      67.76464535      78.12297876
C      84.51251539      66.88592262      74.28305489
O      86.31909375      67.29977268      72.73347932
O      82.87601241      65.32311896      73.78794661
C      86.40602115      72.33400358      78.80139052
O      86.14523893      74.27853195      77.68456226
N      86.49861774      72.20361246      81.30338814
H      86.36633690      70.46884371      82.08384512
C      85.83721353      74.20483263      83.01736991
H      85.58587994      76.00385208      82.04227113
C      83.30120082      73.53964897      84.38175231
H      83.15002272      74.82088341      85.98612995
H      83.36923097      71.63102539      85.15465037
C      81.02597034      73.62468665      82.61485821
H      79.42537215      72.87068585      83.66554604
H      81.22817105      72.23762754      81.10496689
C      80.30598461      76.17581717      81.53204504
O      81.84989101      78.07310239      81.80227590
O      78.17626307      76.51596791      80.65710175
C      87.73638848      75.12890879      84.84473525
O      87.43403227      77.12634951      85.88975392
N      89.85288195      73.75318804      85.20000380
H      90.02484705      72.14881040      84.18144133
C      91.65001168      73.90814560      87.29193083
H      92.80652417      75.58433284      86.97445681
H      92.93313585      72.30376796      87.15209108
C      90.52940397      74.04798534      90.02069564
O      88.62644958      72.87824476      90.72934299
N      91.87866855      75.44449309      91.62318354
H      93.28651466      76.48573229      90.85973412
C      91.14734448      76.05298496      94.25179285
H      89.17824966      75.49173625      94.48044972
C      92.63833854      74.22372989      95.84672185
H      94.66034569      74.05932370      95.48956358
H      91.99583158      72.32644467      95.36673138
C      92.44369672      74.90214164      98.79658463
H      92.71203787      76.92225907      99.10461001
C      89.92280182      74.26719360      99.86239026
H      89.51084149      72.26408370      99.62806420
H      88.34299062      75.41425747      99.20665523
H      89.93602990      74.64135941     101.88628715
C      94.45625524      73.53775924     100.28190951
H      94.64333816      74.27097305     102.19809199
H      96.19102401      73.63980446      99.17830935
H      94.14445041      71.50063427     100.32726295
C      91.56875344      78.83088264      94.94343267
O      93.59454005      79.82865814      94.75823949
N      89.49005450      80.11400681      95.90719309
H      87.92158166      79.02741418      95.81459650
C      89.60532781      82.65757843      96.91063776
H      91.51584110      83.23583468      97.41330497
C      88.64534683      84.36778074      94.91508678
H      88.29952693      86.20837417      95.77302252
H      86.98238768      83.58354432      93.98912089
C      90.76373004      84.98761097      93.15197213
H      91.29852257      83.34354908      92.03325416
H      92.40779192      85.76806794      94.11762228
C      89.96437581      86.95103661      91.21122321
H      91.67835756      87.64267644      90.30226486
H      89.23116200      88.71226153      91.99168017
N      88.18992280      85.81342137      89.39330649
H      87.70804259      84.02574028      89.85439971
C      87.22427265      86.48238448      87.18232671
N      87.69292477      88.68013619      86.17510258
H      86.56853761      89.26595134      84.74646949
H      88.39590297      90.00672406      87.34862262
N      85.85989026      84.75517463      86.02959365
H      85.19470659      84.92713973      84.24758174
H      85.38556894      83.14134836      86.93099310
C      88.00661934      82.80686680      99.50523200
O      85.67469708      82.80308735      99.49011419
N      89.34643529      82.85033051     101.66140971
H      91.25127943      82.75584419     101.59904876
C      88.19181252      83.04875177     104.18797380
H      86.74428216      81.58421388     104.18986352
C      90.16846624      82.27963316     106.22887822
H      89.16880102      82.47238525     108.01844904
H      91.76906443      83.57409569     106.31580562
C      91.07364515      79.58677317     106.00211106
H      92.11488435      79.41480807     104.23332723
C      93.25438931      79.10678268     107.87482983
H      94.43168880      77.45516189     107.51389212
H      92.45503508      78.94615595     109.76644587
H      94.51294703      80.73572677     107.76711543
C      89.15746266      77.40980845     106.03990558
H      87.97827345      77.57988382     107.71798255
H      90.06453129      75.55976639     106.07581039
H      87.86111042      77.44382353     104.43741768
C      86.89168082      85.58098503     104.87394445
O      86.50239720      86.10632895     107.13783657
N      86.17925400      87.09087636     102.94453388
H      86.48349993      86.35388309     101.20976512
C      85.39690731      89.74594183     103.12972706
H      84.28385851      90.01617269     104.84181910
C      87.68347615      91.40890098     103.52467986
H      88.83431946      91.77928734     101.85605152
H      88.82865029      90.62844401     105.04590955
C      86.92758561      93.99593630     104.62639031
H      85.44037101      93.79562531     106.03423641
H      86.40602115      95.18268443     103.02201267
C      89.06486607      95.45102556     105.75455691
H      90.58798548      95.74960232     104.39773342
H      89.76217508      94.32474868     107.33247839
C      88.40724133      98.19679790     106.61627211
H      86.63845750      98.07585541     107.66507021
H      87.99150153      99.30984670     104.93441570
N      90.54074232      99.53850358     108.03734629
H      92.19992204      98.88087882     107.35704483
H      90.54452179      98.89410691     109.83447602
H      90.61633138     101.44523743     107.96931616
C      83.72638925      90.57175222     100.93197536
O      84.28763796      89.66846305      98.81170244
N      81.73839717      92.16479151     101.24566992
H      81.27163476      92.32541824     103.08815308
C      79.99229005      92.95091765      99.33704636
H      79.03419880      91.25961260      98.65863461
C      77.83233287      94.68568641     100.32537321
H      78.82443918      96.29006405     101.14551443
C      76.13157920      95.49826872      98.12384206
H      75.29065099      93.83341984      97.25645768
H      77.15392113      96.56596409      96.68953978
H      74.55743717      96.72281137      98.63973734
C      76.25630112      93.36665744     102.35493927
H      77.41848282      92.94335875     104.00278062
H      75.23962837      91.70747774     101.68030698
C      74.26452959      94.98993234     103.43397301
H      73.38391713      93.93357534     104.96654104
H      72.74707936      95.54551188     102.15840773
H      74.95616943      96.71147302     104.32781354
C      81.31509847      93.83530957      96.94465285
O      83.40513577      94.85009260      97.06559533
N      80.28897707      93.16067727      94.75257031
H      78.70727615      92.09487163      94.81493129
C      81.14124365      93.97703904      92.20710898
H      82.28641780      95.68913108      92.28269803
C      83.03096995      92.01361340      91.07516291
H      84.80164351      92.21203466      92.10695348
H      83.59410841      92.74115803      89.23267975
C      82.16358558      89.40768082      90.83138822
C      81.12045665      88.73304852      88.53348102
H      80.72550385      90.25805766      87.23523904
C      80.41558875      86.21404335      88.05727000
H      79.75985371      85.77940630      86.17321286
C      80.85400524      84.37156019      89.83739217
O      80.22094694      81.90546735      89.31393798
H      79.69749275      81.73917144      87.58483842
C      82.03319447      85.01217741      92.04270278
H      82.34877876      83.41535868      93.27102489
C      82.57176646      87.50472642      92.69276863
H      83.49017345      87.94881210      94.45966273
C      78.79420357      94.36632266      90.55359845
O      76.70038682      93.70491845      91.16209033
N      79.01341182      95.49826872      88.26702962
H      80.74440112      96.22392363      87.91931998
C      76.90825671      95.51338653      86.33194987
H      75.14514206      94.99938098      87.26547466
C      76.78164505      98.21758489      85.33417438
H      75.75552365      98.28372531      83.55027273
H      78.72428369      98.89032745      85.20945244
C      75.25096673      99.88999267      87.15587054
H      76.30921346     100.26226876      88.88119066
H      73.36124041      99.10953571      87.40720414
C      74.56310636     102.57529376      86.06171900
H      73.30643836     103.42000143      87.45822675
H      73.44816783     102.29183482      84.35340641
C      76.90447725     104.21179675      85.38141753
H      77.92870891     103.18567536      83.92065909
H      78.14791716     104.51793241      86.99524381
N      76.13724838     106.56261629      84.33072971
H      75.67048597     106.40954845      82.48635683
H      77.64524997     107.73235687      84.29482491
H      74.83522694     107.47724382      85.38519698
C      77.35045267      93.56507870      84.17010297
O      79.49340230      93.15689782      83.37074874
N      75.28876125      92.44258127      83.28949051
H      73.70139116      92.47848607      84.34584752
C      75.25474618      91.04229408      80.94811960
H      76.90258753      89.80641307      80.87631000
C      72.70361565      89.71381648      80.94245043
H      71.14648117      91.06308107      80.96890659
H      72.42204643      88.56297315      82.62619656
C      71.97796075      87.88456141      78.76737543
O      72.65070332      85.59232339      78.95823780
O      71.12380447      88.88233690      76.79639090
C      75.47206471      92.74304776      78.65210214
O      75.26608454      95.00505016      78.79950078
N      75.74040584      91.74905172      76.30317232
H      75.58544829      89.85176650      76.16522230
C      75.89347367      93.22303824      74.01282403
H      77.40903417      94.54962611      74.43990217
C      76.68148955      91.65078595      71.74893191
H      75.09222972      90.58687004      70.98359275
C      77.66981641      93.38744443      69.49070897
H      79.14758238      92.44258127      68.40600606
H      78.60901039      95.05418304      70.25226868
H      76.12779973      94.02806165      68.28695330
O      78.75829877      89.92357610      72.31018062
H      79.26663515      89.02217665      70.81918656
C      73.37635822      94.68568641      73.30039722
O      73.59934594      96.66045041      72.09286209
N      71.09545857      94.08475344      74.32840832
H      71.01231061      92.30463125      75.01248925
C      68.87691987      95.49637900      73.78038770
H      68.74274931      96.26549761      71.87365385
C      66.49208527      93.70302873      74.01849322
H      64.88770763      94.92568165      74.42667410
H      66.78688257      92.51628060      75.67767291
C      66.26342838      91.93424490      71.73381409
H      67.86213685      90.63600292      71.64499696
H      66.36169416      93.28917866      70.18612824
C      63.69906977      90.62844401      71.84719767
O      63.33057315      88.69714372      73.21158008
O      61.97374965      91.52984347      70.53005844
C      68.73330068      97.51082725      75.84207911
O      66.77365449      98.76182607      76.01404419
N      70.64192425      98.00026636      77.50692799
H      72.25197108      96.99871142      77.29338892
C      70.59846054      99.76338101      79.69334133
H      69.31722611     101.34886139      79.39665429
H      72.44661289     100.54005853      80.17333182
C      69.42305079      98.58797124      82.07628622
O      69.44761723      99.82574198      83.99246869
N      68.68794725      96.25604897      82.03849168
H      68.75597740      95.31307554      80.38120170
C      67.25553469      95.08630839      84.15876460
H      66.06122767      96.56596409      84.95622911
C      65.47919196      93.16256700      82.96445758
H      64.53621854      92.31596961      84.58773249
H      66.66782982      91.69613938      82.13675746
C      63.53844305      93.98648767      80.99536276
C      62.67294838      92.30463125      79.14343098
H      63.25687382      90.35821315      79.32106524
C      60.84936250      92.99060191      77.36141905
H      60.41094599      91.77550789      75.78160787
C      60.02733156      95.54929133      77.35763961
O      58.20941484      96.30707158      75.82507157
H      57.59525379      97.99270746      76.08585379
C      60.68684604      97.07619019      79.36830840
H      59.74387260      98.86765074      79.63287009
C      62.58224153      96.34486611      81.05961346
H      63.10569572      97.77349920      82.42021640
C      68.99030346      94.23593155      86.41698755
O      70.60223999      92.54084704      86.00502722
N      68.67282944      95.26016321      88.69410776
H      67.42561007      96.69446548      88.87363175
C      70.23752283      94.47403706      90.88996973
H      72.20472792      94.94457891      90.48745802
C      69.15093020      95.80818384      93.09339062
H      70.09579335      94.98048371      94.72611416
H      67.19128400      95.19402279      93.25779680
C      69.39470489      98.62009659      93.06504473
C      67.28766004     100.10731120      92.79103441
H      65.42061044      99.34764122      92.47356039
C      67.44828678     102.74347941      92.77591660
H      65.67950296     103.76015216      92.69465837
C      69.90304127     103.91133027      92.82882893
O      70.35090640     106.36608475      92.30537474
H      68.74085959     107.20134378      92.28458775
C      72.01197583     102.33718825      93.16897966
H      73.87902543     103.10252741      92.86662345
C      71.75686278      99.66133579      93.44110026
H      73.31966643      98.34797600      93.50724067
C      70.05988855      91.67535239      91.42098283
O      67.95662316      90.49427345      91.16964923
N      72.13858749      90.46592755      92.22789596
H      73.73918567      91.42590852      92.62473848
C      72.71873347      87.71637577      92.33183092
H      71.05955377      86.60332697      92.83827756
C      73.50485962      86.65812903      89.74479558
H      75.37379893      87.43291682      89.36118114
C      73.53698496      83.65157447      89.66542709
H      73.88658434      82.96938327      87.75302405
H      71.66993537      82.81253598      89.90164287
H      75.06388383      83.02229560      90.89563892
O      71.78520868      87.45937299      87.92309943
H      71.49986000      89.24894381      88.00813711
C      74.79932214      87.27606953      94.25746202
O      76.19205043      88.96170541      94.81304156
N      75.09411944      84.97249316      95.23067108
H      73.78075965      83.62511830      94.91697651
C      77.01975056      84.29408141      97.11283848
H      78.56554669      85.56397750      96.63095828
C      76.29409566      84.62856297      99.89262589
H      75.32655579      86.44458996      99.97577384
C      74.67082075      82.42892154     101.02079249
H      75.78386954      80.71116032     101.24566992
H      73.46895481      82.05664546      99.38995869
H      73.72028841      82.94859628     102.77445851
C      78.82065973      84.98572124     101.42897339
H      80.13779898      86.19892554     100.41230063
H      79.61245505      83.10922301     101.74455768
C      78.54286996      86.21404335     104.02923678
H      77.23328964      87.80141345     103.97632445
H      80.34188941      86.72237973     104.89662116
H      77.46950542      84.79296916     105.06669654
C      78.05154112      81.68814883      96.62339937
O      76.70983545      79.98928487      95.73900746
N      80.34755860      81.21193780      97.48889401
H      81.70060263      82.52340786      97.80258858
C      81.24706833      78.64568946      97.70432282
H      79.87134757      77.60633999      98.83248943
H      82.95538090      78.98584020      98.80036409
C      81.67792592      77.33799885      95.19287654
O      83.43537140      77.95027018      93.93242910
N      80.23228529      75.30654307      94.87351280
H      79.08900088      74.95505397      96.36072741
C      80.34377915      73.56043596      92.72678372
H      81.92548006      74.04987507      91.50413079
C      80.85967443      70.75986156      93.52235849
H      79.31576803      69.94916897      94.61839976
C      81.40013616      69.18005036      91.08461155
H      79.65780850      68.83423045      90.03959289
H      82.18815202      67.35457474      91.62318354
H      82.83821787      70.10412653      89.93754767
C      83.07632340      70.71261840      95.32326767
H      82.43192672      71.68393773      97.02024189
H      84.72605447      71.30599246      94.24234422
C      83.78119130      68.04432485      96.51001579
H      85.07565383      68.12369335      98.11061398
H      84.78085652      67.00497538      95.04169845
H      82.10689379      67.05410826      97.18275836
C      77.96650345      73.97617574      91.21689238
O      76.41125869      72.22628918      90.78792451
N      77.61690408      76.32321582      90.32116211
H      78.74885013      77.77452563      90.82949849
C      75.57410992      76.79375768      88.36340566
H      75.19427494      75.01174576      87.40153496
H      76.29220592      78.44726820      87.36185070
C      73.01164105      77.35122694      89.71644969
O      71.10490720      77.67814959      88.48812760
N      72.92471363      77.78775372      92.20332952
H      74.56688580      77.85389414      93.17653857
C      70.43972354      78.05609485      93.60739617
H      68.98274455      76.68793300      93.10850842
C      70.77420510      77.49673587      96.37017604
H      71.86835662      78.86111826      97.45865839
H      71.64158947      75.62968627      96.39852193
C      68.31756089      77.39469064      97.78747078
N      66.61113803      75.36701431      97.90274408
H      67.00798056      73.65870172      97.15252273
C      64.48330620      76.17203772      99.06681549
H      62.85814157      75.04387111      99.56192379
N      64.87825900      78.56254151      99.79247040
H      63.47986153      79.69448757     100.42552872
C      67.17238675      79.37134437      98.97421890
H      67.59946489      81.35933645      98.81548190
C      69.47974257      80.83777199      93.30692969
O      70.41326736      82.50073114      94.67131209
N      67.68261284      81.33288028      91.77436164
H      67.05333398      79.84944512      90.74824026
C      66.31256126      83.69692790      91.35862187
H      67.75820189      85.03674385      90.75768890
C      64.35102536      83.35299771      89.24590785
H      62.96774569      81.96026942      89.87518671
H      65.32990359      82.61033527      87.59239731
C      62.92050254      85.85310562      88.42765635
H      64.27543630      87.23260583      89.13441399
C      62.72964018      86.09688032      85.52314700
H      61.99075720      87.90534840      84.87119143
H      61.78855648      84.54163556      84.55749686
H      64.66849938      86.08176251      84.83150718
C      60.38260010      86.16113101      89.65786818
H      60.36559257      85.52807270      91.61940409
H      58.99176154      84.84210204      88.90008793
H      60.06701581      88.18880734      89.48590308
C      64.97652476      84.44903897      93.83983251
O      63.80489446      82.80497708      95.14374366
N      64.92172271      86.91702154      94.38029424
H      65.54911183      88.07164431      92.99701458
C      63.74064376      88.18880734      96.50434662
H      63.23041766      86.84899139      97.98400231
C      65.82690161      89.84798705      97.63818240
H      65.18250493      90.95725639      99.25011894
H      66.35791470      91.24638452      96.22088766
C      68.26653828      88.46092793      98.54147158
H      68.82778699      87.23260583      96.98622682
C      70.36413448      90.22215286      99.07437440
H      70.89703730      91.49960784      97.54747553
H      72.03087310      89.11477324      99.55625460
H      69.99185840      91.23882561     100.82615068
C      67.75064299      86.61655505     100.73166438
H      66.68672707      87.39701202     102.31714475
H      69.53454464      85.98727619     101.54802613
H      66.74341886      85.08209729      99.79813957
C      61.37848587      89.66090414      95.70310266
O      59.29978692      89.05997117      96.45332401
N      61.62981947      91.44102633      93.95510581
H      63.20774094      92.29896207      93.31070915
C      59.54167188      93.07186014      93.22189201
H      57.88060247      91.85298667      93.21244337
C      59.08435813      95.01638851      95.30248067