 %block lattice_cart
   137.614   0.000   0.000
   0.000 142.646   0.000
   0.000   0.000   160.855
 %endblock lattice_cart

 %block positions_abs
N      89.74894700      42.40924254      83.01642505
H      91.57442262      42.54341311      82.48163251
H      89.04029964      40.71226832      82.50241950
H      89.78674153      42.62467135      84.91371027
C      88.24661459      44.26873324      81.67093992
H      88.73416397      46.06775270      82.55155238
C      88.77573795      44.43880860      78.88170388
H      87.11655825      45.13422790      77.87636948
H      89.14423458      42.56608983      78.10502637
C      90.91490814      46.20381298      78.11258527
H      90.67680262      46.06397323      76.06979113
H      92.78195774      45.62933618      78.76454085
S      90.38578477      49.49004704      79.08201487
C      93.52273045      50.42168212      78.57934767
H      94.68491213      48.99682848      79.50342384
H      93.78918186      52.32841596      79.31634093
H      93.98571340      50.49727117      76.57434805
C      85.34966415      43.84921399      82.18872493
O      84.20449000      41.97082605      81.37425289
N      84.17425438      45.84098554      83.24508194
H      85.19092714      47.25639055      84.02364918
C      81.51351973      45.89956704      83.75341832
H      80.57432575      44.74116481      82.33234413
C      81.01652171      44.56164081      86.27998240
H      82.48294933      43.12166937      86.42549132
H      79.09655978      43.82275783      86.37068926
C      81.62879304      45.92980267      88.69505262
O      79.91292154      46.69325210      89.93849254
N      83.84922145      46.63656031      89.31866231
H      84.20449000      47.47748852      90.99673927
H      85.44226074      45.97893555      88.50041081
C      80.50251615      48.65289828      83.83278682
O      82.03697392      50.33853415      83.88758888
N      77.99862879      49.08375589      83.94806013
H      76.72684298      47.67213033      83.75152859
C      76.94983069      51.72370354      83.80633065
H      77.49029241      52.28495227      81.89959680
C      74.07933642      51.81252069      83.97451629
H      73.31588699      50.60120611      82.49297086
C      73.05321503      51.06607879      86.53887490
H      73.22518012      52.60242628      87.89947785
H      73.78264939      49.37666347      87.46673052
H      71.01797979      50.75049449      86.46895503
C      72.98896433      54.56018274      83.58901213
H      73.68627334      55.72236443      85.14047743
H      70.92916265      54.59608755      83.64759364
C      73.65792745      55.57685549      80.94906447
H      75.70450105      55.76204868      80.80733499
H      72.51464303      57.27949890      80.76954047
H      72.97762598      54.26727517      79.51098274
C      78.14602744      53.50571546      85.75841793
O      78.64491519      55.65055483      84.96095343
N      78.63357683      52.67612561      88.05821486
H      78.20649868      50.92623905      88.68560399
C      80.16236542      54.28617242      89.81943978
H      79.11545704      55.98881583      90.32021725
C      80.77085729      52.69124342      92.25907645
H      82.35822739      53.53595107      93.26252112
H      81.34911354      50.78261984      91.74696062
C      78.54286997      52.70258177      93.97305822
C      76.51519363      50.89978287      93.78786504
H      76.51897309      49.64311488      92.17781822
C      74.31366248      51.36654528      95.28641800
H      72.84156568      49.98515534      94.98406179
C      74.20972753      53.34697844      97.16480596
H      72.42771562      54.04617718      97.87156360
C      76.29220593      54.88332595      97.52007451
H      76.39047170      56.52171866      98.73327880
C      78.42759666      54.42979163      95.95538112
H      79.96394416      55.76015896      96.13868457
C      82.80609253      55.26316094      88.84623073
O      83.38056933      57.49303798      88.85756909
N      84.39913181      53.46981066      87.93916210
H      83.62245430      51.73504191      87.78420454
C      86.79530478      54.04995664      86.83367221
H      87.88000768      55.17812325      88.17159844
C      88.15779745      51.56307681      86.13825292
H      89.60532780      51.82574877      84.69639175
H      86.87089383      50.31774717      85.11969044
C      89.19525719      50.12310535      88.52119780
H      87.68158642      50.06263412      89.91959527
H      90.78262730      51.21725689      89.24685271
C      89.94736827      47.45670154      87.79554290
O      92.17157614      46.68191375      88.18293679
O      88.34110090      46.06019379      86.80910576
C      86.55153008      55.73181306      84.48096295
O      87.78363164      57.66311334      84.26553415
N      84.67125240      55.19135134      82.87469558
H      83.34844398      53.88366072      83.29988400
C      84.05142217      56.67100704      80.63725963
H      85.64635118      56.40833507      79.36358409
C      81.65524921      55.64299592      79.42405533
H      79.92048045      56.42156316      80.21396093
H      81.65335948      53.59642232      79.65838140
C      81.50218137      56.25904670      76.53466380
H      82.78152609      55.14221844      75.36870266
H      82.17681367      58.19790589      76.37025761
S      78.33688980      55.65811372      75.24776018
C      78.74129123      55.66567263      71.75932541
H      79.66914685      57.35697768      71.03367050
H      76.97817658      55.20835887      70.79745471
H      80.09433527      54.15767103      71.38704932
C      83.80953720      59.47914033      81.12480901
O      85.02463122      61.08540771      79.87381019
N      82.21649792      60.14243427      82.96540244
H      81.19793544      58.78750050      83.84601490
C      81.92359034      62.77860247      83.98396493
H      81.63824167      64.12408762      82.44950716
C      79.30442967      62.77482303      85.31433225
H      78.76396795      64.61163701      86.07022278
H      79.29687077      61.45957352      86.89981263
C      77.05943481      61.93767426      83.45295183
H      77.48462323      60.09141166      82.64981815
C      74.55176800      61.70712766      84.78709861
H      73.82800282      63.44189642      85.63369600
H      74.67648993      60.23314113      86.22140088
H      73.06266366      61.18178374      83.46240046
C      76.84211629      63.84818757      81.35724535
H      76.93282315      65.61508167      82.41360236
H      75.23395919      63.56850807      80.10246708
H      78.52397270      63.77826769      80.16482805
C      84.02496600      63.94267388      85.51086379
O      84.31220440      66.19333793      85.66204189
N      85.61044638      62.35908323      86.62391258
H      85.29486208      60.47502610      86.58422833
C      87.86866932      63.12442240      87.91270593
H      87.50584187      64.57951166      89.32622121
C      89.04407909      60.86808918      89.49440685
H      90.93380540      61.45579405      90.07077338
H      89.32186886      59.27127043      88.22262105
C      87.46804734      60.35219389      91.93026407
H      85.50273198      60.12164729      91.36334618
H      87.53418777      62.13609554      92.95260601
C      88.28062966      57.84452708      93.27196975
H      90.27996010      57.89365995      93.76518832
H      87.91213303      56.17400902      92.12490588
N      86.76506916      57.41177974      95.59822285
H      85.31375935      56.18156792      95.46594200
C      87.06742537      58.48892375      97.73361358
N      88.47716120      60.43912131      98.34399518
H      88.79274549      60.82462546     100.18647833
H      89.58832027      61.05706181      96.92103126
N      85.75217585      57.43067702      99.51373577
H      86.18681290      58.23192097     101.19181273
H      84.87723257      55.76771786      99.17736448
C      89.79430044      64.30172189      85.98329536
O      91.00372528      66.18388930      86.65603793
N      89.71871138      63.31717448      83.62113747
H      88.33543172      62.02460167      83.39437032
C      90.96782048      64.50014315      81.42338577
H      92.79140637      65.17288572      82.09990779
C      91.58009180      62.39120859      79.47318822
H      89.81508743      61.37453583      79.17272173
C      92.76872965      63.40410189      77.13559677
H      94.53373403      64.45478972      77.31134131
H      91.47237740      64.56439384      76.03199660
H      93.19202835      61.79405507      75.92617193
C      93.32430919      60.53171789      80.76765074
H      92.40779193      59.94779245      82.51942703
H      95.11765946      61.43122761      81.23630287
C      93.94413942      58.09586067      79.13303748
H      92.24527546      57.31540371      78.26943256
H      94.90978956      56.53494673      80.06656228
H      95.18379988      58.36798126      77.50976258
C      89.50139286      66.68844621      80.24986573
O      90.55397041      68.60651842      79.74908826
N      87.03341029      66.13664614      79.59224097
H      86.52318419      64.36219313      80.08356982
C      85.44226074      67.97534984      77.91416401
H      86.87278356      68.31928002      76.47419256
C      83.16514053      66.58451127      76.71796725
H      81.44171013      67.67677309      77.00898510
H      82.75506992      64.80816853      77.67605849
C      83.61300567      65.97979885      73.82857572
O      85.07943328      67.12308327      72.35458920
O      82.52074386      63.95023279      73.22386330
C      84.68637021      70.49057557      79.17083201
O      84.39535236      72.44833202      77.95951744
N      84.41802908      70.46600912      81.67282964
H      84.34810920      68.80493968      82.60824417
C      83.97205367      72.71289370      83.13547781
H      83.70371253      74.20199804      81.73897007
C      81.58154988      72.42187585      84.75686299
H      81.85367047      71.11229551      86.32155637
H      80.13401952      71.59228601      83.54743815
C      80.49306752      74.89174814      85.83022753
H      82.07098899      75.79314759      86.79965713
H      79.10411868      74.40230902      87.26830926
C      79.34033447      76.63596553      83.86869162
O      77.34289376      76.22022574      82.91815928
O      80.65747371      78.37640346      82.95595381
C      86.23594579      73.56705000      84.83434177
O      86.59121434      75.83094213      85.10268290
N      87.43214254      71.73779493      86.08723031
H      86.89735000      69.93688576      85.74707958
C      89.18013938      72.19510870      88.17159844
H      90.21759913      73.92231854      87.73696138
H      90.52940397      70.64742284      88.32277654
C      88.14078991      72.89808688      90.82666390
O      85.85233135      73.30437805      91.17815300
N      89.82642578      73.12863350      92.71639022
H      91.61599660      73.04926498      92.05498601
C      89.28029488      74.22845421      95.17870360
H      87.32820760      73.76547127      95.64735573
C      91.17380064      72.80738002      97.01929703
H      93.08431395      73.41965135      96.55442436
H      90.96782048      70.80049068      96.60166752
C      90.81853210      73.34595201      99.95026254
H      90.31586490      75.34150301      99.97860844
C      88.50739682      71.80015590     100.85355172
H      88.29763720      72.24424158     102.85477189
H      88.72849480      69.77625901     100.53796743
H      86.92380617      72.25557994      99.61767071
C      93.07675504      72.56927450     101.51495593
H      92.80841390      73.12863350     103.47838157
H      94.89656148      73.15319994     100.75150650
H      93.34320645      70.52648036     101.46582305
C      89.53729766      77.07438203      95.27507965
O      91.49694384      78.12884931      94.64013160
N      87.64568162      78.35183702      96.47505585
H      86.06587042      77.38618688      96.94559771
C      87.64568162      81.03146894      97.26307173
H      89.66768877      81.38106830      97.44826491
C      86.67058284      82.87773155      95.31665362
H      86.11689303      84.65785372      96.18970718
H      84.90935792      82.14640746      94.53997611
C      88.54708107      83.48244397      93.19638070
H      89.75272646      81.90452249      92.64458062
H      89.75461618      85.03390927      93.81054175
C      87.30175143      84.53502151      90.66414744
H      88.80408385      84.84871609      89.28653696
H      86.23216634      86.24900329      91.06287969
N      85.60099775      82.70765617      89.38669245
H      84.55786882      81.57948957      90.51863852
C      85.22494221      82.42419723      87.00185785
N      85.99784027      84.00211870      85.30488362
H      85.92225122      83.39173709      83.50019499
H      86.83120958      85.67830593      85.67149052
N      84.18937219      80.34171883      86.23840842
H      83.48639400      80.25479141      84.46584514
H      83.69993308      78.95843917      87.46106134
C      86.49105884      81.17886759      99.86900431
O      84.78085653      79.60661529     100.41702494
N      87.73827821      82.78135549     101.50928675
H      89.01384347      84.02479541     100.82709555
C      87.12222743      82.53380135     104.28718443
H      85.82587518      80.94643125     104.47993652
C      89.52595930      81.95932455     105.86699563
H      88.89857016      81.71932931     107.81341373
H      90.83742936      83.54669465     105.76872986
C      90.96026157      79.58204885     105.15456881
H      91.46859795      79.70488106     103.16090755
C      93.33753727      79.54236459     106.78351289
H      94.64522788      78.09294451     106.12777786
H      92.91612830      79.20221387     108.77150497
H      94.36743811      81.32626624     106.75327727
C      89.46737778      77.01202106     105.67991273
H      87.85544124      76.96855736     104.39867828
H      88.74550233      76.83816624     107.60176439
H      90.78073757      75.48134276     105.26039348
C      85.89012587      84.83737772     105.34543117
O      84.66747295      84.63895647     107.39578422
N      86.10933413      87.06725477     103.96593096
H      87.12978633      87.05024724     102.35588414
C      84.55597910      89.21965305     104.48182624
H      83.84733173      88.82092080     106.37344228
C      86.24350469      91.69330480     104.54985639
H      86.56475817      92.31124530     102.61099719
H      88.05008305      91.33992597     105.47204283
C      84.93581408      93.93452020     105.99360729
H      84.47661059      93.49799343     107.95325348
H      83.21805287      94.29923738     104.91646329
C      86.71971572      96.29100892     105.72337643
H      87.53040831      96.41573084     103.83365012
H      88.29763720      95.83180542     106.96681634
C      85.20226550      98.63615927     106.52084093
H      84.62778870      98.54167295     108.49749466
H      83.57899059      98.81379354     105.26606266
N      86.59499379     101.03800141     106.12588813
H      87.21104457     101.40082886     104.35521458
H      88.13701046     101.03800141     107.25216502
H      85.58210048     102.54033383     106.73249028
C      82.36011712      89.51634008     102.64312254
O      82.59822264      88.32959195     100.70048389
N      80.33055106      90.92040674     103.07209041
H      80.23039557      91.89361578     104.71426258
C      78.33500007      91.37772050     101.01984764
H      77.58666845      89.60515722     100.28285438
C      76.32055182      93.22776255     101.99116696
H      77.13502386      94.86426554     102.94547875
C      74.48562757      94.35025998      99.87278377
H      72.49385604      94.56568879     100.34332562
H      74.45539195      92.80257414      98.51407055
H      74.94861052      96.06613148      98.82965484
C      74.69349747      91.74432741     103.98104877
H      76.01630589      91.09993072     105.42102022
H      73.75052404      90.23632581     102.94358902
C      72.54865810      93.16918105     105.57408805
H      73.34612261      94.97764912     106.15045458
H      72.02142446      92.07502951     107.23704721
H      70.91026539      93.63405371     104.41379610
C      79.68426466      92.73265426      98.79941922
O      80.90880731      94.72064635      99.19059257
N      79.58977835      91.53645751      96.58654971
H      78.59578230      89.90751343      96.56198326
C      80.38346340      92.77800769      94.19226647
H      81.34344436      94.56379906      94.55698365
C      82.29019725      91.16985060      92.78253064
H      83.92481051      90.87883276      94.00329384
H      83.16514053      92.13739048      91.18760163
C      81.37556971      88.55635912      92.06443464
C      80.62912782      88.36360702      89.45661233
H      80.39102230      89.93396959      88.17537789
C      80.01118731      85.86916829      88.54576425
H      79.52741738      85.62161414      86.57855915
C      79.85245030      83.80180771      90.20494395
O      79.13057485      81.55870257      89.34322875
H      78.32366172      81.71932931      87.72562303
C      80.53086205      84.12117145      92.81465599
H      80.17937296      82.53569108      94.04864727
C      81.52107864      86.47010126      93.69337872
H      81.85367047      86.78379584      95.68326053
C      77.93815755      93.41106602      92.65780870
O      75.96528328      92.66840357      93.40614032
N      78.31421308      94.40695177      90.35045287
H      80.07165856      95.04189981      89.96872816
C      76.27897785      94.75088197      88.33978408
H      74.52153237      94.08002912      89.17693283
C      75.92559902      97.62137623      88.00530252
H      77.61123490      98.38293594      87.09445444
H      75.97473191      98.46230445      89.88369047
C      73.56722059      98.12215371      86.38580707
H      71.81166484      97.36815291      87.15492568
H      73.85823844      97.45508032      84.46017596
C      73.31210753     101.00587606      86.19116526
H      71.81922375     101.25720967      84.79465751
H      75.10923726     101.62003712      85.38992130
C      73.01542050     102.66316604      88.64969919
H      74.37602345     102.17939610      90.11801654
H      71.08412021     102.62348178      89.36779519
N      73.38580686     105.39948974      87.97128745
H      72.73574101     105.58657265      86.18549608
H      75.25663591     105.76987610      87.92404429
H      72.43338480     106.41427278      89.27708833
C      77.17092866      93.23343173      86.07022278
O      79.30442967      93.67373797      85.15937469
N      75.43615991      91.81613701      85.02709385
H      73.76375212      91.95030757      85.93794193
C      75.53820513      90.23065662      82.75375310
H      77.34667321      89.26311675      82.92571819
C      73.49919044      88.04613301      82.84445996
H      71.60568467      88.85682560      82.79343735
H      73.61446374      86.98788627      84.60757461
C      73.81477473      86.09026628      80.83001171
O      72.32000122      86.11861217      78.94784430
O      75.74229557      84.79958321      80.87914459
C      75.55899212      91.60826710      80.30277807
O      74.57444471      93.67373797      80.06467255
N      76.47172993      90.40640117      78.20518186
H      77.40714445      88.79068517      78.60580384
C      76.38858197      91.20197595      75.55011639
H      77.35990130      93.01611322      75.50665269
C      78.00429797      89.47476611      73.88148806
H      77.61312462      89.55791405      71.86137063
C      80.81810045      90.20420046      74.29533812
H      81.43037177      90.48199023      76.24364595
H      81.10533885      92.06180142      73.45440991
H      82.06531982      88.80580298      73.44118183
O      78.01752605      87.05402670      74.88115328
H      76.39614088      86.42474784      74.36336827
C      73.69950143      91.73109931      74.52588473
O      73.42360139      93.10115090      72.69285021
N      71.67371482      90.67474230      75.68050751
H      72.00252720      89.51067090      77.15449403
C      69.07723087      91.39472803      75.17028140
H      69.06022333      91.72920960      73.13882562
C      67.37647718      89.23288113      75.90349521
H      67.38970527      88.95698110      77.94439963
H      68.19661840      87.67385692      74.83579984
C      64.63259458      89.26311675      75.25909854
H      63.52710468      90.80702315      76.05845277
H      63.72741567      87.56047335      75.97908426
C      64.32078974      88.88706122      72.39994263
O      64.45307058      86.74789103      71.51555071
O      63.82946090      90.81647179      71.05256777
C      68.02465331      93.69641468      76.53088435
O      65.89682148      94.52411480      76.05845277
N      69.46651449      94.85670665      78.26187365
H      71.22584968      94.22364832      78.64548809
C      68.68227807      97.09792205      79.60546906
H      67.15726893      98.00688041      78.56422986
H      70.28854543      98.38860512      79.57901289
C      67.77709916      96.63304937      82.40037428
O      67.07412097      98.36214895      83.67404981
N      67.69017175      94.28222985      83.35090661
H      67.91126973      92.79690496      82.17549684
C      66.64326338      93.68318659      85.97195701
H      65.63792898      95.28000533      86.79587768
C      64.74219870      91.61960547      85.66582134
H      63.81812254      91.36638213      87.49129696
H      65.69273104      89.80546820      85.45228227
C      62.77310389      91.87093907      83.57767377
C      62.42728397      89.99633056      81.69172691
H      63.39671357      88.21053919      81.85613310
C      60.42039463      90.17774429      79.99097323
H      60.34480557      88.85871533      78.43761820
C      58.92184166      92.27534049      80.00042186
O      57.13982975      92.50588710      78.07290102
H      56.17984878      94.04223459      78.16738733
C      59.23742595      94.19908188      81.85046392
H      57.99587577      95.81668760      81.90337625
C      61.17250570      93.99121199      83.62302720
H      61.41061121      95.50299304      84.97229179
C      68.59157120      93.05768719      88.06766349
O      70.52854067      91.81802672      87.52720176
N      68.02843276      93.83625444      90.42982138
H      66.41271676      94.83025047      90.61690428
C      69.63847958      92.89895017      92.69371350
H      71.55466206      93.41295573      92.15136205
C      68.94117057      94.40128259      95.17492415
H      70.39248038      93.73798867      96.48072503
H      67.04010590      93.79657017      95.67948108
C      69.09612813      97.17729055      94.97272344
C      66.89837643      98.53978322      94.36234184
H      65.07101108      97.66483994      94.61367544
C      66.86814081     101.16272335      94.14313358
H      65.06345218     102.07168171      93.84644655
C      69.22273979     102.48742150      94.18848702
O      69.32478501     104.96296297      94.01274247
H      67.58434708     105.47129935      93.98628630
C      71.44127848     101.00965552      94.59666790
H      73.28187191     101.82223783      94.25651716
C      71.35813053      98.45852500      95.08610701
H      73.14581162      97.49665429      95.30909472
C      69.70839945      90.03790455      92.94126765
O      67.78654779      88.78879545      92.67859569
N      71.98929911      88.95509137      93.20960879
H      73.54832332      90.05302235      93.13590946
C      72.35590602      86.08648682      93.48361910
H      70.63436535      85.10193942      94.04108836
C      73.24785684      84.96587912      90.97217283
H      74.98262559      85.91452173      90.39202685
C      73.34801233      82.05759033      91.01185708
H      71.54710316      81.08438127      91.24618315
H      74.80877077      81.48311352      92.34411413
H      73.71650896      81.52090804      89.05788008
O      71.43182985      85.64618060      89.10512323
H      70.86491196      87.34882400      89.36023629
C      74.55176800      85.68586484      95.39602213
O      76.18638126      87.22788152      95.88924070
N      74.52531183      83.48055423      96.77741206
H      72.89258829      82.49033764      96.73961754
C      76.44149431      82.73222261      98.56320343
H      78.21027814      83.73944674      98.23628078
C      75.64780926      83.80558717     101.19748191
H      75.16781877      85.77846143     100.84221336
C      73.44060892      82.28057802     102.48438553
H      72.50330467      83.26512544     104.03207138
H      74.31177275      80.57793462     103.24972469
H      71.87402581      81.81570536     101.22960726
C      78.08177675      84.10794338     102.92280203
H      79.48584340      85.08493187     101.77573816
H      78.85089536      82.28246775     103.48971993
C      77.80587671      85.51767920     105.36999761
H      79.61056533      86.28112864     105.99738675
H      76.97817658      84.12306118     106.64178342
H      76.61345940      87.16930000     105.06575167
C      77.06888344      79.88629479      98.35722326
O      75.81977435      78.50301513      96.94937716
N      78.96427894      79.09827891      99.77829745
H      80.11512226      80.39652089     100.57387223
C      79.72772837      76.24479218      99.72727484
H      78.19705005      75.07505160     100.45859892
H      81.27919367      76.02936338     101.06331134
C      80.63857645      75.41331261      97.01362785
O      81.39068752      76.91942447      95.40169131
N      80.58755384      73.00769100      96.57710108
H      79.89402428      71.83417096      97.91313758
C      80.37212504      72.12896828      93.90124862
H      81.62690331      72.98879374      92.51229978
C      80.93337375      69.28115071      93.72550407
H      79.49151258      68.44211223      94.93303918
C      80.98061691      68.22857317      90.98918037
H      79.30065022      68.61785679      89.86290349
H      81.25840668      66.20278656      90.73217759
H      82.57176647      69.14131097      90.05565557
C      83.47316592      68.70667392      95.03130495
H      83.40324605      69.27359182      97.00984840
H      85.01518259      69.66854462      94.06376508
C      84.00228929      65.89476117      95.04453304
H      84.51062566      65.39776314      93.11134302
H      82.31287396      64.99525145      95.80609274
H      85.60666693      65.54327208      96.28608322
C      77.69060340      72.89808688      92.99606971
O      76.00496753      71.33906267      92.72583885
N      77.19738483      75.26969340      92.17592849
H      78.38224323      76.61328882      92.83544298
C      75.26608454      76.07660655      90.40714466
H      75.20750303      74.74434949      88.83867182
H      75.80276681      77.93420751      89.69471784
C      72.57700400      76.23345382      91.29720576
O      70.93483183      76.36195521      89.66826168
N      72.06299844      76.25991000      93.75951914
H      73.63714046      76.00290721      94.80831725
C      69.50430901      76.34494768      94.88390630
H      68.04166085      75.25268587      93.93148424
C      69.56478025      75.51346811      97.64668617
H      70.97640581      76.39597029      98.85800074
H      70.14114678      73.53681438      97.70337796
C      66.94750931      75.75724279      98.89957471
N      64.83668502      74.22278502      98.40257669
H      64.71007336      72.60895876      97.38968339
C      62.81278814      75.55315235      99.46460288
H      60.85503168      75.00513172      99.28885833
N      63.66127525      77.63941021     100.70993252
H      62.53688810      78.92631382     101.56219909
C      66.19917769      77.80570612     100.43781193
H      67.42183062      79.15497070     101.36188810
C      68.36669377      79.06615356      94.75729464
O      69.43627887      80.77257642      95.93081468
N      66.38248114      79.52157761      93.40047114
H      65.86847559      78.14018768      92.18915658
C      65.23919672      82.02735470      92.86378887
H      66.66594009      83.43520080      92.38757784
C      63.61592182      81.73633684      90.55265359
H      62.19862709      80.25479141      90.75674403
H      64.91038435      81.14863197      89.06165953
C      62.23264216      84.16085571      89.70038702
H      61.62792974      85.44775933      91.19138108
C      64.05811778      85.78035116      88.14325254
H      65.52832485      86.36427658      89.46228151
H      63.19262313      87.41874388      87.24563254
H      64.86125146      84.69564825      86.58800778
C      59.89694044      83.62039399      88.09600938
H      58.34925459      82.80214249      89.18638147
H      60.22008364      82.43742531      86.44249886
H      59.14671909      85.36083192      87.29476543
C      63.85591706      83.14229323      95.17303442
O      62.45751959      81.68909369      96.42214352
N      64.49086510      85.43264152      95.97994756
H      65.88737285      86.32459234      95.03130495
C      63.22852793      86.54946976      98.25139859
H      62.78822170      85.03768872      99.57987619
C      65.05211382      88.23888510      99.74806183
H      63.75576157      89.17996879     101.04252435
H      65.77398927      89.59948803      98.37801025
C      67.28388060      86.79891364     100.95559694
H      67.98685878      85.44775933      99.56853783
C      69.38525626      88.62249954     101.42613879
H      68.84668426      90.02656619     102.83398490
H      69.99941731      89.65051064      99.74995155
H      70.99341335      87.49622265     102.05163820
C      66.28799483      85.47421549     103.32153429
H      65.98941807      86.92930476     104.74827765
H      67.65048750      84.02290568     103.85254738
H      64.48708565      84.52746262     103.00594999
C      60.61692616      87.91196244      97.62589918
O      58.59302928      87.37716989      98.62556440
N      60.69440494      89.41429485      95.60200230
H      62.38759972      89.90940316      94.87256794
C      58.42106419      90.89395056      94.64580078
H      56.77511257      89.65995928      94.55509392
C      57.81068259      92.96509061      96.74339699