 %block lattice_cart
   137.614   0.000   0.000
   0.000 142.646   0.000
   0.000   0.000   160.855
 %endblock lattice_cart

 %block positions_abs
N      86.24917387      41.66469039      77.00048134
H      87.66835833      41.90657536      75.74759278
H      84.55597910      41.92925207      76.16144286
H      86.22649716      39.92992162      77.79605611
C      86.61200132      43.63000574      78.96579669
H      88.20504061      42.93458647      80.07317631
C      87.03152057      46.39089589      77.98502874
H      85.10022027      47.10521243      77.91510886
H      87.99339126      46.63467059      76.18034011
C      88.69825917      47.74960911      79.95034410
H      90.39334368      46.74049525      80.54371817
H      87.48316515      47.96314819      81.60007518
S      89.90768401      50.57852940      78.55194663
C      92.44558645      49.44658333      76.56395455
H      93.64934211      48.17290781      77.64676773
H      93.56619416      51.08119661      76.00270584
H      91.82197677      48.43746949      74.88020841
C      84.38212427      43.51851190      80.77426478
O      82.14846777      43.63000574      80.08262495
N      85.00762368      43.37678243      83.21012199
H      86.83876848      43.42402559      83.74680428
C      83.34088508      43.44859203      85.41732233
H      81.86500883      42.04263565      85.11685585
C      84.90368874      42.76262138      87.67365555
H      86.35499855      44.20259283      87.92120970
H      85.77674229      40.95793275      87.19555479
C      83.29364192      42.63411998      90.15675592
O      82.70971649      44.69392166      90.92965399
N      82.49995687      40.42125046      91.02603002
H      81.03730870      40.30597717      92.24679323
H      83.02152133      38.80364474      90.15108675
C      82.05965064      46.04885542      85.46267577
O      83.17269943      48.03306806      85.77070115
N      79.58977835      45.93736158      85.54582373
H      78.59578230      44.31219695      85.44566823
C      78.20838841      48.40156469      85.44755795
H      78.81877001      49.43335526      83.76948099
C      75.22451056      47.88188995      85.42110179
H      74.79554269      46.30396848      84.16632352
C      74.24563233      46.81230486      87.95900423
H      72.24819162      46.30963767      87.95333505
H      74.44027414      48.32597563      89.34039415
H      75.10545780      44.99438815      88.40120018
C      73.60123566      50.07586220      84.57450440
H      74.11146176      51.88055084      85.42677097
H      71.71528880      49.83586697      85.36441000
C      73.38769659      50.32908553      81.78715809
H      72.49952522      48.72659762      80.84985384
H      75.23206947      50.63900065      80.91977370
H      72.01386556      51.71614464      81.12953332
C      78.75262959      50.17979715      87.68121446
O      78.68459944      52.45691736      87.30893837
N      79.57655026      49.23682371      89.87518671
H      79.69182357      47.34709740      90.10384358
C      80.62723809      50.78073012      92.04648223
H      79.52930710      52.52116806      91.97845209
C      80.20771885      49.71303475      94.64485591
H      80.76518811      51.15111648      96.00923832
H      81.54186563      48.15212082      94.82060046
C      77.48462323      48.77195105      95.03224982
C      76.94416151      46.08853969      94.85650526
H      78.48050900      44.92824772      94.18376269
C      74.56499608      45.07753611      95.34027520
H      74.34578783      43.04985978      95.29303205
C      72.64881360      46.71025963      96.20010068
H      70.78554345      45.90145677      96.39663221
C      73.09478901      49.27272852      96.63473772
H      71.58678741      50.45758692      97.33771592
C      75.57222020      50.32341634      96.06215065
H      75.82355380      52.30384953      96.48355962
C      83.47505564      51.50449529      91.83483290
O      84.44448524      52.87076742      93.53369684
N      84.80164352      50.79017874      89.85439971
H      83.87945708      49.62988680      88.65064406
C      87.51340078      51.68968848      89.45755718
H      88.05764195      52.90856195      91.02603002
C      89.36344284      49.52217239      89.13819344
H      91.27584586      50.26294511      88.93410300
H      88.71337698      48.66423665      87.38074798
C      89.26517707      47.70047623      91.47011572
H      87.56631311      46.53640482      91.43988009
H      89.21415446      49.01572575      93.05370636
C      91.48560549      45.82586773      91.45499790
O      92.73282485      45.34776696      93.44298998
O      92.07520010      44.50305931      89.47078527
C      87.47749598      53.33186063      87.05004587
O      88.69636945      55.23292532      86.83839651
N      85.92225122      52.74415576      85.09228941
H      84.64668596      51.40245008      85.55716207
C      85.64635118      54.07641281      82.59218150
H      87.44726035      54.02539019      81.59062654
C      83.38623851      52.74415576      81.25425526
H      81.92736979      52.23392966      82.61674793
H      84.08354752      50.99426920      80.41710650
C      82.34121986      54.12932515      79.08295974
H      83.65646937      54.94946636      77.72802597
H      80.84644634      55.36709588      79.77270984
S      80.59511274      51.72937273      77.36141905
C      81.61367523      52.37943858      74.09408226
H      80.89368950      51.05285071      72.69379507
H      83.66213855      52.27928309      73.88810209
H      80.86156415      54.16711967      73.40055270
C      84.90935792      56.76927280      83.08917951
O      85.94870739      58.35853264      81.78904782
N      83.19348642      57.23792493      84.94489076
H      82.45271371      55.86031445      86.03715256
C      82.27696916      59.75504038      85.32850520
H      82.26185135      60.62431448      83.46145560
C      79.50852011      59.49803759      86.27336836
H      78.92270496      61.42933790      86.68721842
H      79.51040984      58.34530454      87.97979122
C      77.73784656      58.33396619      84.22112558
H      78.37846378      56.49526248      83.54460355
C      75.19994412      58.08830177      85.50047029
H      75.34923250      56.78439061      87.08973011
H      73.88469461      57.33430097      84.10585228
H      74.52342210      59.82684998      86.37163412
C      77.46950542      60.34652472      82.06683757
H      78.98884538      60.11219866      80.69678600
H      77.33155540      62.27026610      82.78682330
H      75.75741338      60.15377263      80.93867097
C      83.87000844      61.50492695      86.97634654
O      83.60355703      63.82551086      86.87052187
N      85.95059711      60.36542198      87.98168093
H      86.12634166      58.47380594      87.79270831
C      87.86677960      61.68256121      89.31771744
H      87.06175619      63.46079367      89.97345248
C      88.97226949      60.06873495      91.44365955
H      90.19681214      61.24225499      92.61151041
H      89.93980936      58.51537992      90.50068611
C      86.87467328      59.21268893      93.28614269
H      85.26462646      58.25837714      92.42631723
H      86.23216634      61.00414947      94.07037911
C      88.24094541      57.77082774      95.36862109
H      89.58454081      59.07851835      96.22088766
H      89.44281134      56.30440013      94.56548741
N      86.52318419      56.24392889      97.11850766
H      86.02051699      54.51671904      96.47789044
C      86.01106836      56.67289677      99.57137241
N      86.53074309      58.88576628     100.51056639
H      86.13768002      59.12009234     102.36249818
H      87.21860347      60.20857470      99.32003882
N      84.92258600      55.14032873     101.01512331
H      84.17614411      55.85464527     102.61950095
H      84.46338251      53.36587572     100.47844104
C      89.96059635      62.54238669      87.52814663
O      91.32875820      64.37731093      88.22734535
N      90.18358406      61.29894678      85.35685109
H      89.33509694      59.59819309      85.18866544
C      91.56308426      62.39309832      83.21957063
H      92.85565706      63.79716497      83.99813787
C      93.18068999      60.32384800      81.90054167
H      94.11421479      61.48602968      80.47757775
C      95.04773959      59.11820261      83.58995699
H      94.15011959      57.44768455      84.39309067
H      95.83386573      60.44668020      84.95244965
H      96.62944051      58.62687376      82.36541433
C      91.86544047      58.06373533      80.47190858
H      90.36310806      58.72136009      79.22657894
H      90.90545951      56.67856594      81.65487724
C      93.66445992      56.68990429      78.70879392
H      94.75105255      58.12042711      77.70156979
H      92.76872965      55.42756713      77.35008070
H      94.92679710      55.69779799      79.99947699
C      89.89067648      63.99180678      81.52448612
O      90.71837660      65.89098171      80.47379829
N      87.49450351      63.27182105      81.02559838
H      87.01640276      61.46335296      81.39787447
C      85.90335396      64.31494998      79.15476933
H      87.34332541      64.57951166      77.70534924
C      83.90780297      62.35530379      78.26092879
H      82.39791165      61.97357907      79.60830364
H      85.03596958      60.67155763      77.89054242
C      82.90813775      63.22457789      75.62287086
O      84.38590373      63.33796146      73.74448290
O      80.71605523      63.96535060      75.32807354
C      84.82620996      66.91332365      79.65176736
O      83.89268516      68.28715469      77.98124929
N      84.95849080      67.73913405      82.02904306
H      85.72194023      66.61285716      83.36696928
C      83.94748722      70.19577826      82.99280348
H      84.33488112      71.73779493      81.68511286
C      81.04297788      70.07861523      83.35563092
H      80.71416550      68.81060887      84.94489076
H      80.19449077      69.24713565      81.67377450
C      79.83922222      72.44833202      84.03971184
H      80.57621548      72.88485879      85.91243062
H      77.85878904      71.98156963      84.37986258
C      80.19449077      74.69143716      82.33517871
O      82.25618217      75.38685643      81.30716761
O      78.32555144      75.82338322      81.67188477
C      85.23250112      71.07828045      85.45700659
O      85.97516356      73.34784174      85.69511210
N      85.90902314      69.33595279      87.23334931
H      85.36667168      67.54071278      86.87808078
C      87.56820284      69.83106108      89.50291062
H      89.19336747      70.69844545      88.57883446
H      88.08031867      67.91109914      90.04904152
C      86.48538966      71.37118802      91.83672261
O      84.54653046      72.62785602      91.71578014
N      87.81575699      71.36929830      93.90219348
H      89.25950789      70.14097620      94.11951201
C      86.88223219      72.45778066      96.30781507
H      84.84699695      72.14030664      96.37773495
C      87.97827345      70.83828521      98.46588252
H      90.03618540      70.84206466      98.36761676
H      87.41891446      68.87296984      98.22966673
C      87.04474865      71.97212099     100.96599043
H      87.52851859      73.94688498     101.27590555
C      84.30842495      71.51291749     101.38173022
H      82.97616790      72.64675329     100.29135815
H      83.83032419      72.15920390     103.27712571
H      83.80386802      69.54193296     101.06425620
C      88.40346187      70.56616462     103.06358665
H      90.45570464      70.65309203     102.91429826
H      87.91402275      68.56494444     103.00689485
H      87.65324052      71.32772431     104.82481157
C      87.37545075      75.31315711      96.57993566
O      89.56375383      75.96889214      96.03002530
N      85.58587994      76.86273268      97.38117961
H      83.72638924      76.49045661      97.17330972
C      86.03374507      79.35528170      98.54525102
H      88.02929606      79.54614405      99.02524152
C      85.42147375      81.55681286      96.76323912
H      84.99061615      83.36339120      97.64952075
H      83.76418377      80.96910797      95.68609512
C      87.79685972      81.98767045      95.09272105
H      88.45637421      80.25290170      94.19699078
H      89.37478119      82.42419723      96.34183015
C      87.59087955      84.03613377      93.23889954
H      89.41257572      84.74667086      92.58694397
H      86.55908899      85.61972443      94.05526131
N      86.11689303      83.07615281      91.04303757
H      84.91880655      81.61350463      91.29815061
C      86.15846701      84.00022897      88.79615297
N      87.25639800      86.21687793      88.45600224
H      87.12600688      87.10693903      86.77225610
H      88.00661934      87.02001162      90.01502645
N      85.41013539      82.87017264      86.78737390
H      86.22649716      83.52023849      85.18677573
H      84.55975855      81.17508813      86.58139374
C      84.67881131      79.60472556     101.00189523
O      82.57554592      78.82048914     101.30614117
N      86.07531905      80.56281680     102.88028320
H      87.95370701      80.88784974     102.74989208
C      85.04541821      80.85761412     105.52023085
H      83.32576727      79.71999888     105.49944387
C      87.16758086      79.93731740     107.33058865
H      86.47216158      80.39085171     109.21464579
H      88.83054002      81.10138880     106.98854819
C      87.58332065      77.05737450     107.24744069
H      88.13134128      76.53203059     105.33503767
C      89.97949361      76.56415594     108.85370806
H      90.50105808      74.58372275     108.64961763
H      89.54863601      77.03658750     110.81335425
H      91.43458287      77.78491913     108.05813328
C      85.29486208      75.43976878     108.18285522
H      85.50273198      73.39508491     108.03356684
H      83.53930634      76.25424082     107.47609759
H      85.04730794      75.69866128     110.21053156
C      84.12701122      83.56370220     106.30824673
O      82.80042335      83.81881524     108.11860454
N      85.07376411      85.37406001     104.94575405
H      86.59310406      84.93564350     103.87805868
C      84.44070579      88.09715562     105.13472669
H      83.58088032      88.34093031     106.99043792
C      86.71971572      89.70153326     105.32936849
H      87.69670423      89.89050590     103.52656959
H      88.13701046      88.85493587     106.55958032
C      86.36255745      92.35470901     106.19864259
H      85.41580457      92.26211242     108.02411822
H      85.00006478      93.25799819     104.94764378
C      88.76439959      93.93829965     106.37060770
H      89.77918262      93.90239485     104.58103687
H      90.05886212      93.07091528     107.71609283
C      88.27685021      96.55935005     107.11704959
H      87.11466852      96.45163564     108.81213408
H      87.17136031      97.24343097     105.52023085
N      90.56908822      98.08435918     107.31925030
H      90.00028060      99.87204028     107.65751130
H      91.45348014      98.09569755     105.62605552
H      91.69725483      97.50043376     108.74410393
C      82.56798701      88.85871533     102.96343115
O      82.94215282      88.04046383     100.84504795
N      80.54597986      90.22876691     103.52845931
H      80.39480175      90.92040674     105.30102260
C      78.52586243      90.75222109     101.58582066
H      77.66225751      88.99477561     100.94709318
C      76.43771485      92.26400213     102.82737085
H      75.74985448      91.30402118     104.51489645
C      77.12368551      94.95308268     103.87238951
H      78.08933565      96.08691848     102.44753587
H      78.51641380      94.57513742     105.34259658
H      75.46072635      95.92440201     104.59615469
C      74.00374736      92.25266378     101.09449183
H      73.41982193      90.27789979     101.04346922
H      74.56877553      93.17485023      99.33893609
C      71.83056210      93.83436470     102.12817211
H      72.35212657      95.82235678     101.99211182
H      71.29387983      93.41295573     104.07081077
H      70.20917693      93.48476534     100.90929864
C      79.30065022      92.04668362      98.99689561
O      80.73495249      93.89861541      98.95721137
N      78.66192273      90.77678753      96.89740968
H      77.39391637      89.35193390      96.99756518
C      79.32899611      91.41551503      94.24423395
H      80.13968870      93.29957216      94.06470995
C      81.28675257      89.51822981      93.14441322
H      82.70971649      89.37083116      94.62595866
H      82.11823215      90.43663679      91.50035134
C      80.52708260      86.80080337      92.30537474
C      80.35133805      86.17341423      89.77125175
H      80.55542849      87.56803226      88.29348579
C      79.71450028      83.69976249      88.97756671
H      79.94882634      83.27079461      86.99713352
C      79.15892075      81.93475812      90.85028549
O      78.69593780      79.51401870      90.00935727
H      78.35389734      79.46677555      88.22923508
C      79.16458992      82.42419723      93.39952627
H      78.85467481      80.79714288      94.59572304
C      80.17748323      84.78257566      94.08738666
H      80.14913733      85.16052093      96.09238627
C      76.87235191      91.66306918      92.63418712
O      74.96750778      92.16762610      93.76235374
N      77.09344989      91.68385616      90.10384358
H      78.71294534      92.09203704      89.18165715
C      74.95616943      91.92385141      88.35017756
H      73.24974656      91.15662253      89.21000304
C      74.39114126      94.61482168      87.28248220
H      72.88880884      94.71497717      85.87463609
H      75.97284218      95.38960947      86.21856628
C      73.50863907      96.59147540      89.24590785
H      74.74829953      96.77666858      90.88241082
H      71.53198535      96.16250752      89.63708118
C      73.55399250      99.23520251      88.07238781
H      72.97951570     100.59958491      89.50480034
H      72.28787587      99.52244090      86.47367934
C      76.14669700     100.27077252      87.31082810
H      76.78542450      99.29000457      85.61763332
H      77.40147527      99.85125328      88.89063929
N      76.04465178     102.94851472      86.81760954
H      77.72650820     103.71385387      86.34139849
H      75.25474618     103.91038540      88.26136044
H      74.99963313     103.37748258      85.27748259
C      75.47395444      90.22309773      86.05038065
O      77.44493898      89.76578396      85.14331201
N      73.42927056      89.13272563      84.98457500
H      71.87213608      89.43886131      86.04471147
C      73.02864859      88.21242892      82.35974515
H      74.50641456      86.81403146      82.03282250
C      70.51342286      86.91040750      81.86274713
H      68.89014796      88.15573713      82.09518347
H      70.24508173      85.63106278      83.45578642
C      70.40192901      85.39295727      79.44200774
O      69.31344665      86.22254711      77.54850196
O      71.47718328      83.28591243      79.32106524
C      73.30076918      90.35726829      80.46057022
O      72.37858273      92.46809259      80.95189905
N      74.25886042      89.79601958      78.24959042
H      74.89380846      88.03290492      77.89243215
C      74.77853515      91.67629725      76.11419969
H      76.10323330      93.07658446      76.84174432
C      75.88969422      90.17585456      73.90321991
H      74.70483583      88.61872009      73.25693350
C      76.60401077      91.92574113      71.67712232
H      77.80776643      90.77111835      70.46958720
H      77.69060340      93.60759755      72.15711280
H      74.94861052      92.36793708      70.53383790
O      78.11012264      89.12705646      74.71391250
H      78.21405759      87.63039323      73.69346029
C      72.45039233      93.17296049      75.23547695
O      72.67715949      95.24410054      74.26037818
N      70.16004404      92.22809734      75.52838454
H      70.08823444      90.45553406      76.23136272
C      67.68450257      93.55090576      75.12398310
H      67.71095874      94.46742303      73.27772049
C      65.65493651      91.54779586      75.22224888
H      65.47541251      91.03379030      77.20835123
H      66.21429550      89.71665107      74.46446862
C      63.09813681      92.14872884      74.18289941
H      62.41972507      93.98176335      74.82351662
H      61.90571951      90.75033137      75.11075503
C      63.10947517      92.08258842      71.20847018
O      62.21752435      90.13617032      70.29573238
O      63.72363622      93.94396884      69.74771175
C      67.12703331      95.64094307      77.06284231
O      65.11258506      96.77099940      77.06851149
N      68.82022809      96.35525961      78.77682406
H      70.55121739      95.55590537      78.84107477
C      68.57267394      98.09947700      80.87253055
H      67.63159024      99.77755396      80.13175784
H      70.48129752      98.70985860      81.35252103
C      67.18750455      97.16784193      83.35752066
O      66.87758944      98.58135721      85.22457024
N      66.28988455      94.85103747      83.45767614
H      66.47129828      93.64728181      81.98746907
C      65.12581315      93.97231473      85.79526759
H      64.00142599      95.50677250      86.58517319
C      63.45718481      91.72354042      85.20378326
H      62.38193054      91.03190059      86.81760954
H      64.84802338      90.29301759      84.69355715
C      61.62415029      92.05235280      83.12130486
C      60.81156797      89.89806479      81.78148891
H      61.46163382      88.06880972      82.40320886
C      59.11648347      89.98121276      79.86908587
H      58.33980596      88.26156180      79.08862890
C      57.99776549      92.29801722      79.11697480
O      56.28000427      92.32258366      77.15921834
H      55.92095627      93.88727705      76.31640040
C      58.73286903      94.59025524      80.41143732
H      58.00532440      96.45541511      80.01081536
C      60.63582343      94.42017986      82.33706844
H      61.32179408      96.20030205      83.06083361
C      67.10813605      92.80257414      87.75869323
O      69.09990758      91.78590139      87.10106848
N      66.60357912      93.05390773      90.27013951
H      64.82534666      93.56602356      90.73123272
C      68.46306981      92.40195216      92.22600623
H      70.38870093      92.79690496      91.60995546
C      68.30244308      94.00632981      94.66753264
H      69.74430425      93.05012828      95.78436088
H      66.46184965      93.47909616      95.42531288
C      68.52165133      96.77855831      94.40108122
C      66.42027567      98.40750239      94.16297570
H      64.58157197      97.58547144      93.84739142
C      66.84735382     101.03800141      94.05715104
H      65.28643988     102.26254407      93.57905028
C      69.33612337     102.00743101      94.13840926
O      69.70839945     104.52265673      93.65652905
H      68.00764577     105.15193559      93.58094001
C      71.41860177     100.40494310      94.70154770
H      73.26675410     101.26476856      94.81871073
C      70.91026539      97.82168723      94.71288606
H      72.44094370      96.49698908      94.96232993
C      68.49897461      89.52389899      92.87418236
O      66.50720308      88.28045907      92.73434262
N      70.75719756      88.53368239      93.50913040
H      72.19338956      89.76200451      93.77369208
C      71.29765928      85.84649158      93.89652430
H      69.42494051      85.02257090      94.14407845
C      72.54487865      84.62761810      91.50224106
H      73.43493974      82.87395210      92.11262265
C      70.64003453      83.86227896      89.44054965
H      69.21518089      82.63395685      90.28147786
H      71.68505318      82.70765617      88.08939534
H      69.83123166      85.55169428      88.58639335
O      74.30610357      86.09404573      90.21155798
H      75.87457641      85.92586008      91.11106772
C      73.10045819      85.34193466      96.06970956
O      74.41003852      86.95198147      97.06559533
N      73.06266366      82.93064388      96.83315898
H      71.71150935      81.77035192      96.14151915
C      74.76152762      81.95554510      98.89862985
H      76.52653199      83.01001238      98.79091544
C      73.59178703      82.35427736     101.61227684
H      73.04376640      84.33848998     101.67652752
C      71.07656130      80.88218056     102.02234744
H      69.64603849      81.27713336     100.59560407
H      70.26586872      81.43398063     103.83270525
H      71.26931339      78.84127614     101.82581590
C      75.45505717      81.98578072     103.85727169
H      76.63991557      80.30203458     103.79680045
H      74.30610357      81.86672796     105.56369455
C      77.22951018      84.32337218     103.91396348
H      76.10134357      85.84649158     104.71898690
H      77.76808218      84.97343803     102.03557552
H      78.85656454      84.00778788     105.13661640
C      75.31143797      79.14930152      98.55280993
O      73.87902543      77.79436777      97.29614193
N      77.34856294      78.11751097      99.67152791
H      78.55231860      79.25512620     100.62206025
C      78.09878428      75.43032014      99.47310665
H      76.51330391      74.16609324      99.83215465
H      79.54064546      75.04481598     100.89040139
C      79.02663990      74.47789809      96.90307886
O      80.51763396      75.79692705      95.66530812
N      77.94760618      72.36329434      96.03191503
H      76.66070256      71.44677707      97.10338986
C      78.28208774      71.76236137      93.24834818
H      79.87701674      72.74501906      92.38852270
C      79.04175771      68.87674929      93.01591183
H      77.37123965      67.71834707      93.34661395
C      79.54064546      68.15865330      90.16431483
H      78.90002824      66.21223518      89.96211412
H      81.56832179      68.40431772      89.89597369
H      78.53720079      69.30760688      88.78292489
C      81.03919843      67.92432722      94.91319705
H      80.37779422      67.99613683      96.86150489
H      82.62467880      69.23201784      94.78091622
C      81.94626706      65.13887064      94.38029423
H      83.43159194      65.21068024      92.95544059
H      80.45338327      63.91054854      93.66408796
H      82.84955623      64.39620820      96.07537874
C      75.79142846      72.63730465      91.66475752
O      74.00185764      71.13308251      91.63641162
N      75.73284694      74.76513648      90.29092649
H      77.07266290      76.11062161      90.48556831
C      73.69950143      75.60228523      88.70166667
H      73.23651848      74.03570213      87.44688840
H      74.44027414      77.18398617      87.61318431
C      71.15970926      76.30715315      89.93187849
O      69.43816859      76.85706350      88.51836321
N      70.86680168      76.05204011      92.47167065
H      72.26519916      75.24323723      93.48834342
C      68.27787664      76.08416544      93.48645369
H      67.22529908      74.95788857      92.12207129
C      68.15315470      74.49868507      95.88829583
H      69.52698573      75.47000440      97.07693369
H      68.76731575      72.57116423      95.48578412
C      65.55478102      74.28136654      97.20921452
N      64.32456919      72.05148949      97.77424269
H      64.71952199      70.31105156      97.09772068
C      62.28555450      72.56738478      99.13295591
H      60.84369332      71.20111266      99.60160803
N      62.28177504      75.12229475      99.41452514
H      60.89849538      76.17487232     100.20254101
C      64.21874452      76.25046137      98.23344619
H      64.69117609      78.22711508      98.05959137
C      67.09112851      78.78269463      93.37684957
O      67.88103411      80.54580927      94.76201894
N      64.91227407      79.17764743      92.05971032
H      64.33590755      77.61106430      91.13563416
C      63.57623757      81.65885807      91.81215617
H      65.00298093      83.08938090      91.41342393
C      61.61848111      81.56815121      89.59739694
H      59.83080002      80.95587989      90.42320734
H      62.17595037      80.06959824      88.29726523
C      61.44273656      83.97755226      88.03081382
H      60.26543707      83.65062961      86.37352384
C      60.38071037      86.17719369      89.44432910
H      59.69851917      87.56236308      88.07994670
H      61.56367905      87.26756577      90.72934299
H      58.66105943      85.48177440      90.34005937
C      64.01843353      84.96398939      86.95933901
H      63.49119988      86.70442732      85.99557859
H      65.04077546      83.64118097      85.75558335
H      65.26565289      85.64807031      88.44844333
C      62.43862233      82.67364111      94.27257984
O      61.19518241      81.23366965      95.66908758
N      63.04144502      84.99989419      94.96421967
H      63.83135062      86.12806081      93.64330098
C      61.80367429      86.15073752      97.09583095
H      61.01565841      84.65029483      98.26935099
C      63.63103963      87.62283432      98.86272505
H      62.30067231      88.53179268     100.14395948
H      64.57212334      89.07036468      97.73833790
C      65.75509201      86.06003066     100.17041565
H      66.64893255      84.76745786      98.83815861
C      67.85646767      87.69464392     101.27401582
H      67.19884291      88.79446463     102.88595236
H      68.77865411      89.01367289      99.98900194
H      69.14148156      86.23388548     101.94675840
C      64.56267470      84.46888110     102.23021734
H      63.75009239      85.56870181     103.77034428
H      66.11414001      83.42764191     103.09571200
H      63.09246763      83.19898502     101.54613641
C      59.61537122      87.78157133      96.26246165
O      57.66706339      87.46220758      97.39440771
N      59.96119113      89.67318737      94.60895111
H      61.56556877      89.90940316      93.60550645
C      58.05445728      91.40606639      93.77747154
H      56.22520221      90.46120323      93.69810304
C      57.81635177      93.42240437      95.77680199