 %block lattice_cart
   137.614   0.000   0.000
   0.000 142.646   0.000
   0.000   0.000   160.855
 %endblock lattice_cart

 %block positions_abs
N      91.79930005      39.72205173      82.72918665
H      91.18513900      39.41213661      84.50930884
H      93.70603390      39.78819216      82.67249486
H      91.17002119      38.37089742      81.53487962
C      90.76184030      42.22593910      82.12258451
H      91.26072806      43.60165985      83.57389431
C      91.77851306      43.04985978      79.61302796
H      91.03774035      41.67413901      78.27132228
H      93.83642501      43.04608031      79.73963962
C      90.87144444      45.75216839      78.81178401
H      88.81164275      45.75405813      78.80233537
H      91.44970068      45.93358213      76.84457891
S      92.01283912      48.30518865      80.59757537
C      90.80530401      51.11710140      78.94406485
H      88.75873042      51.28339732      78.76265112
H      91.79552060      51.08119661      77.13748649
H      91.64056304      52.64777971      80.04010611
C      87.89890494      42.21271101      82.29454960
O      86.70459791      40.41558129      81.54243853
N      86.77073833      44.09109897      83.66838063
H      87.77040356      45.54429851      84.39970471
C      84.10433450      44.02684827      84.11057659
H      83.23317067      42.91568920      82.61202362
C      83.79441939      42.59443574      86.61824340
H      85.04163875      40.96171220      86.77887014
H      81.87445745      41.85366301      86.64658930
C      83.97772285      44.11944487      88.99173965
O      83.80764747      46.39089589      89.12213077
N      84.04386326      42.81931316      91.03264407
H      84.43503662      43.93047223      92.53497649
H      84.31409412      40.92958685      91.05532079
C      82.90813775      46.74616445      84.08601014
O      84.25929206      48.67557500      83.72507242
N      80.43259629      47.05418982      84.50741911
H      79.34789337      45.48760671      84.62080269
C      79.01530154      49.39745045      84.35057183
H      79.42915161      50.17601769      82.48919141
C      76.13346891      48.82486339      84.55844172
H      75.85945861      47.42835564      83.07122711
C      75.26608454      47.62110773      87.18327157
H      75.72150858      49.07808671      88.56655123
H      76.61723885      46.15845955      87.70861549
H      73.34045342      46.91623981      86.98674004
C      74.23240424      51.02828426      83.89703751
H      74.18516109      52.39833585      85.43338501
H      72.35401629      50.18924578      83.77798476
C      74.85790366      52.37376941      81.41015769
H      74.68971801      51.16623429      79.75097798
H      76.82321903      52.95580510      81.60668922
H      73.74296513      54.10475870      81.36669398
C      79.87134756      51.39678089      86.24974677
O      80.06787911      53.61720931      85.55243776
N      80.61589973      50.65978764      88.60245603
H      80.56298739      48.77950995      88.91237115
C      81.59855742      52.28495227      90.64147072
H      80.33810997      53.91011690      90.71328032
C      81.54753480      50.82041437      93.18882179
H      82.43381644      52.11298716      94.52674802
H      82.73806238      49.14989631      93.35889716
C      78.89057961      50.20058414      94.31131922
C      77.42604171      48.13700300      93.51385472
H      78.25563157      46.65545757      92.38190866
C      74.98073586      47.76661664      94.42092335
H      73.73729595      46.32664519      93.68581981
C      73.92437886      49.58642308      96.04419825
H      71.90615115      49.51083404      96.33143665
C      75.25096673      51.72370354      96.81142714
H      74.41570771      53.34130928      97.73172385
C      77.75485409      52.06007483      95.90435851
H      78.65058437      53.80429222      96.47127640
C      84.38212427      53.39611134      89.94038226
O      84.92636545      55.55795824      90.30320971
N      86.04508343      51.76149808      88.88402525
H      85.39312786      49.99460398      88.57788959
C      88.39779269      52.53628586      87.68593877
H      89.40879626      53.66067302      89.08622597
C      89.87933812      50.22704031      86.98485031
H      91.71615209      50.83931164      86.28565157
H      88.97793866      49.20091892      85.44472336
C      90.32909299      48.37888797      89.15047666
H      88.55086052      47.50961387      89.71550483
H      91.02073282      49.60721007      90.65280908
C      91.97315487      46.20759245      88.22640050
O      94.25594426      45.85421362      88.84245127
O      90.88278279      44.37266820      87.36279557
C      88.23149677      54.18601693      85.35968568
O      89.63745316      55.99259528      85.20850757
N      86.40224170      53.72303399      83.66649090
H      85.15124289      52.32463651      84.00853137
C      85.85611079      55.32363218      81.43094467
H      87.40568638      55.38599315      80.07979036
C      83.41647412      54.20302447      80.20451230
H      81.65146975      54.96458417      80.94150556
H      83.49017345      52.16589950      80.50497878
C      83.28608302      54.83230333      77.30189268
H      84.97927780      54.08586144      76.39671378
H      83.18025834      56.85997966      76.95418304
S      80.54597986      53.29028666      75.93373083
C      80.95605047      53.98003676      72.53222347
H      82.75506993      53.37343463      71.73097951
H      80.78597510      55.97369803      72.04656380
H      79.38001872      53.11076266      71.53255825
C      85.37423058      58.12987574      82.38714619
O      86.63089858      59.90999793      81.52543099
N      83.72449951      58.42467305      84.31277730
H      82.79475417      56.85053104      84.85701848
C      83.16136108      60.88509672      85.49763570
H      82.89868911      62.33640653      84.05955398
C      80.75573948      60.61486586      86.98107086
H      80.52141341      62.00948388      88.47962382
H      81.05809569      58.91789162      88.10734774
C      78.42003775      60.77171313      85.40125966
H      78.63168710      59.50181706      83.79310257
C      76.12779974      60.14054454      87.10012361
H      76.01063670      61.31595431      88.78764921
H      76.27141894      58.17144973      87.68782850
H      74.43649469      60.17644934      85.92660357
C      77.87579658      63.48158066      84.21451153
H      79.50096120      64.15810269      83.14870589
H      77.59800681      64.87241923      85.70928505
H      76.10890247      63.41921971      83.15626480
C      85.38556895      62.00381470      87.07366745
O      85.67469707      64.27337599      87.23051473
N      87.22049320      60.39565760      87.75018947
H      86.83120958      58.52860800      87.64814424
C      89.65257096      61.27815978      88.89158416
H      89.27840516      62.74080795      90.29187136
C      91.19836709      59.13898960      90.15392134
H      92.46448372      58.14310384      88.87268690
H      89.66768878      57.90310859      90.76997211
C      93.03140161      60.21991305      92.26852508
H      92.20181175      62.00003523      92.89213476
H      94.89845121      60.43912131      91.42192769
C      93.52084072      58.39632717      94.47005623
H      94.84364915      59.52449377      95.57365640
H      94.53373403      56.70124266      93.88235135
N      91.14923420      57.78027638      95.91947632
H      90.57853685      58.95379642      97.31409434
C      89.95114772      55.62787812      95.62089956
N      90.62766974      53.65878329      94.26596579
H      89.25383872      52.35298241      94.03163973
H      92.18858367      53.92901416      93.19827043
N      87.83843370      55.46536165      96.88134701
H      87.11088908      53.70035728      96.89646482
H      87.14301441      56.70880157      98.14935337
C      91.42324451      62.54994559      86.90926126
O      92.70636869      64.37353149      87.43082572
N      91.33064792      61.67878176      84.47907322
H      90.02862649      60.35030416      84.05199507
C      92.67613307      62.96568539      82.38903592
H      94.40334291      63.82173140      83.11280109
C      93.22793314      60.91155288      80.36513903
H      91.44403150      59.97613836      79.93995061
C      94.39200455      62.23247158      77.98219415
H      96.10409660      63.20946007      78.57745794
H      93.04273996      63.36630736      76.91827824
H      95.13655672      60.70557272      76.81623302
C      94.92868682      58.79127995      81.46495975
H      95.76772531      57.81051200      79.85680266
H      93.75327706      57.40044140      82.42872017
C      97.20013785      59.52638350      83.10524219
H      96.46314460      59.80795271      85.00819659
H      97.84642426      61.31217487      82.31344686
H      98.77805933      58.21113399      83.24130248
C      91.11143967      65.31839464      81.41960632
O      92.21503984      67.32717372      81.10969120
N      88.55652971      65.23902614      81.29866383
H      87.73449875      63.55527999      81.66716046
C      86.94648288      67.10607574      80.01364994
H      88.00472962      67.97157039      78.47352300
C      84.63345787      65.73980361      78.86280662
H      83.37112070      67.23268739      78.21652022
H      83.46371729      64.71557196      80.21585066
C      85.32320798      63.94645334      76.77654877
O      87.13356579      64.50014316      75.40838692
O      84.31031468      61.84696741      76.95607277
C      86.00161972      69.37752676      81.64826320
O      85.24194974      71.28237089      80.41049247
N      86.26051223      69.21878976      84.15215057
H      86.82554039      67.57283813      84.93638699
C      85.36478195      71.14631060      85.97006728
H      85.12856616      72.94533005      84.99496850
C      82.86656378      70.32805911      86.98296058
H      82.20138011      71.14442087      88.75363414
H      83.00262406      68.29660331      87.29287570
C      80.57243603      70.88930782      85.30866307
H      78.79042411      70.51703174      86.27620294
H      80.64046618      69.57972749      83.71940324
C      80.60834082      73.56705000      84.42427115
O      80.46472162      75.27158314      86.14014265
O      80.59700247      74.20766723      82.13203314
C      87.33009732      71.53937366      87.96561827
O      87.38867883      73.67476441      88.90670197
N      88.92124687      69.68933161      88.61379439
H      88.85699618      68.06416698      87.61412917
C      90.97537938      69.99546727      90.38446795
H      92.27551108      71.54693257      90.00463296
H      92.05630283      68.24180125      90.34667342
C      90.10988473      70.58317215      93.11512247
O      88.28818856      69.29626853      93.89179998
N      91.23616162      72.37463270      94.47950487
H      92.70069951      73.34784174      93.74251160
C      90.20437105      73.21178146      97.11756280
H      88.18425362      72.92076361      96.83788330
C      91.42513424      71.45244625      99.23027682
H      93.47737702      71.53937366      99.09043707
H      90.82420127      69.49846924      98.97516376
C      90.71459715      72.37463270     101.87967311
H      90.99805609      74.39475013     102.15557315
C      87.85355151      71.80960452     102.70170405
H      87.65513024      71.57716819     104.73882902
H      87.27151580      70.05593852     101.79274570
H      86.64979585      73.42532053     102.27462591
C      92.25850354      70.94410988     103.79018641
H      91.98071378      68.91076437     103.58987542
H      91.73693909      71.46567434     105.71203807
H      94.30507714      71.11607498     103.64278776
C      90.52184506      75.90086199      97.67692179
O      92.70258923      76.81548953      97.65613480
N      88.53196325      77.29925947      98.51596027
H      86.81798149      76.46966962      98.64446166
C      88.87022426      79.91086123      99.60633235
H      90.81853209      80.33793938     100.12033791
C      88.04441387      82.07648758      97.78463619
H      88.00661934      83.83960224      98.84855210
H      86.17736428      81.63618136      97.03630457
C      89.93791964      82.47333011      95.51885434
H      89.85099222      80.63651614      94.59099872
H      91.71804183      83.01946102      96.39757707
C      89.26139761      84.44242494      93.51952390
H      91.04529925      84.91863597      92.60867582
H      88.61511121      86.21876767      94.34344457
N      87.63056380      83.46165697      91.60901060
H      86.75939997      81.79491837      91.93782298
C      87.47371653      84.38006397      89.18827119
N      88.14834881      86.67608144      88.66859645
H      87.93292001      87.25811714      86.86390782
H      89.02518182      87.87227820      89.87235212
N      86.49672802      83.07237335      87.24185309
H      86.49861774      83.53724603      85.38992130
H      85.58587993      81.44909845      87.65759288
C      87.36600212      80.17353320     102.05352793
O      85.16825042      79.66897626     102.27651563
N      88.78140713      80.96343879     103.87900355
H      90.65790536      81.25067719     103.66546447
C      87.77985218      81.17130868     106.60209916
H      86.23594578      79.81259547     106.72115192
C      89.91902237      80.61761888     108.57875289
H      89.00439483      81.03146894     110.37777234
H      91.54418700      81.87995606     108.66945975
C      91.06986569      77.97578148     108.46725903
H      92.39834329      77.87562600     106.89689647
C      92.49093989      77.54303417     110.95035941
H      93.90256544      79.03402823     111.12988341
H      93.42824413      75.71755855     110.75949705
H      91.34198628      77.64885883     112.65489254
C      89.16880102      75.83472158     108.22726379
H      89.90012511      73.93554664     108.54284809
H      88.42424886      75.68921266     106.31108131
H      87.48505488      76.35250659     109.29495916
C      86.34366018      83.63740153     107.18035542
O      84.61267088      83.45598779     108.69024674
N      86.96160070      85.73688746     105.91612851
H      88.42046940      85.40051618     104.73315984
C      85.72571969      88.24266454     105.89534152
H      84.67125240      88.43163718     107.65467672
C      87.82331589      90.34404020     105.81219357
H      88.58298586      90.24010526     103.90168026
H      89.39745791      89.96231549     107.08586910
C      86.51184584      92.84225840     106.17880047
H      85.75217585      92.84225840     108.09309322
H      85.04352848      92.88383237     104.73504957
C      88.22582759      95.17607039     105.81975247
H      88.49983792      95.32346904     103.78262751
H      90.08909774      94.69041073     106.54729710
C      87.33576650      97.77444408     106.86477112
H      85.31753880      98.05034412     106.56430464
H      88.32409336      99.21252580     105.77061959
N      88.07275977      98.15238934     109.58975646
H      89.92469155      97.76877490     109.85431815
H      86.67814174      97.30390222     110.58186278
H      88.19370224     100.00621084     110.02628324
C      83.91158242      88.35604813     103.57475761
O      84.34999892      87.29780140     101.60188334
N      81.78375060      89.73932779     103.79018641
H      81.49462246      90.80324370     105.34921062
C      79.93181880      90.24577444     101.78707652
H      79.04742690      88.49777760     101.14645930
C      77.86445822      92.10526513     102.68469652
H      78.82065973      93.81168799     103.33098292
C      76.06732849      92.98020842     100.62678456
H      77.04431700      94.11404420      99.21326928
H      74.77664542      94.33514219     101.48661003
H      75.12246534      91.37205133      99.75373101
C      76.40747923      91.14150471     105.05063386
H      77.88713493      90.74466218     106.43013407
H      75.50230034      89.36894143     104.52151049
C      74.48562757      92.77989743     106.34131693
H      75.20939275      94.52033536     107.17468624
H      73.58422812      91.74432741     107.87577470
H      72.99085406      92.95564198     104.93725028
C      81.33777518      91.21520403      99.55719947
O      83.18592752      92.68163166      99.77451800
N      80.58377438      90.29490732      97.33488133
H      79.00963237      89.22721196      97.15535733
C      81.68548483      91.12638691      95.00295905
H      82.66814250      92.92351663      95.22216731
C      83.72827897      89.35571334      94.02408082
H      85.07754355      89.18185852      95.56987695
H      84.59377362      90.32892240      92.42726209
C      82.79475417      86.73844241      93.39480196
C      81.75540470      86.38317385      90.97217283
H      81.63068277      87.90629327      89.61912879
C      81.00707309      83.90952212      90.21250285
H      80.50629560      83.49945150      88.27553338
C      81.09589021      81.89885331      91.97939695
O      80.60834082      79.50834952      91.14980710
H      80.25685173      79.61984338      89.37346437
C      82.05209173      82.20498898      94.49084322
H      82.10500407      80.73856136      95.90624823
C      82.78152608      84.65785374      95.21460840
H      83.32954671      84.98288666      97.15157787
C      79.35734200      91.81046783      93.18504234
O      77.05754509      91.62338492      93.56865678
N      80.06220992      92.60982206      90.94760639
H      81.93492870      92.60793234      90.59233784
C      78.39358158      93.26555708      88.82922319
H      76.39425115      93.38649958      89.30732395
C      78.99640428      95.97164516      87.89569839
H      77.66981641      96.40628222      86.38202761
H      80.87668197      95.89227666      87.05477018
C      78.64113573      97.98420370      90.02730967
H      79.85056058      97.61192761      91.65247430
H      76.63235666      98.01443932      90.48840289
C      79.29120158     100.59202601      89.23929380
H      78.25374184     101.01154525      87.51019422
H      81.29809093     100.62226163      88.77631085
C      78.50318572     102.50631876      91.36901535
H      79.48584339     102.05089471      93.12079165
H      76.44527376     102.53844410      91.42948660
N      79.27041459     105.13870752      90.66792689
H      78.03453359     105.51287333      89.26386024
H      81.12990530     105.01776503      90.25407683
H      78.73751178     106.47096457      91.92837434
C      78.43326584      91.23599103      86.69194273
O      80.52330314      90.43663679      85.79243301
N      76.32811073      90.18341348      85.75652821
H      74.60090087      90.48954914      86.50674955
C      76.18827099      89.20642496      83.05610930
H      77.34100403      87.50189184      83.06933739
C      73.49541098      88.01589739      82.62147225
H      72.14047722      89.56358325      82.71784829
H      73.14959107      86.67419170      84.14459166
C      73.38013768      86.67230199      80.13837188
O      73.43305001      87.91763162      78.05778321
O      73.38580686      84.33660026      80.07979036
C      76.85912382      91.21520403      80.97363091
O      76.50385527      93.42240437      81.57456387
N      77.71705956      90.61616079      78.56989904
H      77.50729994      88.74722148      78.24675584
C      78.08933565      92.25833297      76.39104460
H      79.69371329      93.49799343      76.75954123
C      78.65814328      90.56324847      74.10069631
H      77.09722933      89.78468122      73.00654477
C      80.50629560      92.12983157      72.40750153
H      79.52363793      93.93074075      72.21663917
H      80.91258677      91.47220682      70.49887795
H      82.17114448      92.63438849      73.51110170
O      80.38157367      88.65840434      74.87926355
H      81.07132377      87.70409255      73.49976334
C      75.73851612      93.80223937      75.64838216
O      75.94260656      96.04912395      75.06445673
N      73.47273427      92.65328577      75.97341508
H      73.28376163      90.90906838      76.72741588
C      71.07278186      93.92318185      75.68617668
H      71.20317296      95.06457654      73.97597437
C      69.04699524      91.89928497      74.95107315
H      67.83946013      91.60259794      76.59513504
H      69.92004880      90.12672169      74.37281690
C      67.47852240      93.08225364      72.80623378
H      66.96451684      95.00032585      73.35236469
H      65.60580362      92.24888433      72.61726115
C      68.54054859      93.04067966      70.07557926
O      67.41616143      91.71031233      68.49198861
O      70.55688656      94.32569355      69.55779425
C      70.18272075      95.43874235      77.94628935
O      68.20795676      96.62738020      78.14282089
N      71.63403056      95.26677726      80.02687802
H      73.34234315      94.43529768      79.85113348
C      71.37324833      96.91839805      82.30210851
H      70.38681121      98.62482092      81.70873444
H      73.18171641      97.28311523      83.21673604
C      69.74808370      95.77889309      84.51119857
O      69.11880484      97.11303987      86.24785705
N      69.14148156      93.32413861      84.39025608
H      69.40415351      92.45108504      82.71406884
C      68.15882387      92.01266854      86.63336121
H      66.36736333      92.91028855      87.10957225
C      67.56922926      89.18185852      86.34612281
H      66.33712771      88.91918657      87.97506690
H      69.24352679      88.09526589      86.86390782
C      66.51476198      88.11038371      83.87247107
C      67.48041213      85.75200527      83.12224972
H      68.88636850      84.80336266      84.25797524
C      66.73963941      84.89029007      80.70528977
H      67.78843752      83.30103023      79.96829651
C      65.06156246      86.20553958      79.04233062
O      64.51354183      85.27768397      76.68584190
H      63.29277862      85.98066216      75.54444721
C      64.09024313      88.52990295      79.79255196
H      62.89782582      89.60893667      78.53777369
C      65.16171795      89.54468598      82.05266463
H      64.67605828      91.43063283      82.65926678
C      69.89737209      92.19597200      88.80654647
O      72.16504366      91.99188156      88.58544850
N      68.82211781      92.39439325      91.05910024
H      66.93617095      92.55879945      91.30476466
C      70.36980366      91.73487877      93.30976428
H      72.33511903      92.24321516      92.96772382
C      69.43816859      93.33169751      95.53775160
H      69.94461524      92.34526038      97.27252036
H      67.38781554      93.50933179      95.60011257
C      70.54365848      95.97164516      95.61900983
C      69.03754661      98.05034412      94.81398642
H      67.10624633      97.88026875      94.17903838
C      70.20161803     100.47297325      95.05965084
H      69.12825347     102.12459405      94.52296857
C      72.86235267     100.79800617      95.56798722
O      74.09634395     103.05433939      95.70215779
H      73.04376639     104.51698756      95.50184680
C      74.33822892      98.67962298      96.08577223
H      76.36023608      98.91772848      96.21427362
C      73.11368627      96.26077330      96.29742158
H      74.30988302      94.62616003      96.56198326
C      70.36791393      88.90595848      94.04675754
O      68.37992185      87.76456380      93.99384520
N      72.72062320      88.08203782      94.44548979
H      74.22862480      89.25366813      94.47950487
C      73.42549111      85.37783946      94.39446718
H      71.79087785      84.21754750      94.86878849
C      74.62546733      84.51801398      91.83010858
H      76.56999570      85.17563875      91.64302567
C      74.71050501      81.64751972      91.40680988
H      72.77542526      81.03146894      91.75829898
H      76.12024083      80.81037095      92.65213952
H      75.01853039      81.14296279      89.43393561
O      73.10612736      85.36083192      89.77597607
H      73.94894530      86.91040750      89.35078765
C      75.41537292      84.90729760      96.50340175
O      76.68148955      86.59104376      97.41236010
N      75.47017498      82.51868355      97.33677105
H      74.18327136      81.28469227      96.65269013
C      77.17470812      81.81192590      99.41547000
H      78.91703578      82.89473908      99.21893846
C      76.06543877      82.35049790     102.10832999
H      75.05821464      84.13628927     102.28029509
C      74.04532134      80.28124759     102.71493214
H      73.16659860      80.55147846     104.55741529
H      74.89569819      78.42931581     103.02295753
H      72.66960058      80.09983387     101.19181273
C      78.13657881      82.47899930     104.05663782
H      79.84678112      83.35961176     103.32342401
H      78.71861451      80.52880174     104.37789129
C      77.53753556      83.54291520     106.75705672
H      76.11268192      85.01690174     106.56430464
H      79.17592828      84.59927221     107.42035066
H      76.74762997      82.13128966     108.03073226
C      78.24618293      79.09072002      99.18492339
O      76.93660260      77.55437253      97.91691703
N      80.33999970      78.45388225     100.40946604
H      81.24517859      79.77858040     101.44314633
C      81.29809093      75.81960376     100.64001265
H      79.93937771      74.74623922     101.75306144
H      83.13679464      75.74779417     101.56597854
C      81.69493345      74.63096592      98.02841088
O      82.97427817      75.70622019      96.48639421
N      80.71416550      72.30849228      97.79975400
H      79.56710164      71.64897780      99.17736448
C      80.82943880      70.95922769      95.33744061
H      82.46783152      71.78881755      94.40202609
C      81.23572996      68.03771081      95.73239341
H      79.42537215      67.22323877      96.28041404
C      81.90847254      66.93033119      93.13779918
H      80.22283667      66.97379489      91.95483051
H      82.55097947      64.97446446      93.17181426
H      83.25773711      68.15676357      92.17781822
C      83.28986246      67.56905869      97.72605467
H      82.90057884      68.58195199      99.47405151
H      85.18525795      68.06227725      97.08165800
C      83.44104058      64.88942678      98.51973972
H      82.43759590      64.64943152     100.30364136
H      85.28730317      64.02204239      98.80130894
H      82.37523493      63.91432799      97.05142238
C      78.50318572      71.67732369      93.89557944
O      76.59645186      70.35829473      93.85967464
N      78.63357683      73.86751648      92.60678609
H      80.10378391      75.08261051      92.65591897
C      76.56621624      74.78970293      90.97028310
H      76.50196555      73.54059383      89.33566984
H      77.01030192      76.72289294      90.40903439
C      73.73918568      74.89552760      92.13246479
O      71.86268745      75.01269063      90.74162622
N      73.57666921      75.11851531      94.57588091
H      75.08656054      75.63252087      95.62467901
C      71.16348871      75.15819955      95.74940095
H      69.86902619      73.97145144      94.67603640
C      71.24285722      74.45333165      98.55942398
H      72.16315393      75.88007501      99.72349538
H      72.35779574      72.72423206      98.67091783
C      68.50842325      73.89586238      99.20004120
N      67.24986552      71.70377986      98.68414591
H      67.95284372      70.09940221      97.92636566
C      64.87825899      72.09306348      99.52129467
H      63.27010191      70.83639548      99.45326452
N      64.68928637      74.36451451     100.53796743
H      63.04522447      74.93332213     101.32031412
C      66.88514834      75.55126263     100.24317012
H      67.21962990      77.50523964     100.72316060
C      69.85957756      77.75279379      95.52452352
O      70.85546333      79.59905640      96.63568259
N      67.67694366      77.89452325      94.22250209
H      66.93806068      76.24479219      93.61589994
C      66.13492700      80.28691677      93.78408558
H      67.08356960      81.65696834      92.57466074
C      63.86158624      79.43276048      92.21750247
H      62.49531411      78.40285963      93.36645607
H      64.30567192      78.32727059      90.53753578
C      62.06067706      81.67019644      91.34822837
H      61.21030022      82.56025752      92.99795944
C      63.27577109      83.84905086      89.71739456
H      64.42661442      83.01001238      88.22829022
H      64.70818363      84.82603938      90.83044336
H      61.87170443      85.21721272      89.09189515
C      60.05189800      80.56281682      89.50952466
H      58.61570599      81.98956018      89.13346913
H      59.12404238      78.92064464      90.33911451
H      60.73597892      79.94487631      87.66893123
C      65.25431454      81.53224642      96.25962705
O      64.32078974      80.28313732      97.92825539
N      65.46407416      83.97377280      96.43915105
H      66.09524274      85.01312228      94.96894398
C      64.23953151      85.51767921      98.46493766
H      63.53655332      84.29880574      99.97104953
C      66.30311263      87.22977125      99.91057829
H      65.54155293      88.06692001     101.63022923
H      66.75664695      88.84359751      98.71249181
C      68.86936097      86.01278749     100.79119075
H      69.95973306      85.45720797      99.13201105
C      70.38303174      88.13683988     102.01006422
H      72.37102384      87.81369668     102.44092182
H      69.63470012      88.82281053     103.80152477
H      70.42649545      89.57114214     100.53040852
C      68.66338081      84.09849474     102.96437601
H      68.31567116      82.46577120     101.75684090
H      67.05900316      84.64462565     104.13411660
H      70.42460572      83.99078035     104.02640220
C      62.10225105      87.09560068      97.35755804
O      60.03300074      86.90851778      98.37423080
N      62.49720385      88.58659474      95.42058857
H      64.28299521      88.46754198      94.75729463
C      60.55456519      90.13428058      94.12234659
H      58.79522999      89.10249003      93.82565956
C      59.80245412      92.56068918      95.70782697