 %block lattice_cart
   137.614   0.000   0.000
   0.000 142.646   0.000
   0.000   0.000   160.855
 %endblock lattice_cart

 %block positions_abs
N      88.20220602      39.23733693      79.71318346
H      90.07303507      38.99167251      80.00042186
H      87.47277166      38.48711558      78.12014417
H      87.45009495      38.22633335      81.14748573
C      87.38395452      41.87350514      79.81900813
H      88.26267726      42.54246825      81.55944606
C      88.29669233      43.36071974      77.64204342
H      87.74867170      42.41963604      75.89404658
H      90.34515566      43.16229848      77.72708110
C      87.75812033      46.09137427      77.86503112
H      88.02835120      46.90206686      79.74152935
H      85.84193785      46.42207637      77.19039883
S      89.81792202      47.95275469      76.14726990
C      88.90518421      50.90072773      77.41149681
H      89.57792677      52.36526563      76.13215209
H      89.55902951      50.90072773      79.36358409
H      86.84727225      50.87049211      77.45496051
C      84.53613697      42.12294901      80.34624177
O      83.13207032      40.36928299      80.00987049
N      83.74434165      44.08826438      81.61613785
H      85.06337061      45.43185978      81.92038379
C      81.11195289      44.66463090      82.36824893
H      79.78725475      43.62528143      81.18150080
C      80.87951656      43.49300059      84.97607124
H      81.34249950      41.48611124      84.92504863
H      78.91609092      43.70464993      85.56188639
C      82.34972363      44.68163844      87.12280033
O      82.21933251      46.94553056      87.47806888
N      83.76512864      43.18119575      88.46072656
H      84.77991167      43.88795339      89.91392609
H      84.40574586      41.66752497      87.48940723
C      80.56960144      47.41418269      82.22840918
O      82.02658043      48.95430963      81.36858371
N      78.22256136      48.10015334      82.92382846
H      76.92620911      46.87939014      83.61168884
C      77.29092629      50.74388045      82.90871065
H      77.64430511      51.50355043      81.02654324
C      74.32972515      50.98009624      83.36980387
H      73.26202979      49.92940841      81.95439886
C      73.46423050      49.84815018      85.98707482
H      74.31649707      47.97165195      86.03053852
H      71.41198773      49.67429536      85.98707482
H      74.08028128      51.20875312      87.40625928
C      73.47178941      53.63327198      83.21673604
H      74.48846216      54.77466668      84.59812598
H      71.47245897      53.32146714      83.60035048
C      73.75524836      54.75954886      80.55222194
H      75.75079934      55.20930373      80.31033697
H      72.72156806      56.52077379      80.28199108
H      73.33005993      53.29690070      79.16705255
C      78.70633130      52.53912045      84.79276779
O      79.26758001      54.67451118      84.05388480
N      79.25813138      51.67173607      87.15114622
H      78.92931900      49.85003990      87.62168808
C      80.82471449      53.11170752      89.00685746
H      80.04236780      55.01655164      89.02386500
C      80.72266927      52.00621763      91.68082020
H      81.49745706      53.44051990      92.93937792
H      81.94721192      50.35081738      91.67704074
C      78.20933327      51.26355519      92.79008954
C      77.28336738      48.75588837      92.63135253
H      78.31137850      47.48977174      91.40492015
C      75.02892389      48.11149170      93.83888765
H      74.40720393      46.17830168      94.05809590
C      73.55115791      49.91240087      95.15980634
H      71.81449943      49.40028504      96.10089004
C      74.27870254      52.47864921      95.20893922
H      73.15053593      53.87704668      96.17647910
C      76.68810359      53.14950205      93.99951438
H      77.47800919      55.01844137      94.21683291
C      83.55725874      53.59358773      88.02608951
O      84.53424724      55.71764011      88.12813473
N      84.80825756      51.62071346      87.13413869
H      83.82182042      49.98610020      87.21728665
C      87.15340791      51.78322992      85.49763570
H      88.79746981      52.52967182      86.48974201
C      88.01134366      49.14328226      84.51308829
H      89.68564117      49.40784395      83.33956825
H      86.33137697      48.38739174      83.59090185
C      88.74644720      47.15151073      86.54076463
H      87.11183394      47.12316483      87.79554290
H      90.30736113      47.86960673      87.67837987
C      89.58926513      44.59282130      85.49196652
O      88.69164513      42.51034290      86.19116526
O      91.05569275      44.67974871      83.70050598
C      87.07025996      53.58980828      83.19783878
O      88.76345473      55.13371467      83.00319697
N      85.03880417      53.57091101      81.61235840
H      83.62528889      52.30857384      81.84668446
C      84.64196164      55.53622638      79.68483756
H      86.34082560      55.45118870      78.52454561
C      82.30814965      54.76899750      78.14282089
H      80.55637336      54.73498242      79.22374434
H      82.47444556      52.77344651      77.66094068
C      82.09083112      56.40927994      75.67483833
H      83.65363478      55.87448739      74.44462650
H      82.15130236      58.39538229      76.20963087
S      79.03325395      55.62504352      73.95518738
C      80.07449315      56.27510937      70.75210128
H      81.81871053      55.38882773      70.11148406
H      80.13874384      58.28766789      70.31746423
H      78.71200047      55.50599076      69.41417505
C      84.29047255      58.23475555      80.69206169
O      85.90240910      59.88826608      80.13837188
N      82.41586405      58.61837000      82.38525646
H      81.38596321      57.15761156      83.05421958
C      81.71477559      61.13170599      83.47373882
H      81.50690569      62.35435892      81.82778720
C      79.15041698      60.90304911      85.00630686
H      79.02380532      62.44506578      86.36502008
H      79.32994098      59.17961871      86.11935566
C      76.87518650      60.76509909      83.16571343
H      77.20399888      59.26465640      81.79188240
C      74.35051214      60.23786545      84.59623625
H      72.99368865      59.52921808      83.21673604
H      73.78359425      62.01042873      85.48440762
H      74.59995602      58.62403917      85.84912479
C      76.45377753      63.28788372      81.96951667
H      78.02980928      63.65449062      80.69584114
H      76.14008296      64.66360447      83.47184909
H      74.70956014      63.17261041      80.88292404
C      83.69898821      62.51687538      85.00630686
O      84.01457251      64.88659218      84.79276779
N      85.49989739      61.05611694      86.27431321
H      85.51123575      59.14749336      86.28565157
C      87.82804021      62.21451917      87.34011886
H      87.28379903      63.98708245      88.23773885
C      89.03935477      60.29455724      89.20149927
H      90.86672012      60.96541008      89.87802129
H      89.40407195      58.54467067      88.18104706
C      87.36316753      60.06212090      91.53153182
H      85.54525082      59.20796461      91.07232832
H      86.99656063      61.93294995      92.31009906
C      88.86549995      58.32735214      93.40236087
H      90.16563166      59.45551875      94.53052748
H      89.82548092      56.91194714      92.25529700
N      87.15718737      57.06312524      95.22594676
H      86.91908185      55.17150920      95.17303442
C      85.98933651      58.10247471      97.14401897
N      86.38995848      60.51565521      97.66747316
H      86.16130160      61.09580119      99.47216178
H      87.97165941      61.29989163      96.94748743
N      84.58526985      56.83446836      98.67658701
H      84.19976569      57.44862941     100.44348111
H      84.49456299      54.93907286      98.47627602
C      89.91807751      63.05166793      85.58645284
O      91.46198391      64.50297774      86.47273448
N      90.02579191      62.11625340      83.32634017
H      88.81825680      60.72730456      82.82178324
C      91.81347300      63.04410902      81.38181179
H      93.51989586      63.73763858      82.30588796
C      92.93030125      60.82746006      79.61869714
H      91.28434963      59.94117842      78.75131276
C      94.93152142      61.96129584      77.69684548
H      96.60770866      62.63403841      78.68328262
H      93.97531990      63.47118717      76.67450354
H      95.76489072      60.47030178      76.54411243
C      94.07547540      58.58246520      81.14748573
H      93.24399582      58.19507130      82.99185861
H      95.91984828      59.20985433      81.82400775
C      94.18318980      56.06534975      79.63759440
H      92.28590458      55.63638187      78.95918266
H      95.05813308      54.57057623      80.75253293
H      95.34915093      56.47919981      77.99164279
C      90.60026871      65.10013125      79.81333895
O      91.54891132      67.22229390      79.54310809
N      88.11716833      64.75809079      79.18594981
H      87.42174905      63.03088094      79.61491769
C      86.60349756      66.41349105      77.58535163
H      87.82237103      66.80088493      75.97152536
C      84.32637735      64.94706342      76.82568165
H      82.99223057      65.17005112      78.38092641
H      84.74022741      62.96663024      76.44206721
C      83.27002034      65.85224232      74.35391963
O      84.40196640      65.37225184      72.43206797
O      81.20077003      66.83678973      74.44084704
C      85.74934126      69.00052636      78.75698194
O      85.75501044      70.90726022      77.48330641
N      85.12951103      69.22162435      81.16827272
H      85.07470897      67.65126177      82.25297562
C      84.49834244      71.48740620      82.52887566
H      84.17330952      72.92737765      81.09079394
C      82.02280097      71.03576161      84.00853137
H      82.26846540      69.39736889      85.23307402
H      80.49023293      70.58978619      82.70650994
C      81.24612346      73.22595440      85.70739532
H      82.56515243      73.41870649      87.27775789
H      79.45466292      72.67793377      86.55966189
C      80.76991243      75.65614243      84.29388004
O      79.24679302      75.56354584      82.45328661
O      81.61462009      77.71972357      85.15559524
C      86.59971810      72.38313647      84.30899785
O      87.19498189      74.55254228      84.15404029
N      87.64095730      70.64458826      85.79621246
H      86.85294143      68.90604004      85.72251313
C      89.50044799      71.12079929      87.85601414
H      91.23710648      71.79354186      86.97351195
H      90.11649877      69.30288257      88.60623549
C      88.55936429      72.59856526      90.21061312
O      86.57326194      73.90436614      90.26541519
N      89.87461380      72.33022413      92.45749771
H      91.31269553      71.07544585      92.39513674
C      89.17730480      73.27886674      94.87067821
H      87.12884147      73.45650101      94.99917960
C      90.24500016      71.52520071      96.93047989
H      92.30291212      71.59323087      96.88890592
H      89.85571654      69.52587027      96.63001341
C      89.41541031      72.30754741      99.64412688
H      89.80280421      74.29364976     100.03718995
C      86.56192358      71.97117612     100.02585159
H      85.73800291      73.81743873      99.62900907
H      86.18775777      71.99574258     102.05163820
H      85.85705566      70.42349028      98.86555964
C      90.86672012      70.62569099     101.42802852
H      90.05413780      68.77753866     101.84565803
H      90.79113107      71.59890004     103.24216578
H      92.84526357      70.32333478     100.93858940
C      90.14295494      76.02652879      95.25807211
O      92.42196487      76.41959187      95.13146044
N      88.41007591      77.76129755      95.65869409
H      86.59215920      77.18115158      95.69459889
C      89.00911915      80.24061847      96.81520659
H      91.00089069      80.46360617      97.29330735
C      88.26834644      82.42325236      94.95760562
H      88.33637659      84.22605126      95.94971194
H      86.34082560      82.39868592      94.22817127
C      90.03524054      82.31175852      92.65780870
H      89.65918501      80.52596715      91.70727636
H      91.99299700      82.16058040      93.27385948
C      89.50422745      84.54352528      90.92303994
H      91.18230441      85.64901518      90.47328508
H      88.32314850      85.83987753      92.00585312
N      88.18141903      83.47771965      88.80276702
H      87.63906758      81.65413376      88.94827595
C      87.10238530      84.82320479      87.01886538
N      87.42930796      87.30441543      87.04343182
H      87.17986408      88.46659711      85.55432749
H      87.88284227      88.30786011      88.60245603
N      86.04413857      83.84243682      84.92882808
H      85.00856855      85.19170141      84.06144370
H      85.60950152      81.99050504      84.78898833
C      87.56158880      80.52974660      99.24539463
O      85.29391722      80.50140071      99.18114393
N      88.69353486      81.24406314     101.35432919
H      90.58137145      81.47272004     101.22015862
C      87.48977920      81.24973232     103.81097340
H      86.08004337      79.75117936     103.79585559
C      89.53257334      80.55620276     105.70069971
H      88.86549995      80.88312543     107.62255137
H      91.21820921      81.70137691     105.40590241
C      90.16563166      77.73673110     105.42290994
H      90.76467490      77.52697148     103.46137403
C      92.41251624      77.10178307     106.98760333
H      93.90540003      78.46238601     106.58509163
H      93.01533894      75.14213688     106.77595398
H      91.68119216      77.12068034     108.91323444
C      87.91307789      75.89046851     105.85565727
H      88.61605608      73.99318328     106.24305116
H      86.59782838      75.88479932     104.27206662
H      86.90774349      76.48006312     107.55263150
C      86.03657966      83.77062722     104.32497896
O      84.22622186      83.64779501     105.74416342
N      86.78869074      85.76239877     102.94547875
H      87.96032105      85.42602747     101.47716140
C      85.94776253      88.54029644     103.12122330
H      85.15596720      88.91635197     104.98827289
C      88.44031153      90.09932065     102.94925820
H      89.56469869      89.61933017     101.29196822
H      89.73099461      89.75161101     104.51584131
C      87.93197516      92.97926355     102.84532325
H      87.00222981      93.52161501     104.60087900
H      86.76034484      93.43657731     101.21448945
C      90.41885498      94.41923500     102.78107256
H      91.25600374      93.79940477     101.00472982
H      91.64528736      94.06018700     104.39678856
C      90.05224808      97.31429571     102.81319791
H      88.81258762      97.84530881     101.25795315
H      91.82859081      98.22514380     102.30297180
N      88.98077326      98.20435681     105.42668940
H      88.75400610     100.09408311     105.56274969
H      90.31114058      97.83586017     106.74571836
H      87.29891684      97.36153888     105.74605314
C      84.15441226      89.22059791     101.11055450
O      84.60227739      88.21904296      99.04886309
N      82.11350784      90.71915087     101.62456006
H      82.01335234      91.27095096     103.44814595
C      80.06504451      91.42401879      99.77451800
H      79.08049711      89.63444798      99.50239741
C      78.06571408      93.37421635     100.84221336
H      79.02569504      95.18457416     101.04819353
C      75.86040347      93.67657256      98.92414115
H      74.35807105      94.83119533      99.72916456
H      74.95522456      91.83219967      98.75217606
H      76.52747686      94.37955074      97.10622444
C      76.60495564      92.66934843     103.33665210
H      77.96933803      91.85109694     104.64434270
H      75.06671842      91.38244481     102.86044106
C      75.44466368      94.98237345     104.82953588
H      74.08406073      94.19057811     106.15801348
H      74.42232174      96.22770309     103.54830144
H      76.86006869      96.13888594     105.78006822
C      81.14596797      92.16101205      97.11189362
O      82.92231070      93.57452733      96.88323674
N      80.15953083      91.08008860      95.02563577
H      78.76113336      89.79318498      95.19760086
C      80.87762683      92.06085656      92.47828470
H      81.64863516      93.97136986      92.49340251
C      82.92797988      90.16168161      91.68459965
H      84.52668834      90.08609257      92.98095190
H      83.54969984      90.84954200      89.84589595
C      82.00768316      87.52551342      91.25374205
C      81.34627895      86.90001401      88.78009031
H      81.36517622      88.31919846      87.31366269
C      80.73589736      84.39612664      88.20750323
H      80.11795685      84.02574028      86.29698993
C      81.03258439      82.49884141      90.10856790
O      80.63952131      80.02329994      89.63802605
H      80.64519049      79.72094373      87.84845523
C      81.66375297      83.16780453      92.63135253
H      81.68453996      81.78641459      94.13179522
C      82.18342771      85.71515561      93.18126289
H      82.48389419      86.31986803      95.10689400
C      78.46255660      92.24604974      90.72083923
O      76.38007820      91.75472089      91.42381742
N      78.91420119      93.37421635      88.43238066
H      80.79258914      93.59720405      88.16026008
C      77.04715159      94.33419731      86.60879477
H      75.17821227      93.87121437      87.34389831
C      77.09250502      97.24248611      86.48029338
H      75.80560140      97.64688754      84.92315890
H      79.01246696      97.82641154      86.01731044
C      76.49346178      98.54261781      88.98040130
H      77.96366885      98.03050199      90.32966588
H      74.68877315      97.83208072      89.67582058
C      76.34039395     101.51137786      88.68371426
H      77.89941816     102.31640126      87.60279081
H      76.30826860     102.20112796      90.62257346
C      73.95366962     102.36742387      87.25508117
H      72.41732213     101.60208471      88.39269641
H      74.08972991     101.36397920      85.46173090
N      73.57950381     105.03949687      86.81477494
H      73.10518250     106.02782375      88.37379915
H      71.91654465     105.15288046      85.88313987
H      74.96656292     105.91255043      85.83589671
C      77.37218452      93.13044165      84.07656151
O      79.31293344      92.14211479      83.25453057
N      75.35206709      92.99627108      82.58745718
H      73.69288739      93.37043689      83.45673128
C      75.05726978      91.60732225      80.19128421
H      76.48023370      90.12199736      80.26687327
C      72.37007897      90.38844878      80.44639727
H      71.03026301      91.85865584      79.91538417
H      72.23212895      89.70625757      82.38525646
C      71.88819876      88.11699774      78.75698194
O      71.66899051      88.58376014      76.41939049
O      71.93733164      85.95704058      79.69239647
C      75.45978149      93.23059714      77.71574274
O      75.08939513      95.55118107      77.74786809
N      76.13063433      92.02495176      75.64838216
H      76.40842410      90.14278436      75.77121437
C      75.98701513      93.09453686      73.07268519
H      77.44966330      94.53261857      72.90072010
C      76.46889534      91.18213382      70.90327939
H      75.11018212      89.65712469      71.15083353
C      75.92654389      92.30085181      68.29545707
H      76.92053993      91.13678039      66.91784659
H      76.56149193      94.24915963      68.08191800
H      73.88752920      92.39155866      68.01577758
O      78.84806077      90.14845353      71.14327463
H      78.99167997      88.84076293      69.89416553
C      73.35084692      94.31718978      72.47742140
O      73.14864621      96.28817432      71.29445273
N      71.37797265      93.29106839      73.50921197
H      71.84662478      91.69613939      74.45029567
C      68.69078184      94.09042263      73.45440991
H      68.33551329      95.16378717      71.73286924
C      67.05616858      91.75283117      73.44118182
H      67.12986790      90.85332145      75.29122388
H      67.85930226      90.46781728      72.04656380
C      64.29527843      92.04573876      72.57190772
H      63.16711182      93.28917867      73.76810448
H      63.49214475      90.15034325      72.59647416
C      64.28205035      92.82052655      69.81479703
O      64.50503805      91.18780301      68.13483034
O      64.12331334      95.05040358      69.25921749
C      68.03882626      96.03117155      75.65594106
O      66.11886432      97.24059639      75.63326435
N      69.59218129      96.32218940      77.65716123
H      71.34206785      95.60031394      77.40771735
C      69.47312853      98.35175545      79.48263685
H      68.13709203      99.79739609      78.88170388
H      71.33639867      99.16244804      79.83034649
C      68.21835026      97.71869714      82.04321600
O      68.17677628      99.30417751      83.80633065
N      67.53426933      95.28661937      82.35502084
H      67.94811940      94.09987125      80.91882884
C      66.83885005      94.12443769      84.67182530
H      65.26470803      95.07119058      85.60723983
C      66.21146091      91.43346743      83.80633065
H      65.49147519      90.29585219      85.36346513
H      67.90087624      90.32419809      83.41326758
C      64.22535856      90.94969750      81.82400775
C      64.07607018      88.27384503      81.08701449
H      65.28738475      86.88111674      81.95817832
C      62.29027881      87.45181408      79.49019575
H      62.12587262      85.48460900      78.97241074
C      60.55173061      89.26973079      78.44895655
O      58.54484126      88.52706835      77.03355154
H      57.67178771      89.91601719      76.25687403
C      60.70857789      91.85865584      79.02532308
H      59.24215027      93.16067727      78.45462573
C      62.56617886      92.68257651      80.77898910
H      62.70979806      94.65545078      81.27598712
C      69.02337367      93.92979589      86.56722079
O      71.17577194      94.25482881      85.87180151
N      68.44889687      93.27595059      88.98040130
H      66.71412811      92.53517787      89.26386024
C      70.30460811      93.02272726      91.04965161
H      72.26992347      93.21358961      90.46950563
C      69.59407101      94.83119533      93.20393960
H      70.57483897      94.19813702      94.90091383
H      67.60418921      94.57797202      93.66881228
C      69.90587586      97.61854164      92.74851556
C      68.25047561      98.97347541      91.09311531
H      66.92388773      97.91333896      89.96305898
C      68.38653590     101.59263609      91.02508517
H      67.20734668     102.76048694      89.83644731
C      70.30649783     102.92678287      92.52930731
O      70.60696432     105.53649490      92.30442988
H      69.20856685     106.33962858      91.47484003
C      71.83339669     101.64176896      94.11667741
H      73.16187429     102.60930884      95.32799198
C      71.76158709      98.97914460      94.24328908
H      72.94455577      98.00971499      95.59444339
C      70.00225190      90.21270422      91.90569763
O      67.96512693      89.24516435      92.02475039
N      72.05827413      89.15067805      92.92048066
H      73.54737846      90.33742616      93.03764369
C      72.81038520      86.40490571      93.06221013
H      71.08506507      85.28807746      93.21149851
C      74.16909842      85.73027341      90.58288921
H      76.14008296      86.32175774      90.62446319
C      74.12563471      82.82387435      90.12746517
H      72.16220907      82.20026466      90.16336997
H      75.51458355      82.01885093      91.41814824
H      74.85128962      82.43837017      88.23773885
O      72.94266604      86.86977838      88.50607999
H      74.05382511      86.66001875      87.08500580
C      74.62641219      85.82853918      95.25618238
O      75.68087947      87.68425042      96.23884006
N      75.01758553      83.42858677      96.02341126
H      73.81571960      82.14735232      95.27696937
C      77.13407900      82.68592433      97.76384920
H      78.82916351      83.71015599      97.20071076
C      76.42732136      83.38134360     100.66268936
H      75.18199172      85.01784660     100.56064414
C      74.95900402      81.23272478     101.81164296
H      73.32817021      80.90769187     100.59654894
H      74.39019640      81.72216391     103.72971517
H      76.20244393      79.60756015     102.02518203
C      78.93120873      84.08621152     102.06864574
H      80.07827260      85.13500963     100.71560170
H      80.07449315      82.49128251     102.69225542
C      78.51168948      85.93436385     104.23616182
H      77.35139753      87.50094696     103.57286788
H      80.21811235      86.77151262     105.02984687
H      77.65186401      84.95548562     105.83109083
C      77.81815993      79.82298895      97.47094162
O      76.43488027      78.28664147      96.35978255
N      79.77024721      79.00662719      98.79186031
H      81.16486523      80.25006710      99.18681311
C      80.70944119      76.34967199      98.92225143
H      79.19010123      75.20260812      99.70459812
H      82.34972363      76.17014800     100.15624271
C      81.42753719      75.32921978      96.38056954
O      83.00545866      76.38368707      94.99540015
N      80.46566649      73.10501192      95.77018794
H      78.96900325      72.48707142      96.78119152
C      80.31259866      72.24896589      93.18504234
H      81.78280573      73.14091672      92.05309628
C      80.62062405      69.30099284      93.17937316
H      78.81404569      68.55833040      93.83321847
C      81.11573234      68.38069613      90.54320496
H      83.09427579      68.75297221      90.10856790
H      79.88741024      69.30099284      89.16937393
H      80.78125079      66.35301981      90.41092411
C      82.73333807      68.17660570      94.83099396
H      82.02280097      67.92338237      96.74717644
H      84.32637735      69.47862713      94.92548028
C      83.82559988      65.63114434      94.26218634
H      84.82904455      65.64248270      92.46505662
H      82.45743803      64.10424548      94.47761514
H      85.21832817      65.23241210      95.72672423
C      77.83516746      72.90848037      91.91514626
O      75.95111033      71.50819318      91.90947708
N      77.78414485      75.25552046      90.95894474
H      79.28458755      76.38935624      91.28208794
C      75.69221783      76.28353157      89.67771030
H      75.58639315      75.17237250      87.94672100
H      76.12496515      78.19971405      89.05410062
C      73.02014482      76.38935624      90.74729540
O      71.15309522      76.65958711      89.25819106
N      72.62708175      76.30053911      93.28519784
H      74.30137926      76.35156172      94.20171510
C      70.10240739      76.66903575      94.62501379
H      68.88353392      75.31410197      93.66314310
C      70.45389649      75.83566644      97.34055050
H      71.90898575      76.97895085      98.24383968
H      71.14364659      73.91192505      97.09110663
C      68.09551805      75.75251848      98.69170482
N      66.15098967      74.00074219      98.68225619
H      66.11319515      72.16581794      98.15691227
C      64.36897776      74.79820670     100.13734545
H      62.73436450      73.78909284     100.82331610
N      64.79227645      77.30209405     100.62489484
H      63.52615982      78.50207026     101.40346208
C      67.17333161      77.83688660      99.86144541
H      68.17488655      79.61133961      99.95026254
C      69.08951409      79.30898340      94.03919864
O      70.11752520      81.08910558      95.10311455
N      66.94845418      79.67559030      92.67859569
H      66.13587186      78.02774897      92.15892095
C      65.55005670      81.91113653      92.29498125
H      66.73113565      83.39457169      91.49184757
C      63.15766319      81.17225354      90.71139060
H      62.08051919      79.74362045      91.73373253
H      63.73969890      80.42392193      88.88213553
C      61.41344580      83.40213059      90.24462820
H      60.59330459      84.24494853      91.93593325
C      62.63609873      85.39012267      88.54765397
H      63.19356799      84.51895884      86.76564206
H      64.38787502      86.13656457      89.33189039
H      61.23014235      86.82631467      88.10167856
C      58.98892695      82.43459072      88.98607047
H      58.18957271      80.90391242      90.11234736
H      59.22703246      81.84877556      87.02453456
H      57.43179246      83.78007586      88.85756908
C      64.81873262      82.94292710      94.81587615
O      63.93056125      81.52941182      96.43726133
N      65.15132445      85.46004256      95.07098920
H      66.10374651      86.36333172      93.68393009
C      64.20646130      86.98505169      97.11756280
H      63.57907216      85.78885493      98.67091783
C      66.27571161      88.61966494      98.34777463
H      65.32139982      89.47382124      99.96349063
H      66.70467948      90.00294460      96.88323674
C      68.73046609      87.54819012      99.29830696
H      69.70178541      86.66568793      97.71282659
C      70.45389649      89.53051303     100.22805231
H      71.13797741      90.60765703      98.61044659
H      72.22268032      88.80107867     100.98772229
H      69.66966007      90.70970224     101.72282582
C      68.00481118      85.91357686     101.57353745
H      69.47312853      85.01028769     102.70170405
H      66.87286512      84.34510402     100.86489008
H      66.67066441      86.89245510     102.79996982
C      61.88209793      88.40045670      96.27285514
O      59.92056202      88.34376491      97.35944777
N      62.12587262      89.69491921      94.06754453
H      63.95323797      89.93869391      93.56676706
C      60.33252235      91.41268043      92.95827518
H      58.36531726      90.86465981      93.22850605
C      60.33819153      93.93168561      94.37179047