 %block lattice_cart
   137.614   0.000   0.000
   0.000 142.646   0.000
   0.000   0.000   160.855
 %endblock lattice_cart

 %block positions_abs
N      91.42135479      43.63567493      80.92260830
H      93.32241946      43.46559955      80.97741036
H      91.17002119      44.70714974      79.36547382
H      90.74483277      41.89523698      80.52954523
C      90.47460191      44.73738537      83.22618467
H      91.47048768      43.75472767      84.73985545
C      91.05663761      47.51906250      83.57389432
H      93.06163723      47.90078722      83.28665591
H      90.80152456      47.97259682      85.56755558
C      89.51084149      49.28406688      81.78432349
H      89.44659079      51.25883087      82.37202837
H      87.58898983      48.55085306      81.64637348
S      90.56341905      49.06674835      78.49808943
C      88.08220840      50.65789790      76.76521041
H      88.41857968      52.68368451      76.62159121
H      86.21137935      50.32341634      77.56078519
H      87.91591248      49.87933066      74.86414574
C      87.79119054      44.23660788      83.83845600
O      86.18303345      43.80952975      82.23407836
N      87.13734524      44.33865311      86.26486458
H      88.45070503      44.56731000      87.63113671
C      84.62589897      43.97582566      87.23429418
H      83.87000844      42.24483636      86.41415296
C      84.93014491      43.81141947      90.07644255
H      85.89201560      45.56130604      90.57722003
H      86.30019648      42.33176377      90.49407208
C      82.47539043      43.62244684      91.61656951
O      80.32110243      43.83598592      90.82477418
N      82.77963636      43.14812554      94.01085274
H      81.10533885      42.68136313      94.79697889
H      84.57676609      42.90813030      94.60611653
C      83.04797750      46.44758768      86.51430846
O      84.04575299      48.54896333      86.34990226
N      80.54220041      46.35310137      86.07778167
H      79.68615439      44.65045796      86.17982690
C      79.00018374      48.67935446      85.48440762
H      79.61812424      49.69035803      83.80066147
C      76.17882235      47.86866187      85.10268291
H      76.20716825      46.26050478      83.81766900
C      74.85034475      46.94080625      87.50830450
H      74.47428922      48.60943458      88.65347865
H      75.82733326      45.43469438      88.51930807
H      72.96061844      46.15090065      87.27019899
C      74.51397347      50.00405260      83.86113271
H      74.06232888      51.42701652      85.28031718
H      72.78676362      49.11588122      83.17138261
C      75.74985448      51.32875075      81.66905019
H      76.41125869      49.98515534      80.25742464
H      77.19549511      52.64777971      82.30966740
H      74.42515633      52.58730847      80.71473841
C      79.17214883      50.62577255      87.59145245
O      79.44804887      52.90478248      87.09634417
N      79.36490091      49.69791694      89.88558020
H      79.32521666      47.79874199      90.06321447
C      79.87512702      51.20780826      92.08144218
H      78.68459944      52.88777495      92.12490587
C      79.57277081      49.60343062      94.47194595
H      80.53464150      50.24782730      96.17458937
H      80.53086205      47.82519815      94.07321371
C      76.94227178      49.01194629      95.20704950
C      75.85378942      46.66679593      94.65146995
H      76.94038205      45.28162655      93.61778967
C      73.42927057      45.96759719      95.32799198
H      72.58456290      44.25172570      94.61556515
C      71.99496829      47.73449129      96.66780793
H      70.12224952      47.42646591      97.41991900
C      73.05888421      50.17223824      97.31031488
H      72.03843200      51.50827475      98.46493765
C      75.55332294      50.75049449      96.59788807
H      76.29031620      52.61187491      96.98906141
C      82.60389181      52.39833583      92.22128192
O      83.00451379      53.98948540      93.80298285
N      84.36700646      51.75960835      90.50730015
H      83.66024882      50.62766228      89.14291775
C      86.64223695      53.23359487      89.91959528
H      86.92947535      54.65277932      91.38224344
C      88.89857016      51.45536241      89.91203637
H      89.82075660      51.44024459      88.06955321
H      88.68314136      49.47492922      90.43738029
C      90.89412115      52.47203517      91.64869485
H      90.14767926      53.13721883      93.45149376
H      91.65568085      54.18979639      90.80587691
C      93.05596805      50.67868490      91.97183804
O      92.99549681      48.68880309      93.27574920
O      95.16679234      51.18891100      90.92492968
C      86.37200608      54.75671428      87.48373806
O      87.84788233      56.58974880      87.34767776
N      84.79975379      53.91767580      85.66015216
H      83.76985295      52.34731323      86.00786181
C      84.51629484      55.14788762      83.22996413
H      86.39657253      55.35953697      82.41360236
C      83.24261931      53.37154489      81.34401727
H      81.41336424      52.67234615      81.98652421
H      84.21771809      51.57063572      81.12480901
C      83.00640352      54.66411769      78.78532784
H      84.91124764      55.03828350      78.09746746
H      82.12012188      56.51415975      78.98563882
S      81.24517860      52.80084754      76.41939050
C      80.01874622      55.29717600      74.62415050
H      78.33688980      54.69813276      73.59613939
H      81.29242175      56.27983368      73.33913661
H      79.21939199      56.67856594      75.92239247
C      83.34277480      57.71791540      83.54932788
O      84.56164828      59.67567186      82.90115175
N      81.41714369      58.01649217      85.05732947
H      80.89557923      56.52171866      86.12313511
C      80.32488188      60.48447472      85.60535010
H      80.23795447      61.37831528      83.75152859
C      77.64713970      60.26715621      86.71084000
H      76.88935944      62.17766950      86.83556193
H      77.93626782      59.62275954      88.64591974
C      75.87646614      58.53238744      85.18205140
H      76.77408614      56.67667621      85.12913907
C      73.24974657      58.48325456      86.32911528
H      73.33856370      57.75382020      88.25474639
H      72.11402105      57.14721807      85.24630210
H      72.45039234      60.38053978      86.39903516
C      75.85378942      59.37709511      82.40982290
H      77.54698420      58.86497927      81.35724534
H      75.41726265      61.38776390      82.37580784
H      74.24941179      58.51915937      81.44039331
C      81.90847253      62.32128871      87.22106609
O      81.33588546      64.54927602      87.17571267
N      83.93803859      61.42366870      88.43427039
H      84.15913657      59.53772185      88.25663612
C      85.89579505      63.04694360      89.71172538
H      84.86967366      64.67210823      90.45060837
C      87.17325004      61.42555843      91.68082019
H      88.18236389      62.79561001      92.84300187
H      88.60944204      60.18589798      90.87768652
C      85.30431072      60.09330139      93.44204511
H      84.49172840      58.44923949      92.50285115
H      83.77741186      61.26115225      94.18092811
C      87.04096920      59.24292455      95.54531051
H      87.86866932      60.84352272      96.54308599
H      88.56786806      58.20924425      94.63068297
N      85.63123337      57.55539895      97.24984364
H      85.07943328      55.82440965      96.66402849
C      85.08888192      57.76515857      99.60255290
N      85.81264709      59.79283489     100.76473458
H      85.34210524      60.00259451     102.60154856
H      87.18269867      60.77927204      99.87089404
N      84.07976807      56.06818433     100.95370722
H      84.23850508      56.26093642     102.84721298
H      83.90024407      54.30695942     100.24128040
C      87.93292002      64.05605747      88.01475115
O      88.63400848      66.27837561      88.21884160
N      88.75873042      62.38742912      86.20628307
H      88.19370225      60.57896104      86.42927078
C      90.45759437      63.22646760      84.12947385
H      91.87677883      64.50392260      84.90615136
C      92.10732544      60.94556795      83.24508194
H      93.48304620      61.85074685      82.00920093
C      93.72493117      59.79283489      85.36157540
H      92.68369197      58.96135532      86.93382770
H      95.00805533      61.15910702      86.21762143
H      95.14789508      58.50404156      84.61324379
C      90.60499302      58.82151558      81.93361187
H      89.22171336      57.83318872      83.09579356
H      92.05630283      57.37587495      81.69739609
C      89.56186410      59.29583688      79.36169437
H      87.70426313      60.18589798      79.40326835
H      89.16691130      57.41366948      78.62848055
H      90.69758961      60.48258501      78.12014418
C      89.16880103      64.51148151      81.92416325
O      90.50861698      65.73035497      80.47663289
N      86.57231707      64.45856917      81.75408787
H      85.26273674      63.53260327      82.79154761
C      85.40635594      66.00625502      79.67538893
H      86.61578078      65.98357830      78.00865033
C      82.96293981      64.77604319      78.79855592
H      81.43037177      65.25603367      80.08734927
H      83.01963160      62.71813124      78.84768881
C      82.56042811      65.41666041      75.98097399
O      84.16858520      64.70423358      74.38037580
O      80.54031068      66.45978933      75.36303349
C      84.99628533      68.76525544      80.41616165
O      85.26651619      70.56049542      78.96485184
N      84.21582836      69.16398769      82.84634969
H      83.90402352      67.68244226      84.00853136
C      83.71316116      71.68677231      83.92349368
H      83.21616314      73.08328006      82.49486058
C      81.40013615      71.40520310      85.68849805
H      81.99162049      70.28270567      87.31177297
H      79.75796399      70.46978857      84.86835684
C      80.36456613      74.02247404      86.70517082
H      81.85744992      75.14875092      87.57066547
H      78.83010837      73.66909522      88.03364842
C      79.23639953      75.68732292      84.60757460
O      77.16336976      74.95221939      83.72318270
O      80.15291679      77.59972595      83.61735802
C      85.96571493      72.83950537      85.34645760
O      86.65546503      75.06182351      85.22173566
N      87.37545076      71.35984967      86.71084000
H      86.99939522      69.48713088      86.74107561
C      89.25005926      72.35762516      88.52119780
H      90.38956422      73.80515551      87.59901136
H      90.50294780      70.81749821      89.06543898
C      88.01039880      73.23445817      91.04776188
O      85.75595531      73.29492941      91.36523591
N      89.57887164      73.66909522      93.10378411
H      91.39867808      73.09083897      93.10378411
C      88.56597833      74.23034392      95.55286942
H      86.50806638      74.20955695      95.63034819
C      89.58454082      72.10062238      97.17803405
H      91.62166578      71.94188537      96.90024428
H      88.89479071      70.27136731      96.52607846
C      89.57131273      72.15920390      99.94648308
H      90.69569989      73.76358154     100.58143113
C      87.01451303      72.61651766     101.15968738
H      85.89957450      71.00269139     100.52851879
H      86.40035198      74.44388301     100.43214276
H      87.19592676      72.75068823     103.20626098
C      90.79585538      69.81783299     101.26173261
H      91.02262254      70.10885085     103.28751922
H      92.72904540      69.67799325     100.56820305
H      89.80752852      68.08117451     100.76473458
C      89.63556343      76.86651214      96.42970243
O      91.92402199      77.23311905      96.58843943
N      87.95370701      78.67875968      96.83788331
H      86.07531905      78.34049867      96.84166276
C      88.70770781      81.15619086      97.87345332
H      90.71837660      81.29603062      98.29486230
C      88.01039880      83.21221310      95.93837357
H      88.24283513      85.10760859      96.71316137
H      86.01862726      82.95143087      95.48105982
C      89.88878675      83.38039873      93.78219585
H      89.90957374      81.54547448      92.84300187
H      91.82008704      83.72810838      94.40391582
C      89.14801404      85.43075179      91.89435927
H      90.73538414      86.40396084      91.01563653
H      87.81197753      86.66096362      92.86378887
N      87.46048844      84.36872560      89.94038226
H      87.31120006      82.47144039      90.10478846
C      86.25862250      85.49311276      88.06388404
N      86.44948486      87.93652888      87.61223945
H      85.33454634      88.59226391      86.21006252
H      87.31308979      89.09682084      88.85756909
N      84.73550310      84.29880573      86.55210299
H      83.74717623      85.37406000      85.32189116
H      84.67503185      82.39585133      86.42171187
C      87.32253842      81.55303339     100.44726057
O      85.02652095      81.68531424     100.46237838
N      88.65857492      81.69098342     102.57887185
H      90.51239643      82.10105403     102.38989921
C      87.70048368      81.81759507     105.09598730
H      86.22649716      80.44943323     105.53629353
C      89.80185934      80.91619563     106.85154304
H      89.07431471      81.12406552     108.76772552
H      91.37033218      82.20120952     106.49438477
C      90.86577526      78.20254863     106.64178342
H      91.72938018      78.05326027     104.77662355
C      92.91423858      77.58460814     108.53339946
H      93.58509142      75.63819004     108.56930426
H      92.27551108      77.86995681     110.47225866
H      94.49027032      78.82426860     108.06474732
C      88.63211875      76.39408056     106.82886633
H      87.54174667      76.63218608     108.55985562
H      89.63556343      74.59506110     106.89689646
H      87.22427265      76.46022098     105.32842362
C      86.72727463      84.49344754     105.72715589
O      85.63312309      84.80525238     107.76995002
N      87.20159593      86.34726905     103.96971041
H      88.63400848      86.18286286     102.71871159
C      86.24161497      88.94375301     104.50828241
H      84.82432023      88.85871532     106.00116619
C      88.47149202      90.59159435     105.34732089
H      89.98894225      90.11160387     104.04152000
H      89.16124212      89.85649082     107.14067117
C      88.20693033      93.47153725     105.75550177
H      87.08632263      93.84759279     107.44302737
H      87.40001720      94.38238534     104.09443235
C      90.67869235      94.76977923     106.35265528
H      91.95803706      94.13294146     104.86922014
H      91.33064793      94.47498193     108.28206585
C      90.66168481      97.67806803     106.21281554
H      89.20281610      98.19963249     107.56963904
H      90.06453130      98.17506605     104.30419197
N      93.02951188      99.04434015     106.69469575
H      92.76683993     100.92461783     106.88933757
H      94.24271618      98.79489627     105.24338594
H      93.81374830      98.54923186     108.36143437
C      85.03030040      90.14939840     102.14234507
O      85.49706280      89.33492634      99.95404199
N      83.19726588      91.84448290     102.57887185
H      83.04230832      92.36793709     104.40812691
C      81.07510323      92.40951107     100.94425859
H      80.06032020      90.63316832     100.69481470
C      79.19671527      94.41451068     102.28974372
H      79.22128171      94.01010925     104.30986114
C      80.05087157      97.09603232     102.00628477
H      80.01118731      97.68751666     100.03341049
H      81.93870815      97.19051864     102.82642599
H      78.98695565      98.19774276     103.38578498
C      76.49440665      94.02711679     101.47905112
H      76.26763949      92.21297953     100.53040852
H      76.13346892      95.17796011      99.80853307
C      74.62924677      94.22364832     103.58042679
H      74.46673031      92.48887957     104.68213723
H      72.81133006      94.44663603     102.63934309
H      75.13758315      95.56535401     105.06008250
C      82.05020201      93.25610845      98.33643627
O      84.07031943      94.43340794      98.27785476
N      80.55731822      92.91217827      96.35033392
H      79.14002348      91.64417191      96.52418873
C      81.18092790      93.75310647      93.86912326
H      81.93114925      95.65795060      94.08455206
C      83.17269944      91.94463839      92.85811969
H      84.73550310      92.07880895      94.19226647
H      83.79063994      92.37171654      90.94004749
C      82.34499931      89.29146265      92.50096142
C      80.74440112      88.47510088      90.39769603
H      80.39858121      89.77901204      88.86701772
C      80.26063119      85.96554434      90.05187611
H      79.26852487      85.37217028      88.36812997
C      80.78219565      84.29313655      92.08711136
O      80.26630037      81.75712384      91.94916133
H      79.75796399      81.11839635      90.32966588
C      81.69115401      85.13028531      94.42848226
H      81.97461295      83.72432893      95.87790234
C      82.56609729      87.56047335      94.64013161
H      83.53363716      88.23510564      96.30309075
C      78.86412344      93.85326197      92.11545725
O      76.66259229      93.24665982      92.78442037
N      79.23262007      94.75466142      89.83266787
H      81.03163952      95.19685738      89.37724383
C      77.22384100      94.69985936      87.92971347
H      75.52308732      94.37482643      89.04276227
C      77.03864782      97.42484470      86.79209823
H      75.72906749      97.33035838      85.20472813
H      78.86979262      97.88026874      85.96817755
C      75.99362917      99.55267653      88.49096218
H      77.12746496      99.65283202      90.20872340
H      74.07933642      98.96875110      88.98040130
C      76.25441140     102.14538103      87.18705103
H      75.25096673     102.17561665      85.38803157
H      78.15547607     102.50820848      86.48029338
C      75.47017498     104.34502246      88.93693758
H      76.90825671     104.55667181      90.39769603
H      73.75241376     103.94817993      90.00463296
N      75.11490644     106.60702486      87.31744214
H      73.67871444     106.48797210      86.06833305
H      76.77219641     106.76009269      86.38391735
H      74.92593381     108.19439496      88.36246080
C      77.27297389      92.71753645      85.86046316
O      79.30253995      91.90306441      84.94961507
N      74.90892627      91.99755073      85.08378563
H      73.41982193      92.70808781      86.04376661
C      74.44972277      90.35348884      82.82745241
H      75.71205995      88.73966257      82.60635445
C      71.91937924      89.05902631      83.20917714
H      70.40759819      90.37427583      83.68160871
H      72.03087309      87.64929048      84.70773010
C      70.94617019      87.62472403      80.86591651
O      69.81800358      88.89650985      79.31445120
O      71.73796552      85.40429562      80.42183083
C      74.51397347      92.10904458      80.46529453
O      74.28342686      94.42773877      80.64103908
N      75.04120711      90.89017111      78.15982843
H      75.32844551      89.00422425      78.15226953
C      75.19238522      92.43407751      75.70696367
H      76.61912858      93.90806403      75.88459794
C      75.95016547      90.70119848      73.46007909
H      74.32878029      89.69019490      72.69473993
C      77.17092867      92.15439801      71.24909930
H      78.11957127      90.85804576      69.96030595
H      78.67137136      93.32035915      72.04467408
H      75.83111271      93.28067490      70.16061695
O      77.59800681      88.65462488      74.03833533
H      76.60779022      87.27890413      74.68273201
C      72.70361566      93.86271060      75.04366974
O      72.97006707      95.86015131      73.78889147
N      70.52098177      93.31091052      76.29655829
H      70.25075091      91.50433216      76.85024809
C      68.24197184      94.92662651      76.23041787
H      68.20039786      95.78456226      74.35769909
C      65.93650573      93.10682008      76.44395694
H      65.40360291      92.61738096      78.37147778
H      66.18405988      91.29457254      75.50287323
C      63.56867866      94.21797915      75.06445672
H      63.58001702      96.23620685      75.47830679
H      61.93784486      93.15217351      75.73341985
C      64.09591231      94.00066062      72.21096999
O      63.64804717      92.05424252      70.77666772
O      64.66283020      96.06046230      71.19996642
C      68.12858826      96.90705969      78.49053054
O      66.10469138      98.07869000      78.88548334
N      70.29799406      97.40405770      79.89270746
H      71.78898813      96.31557534      79.40515807
C      70.66838042      99.08402440      82.06589272
H      70.11847006     100.97375072      81.46118030
H      72.64314442      99.47330802      82.50052976
C      69.29265967      98.36592840      84.51308830
O      69.03943634      99.96274714      86.17226799
N      68.57645339      95.99999106      85.13291853
H      68.33834788      94.79434567      83.67404980
C      67.38970527      95.43118344      87.56877574
H      66.87569971      97.17540083      88.53820534
C      64.80455967      93.97609418      87.19838938
H      64.06567668      93.76444483      89.10890269
H      65.24675563      92.11282403      86.43871941
C      62.92050254      95.13638614      85.48062816
C      62.40460726      93.87782841      83.15626479
H      63.66694443      92.44163641      82.44194825
C      60.34669530      94.81891211      81.66527074
H      59.90260962      93.89672567      79.90026637
C      59.08057867      97.07713505      82.35691057
O      57.47998048      98.28089072      80.69584114
H      56.59558857      99.74164916      81.29866383
C      59.54167189      98.24687565      84.68316366
H      58.50043269      99.89093754      85.29921443
C      61.53533315      97.28311523      86.26297485
H      61.66761399      98.01821876      88.16214980
C      69.07534114      94.06680104      89.37346437
O      70.66082152      92.45864395      88.71394989
N      68.79566165      94.56190934      91.81121132
H      67.45962514      95.75810609      92.46316689
C      70.35846531      93.82680580      93.81243147
H      72.31244231      94.07813940      93.21527796
C      69.95406388      95.58425127      96.13868457
H      70.91782430      94.91339843      97.82998962
H      67.99063824      95.57102319      96.75473535
C      71.10112775      98.22041947      95.70782696
C      69.50619874     100.24998554      95.56042831
H      67.52009638     100.07424099      95.98939619
C      70.39059065     102.77465989      94.94815700
H      69.10746649     104.35825054      94.84422205
C      73.06833284     103.11481063      94.66280832
O      73.96973229     105.45240208      94.25840688
H      72.82077869     106.77332077      94.72705902
C      74.71239473     101.02288360      94.85178095
H      76.72117380     101.27988638      94.59288844
C      73.70517061      98.53789350      95.39791186
H      75.16214959      97.14327548      95.71160642
C      70.31689133      90.99599578      94.57021173
O      68.40070885      89.68641545      94.80831724
N      72.45984097      90.09270661      95.08988647
H      73.96973229      91.16229170      94.61934462
C      73.19872396      87.40551579      95.06909948
H      71.47151411      86.53813141      95.78152630
C      73.75619322      86.50411634      92.32521687
H      75.45127772      87.40929524      91.58255442
C      74.06610833      83.66385769      92.17025931
H      75.48907225      82.87395208      93.43448622
H      74.54987827      83.07237335      90.25974600
H      72.22929436      82.81915002      92.57277102
O      71.75308333      86.78379583      90.61879400
H      71.49419082      88.53179267      90.21061313
C      75.33222496      86.65718417      96.90402373
O      76.86857245      88.30124606      97.31787379
N      75.08467082      84.27801874      97.94526293
H      73.51619798      83.32559667      97.41991900
C      76.98951494      83.28213297      99.74428237
H      78.59767203      84.55958796      99.61200154
C      76.00307780      83.56937137     102.48627525
H      75.16214959      85.44775933     102.49005471
C      74.04154189      81.51523887     103.04563425
H      72.62424716      81.44909845     101.55275046
H      72.96817734      82.39207187     104.57064338
H      74.78798378      79.60661530     103.24972469
C      77.99673906      83.75834400     104.57631256
H      78.90380769      81.95365538     104.98071399
H      77.03864782      84.17597352     106.35265528
C      79.98662087      85.74633609     104.27206661
H      79.18348719      87.50567128     103.56341925
H      81.19793544      85.11516750     102.73004995
H      80.85778470      86.15829642     106.09376278
C      77.96272399      80.55336818      99.00728912
O      76.76085806      79.24000839      97.52385396
N      79.86000921      79.54236460     100.33198726
H      80.28897708      80.68375929     101.79841488
C      80.68392988      76.92509366     100.53985716
H      79.22317144      75.74968389     101.39779290
H      82.43759590      76.88351968     101.61889088
C      81.33021628      75.82527294      97.98116773
O      82.94971173      76.96288818      96.79441960
N      80.14346816      73.58027808      97.33488132
H      78.92459468      72.81871838      98.59154933
C      79.93937771      72.53336971      94.80264806
H      81.47383548      73.28359105      93.64991502
C      80.24929283      69.66476516      94.94059809
H      78.75073986      68.94288970      96.15191266
C      80.48739834      68.37408209      92.40269565
H      82.17681367      68.88430820      91.33689001
H      78.79042412      68.81438832      91.32366192
H      80.19638049      66.34262630      92.56332239
C      82.89301994      69.19989249      96.23128116
H      82.79664390      69.75925147      98.21171433
H      84.39913181      70.29971320      95.35255842
C      84.01740710      66.54293729      95.87034343
H      85.42903265      66.12152832      97.31031488
H      84.91124764      66.46545851      94.01841165
H      82.51129523      65.14076037      95.97805784
C      77.56021229      73.58783699      93.37212525
O      75.80654627      72.17432171      92.80520736
N      77.46761570      76.06715791      92.85622996
H      78.84333645      77.20666288      93.52519308
C      75.76308256      77.08194094      91.03264408
H      75.50796951      75.74023526      89.48873767
H      76.45472239      78.91497546      90.40147549
C      73.03242804      77.60350539      91.88491063
O      71.23529832      78.12884932      90.44115973
N      72.60723962      77.55059307      94.39068773
H      74.01508572      77.43720949      95.67192216
C      70.16949268      77.75279378      95.40547075
H      68.87503015      76.63029635      94.26218633
C      70.17516185      76.62462717      98.03408006
H      70.93294211      78.07215753      99.28696860
H      71.42238122      75.00513172      98.29486230
C      67.61458270      75.85550856      98.96382541
N      66.56767432      73.43098970      98.99217130
H      67.44261761      71.85117851      98.37989998
C      64.20551643      73.64452878      99.71782621
H      62.81656759      72.17054225      99.97671870
N      63.69151087      76.09550381     100.13356599
H      62.10603050      76.82115871     100.90457432
C      65.70973858      77.48445265      99.37956519
H      65.85524750      79.51401871      99.55719946
C      69.06400278      80.48344830      95.37712486
O      70.28665571      82.18609171      96.49773257
N      67.29332923      80.98233605      93.66125338
H      66.74152914      79.43465020      92.68993405
C      66.05177904      83.29914051      93.17559370
H      67.23474771      84.91296678      92.68993405
C      64.41338633      82.66797192      90.85689953
H      62.96585597      81.32626624      91.44271468
H      65.64170843      81.77035192      89.46795069
C      63.20774094      84.95454076      89.54920892
H      62.58413126      84.11550228      87.77286618
C      60.89282620      85.89373474      91.08744614
H      61.40116258      86.44553482      93.00551834
H      59.30545610      84.59360304      91.26319068
H      60.10292061      87.52267882      90.10289873
C      64.99164258      87.19008699      88.97284239
H      64.17717054      88.45809335      87.56688602
H      66.84924354      86.52679305      88.38702724
H      65.51887622      88.10660424      90.73973650
C      64.59480005      84.15896598      95.59822285
O      63.21529984      82.53947053      96.43537160
N      65.12014397      86.28868754      96.83410386
H      66.61869693      87.18441781      96.06309552
C      64.10725066      86.96143011      99.36066794
H      63.85402734      85.29091204     100.53985716
C      65.94784409      88.73210366     100.72882979
H      64.98030422      89.30280101     102.45414991
H      66.39948868      90.45175461      99.68759058
C      68.39126021      87.36583154     101.43558743
H      69.19439390      86.42474783      99.78963581
C      70.34712695      89.33303663     102.52595951
H      72.08756488      88.24266455     102.68280678
H      69.69139192      90.20231073     104.27206661
H      70.90459621      90.83725877     101.23338671
C      68.05488893      85.52523810     103.47838157
H      67.16482784      83.88873512     102.59776910
H      66.83790519      86.35104851     104.91835302
H      69.83123167      84.68997908     104.10010152
C      61.48053109      88.14061932      99.12256242
O      59.91394797      87.65495965     100.74772705
N      61.18384406      89.71854080      97.15913678
H      62.65405113      89.78090176      95.94215304
C      58.77066356      90.93174509      96.64135176
H      57.13416057      89.68263600      96.70371273
C      58.23776074      93.12193789      98.60477741