 %block lattice_cart
   137.614   0.000   0.000
   0.000 142.646   0.000
   0.000   0.000   160.855
 %endblock lattice_cart

 %block positions_abs
N      91.14356501      41.10060708      80.23758251
H      90.06642102      39.66819454      79.57617830
H      91.09065268      40.86817074      82.13297800
H      92.91801802      40.86817074      79.57428857
C      89.89634564      43.57236910      79.59129611
H      91.09821159      44.87250080      80.64576339
C      90.07964911      44.17897124      76.88709775
H      88.91368796      42.72010253      76.02160310
H      91.94291924      44.31314181      76.01593392
C      88.96660031      46.76222711      76.31451068
H      86.90679862      46.68852779      76.32584904
H      89.59209972      47.52378682      74.50604260
S      89.72816000      49.18863570      78.64265350
C      89.26706678      51.79456829      76.54127784
H      87.39434801      51.69441279      75.68523182
H      90.77884783      51.63205182      75.15043927
H      89.42013461      53.53122677      77.63542937
C      87.32064868      43.37583756      80.63631476
O      86.18303344      41.43697836      80.28671539
N      86.05642178      45.35438101      81.48291215
H      86.91813697      47.04946551      81.64731834
C      83.31064944      45.37138855      82.11974991
H      82.63979661      43.85960750      80.89142781
C      83.11978709      44.44731238      84.86363252
H      83.91914132      42.55002716      84.93166267
H      81.12612583      44.34526716      85.37574835
C      84.71282637      46.23310375      86.50391496
O      83.72827897      48.20030884      87.15587054
N      87.13356577      45.73232627      87.12185547
H      88.12000292      47.14962101      87.93065833
H      87.68914531      43.92385819      86.87052187
C      81.97650267      48.02267457      81.83062179
O      83.19537614      49.76311250      81.11441552
N      79.47639476      48.28156707      82.29549446
H      78.50696516      46.63939490      82.39942941
C      78.01941577      50.66451195      82.23124377
H      78.35578705      51.39961549      80.33584828
C      75.20183384      50.08058652      82.86619181
H      74.59334196      48.65573288      81.50936832
C      74.75963789      49.14895145      85.60440524
H      72.72251291      49.25288640      85.88597446
H      75.91048120      50.19585983      86.95366982
H      75.32655578      47.18930526      85.87841555
C      73.41415274      52.47486976      82.48257737
H      73.81477472      54.03767342      83.76381181
H      71.45639628      51.87204707      82.69044726
C      73.50296988      53.35548222      79.63664954
H      72.22173544      54.88616053      79.12831316
H      73.10423764      51.83614227      78.30628221
H      75.37568865      54.05279123      79.13776179
C      79.16270019      52.83391776      83.70334056
O      79.12301593      54.97308794      82.70367535
N      80.41180929      52.35770673      85.87085665
H      80.86723333      50.59459208      86.44533344
C      81.24139913      54.33247072      87.63208157
H      79.83733248      55.83669287      87.69444254
C      81.41903340      53.12682534      90.30793403
H      82.13523969      54.54789952      91.61373491
H      82.85333568      51.65283881      90.21911689
C      78.99262482      52.19330054      91.51168969
C      78.48239872      49.56091178      91.36618076
H      79.63513176      48.47998833      90.07360797
C      76.26763947      48.48376779      92.34127954
H      75.78953872      46.54301886      91.92742948
C      74.58578307      49.92940842      93.62440371
H      72.86613211      49.11682610      94.35950724
C      75.16592903      52.60148142      94.02880514
H      73.82989253      53.75988365      95.04736762
C      77.24462798      53.72208913      92.79292413
H      77.57155063      55.67795586      93.27291461
C      83.75473513      55.26599552      86.46989989
O      83.98906119      57.56390272      86.38108275
N      85.36478195      53.77500146      85.49858056
H      85.06242574      51.89472378      85.61196414
C      87.78552136      54.59892213      84.44978246
H      88.72282560      55.98787097      85.64975867
C      89.79052097      52.45975195      84.26458928
H      90.85254716      52.64872458      82.51092326
H      89.00628455      50.55868728      84.14553652
C      91.52340000      52.45786222      86.64753416
H      92.40590219      54.31924264      86.65698279
H      93.01250434      51.04056749      86.54170949
C      90.08909773      52.06857860      89.16275988
O      90.10043609      53.79956790      90.68965874
O      89.29541269      49.88594471      89.49157226
C      87.30931032      55.80834698      81.88920330
O      88.70392834      57.48642394      81.00481139
N      85.32509769      55.15450167      80.44167295
H      84.34244001      53.63138226      81.04449564
C      84.41613934      56.53400188      78.17211165
H      85.90524367      56.48864845      76.75103746
C      82.15224722      55.10914824      77.09685737
H      80.48550860      55.41528390      78.27037741
H      82.72105484      53.13060479      77.12709300
C      81.85178073      55.92173055      74.28683435
H      83.59977757      55.46630651      73.29661776
H      81.29998065      57.88137674      73.98069868
S      79.09467005      54.32113237      73.01126909
C      79.61812423      54.71230571      69.61354118
H      81.04486759      53.30068016      69.15244795
H      80.39102229      56.61337038      69.44913499
H      77.96272398      54.43262622      68.41923415
C      83.90591323      59.41583451      78.60296925
O      84.76762843      61.03344023      77.15354916
N      82.39224246      59.87125855      80.62875585
H      81.82154511      58.35569805      81.64164916
C      81.61556495      62.35435892      81.55850120
H      81.15258199      63.62614473      80.00325644
C      79.28931185      61.82712528      83.28382132
H      78.72428369      63.33512688      84.56505576
H      79.61434477      60.03755446      84.25325092
C      77.00274301      61.53421770      81.48480187
H      77.20116427      60.01865720      80.10530166
C      74.89569817      60.60636208      83.34996174
H      74.51208373      62.10302532      84.71245442
H      75.39647564      58.77521729      84.14553652
H      73.14581161      60.32479286      82.29738419
C      76.00685724      63.83401463      79.92199821
H      77.50729994      64.43116814      78.64454322
H      75.24340781      65.25130936      81.20890183
H      74.34389810      63.16694124      78.90721518
C      83.69237417      63.75086667      82.96067812
O      83.63379264      66.00342043      83.18744528
N      85.58399020      62.36002810      84.03971185
H      85.38745866      60.46085316      84.02837349
C      87.77229327      63.28977345      85.48535248
H      87.20915483      64.87336410      86.67210060
C      88.87400372      61.25075876      87.17098835
H      89.93414017      59.94684760      85.97857105
H      87.23561100      60.28132916      87.95900422
C      90.92813621      62.34302057      89.05693521
H      90.23649638      63.90015505      90.21155799
H      92.49660905      63.02143231      87.90987134
C      91.78985142      60.25298326      90.82760876
H      93.14667490      61.20918478      92.04459251
H      92.61755154      58.70718714      89.74857504
N      89.86611002      59.17772899      92.54536998
H      89.64312232      57.31823830      92.18065280
C      89.04029963      60.11314352      94.72989360
N      89.69603465      62.29010823      95.59538825
H      89.22549281      62.70206856      97.39818716
H      91.04718897      63.24442002      94.64296619
N      87.57198228      58.80545291      96.09049655
H      87.02963083      59.50654137      97.78180160
H      87.04285891      57.07257388      95.49145331
C      89.66390931      64.62203050      83.64664878
O      90.58798547      66.73663424      84.15687488
N      89.94169908      63.21985357      81.64353888
H      89.16880101      61.48319509      81.83440124
C      91.31553010      64.14204002      79.41177211
H      93.20147697      64.85635656      79.82184272
C      91.87866855      61.87436844      77.65432664
H      90.04941349      60.99186625      77.30661700
C      93.10132147      62.81734187      75.19201325
H      93.11832902      61.17516970      73.94857334
H      94.76994980      64.02298726      75.28083039
H      91.58387124      63.91527286      74.33407750
C      93.79485103      60.03755446      78.86753093
H      93.08620366      59.43284204      80.70623463
H      95.42001566      61.23564095      79.27760154
C      94.68680185      57.60547670      77.64865746
H      95.52773007      58.00231922      75.80806403
H      93.09565229      56.35258815      77.27827110
H      95.96425684      56.42817721      78.75792680
C      89.82264632      66.15081909      77.86975544
O      90.84876771      68.26731256      77.31039645
N      87.35466375      65.81255808      77.33496289
H      86.30019647      64.29699757      77.82062255
C      86.04319369      67.63425424      75.78916677
H      87.30175142      67.91015428      74.18100967
C      83.56765223      66.53443353      74.83107553
H      81.99728966      67.83834468      74.55139603
H      82.98183706      65.21540456      76.30128260
C      83.87567762      65.13036688      72.37065187
O      85.83721352      65.23619155      70.95713658
O      82.08421707      63.83401463      71.81129288
C      85.40257648      70.16081832      77.16110807
O      85.65957925      72.14314122      75.96491131
N      84.69959828      70.11924434      79.56672967
H      84.31787357      68.37691668      80.24703114
C      83.94748721      72.44360771      81.09551825
H      83.50718098      73.94594013      79.75570230
C      81.60611631      71.85590283      82.63564520
H      81.76863278      70.18160531      83.82239332
H      80.20771885      71.23607259      81.25614499
C      80.23795447      74.04042644      83.89231320
H      81.57021151      74.70372038      85.31716684
H      78.51830351      73.26185920      84.71434414
C      79.65213930      76.29864939      82.12541909
O      80.92959430      78.16758871      82.17077252
O      77.73028764      76.23250897      80.79883122
C      86.08098822      73.38469141      82.68099863
O      86.63656776      75.59000202      82.64320410
N      87.33954594      71.73307061      84.16254406
H      86.96349041      69.88680801      83.84695976
C      89.06108661      72.48896114      86.38486220
H      90.18358405      74.00074219      85.54582372
H      90.32720324      70.89970131      86.71934376
C      87.68158640      73.28453592      88.65253378
O      85.56320322      74.12546413      88.46734060
N      88.83620919      72.91792901      90.87485192
H      90.42735874      71.89180763      90.64052586
C      88.01984742      73.67192981      93.45999752
H      85.96571491      73.81743874      93.52991739
C      88.67747217      71.38347125      95.20799436
H      90.65979507      71.54976716      95.73900745
H      88.50739680      69.72051209      94.00045924
C      87.01073356      71.23418287      97.58149061
H      85.06620519      71.75196788      97.14307410
C      87.13545550      68.62825028      98.74367229
H      89.00061537      67.77409399      98.53958185
H      85.73516831      67.56244464      97.67408720
H      86.46460267      68.70950851     100.68820067
C      88.07087003      72.87824476      99.74711696
H      89.82075659      72.11668506     100.52190475
H      86.56286843      72.79509680     101.14740416
H      88.49227899      74.82277314      99.21043469
C      89.08376334      76.38368707      94.17998324
O      91.29285339      76.77863987      93.83038388
N      87.62489462      78.00318252      95.39885672
H      85.73327858      77.77263591      95.25901697
C      88.36755706      80.39557603      96.55347949
H      90.34799023      80.24250820      97.10150012
C      88.08598784      82.68592432      94.72044497
H      88.83054001      84.29786087      95.76735335
H      86.18492317      82.80875654      93.94187773
C      89.93980935      82.45726744      92.38096379
H      89.49194422      80.78863911      91.25846636
H      91.81063840      81.99995367      93.11417760
C      90.27240118      84.76840272      90.65375394
H      91.99772130      84.35833211      89.60117639
H      90.36877723      86.40301598      91.90097331
N      88.04630359      85.22004731      89.01347150
H      86.72727462      83.84054710      89.07394275
C      87.55875419      86.94158798      87.33161509
N      88.80597357      89.03918419      87.35807125
H      87.70237339      90.44514057      86.68721841
H      90.21570939      89.33587122      88.61095980
N      85.82965463      86.57498108      85.68188401
H      85.66713816      87.79007510      84.21923585
H      85.12100725      84.80808697      85.57983879
C      86.78585614      80.92091995      98.98555726
O      84.45771331      80.83399254      98.91941684
N      87.95559672      81.86956256     101.02835140
H      89.77729290      82.42514209     100.90929864
C      87.12033770      81.56342689     103.72499085
H      85.88634641      79.93826227     103.99711144
C      89.49572367      81.17792273     105.30858150
H      88.87589343      80.87367679     107.24933042
H      90.94892320      82.63868117     105.31803013
C      91.18135954      78.82143401     104.59237523
H      91.94669869      79.02741418     102.68942083
C      93.52650990      78.70805044     106.47643236
H      94.58286691      76.96572278     106.17785561
H      92.96904063      78.43970930     108.43985800
H      94.87577448      80.25384656     106.29123918
C      89.62422505      76.37612817     105.03646091
H      88.18236389      76.15880964     103.57948192
H      88.61511120      76.58399806     106.81847283
H      90.80908345      74.69238202     105.03079173
C      85.36667167      83.68936900     104.77567868
O      84.56353799      83.68558954     106.89973106
N      84.80920242      85.57153640     103.26389763
H      85.37234085      85.20870895     101.47621654
C      83.72827897      88.02062171     103.87049978
H      82.62467879      87.90156895     105.60526853
C      85.76162447      90.16735080     104.27112176
H      86.79341505      89.64011716     105.97376516
H      84.68070102      91.88700174     104.59993413
C      87.50773159      90.53962688     101.93730976
H      86.45137458      90.84198309     100.19498210
H      88.53574271      88.83887320     101.39306858
C      89.28974351      92.82619572     102.26045296
H      90.14578952      92.53517787     104.11049502
H      88.25039403      94.60442818     102.24722487
C      91.58387124      92.97548410     100.40852117
H      92.26228299      91.03662490     100.55969928
H      92.86888513      94.39277883     101.17197060
N      90.95837183      93.41956978      97.66841802
H      89.75839562      92.05707711      97.07693368
H      92.46448370      93.33642182      96.49678770
H      90.20626076      95.16000772      97.44732004
C      82.01996637      88.84076293     101.69920424
O      82.44326507      88.02251143      99.58082105
N      80.20393938      90.49616318     102.15651801
H      79.85056056      91.16890574     103.90640458
C      78.53531105      91.31630440     100.09293688
H      77.88902466      89.52484385      99.30492100
C      76.20905796      92.67501762     101.24944938
H      76.84589573      94.37955075     102.21320980
C      74.31555219      93.50838692      99.22177305
H      72.77542526      94.55151584     100.10616496
H      73.37446850      91.88889147      98.36572703
H      75.23206946      94.75182683      97.86117010
C      74.99774340      90.89867488     103.26389763
H      76.30732373      90.57931113     104.82103211
H      74.49885565      89.14500886     102.30769612
C      72.68471838      92.01172368     104.65851565
H      72.06488815      90.67568718     106.09848710
H      71.12758390      92.39722785     103.36405313
H      73.21573148      93.76727942     105.59770963
C      79.89402427      92.70903269      98.01801739
O      81.43793068      94.29640279      98.50934623
N      79.07766250      92.25738810      95.59160880
H      77.70950065      90.93268995      95.71066156
C      80.13024006      93.20792044      93.22567146
H      80.99573471      94.95213782      93.90030375
C      82.13712940      91.28417905      92.35450763
H      83.37490014      90.93457968      93.96266472
H      83.39001795      92.05896684      90.91453618
C      81.29053201      88.69525400      91.44176982
C      79.97150305      88.35699299      89.13441399
H      79.61245505      89.90845829      87.85884873
C      79.43104132      85.82664946      88.26136043
H      78.43137610      85.54508024      86.50580469
C      79.92992908      83.76495805      89.78070039
O      79.59922696      81.37067481      88.88497012
H      79.08522141      81.39146180      87.14453218
C      81.39068751      84.06542453      91.93876784
H      81.75162523      82.35144277      92.98756594
C      82.02185610      86.45025914      92.86851318
H      82.91947611      86.71293110      94.68265044
C      78.01941577      93.78239723      91.37562940
O      75.89914285      92.73548886      91.73278767
N      78.39736104      95.41890022      89.49157226
H      80.18126267      96.02928182      89.19110578
C      76.78353476      95.49637900      87.18421643
H      75.06199410      94.59120010      87.85884873
C      76.43015594      98.11742940      86.17321286
H      75.15270096      97.91522868      84.56883522
H      78.23484457      98.81095895      85.46078604
C      75.66292705     100.19423861      87.99490902
H      76.85912382     100.32462973      89.66353736
H      73.71839868      99.82385226      88.56749609
C      75.79898735     102.86253217      86.60407046
H      74.02453434     103.86030766      86.91587530
H      76.09567438     102.70190543      84.57072494
C      77.95894452     104.41777692      87.69255281
H      79.74473589     103.49181103      87.24657740
H      77.49596159     104.54060913      89.69566270
N      77.98540069     107.02181978      86.77792528
H      78.27830828     107.15788008      84.89764759
H      79.24773787     108.10085351      87.72089871
H      76.43204567     108.09329460      87.05949450
C      77.76619245      93.77294860      85.10929694
O      80.03953320      93.38933416      84.93733185
N      75.88024558      92.27817509      84.20222831
H      74.08500558      92.67690734      84.70867496
C      76.20905796      90.19569669      82.33895817
H      78.06287948      89.31319450      82.49769518
C      74.33822892      88.04140870      83.04571581
H      72.51086356      88.91257253      83.42933025
H      75.25285644      87.13622979      84.65198317
C      74.04532133      85.94381249      81.06339291
O      75.73473665      84.41313417      80.74402916
O      72.19338955      86.10065977      79.64987762
C      75.71583940      91.34276056      79.69712078
O      74.84089611      93.42334924      79.46090499
N      76.09756411      89.77050827      77.71290815
H      76.72873269      88.02062171      78.13620685
C      75.67237569      90.01617269      74.99737144
H      77.25974580      90.93457968      74.06006719
C      75.40781400      87.33087160      73.75582125
H      75.26419481      87.71826550      71.73948328
C      77.76808218      85.57153640      74.21313502
H      77.28998141      83.69503818      73.51393629
H      78.26885964      85.26540074      76.18789902
H      79.44804887      86.21971253      73.21158008
O      73.35746095      85.89845906      74.54005767
H      73.40848356      85.58287476      76.32773877
C      73.25919518      91.38055509      74.40966656
O      73.13447326      92.57864157      72.37254159
N      71.17860651      91.13678040      75.87798390
H      71.30899763      89.91223775      77.33685262
C      68.68038834      92.27250591      75.32807355
H      68.37803213      92.32919770      73.29094858
C      66.69239626      90.57931113      76.68489704
H      66.55822568      91.28606878      78.61619733
H      67.49364021      88.68202592      76.73780938
C      64.20929587      90.75883513      75.33374272
H      63.58190674      92.71848132      75.38098588
H      62.73719908      89.82531034      76.43734289
C      64.15260409      89.79696444      72.67678753
O      64.09591230      87.42535792      72.21002513
O      64.58913087      91.24260507      70.89288589
C      68.54432804      94.97481454      76.28427506
O      66.77932367      96.44502161      75.73814416
N      70.43594407      95.74960233      77.67322390
H      71.84190046      94.46080898      77.76582049
C      70.33956803      98.20435681      79.14154125
H      69.21896034      99.43834809      77.93211640
H      72.27086832      98.86765074      79.39476457
C      69.10179731      98.02861226      81.66810533
O      68.07378619      99.90888994      82.55060751
N      68.73330067      95.76849959      82.78115412
H      69.52320626      94.14900414      82.14998554
C      67.09868741      95.14300018      85.00347227
H      66.55822568      96.97414498      85.77637033
C      64.90093570      93.66145475      84.03782212
H      63.62159100      93.47437185      85.64219976
H      65.60013444      91.83597913      83.39531518
C      63.14160050      94.86898986      82.02337387
C      61.63548864      93.36476772      80.36419417
H      61.79422564      91.33520166      80.50403392
C      59.80434385      94.53261858      78.74658845
H      58.79145053      93.27217113      77.49936908
C      59.32813280      97.17445597      78.91666381
O      57.77099832      98.35742464      77.22913822
H      57.98831685     100.15266464      77.11197519
C      60.61881589      98.62387605      80.60796886
H      60.43173298     100.65722156      80.57017434
C      62.54633673      97.48059163      82.09329375
H      63.47230262      98.58041234      83.54271383
C      68.58023284      93.70302873      87.05004587
O      70.56066601      92.56730322      86.41887728
N      67.67694366      93.63688831      89.43677020
H      65.87036531      94.19246784      89.70322161
C      69.16415826      93.03973479      91.72522876
H      71.08789966      93.74649243      91.51168969
C      68.50653352      94.61198709      94.07037912
H      69.49108092      93.72570545      95.64830059
H      66.47885718      94.46836789      94.40297095
C      69.34557200      97.39177449      93.87006813
C      67.63347995      99.31929533      94.33872025
H      65.68328240      99.01504940      94.85272581
C      68.34590678     101.81562379      94.46911137
H      67.07790042     103.29716922      95.06815461
C      70.91404483     102.45057183      94.27446956
O      71.80977510     104.85430370      94.41430931
H      70.37925228     105.96735250      94.30659491
C      72.73007182     100.53627908      93.78880990
H      74.71806390     100.95390859      93.59983727
C      71.97418129      97.90955950      93.66219823
H      73.35746095      96.40911681      93.62440371
C      69.27754185      90.32419808      92.27324939
O      67.50686830      88.77651223      92.67954055
N      71.64347919      89.32075341      92.52269327
H      73.17415750      90.41301522      92.18443226
C      72.24063270      86.60332697      92.42064805
H      70.48696668      85.68680971      92.99134539
C      72.86424238      85.95515085      89.71078051
H      74.45161249      87.20992912      89.32338662
C      73.23651847      83.17347371      89.30637908
H      74.74829952      82.41758319      90.48556830
H      73.67871444      82.71615995      87.34484317
H      71.44505793      82.20404412      89.60684557
O      71.14648117      86.81308659      87.87207681
H      71.67560453      88.51573000      87.53381580
C      74.22862478      85.94381249      94.44265520
O      75.83867161      87.56330794      95.01713200
N      74.40247960      83.60622104      95.38373891
H      73.00786159      82.46482635      94.75257032
C      76.33755935      82.64435035      97.12984602
H      77.92115001      83.91046698      96.76323911
C      75.55710238      82.96371409     100.00789919
H      74.54798854      84.74194655     100.25923279
C      73.74296512      81.04564189     101.09827128
H      73.70706033      81.42358715     103.12594761
H      74.32122137      79.09733406     100.76756917
H      71.89103334      81.48594812     100.31214513
C      78.03075413      83.20181961     101.66140972
H      79.45938723      84.49250268     100.92819591
H      78.76585766      81.30264466     101.96565565
C      77.58099927      84.24494853     104.31080601
H      79.40836461      84.75328491     105.10827051
H      76.69660735      82.93158875     105.63172470
H      76.53787035      86.01751181     104.20498133
C      77.26919442      79.91369582      96.59127402
O      75.73095720      78.43404012      95.61428552
N      79.63702149      79.19748955      97.18275836
H      80.89746894      80.55998222      97.62873377
C      80.45716271      76.54620353      97.29803166
H      78.95672002      75.62212737      98.36194757
H      82.26563079      76.20038362      98.22399755
C      80.75762919      75.50874379      94.66186345
O      81.94626704      76.61990286      92.96866868
N      79.66725711      73.26941811      94.06848939
H      78.83199808      72.30754741      95.48767385
C      79.40836461      72.32077550      91.47956434
H      81.00518334      72.98595916      90.36084637
C      79.93181880      69.29343394      91.58349929
H      78.60901038      68.31644544      92.82504948
C      79.77308179      68.15392898      88.84717559
H      80.14535788      66.13003210      88.94544136
H      81.28864230      69.14981474      87.87018708
H      77.91170137      68.24652557      87.97223231
C      82.55664864      68.80777428      92.69465836
H      82.39791163      69.47106822      94.63729701
H      83.70938169      70.24585601      91.77814110
C      83.73016868      66.19806224      92.43009668
H      82.84199732      64.84501820      93.70188249
H      85.63879226      66.18672389      93.20677419
H      84.17803382      65.56311420      90.52147310
C      76.88557998      73.13713727      90.21533744
O      75.04687628      71.86535146      90.21911689
N      76.70227653      75.47850817      89.55204350
H      78.31610280      76.47439393      89.79203875
C      74.52531181      76.56510080      88.24057344
H      74.39114125      75.70716505      86.37352385
H      74.94861051      78.57765932      88.11396178
C      71.95339431      76.79186795      89.66920653
O      69.99752757      76.99784812      88.46923033
N      71.87969499      76.57265970      92.20143979
H      73.47084453      76.48762202      93.25023790
C      69.47029394      76.97139195      93.68865440
H      68.05299919      75.74118012      92.84016729
C      69.93138715      76.09833840      96.33994042
H      71.20506269      77.51185368      97.13173574
H      71.03498731      74.36167992      96.37962467
C      67.32923401      76.03597743      97.74778652
N      65.80800434      73.90625587      97.63818240
H      66.21429550      72.20739192      96.86906379
C      63.41939027      74.63569023      98.16730576
H      61.79233593      73.42626539      97.94053861
N      63.40805192      77.05076046      98.85138669
H      61.96997020      78.05609486      99.60727722
C      65.93083655      78.02207978      98.55092021
H      66.46940855      79.96471843      98.23155646
C      68.32323005      79.59433208      93.39196737
O      69.28699047      81.41224879      94.54659015
N      66.52610033      80.07432256      91.55515340
H      66.19539823      78.68159427      90.29281622
C      65.28077070      82.62923254      91.25279719
H      66.57712294      84.20526428      90.96933824
C      63.53088413      82.37034003      88.99457424
H      62.11736885      80.87556652      89.10039891
H      64.83290555      81.69759746      87.54704389
C      62.44429150      84.89312466      87.98735012
H      60.92684128      85.59232339      89.19677496
C      64.23197260      87.21370857      87.58294869
H      63.34758068      88.71604099      86.48690742
H      66.02721259      86.42569270      86.94233147
H      64.60424867      88.01684225      89.44054965
C      61.14793925      84.34510403      85.36252027
H      60.18039938      82.52718731      85.35685109
H      62.70318400      84.30919923      84.01136595
H      60.09725142      86.02318099      84.79560237
C      63.66505469      83.17347371      93.65463933
O      62.34980518      81.48594812      94.45588329
N      64.04488969      85.38445350      94.67698126
H      65.57367828      86.45025914      94.26124148
C      62.77310388      86.22349198      97.14118438
H      62.08713323      84.61155544      98.22399755
C      64.77810349      87.70503741      98.66430378
H      64.00898489      88.45336903     100.42174926
H      65.48108169      89.33209177      97.61550568
C      67.11569495      86.33498584      99.55436488
H      68.14937523      85.52051379      97.97077423
C      69.22462952      87.96392992     100.74489246
H      68.52354105      88.73304853     102.52312492
H      69.58934668      89.41712945      99.32948745
H      70.81199961      86.69970301     101.10394045
C      66.40893730      84.31297868     101.64818163
H      66.30878180      85.18603224     103.51145178
H      67.94906425      82.95048601     101.57448231
H      64.52488018      83.53819089     101.34393570
C      60.51866039      87.89778950      96.72166514
O      58.47775597      87.68614015      97.92164134
N      60.81723715      89.73838293      94.98311693
H      62.46885794      89.78940554      94.02691541
C      58.77255328      91.28417905      93.98156198
H      57.09258659      90.12766655      93.70188249
C      58.07713399      93.32508347      95.91097255