 %block lattice_cart
   137.614   0.000   0.000
   0.000 142.646   0.000
   0.000   0.000   160.855
 %endblock lattice_cart

 %block positions_abs
N      91.47521199      41.61366777      80.63442503
H      91.03490575      41.18281018      82.44100339
H      93.35737940      41.35288554      80.45868049
H      90.36405292      40.48361144      79.56861939
C      90.64751186      44.24983598      80.16388318
H      91.90795931      45.33075943      81.38275665
C      91.34860033      44.95092444      77.45779510
H      90.56247418      43.57709342      76.13876613
H      93.32714377      44.43124970      77.21591013
C      90.98199342      47.71937349      76.72080184
H      89.01856778      48.24093795      76.38632028
H      91.90040042      48.00661189      74.89910567
S      92.20086689      49.69980666      79.25492482
C      90.84782286      52.86509824      78.86564120
H      90.83648450      53.64933466      76.96079708
H      91.86827507      54.30317996      79.92955712
H      88.93919927      52.79517836      79.63853927
C      87.92819571      44.65612713      80.90654562
O      86.42964273      42.97805017      80.50781337
N      87.09293668      46.95781378      81.86841632
H      88.38739920      48.36188043      81.83440124
C      84.58338012      47.43402482      82.86052263
H      83.36261692      46.20570272      81.74180465
C      84.46432737      46.29829931      85.70267100
H      84.99911991      44.31030722      85.69322237
H      82.50090173      46.34932191      86.32817041
C      86.16319132      47.61165910      87.56594115
O      87.29135794      49.59209226      87.03681778
N      86.17830914      46.80663568      89.90542232
H      87.34427027      47.71748376      91.11106771
H      85.27879941      45.19091968      90.38163336
C      83.46655187      50.17034853      82.51659244
O      84.96510484      51.94480152      82.36730406
N      81.02880494      50.45758692      82.92099387
H      79.95166094      48.88722436      83.06650280
C      79.84583625      52.98982017      82.98902402
H      80.36362127      53.85909428      81.19567375
C      76.87518650      52.68557424      82.94745004
H      76.40275492      51.57441517      81.27882171
C      75.88874936      51.34008910      85.40787370
H      76.53314603      49.38422238      85.48157303
H      73.84406548      51.45347269      85.18299627
H      76.48779261      52.46636599      87.02547942
C      75.46356094      55.14599791      82.40887804
H      75.59017260      56.17589874      84.18711050
H      73.46800995      54.77939099      82.06494785
C      76.29693024      56.86564884      80.13364756
H      78.21122299      57.60831128      80.29049484
H      74.83806154      58.31317920      79.99002836
H      76.18354666      55.82251993      78.36108428
C      80.90597272      54.56774165      85.13953256
O      81.04014328      56.89966392      84.83339690
N      81.75823929      53.43390586      87.25791576
H      81.93965302      51.54040009      87.10484793
C      82.96577440      54.76427319      89.32149689
H      81.76390846      56.34030493      89.88085588
C      83.10183470      52.76305302      91.53058695
H      84.53991643      53.47547985      92.82127003
H      83.49111831      50.84876026      90.87863138
C      80.59605760      52.72714823      92.90252826
C      78.49657167      51.46292131      91.99168017
H      78.42476207      50.62388283      90.13029976
C      76.15520077      51.52717201      93.36362148
H      74.51869779      50.47270474      92.75512960
C      76.04937609      52.48715299      95.79003006
H      74.39208612      52.62888245      96.97299873
C      78.10917778      53.81563058      96.75190076
H      78.08650106      54.94568691      98.45265444
C      80.40519524      53.87421209      95.25712724
H      81.93587357      55.05340132      95.91097255
C      85.66052412      55.84519664      88.75835845
O      86.41830437      57.57996540      90.10006413
N      86.87372841      55.06096022      86.71556431
H      86.30114134      53.44713394      85.87085665
C      89.35682879      56.25526724      86.03715256
H      89.91807750      57.42689756      87.63586102
C      91.35804895      54.22003201      85.58739770
H      92.74510807      55.08741638      84.33450915
H      90.63428379      52.63266190      84.49702562
C      92.70731355      53.50193601      88.07238780
H      91.41663048      52.48148380      89.31204826
H      92.88683754      55.30851437      89.04748658
C      95.24899543      52.14700224      87.69822199
O      95.33781257      49.82452860      88.26513988
O      97.04801488      53.09375513      86.61162936
C      89.05825204      57.99381545      83.60696452
O      90.23555153      60.05361713      83.43877888
N      87.42552850      57.20768931      81.83062179
H      86.61861537      55.49181781      82.06494785
C      86.43342218      58.50404157      79.54027350
H      88.06803544      58.41711416      78.28927468
C      84.22055267      57.21902766      78.35352537
H      82.65774902      57.44768456      79.67633379
H      84.57771095      55.19702051      78.20801645
C      83.41930871      57.97491820      75.75704142
H      84.77424249      57.13776943      74.44935081
H      83.37206556      60.02905070      75.60775304
S      80.28047331      56.81840569      75.04461460
C      80.22945071      56.62565360      71.58263599
H      81.67320161      55.35386779      70.84942218
H      80.70566174      58.43412169      70.71714134
H      78.42476207      55.88488090      70.92501124
C      85.94587279      61.35374884      79.73113586
O      86.71499141      62.80316893      78.13809657
N      84.81014728      61.94712291      81.86463686
H      84.57015204      60.47502610      83.05705417
C      84.11850745      64.53226849      82.88508907
H      83.72355465      65.65665566      81.20512238
C      81.60706118      64.20534584      84.52348178
H      80.69999255      65.96846050      85.08284077
H      81.99634481      63.21323953      86.28659643
C      79.72111433      62.50459216      83.37830764
H      80.48456376      60.92667069      82.29738419
C      77.75201950      61.66177423      85.26047505
H      76.28559189      60.59785831      84.28159682
H      76.85250978      63.28693885      86.15053614
H      78.66475732      60.47691583      86.67776978
C      78.24145863      64.17322049      81.37519775
H      79.50190607      64.67777743      79.82751190
H      77.48556809      65.87208445      82.26714857
H      76.79203853      63.08284842      80.40009897
C      86.17830914      65.84562829      84.43844410
O      86.48066535      68.16621219      84.45545164
N      87.74678198      64.33762669      85.75936279
H      87.59560386      62.43845175      85.63275113
C      90.09760151      65.36563781      86.71178486
H      89.65351582      66.94733873      87.95333504
C      91.39962293      63.34363064      88.40875908
H      93.01911838      64.21668421      89.33472498
H      91.73221477      61.65610505      87.27681302
C      89.74422268      62.60096821      90.69343820
H      88.06803544      61.60886189      90.02258536
H      89.07525957      64.34518560      91.56082257
C      91.28434963      61.26871115      92.69465836
H      92.73376971      62.47813600      93.52235849
H      92.25755868      59.65866433      91.85561988
N      89.57225759      60.25581785      94.70910661
H      88.55558483      58.73836763      94.15163735
C      89.07525957      61.13265087      97.00512408
N      89.99177683      63.32851283      97.69298446
H      89.51178635      63.93133554      99.43909157
H      91.54702159      64.05794719      96.86339461
N      87.59560386      59.94590273      98.54147157
H      87.29324765      60.68478572     100.27435060
H      86.83971335      58.27727441      98.01045848
C      91.96843055      66.40120783      84.75024894
O      93.13250196      68.43077389      85.16409900
N      91.97221002      65.20690079      82.44100339
H      91.23332702      63.45134504      82.55438697
C      93.29501842      65.89476117      80.07506604
H      95.25088516      66.42577427      80.44167295
C      93.20242185      63.69889919      78.17589110
H      91.27301127      62.98269293      78.10408150
C      93.85437741      64.54549658      75.33185300
H      95.74221400      65.35240971      75.15232900
H      92.30669156      65.69822963      74.61753645
H      93.93374593      62.94678812      74.03739047
C      95.12805295      61.69578930      78.89020765
H      94.88616798      61.68256121      80.93489152
H      97.08958886      62.15877226      78.46501923
C      94.24933021      59.15221768      77.82818146
H      94.30413229      59.38276430      75.78349759
H      92.32180937      58.65899912      78.35919455
H      95.40395299      57.53650168      78.37431236
C      91.78890655      68.13219713      78.87131038
O      92.89628618      70.19010908      78.42911443
N      89.30769591      67.96023203      78.21368563
H      88.25700807      66.47679687      78.79194188
C      87.81103266      69.89531178      76.86820049
H      88.88628694      70.59640024      75.25815367
C      85.19754117      68.99202260      75.93845514
H      83.96166016      70.45089132      75.16933654
H      84.20732459      68.27959577      77.59763485
C      85.17297473      67.37441688      73.60086370
O      86.75278593      67.69567034      71.88310248
O      83.47977995      65.72846526      73.34008146
C      87.24789423      72.29526419      78.28549523
O      87.23277641      74.39663985      77.18378479
N      87.01545789      72.18754979      80.76292642
H      87.16474627      70.50569337      81.65109779
C      86.18397831      74.23412340      82.54493834
H      86.01579268      75.88952364      81.32984432
C      83.55347929      73.55571165      83.67121522
H      83.95788071      72.24802103      85.21134216
H      82.40074623      72.81115948      82.13675745
C      82.17397908      75.83661130      84.86741197
H      83.29269705      76.90808613      86.22801492
H      80.56582198      75.14119203      85.94833542
C      81.13840905      77.43343003      82.70745480
O      78.83105323      77.07249232      82.18589034
O      82.60483668      79.18709606      81.87786495
C      88.20031628      74.89174815      84.53859960
O      88.76345474      77.12918411      84.84662498
N      89.12061300      72.92832251      85.88597446
H      88.18330875      71.27103253      85.75369361
C      90.76467489      73.36484928      88.07616725
H      92.27645595      74.71600359      87.70956035
H      91.75867093      71.63385998      88.57694473
C      89.29824727      74.08483502      90.48556830
O      86.98900173      74.34561724      90.47422994
N      90.43397279      74.26624874      92.73245289
H      92.26133813      73.72389728      92.83071866
C      89.33226235      75.02591871      95.13618476
H      87.29702711      75.20922216      94.86973335
C      89.87083435      72.96422731      97.09583095
H      91.92685657      72.91131498      97.18086863
H      89.27746028      71.06505236      96.56103840
C      88.91274311      73.20611228      99.77924231
H      89.48910964      75.07505159     100.42741844
C      85.98177759      72.75446769     100.14018004
H      85.59816316      70.75702698      99.82648547
H      84.76101440      73.94499526      98.98177781
H      85.54147137      73.31193694     102.07337005
C      89.94264395      71.22189965     101.64629191
H      89.12817190      69.33406307     101.51779052
H      89.47777128      71.86818604     103.54735658
H      91.97221002      71.08394963     101.31747953
C      90.41885498      77.57704924      96.25868219
O      92.62416558      77.50523964      96.89551996
N      88.75589583      79.38740705      96.92386585
H      86.95120719      79.20410359      96.33427124
C      89.14706917      81.87050742      98.32415305
H      91.10860508      82.31837255      98.76823873
C      88.51023140      83.94164746      96.44009591
H      88.52345948      85.83704295      97.25078850
H      86.52979823      83.88306594      95.88829583
C      90.20531590      84.10983311      94.16108598
H      90.69286529      82.20876843      93.53558657
H      92.06102714      84.81848046      94.71477579
C      89.16029725      85.78413062      91.89908358
H      89.44375620      87.63228294      92.76646796
H      87.20443052      85.33815520      91.44176982
N      90.48310567      85.54791482      89.38196814
H      91.73410449      86.96331983      89.11929618
C      90.32814812      83.87928650      87.57350005
N      88.77668281      82.00656771      87.66609664
H      88.79180063      80.70643602      86.26769917
H      87.88851145      81.56626149      89.29693045
N      91.42796884      84.19109134      85.36063054
H      90.91396327      83.11394734      83.86963648
H      92.38606007      85.80869706      85.03181816
C      87.61828059      81.96499374     100.67119313
O      85.30714531      81.60783546     100.49922803
N      88.76156500      82.60183151     102.93130580
H      90.50578239      83.36717067     102.80280441
C      87.71843607      82.28813694     105.49566441
H      86.05736666      81.07115319     105.45598015
C      89.68753090      81.26012582     107.44964141
H      88.66896841      81.23366965     109.23921223
H      91.27868045      82.56025752     107.58948116
C      90.69853448      78.62773706     106.93563586
H      91.57536748      78.51813294     105.07425544
C      92.69786491      78.26301989     108.95386356
H      94.37027270      79.32315636     108.38316621
H      93.09848690      76.24290246     108.94441493
H      92.06858605      78.94143163     110.79256726
C      88.47810605      76.67187033     107.06602697
H      87.49355865      76.77013611     105.26133834
H      87.23088670      77.08949985     108.64961762
H      89.42296921      74.85584335     107.31547085
C      86.41830437      84.72021470     106.55769059
O      84.75912468      84.64651538     108.22820866
N      86.68286606      86.84804653     105.16496230
H      87.74300253      86.89151023     103.57570247
C      85.51690493      89.32736746     105.68274731
H      84.48700408      89.30091129     107.46853868
C      87.62772921      91.28134446     106.00211106
H      88.71810129      91.50433216     104.27112176
H      88.85416159      90.35159911     107.37405236
C      86.67719689      93.96853527     106.68052280
H      85.32037339      94.10459557     108.22442920
H      85.69453920      94.70552853     105.02512255
C      89.02045750      95.33102794     107.59326061
H      90.46609814      95.04001009     106.15517889
H      89.37572606      94.64505729     109.50377392
C      88.34393549      98.27333182     107.37405236
H      86.68286606      98.80245518     108.47009362
H      87.74489224      98.70796886     105.45220070
N      90.39050908     100.04967455     108.07514082
H      89.85193709     101.86948100     107.89183737
H      91.97221002      99.81156903     107.03390163
H      90.78924133      99.90227590     109.93463152
C      83.78402589      90.17018538     103.52090041
O      84.59093903      89.71287162     101.40251721
N      81.57115638      91.31724926     103.74388811
H      81.14785768      91.48543491     105.59393017
C      79.77969583      92.48698985     101.77668302
H      78.81026625      90.87883275     100.93008563
C      77.68020990      94.20853052     102.95965169
H      78.31515795      95.86771022     104.00278062
C      75.92465416      95.26866699     100.88662193
H      74.67176561      96.63115966     101.79180083
H      74.80593619      93.73987840     100.07970879
H      77.03770295      96.29100891      99.48633473
C      75.94922060      92.89517073     104.92496706
H      77.02447488      92.51155629     106.63894883
H      75.18010200      91.06402593     104.37505670
C      73.86107302      94.49954837     106.05124394
H      73.50391475      93.74743729     107.93530108
H      72.12819400      94.59214496     104.93819514
H      74.61129437      96.38360550     106.39895358
C      81.30470497      93.60003865      99.63562311
O      83.22466690      94.87371419      99.94553823
N      80.45432813      93.18240914      97.34716454
H      78.80270734      92.22620761      97.35850290
C      81.26313099      94.26900177      94.94154295
H      81.94721191      96.20219177      95.11917722
C      83.40041145      92.62682960      94.09683529
H      84.77802193      92.34903983      95.60294716
H      84.55881368      93.58303111      92.68709946
C      82.71444081      90.08892715      93.01591184
C      82.71822026      89.77334286      90.29281622
H      83.16797511      91.34559516      89.07205302
C      82.48578391      87.40551579      89.05693521
H      82.48389420      87.27323495      87.01981024
C      81.83949752      85.32114767      90.59517243
O      81.52391323      83.00056376      89.60117639
H      82.03035987      83.02890966      87.86073845
C      82.00390370      85.55358401      93.30315024
H      81.63729681      83.84716115      94.36328670
C      82.42909212      87.83826311      94.51635453
H      82.60483668      88.11605288      96.53080278
C      78.91798065      94.39750315      93.15386186
O      76.72022893      94.30490657      94.00990788
N      79.41686838      94.91528815      90.74635053
H      81.22155702      95.35748412      90.31171348
C      77.55359824      94.95497241      88.65820296
H      75.97378704      93.89294623      89.44621883
C      76.87707622      97.56468445      87.82105420
H      75.62985685      97.68751667      86.18644094
H      78.58349908      98.38482568      87.00847189
C      75.66198220      99.11992921      90.02258536
H      77.06982830      99.56968406      91.45499790
H      74.01414085      98.18451469      90.82760877
C      74.97790127     101.67294946      88.86229340
H      73.64375451     101.32712954      87.33161509
H      76.69566249     102.44584751      88.03081382
C      73.96311825     103.70629497      90.79359369
H      75.44844312     104.01243063      92.18821171
H      72.28126183     103.02410377      91.76869247
N      73.29982431     105.94373093      89.30637908
H      71.88630903     105.66405142      88.05538026
H      74.81160536     106.48419265      88.27647824
H      72.67432490     107.38937155      90.38352308
C      78.02225036      93.28823381      86.26580945
O      80.15197192      92.71186728      85.41921206
N      76.08528089      92.47943094      85.06772296
H      74.42610120      92.86115566      85.92943816
C      75.97000759      91.07725401      82.56761505
H      77.45155303      89.64862092      82.67910890
C      73.31116266      90.01333811      82.16132389
H      72.19811387      91.71787123      81.84384987
H      72.61385366      89.34248526      83.97924061
C      73.11652086      87.93463915      80.05427905
O      73.59084216      85.64618060      80.72702162
O      72.82928245      88.64139680      77.83574036
C      76.58794810      92.76288988      80.21490579
O      76.47645424      95.04567927      80.38687089
N      77.10195365      91.72731986      77.97180066
H      77.32872081      89.83381410      77.96424175
C      77.40053041      93.10682008      75.61909140
H      78.56649154      94.80001486      75.75704142
C      78.41531345      91.11504855      73.67834247
H      77.65375374      91.87093906      71.91900728
C      81.25746181      91.09615128      73.67834247
H      81.98311671      93.01989266      73.56684862
H      81.59383310      89.93019015      72.01160387
H      81.87540233      90.12105250      75.38476534
O      77.40242013      88.63383789      73.80495414
H      75.68843838      88.75478037      74.38510012
C      74.91176085      94.19341270      74.55517548
O      74.98168073      96.03967532      73.14921911
N      72.67810435      93.27311600      75.36964752
H      72.78959821      91.57803150      76.24081135
C      70.15909917      94.47876139      75.25815367
H      70.09673821      95.81479788      73.69157056
C      68.35441055      92.24699460      74.94256938
H      68.00292146      91.60259794      76.86631076
H      69.25769972      90.65962451      73.99014732
C      65.94689922      92.72509536      73.44779586
H      64.82440179      94.21419969      74.32273915
H      64.85085796      90.98276770      73.47992121
C      66.48925067      93.50366260      70.62076530
O      67.00136652      95.72409103      69.97447890
O      66.71223839      91.68574589      69.16378631
C      69.50903332      96.25888356      77.36519851
O      67.27537682      97.19051864      77.53905333
N      71.25703017      97.08280425      78.96768642
H      73.05793934      96.63682883      78.51604184
C      70.99057876      98.91205931      80.95945796
H      70.63719993     100.75265275      80.10908112
H      72.85762836      98.77221957      81.82117316
C      69.05927847      98.41128184      83.10051787
O      67.44923164     100.01754920      83.65987686
N      69.28604562      96.32880345      84.41576739
H      70.56728007      95.13638614      83.65420768
C      67.62308647      95.31779987      86.52281222
H      66.32106504      96.75966105      87.21067260
C      66.09618760      93.05957692      85.73479635
H      64.65432642      92.73454399      87.16909862
H      67.11852955      91.29079309      85.98235050
C      64.85085796      93.18429886      83.16098911
C      64.85274770      91.00733414      81.63409025
H      65.65777110      89.32736746      82.46556983
C      63.30317211      90.87316358      79.45334609
H      63.25025977      89.07414413      78.49147539
C      61.95390752      92.99532622      78.52738019
O      60.41756003      92.85926593      76.41844563
H      59.52749894      94.29923738      75.76271060
C      61.97658424      95.22142382      80.04860988
H      60.67267308      96.70863844      79.54405295
C      63.42033514      95.40094783      82.33328899
H      63.28805430      97.08658370      83.47468368
C      69.49580524      94.54301208      88.70544612
O      71.40820827      93.27311600      88.07616725
N      68.73991471      94.80379430      91.15831087
H      66.90310074      95.20819574      91.47956434
C      70.26681357      94.13294146      93.27291461
H      72.10551728      95.03056147      93.03858855
C      69.18966958      95.35937384      95.59727798
H      70.56539033      94.76599978      97.01079326
H      67.29616381      94.68285183      96.04514312
C      69.27848671      98.29033935      95.65208004
C      67.23569258      99.59802996      94.63162783
H      65.58596151      98.63049009      93.91542156
C      67.37553232     102.26254406      94.31793327
H      65.72769098     103.24520175      93.62062426
C      69.43155454     103.58724220      95.38373891
O      69.49580524     106.10813712      95.50090194
H      68.04260570     106.84135093      94.69398880
C      71.55371719     102.27577214      96.38907330
H      73.27525786     103.27354765      96.84260762
C      71.48757678      99.66983956      96.47222126
H      73.08817497      98.74765312      97.33960564
C      70.62208212      91.17174034      93.27858379
O      68.77204006      89.74688670      93.17842830
N      72.94266604      90.40829091      93.67353659
H      74.29759981      91.74810686      93.80392771
C      73.68721820      87.70220283      93.95888527
H      72.04315632      86.47388072      93.78125099
C      75.71111508      86.96520957      91.90097331
H      77.61406948      87.45653841      92.51513436
C      75.39553079      84.15329680      91.20744375
H      76.14386242      83.89251458      89.31015854
H      73.46612022      83.43331108      91.22634102
H      76.44243918      83.07804254      92.61906931
O      75.15931500      88.41273992      89.71078051
H      76.73156729      89.14973317      89.17976742
C      75.04971087      87.25433768      96.44954455
O      76.10039871      88.95320165      97.57204198
N      74.89664304      84.95832021      97.46432758
H      73.92154426      83.57126110      96.58560484
C      77.07738721      84.02668514      99.01768261
H      78.80837651      85.08871133      98.67186269
C      76.25346654      84.15518654     101.80691864
H      75.50324520      86.05625120     102.05825224
C      74.22201075      82.22766570     102.52501464
H      73.32250103      81.18264705     100.99622606
H      72.63275093      83.17441858     103.42830382
H      74.92876839      80.97288743     103.99711144
C      78.50035113      84.07581802     103.67018879
H      79.94221230      85.09627023     102.61194205
H      79.14285807      82.15396637     104.04246487
C      78.17720793      85.57815045     106.15517889
H      77.53281125      87.50756101     105.83014596
H      79.99701436      85.74255663     107.10760095
H      76.79959744      84.48399892     107.22854344
C      77.84272637      81.33004569      98.12573179
O      76.37818848      80.14140785      96.84071789
N      80.01402190      80.44943323      99.04980795
H      81.11573234      81.56059231     100.14018004
C      80.73967680      77.61862321      99.20098606
H      79.07482792      76.73801076     100.03246564
H      82.31192910      77.30681838     100.49544858
C      81.42564745      76.66998061      96.52891305
O      82.44987911      78.14018767      95.05870598
N      80.86250902      74.25680010      95.91475200
H      80.19732536      73.07761089      97.26023713
C      81.11384262      73.53681438      93.28803242
H      82.71633052      74.49679535      92.42253777
C      81.59572282      70.64364339      93.08961116
H      79.93843284      69.82917135      94.00234897
C      81.70532696      70.04271042      90.25313197
H      81.96610918      68.02826218      89.91865041
H      83.19065183      71.17654622      89.38763731
H      79.92520476      70.32050019      89.25535647
C      84.01079305      69.98412891      94.51824425
H      83.62906833      69.94066520      96.54214114
H      85.38840354      71.48457160      94.21021887
C      85.07848842      67.35174015      94.17431407
H      86.15185296      67.26670247      92.41875832
H      83.44198543      66.11018997      94.03069487
H      86.25767763      66.70923321      95.73522800
C      78.49846139      74.35695560      92.30726447
O      76.67676524      72.90753552      92.20899870
N      78.31704767      76.68131897      91.19232594
H      79.83449791      77.83972120      91.22445129
C      76.24212818      77.26713413      89.41220376
H      75.97189732      75.61362360      88.21222755
H      76.65408851      78.89040902      88.21600700
C      73.58139353      77.82838283      90.66320258
O      71.77103572      78.01546575      89.19299550
N      73.31872157      77.88507462      93.19732556
H      74.72278822      77.97200204      94.48800863
C      70.71656845      77.97389176      94.11006337
H      69.67154980      76.56604566      93.02913992
C      70.55972116      77.39752523      97.01457271
H      71.57261446      78.80348162      98.12762151
H      71.43844390      75.57393934      97.38684880
C      67.89520706      77.11595601      97.98022286
N      66.58562672      74.93332212      97.69487419
H      67.44167275      73.38563627      96.97488846
C      64.38787501      75.06749269      98.91752711
H      62.93278575      73.67098494      98.60761200
N      64.24614554      77.50523964      99.87561835
H      62.76460011      78.42931580     100.64662669
C      66.55161164      78.81670969      99.45042993
H      66.91632882      80.77257643      99.90774370
C      69.58462238      80.67053122      93.85495032
O      70.42177114      82.47521984      95.05681625
N      67.46623919      80.86328330      92.56237752
H      66.91443910      79.30992826      91.60050683
C      66.06217254      83.33504532      92.26191104
H      67.35285561      84.89217980      91.86884796
C      63.96646605      82.97788704      90.16998401
H      63.15010428      81.08627100      90.22289634
H      64.94912374      82.91174661      88.36340565
C      61.87453902      85.07737298      90.01880590
H      60.95802176      85.00934283      91.86317878
C      63.19923716      87.52267882      89.18543660
H      64.52960450      87.27890412      87.63397130
H      64.23858664      88.44675499      90.70288683
H      61.78950133      88.94375301      88.69788721
C      59.90922365      84.58037495      87.87774599
H      59.26293725      82.63584657      87.66987610
H      60.71235734      85.05658598      86.04282174
H      58.15366791      85.58570936      88.24624262
C      64.83196071      83.99833925      94.78658539
O      63.69245573      82.35805680      96.05270202
N      65.05305868      86.43986564      95.28925259
H      66.07540062      87.51323020      94.08927638
C      63.76237560      87.84393230      97.45487894
H      62.85152752      86.44364509      98.66052433
C      65.74658823      89.33492635      99.04035932
H      64.53149421      90.35348884     100.35560884
H      66.59696507      90.80513343      97.87628791
C      67.82150773      87.71543091     100.28190951
H      68.87597501      86.47766018      99.01768261
C      69.71123404      89.50500172     101.65196109
H      70.41610195      91.05079785     100.48599995
H      71.34962676      88.32581250     102.06203170
H      68.98935859      89.89050589     103.54168740
C      66.72735619      85.68775457     102.18108445
H      68.23724752      84.75800922     103.22988256
H      65.50092381      84.32715162     101.23811102
H      65.50281354      86.63072801     103.54357713
C      61.50604239      89.66562846      96.68576034
O      59.46891742      89.31791882      97.62873377
N      61.83107531      91.54779587      95.02469091
H      63.55072626      91.68952534      94.20832914
C      59.67300786      92.95753170      94.03447432
H      58.11587338      91.66306918      93.65274960
C      58.84341801      94.98520803      95.96766434