 %block lattice_cart
   137.614   0.000   0.000
   0.000 142.646   0.000
   0.000   0.000   160.855
 %endblock lattice_cart

 %block positions_abs
N      89.95114772      39.71449283      79.15098988
H      89.71115247      38.67703308      80.73647025
H      91.72371100      39.40079826      78.51793156
H      88.49038928      39.15135438      78.05494862
C      89.64123260      42.42813981      79.82940162
H      91.36088356      43.04985977      80.77804423
C      89.01762292      44.02117909      77.47102318
H      86.96349043      44.05519417      77.32362453
H      89.70926275      42.99127825      75.82507157
C      90.27807037      46.78017951      77.31984508
H      89.08943252      48.01795025      76.18034011
H      92.05441310      46.37766781      76.35419493
S      91.02262255      48.31463728      80.21679552
C      92.16212751      51.21158771      78.91288436
H      90.81853209      52.58541874      78.17589110
H      93.56808388      50.79206847      77.46724373
H      93.32430919      52.12432552      80.34907636
C      87.53229805      42.60766381      81.96479236
O      86.72160546      40.54786213      82.76225686
N      86.84821711      44.77895935      83.03815690
H      87.81764671      46.40412397      82.78871303
C      84.90179901      44.72037783      85.06016406
H      83.39001796      43.39756941      84.59529138
C      85.99595054      44.19314419      87.70578090
H      87.66079942      45.40067930      87.84940010
H      86.74617190      42.27696171      87.77381104
C      84.23094617      44.44825724      89.89975315
O      81.96894377      44.91312991      89.94888603
N      85.44037101      44.26306406      92.09183567
H      84.47283113      44.18369556      93.73589756
H      87.24883909      43.65835164      92.10695348
C      83.71127144      47.40189947      84.93166267
O      84.95849080      49.32375113      84.78048456
N      81.16203063      47.64378444      84.89386814
H      79.94693662      46.17357736      84.80694073
C      79.96394415      50.11365673      84.73891058
H      80.55731821      50.85253972      82.90965551
C      77.07644235      49.67146077      84.40442903
H      76.65881283      48.42991058      82.81327947
C      75.56277157      48.62833184      86.62674717
H      75.39836539      50.06830330      88.09128506
H      76.65314365      47.05041037      87.37696852
H      73.66926580      48.03117833      86.07683681
C      75.83867161      52.23015020      83.46145560
H      76.93471288      52.86887769      81.83818069
H      76.04843123      53.69657782      84.89197842
C      73.14014244      52.37565912      82.55438697
H      72.75085882      50.80907601      81.27315253
H      72.94739035      54.17467857      81.57172928
H      71.77198058      52.19235567      84.08317555
C      80.68770933      51.98448578      86.86296296
O      80.96927856      54.28995188      86.39998001
N      81.38879780      50.95269521      89.07583247
H      80.98250663      49.10076342      89.31015854
C      82.09933489      52.53817559      91.14319306
H      80.88424088      54.20302447      91.10161908
C      81.74784580      51.15867538      93.68865440
H      82.46783152      52.43424064      95.13807449
H      82.80798225      49.39367100      93.77747154
C      79.02475017      50.53128624      94.17053461
C      77.90792192      48.42424140      93.08961116
H      78.79042411      47.11277134      91.79892809
C      75.43615992      47.74205020      93.98534143
H      74.53287074      46.03940680      93.31259887
C      74.12091039      49.22737509      95.77113280
H      72.19338955      48.81919420      96.30214589
C      75.35490167      51.37032472      96.74434185
H      74.66515157      52.40967420      98.36005785
C      77.82099451      52.04873647      95.97711297
H      78.88868989      53.49815655      96.94087339
C      84.87912230      53.41122914      91.16398005
O      85.68603543      54.91545129      92.72489398
N      86.23594578      52.57219066      89.28748182
H      85.49328334      51.49882611      87.89475353
C      88.89290098      53.43957504      88.84906532
H      89.72249084      54.51482931      90.39864089
C      90.48405055      51.08119660      88.75079955
H      92.41535083      51.44024460      88.13474877
H      89.80374907      49.83397723      87.25791576
C      90.51806561      49.50705458      91.24901773
H      88.91179824      48.22015096      91.31515815
H      90.68247180      50.75427395      92.88174127
C      92.89723104      47.89322831      91.04681702
O      94.85120806      48.69258254      92.24679323
O      92.92935639      45.96759720      89.65597845
C      89.02896128      54.94757664      86.45100262
O      90.41035122      56.84675158      86.44533345
N      87.44915008      54.47703478      84.61229892
H      86.30208622      52.95202565      84.69166743
C      87.38489938      55.65055482      82.16321362
H      89.26139761      55.55795823      81.31661623
C      85.74272722      54.02161074      80.42466541
H      83.91347215      53.84775592      81.35819021
H      86.41169034      52.07330291      80.37175308
C      85.17769906      54.86064922      77.68645198
H      86.54208146      54.10286897      76.34285658
H      85.58210048      56.87887693      77.77715885
S      82.07476845      53.86287373      76.86820049
C      81.94815678      55.69023908      73.87109456
H      80.05843047      55.82440964      73.06418142
H      82.93837337      54.67734577      72.37443132
H      82.68703978      57.58941402      74.17723022
C      86.56664790      58.33207646      82.17644170
O      87.76095492      60.00259452      81.15409977
N      84.56731745      58.85742038      83.79782688
H      83.56954196      57.41744893      84.55749686
C      83.69804335      61.47847077      84.31372216
H      83.45426865      62.66899835      82.64698356
C      81.12234639      61.42933789      85.52314700
H      80.41180929      63.26048269      86.13919778
H      81.13557447      60.04038905      87.04248696
C      79.11545704      60.47691583      83.68822275
H      79.81087632      58.62876349      83.10240760
C      76.65692311      60.23314113      85.42677096
H      77.13880332      58.96891423      86.98012599
H      74.97506669      59.75693010      84.33828861
H      76.59267241      61.96602016      86.54170949
C      78.25563157      62.47057709      81.59440600
H      76.50196555      61.67500231      80.85930246
H      79.58410917      62.59340930      80.02782289
H      77.68493422      64.30172188      82.34651707
C      85.65202036      63.08284841      85.83117239
O      85.63123336      65.43177822      85.70645046
N      87.42269391      61.84507768      87.23334932
H      87.43592200      59.93834383      87.15209109
C      89.50517231      63.03749498      88.73757146
H      88.59432422      64.62864454      89.67298599
C      90.38767449      61.22146799      90.86918274
H      91.82386650      62.32695789      91.84995070
H      91.31364039      59.61331090      89.97156275
C      88.69825918      60.46935692      92.89874880
H      87.15057332      59.42055882      92.03136443
H      87.97449400      62.12097772      93.89463457
C      90.06642102      58.64010185      94.72989360
H      91.49127466      59.66055406      95.81270678
H      90.89412115      57.10186463      93.63952152
N      88.45448448      57.17745368      96.52702333
H      87.46804735      55.86409390      95.55759373
C      87.81953644      57.59130375      98.92319629
N      88.83998865      59.37520539     100.22899717
H      88.06331113      60.08574248     101.82014673
H      90.05130322      60.50715145      99.28035456
N      86.00728890      56.28361314      99.86994917
H      85.88256696      56.53116729     101.75967549
H      85.67847652      54.50727040      99.25578812
C      91.79741033      63.97479923      87.22012123
O      93.45281058      65.21634942      88.31049332
N      91.75583634      63.28882858      84.72568250
H      90.37444641      62.00381469      84.43655437
C      93.19013863      64.48313561      82.68288836
H      94.15956823      66.07806462      83.55027273
C      95.18191015      62.69734424      81.57928819
H      95.75260751      63.58362589      79.80861463
C      97.49304543      62.73891822      83.58617753
H      97.78028383      64.68722605      84.19466941
H      99.26749845      62.11908799      82.74524932
H      97.08675428      61.74303246      85.34173328
C      94.03106684      60.10275002      80.95189905
H      92.21881930      60.23503086      79.98057973
H      93.51517155      59.57173692      82.87564044
C      95.94535959      58.24703878      79.60830364
H      97.79351191      58.43034223      80.49647501
H      96.14945002      58.88765600      77.66188554
H      95.35009580      56.27605423      79.70467969
C      91.49694385      65.71712689      80.57962297
O      92.46259399      66.68277704      78.69178638
N      88.97226949      65.72657552      80.82339766
H      88.11244401      64.56817329      82.07250676
C      87.33576650      66.97568462      78.96579670
H      88.40346188      67.27237165      77.22724849
C      85.05675657      65.17666517      78.51415211
H      83.78686049      65.54516180      80.09396331
H      85.88823614      63.29260803      78.56895417
C      83.88890570      65.64153784      76.02160310
O      85.34399496      65.95901186      74.13943570
O      81.59477796      66.29538314      75.77026950
C      86.42869787      69.64019872      79.78782764
O      85.93547931      71.11607497      78.15510411
N      86.42491843      70.17310154      82.17266225
H      86.92947535      68.81060887      83.41043299
C      85.74650667      72.55793615      83.21201172
H      85.93358957      73.92609800      81.68322314
C      82.98750625      72.37841215      84.24002284
H      82.90057884      71.03670646      85.80282650
H      81.58532933      71.61307299      82.93800141
C      82.16358558      74.88796869      85.31149766
H      83.52418853      75.62874140      86.66832115
H      80.48172917      74.60639947      86.46612043
C      81.55698343      76.54525867      83.05516444
O      79.31954749      76.63407580      82.23691295
O      83.32765699      77.63185130      81.87030604
C      87.71938094      73.22689926      85.14331202
O      89.27084625      74.99001391      84.86930170
N      87.88000768      71.62252162      87.13886300
H      86.66869311      70.14664537      87.15776027
C      89.50139285      71.98912853      89.29693045
H      91.31553012      72.83761564      88.81693997
H      89.92847100      70.13719674      90.09250523
C      88.45826394      73.86751648      91.32649651
O      86.28318894      74.62151728      91.11295744
N      90.07209020      74.68387825      93.14819268
H      91.88244801      74.12262953      92.91575634
C      89.41446545      75.31315711      95.61995470
H      87.40001720      75.11095640      95.99978968
C      90.91301841      73.43665888      97.26212686
H      92.91612831      73.42721025      96.78213638
H      90.06831075      71.57338874      97.03158025
C      90.72404579      73.88452402     100.05325263
H      91.60276851      75.65141812     100.63906778
C      87.97638373      73.70688974     100.90173974
H      87.26962608      71.78125863     100.71465683
H      86.80475340      74.96922692      99.77546286
H      87.86111041      74.22089530     102.89351127
C      92.19803230      71.76614082     101.38173022
H      92.35865904      72.37463269     103.34326614
H      94.18413467      71.87763467     100.84315822
H      91.12655748      70.01247480     101.23622130
C      90.34232106      77.96255340      96.26624109
O      92.55141113      78.60506035      96.08860682
N      88.62833930      79.57826940      97.27724467
H      86.81420205      79.02835904      97.48889402
C      88.83431948      82.18609171      98.13518042
H      90.75239167      82.60750068      98.75501065
C      87.92914056      84.07203857      96.19254177
H      87.24316991      85.78602034      97.10905903
H      86.51940473      83.23488981      94.94532240
C      90.05697240      84.89595924      94.40297095
H      90.95648212      83.23300009      93.58660918
H      91.38545000      85.87294775      95.63696223
C      89.69036549      86.70442733      92.08616649
H      91.37978082      87.84204257      91.78381028
H      88.07275977      87.93274943      92.42253777
N      89.00628457      85.06225516      89.90542232
H      89.16313184      83.16496994      90.03959289
C      88.42613859      85.86727857      87.66420692
N      88.39968242      88.22943646      87.04815614
H      87.74205767      88.75667010      85.33417437
H      88.85321674      89.64295174      88.24813235
N      87.98016318      84.34415916      85.75558334
H      87.75906520      84.95643049      83.96223307
H      87.48127542      82.52246299      86.02959366
C      87.23939046      82.51301436     100.62772942
O      84.88668121      82.53569108     100.56536846
N      88.78329686      82.97032813     102.61950096
H      90.41413067      83.89818375     102.28312967
C      87.89512550      83.24811790     105.23299245
H      86.62522941      81.67019643     105.61093771
C      90.27807037      82.95143087     106.77878857
H      89.55052575      83.41819327     108.64772790
H      91.72560072      84.31581327     106.24399603
C      91.56119453      80.40219007     106.90162078
H      92.34921042      79.76535230     105.10827051
C      93.64556266      80.35116746     108.86693615
H      94.52617512      78.48978704     108.86693615
H      92.85943651      80.47966885     110.76611109
H      95.30852181      81.51712860     108.53434432
C      89.76595454      78.21199727     107.56302499
H      89.22927226      78.35939593     109.54723762
H      90.68247180      76.42053673     107.12649821
H      88.18803307      78.13640822     106.24021657
C      86.47594104      85.64618059     105.74888773
O      84.59566335      85.55169427     107.14539548
N      87.31875897      87.80235831     104.63394921
H      88.70392836      87.47732539     103.36216340
C      86.00161972      90.26089225     104.56402933
H      84.94526271      90.35915801     106.32903371
C      87.92347138      92.49076930     104.39017451
H      88.92691605      92.54557136     102.59304479
H      89.36911201      92.12794184     105.81124870
C      86.68570066      95.11370942     104.78890677
H      85.74083749      95.00032584     106.61627211
H      85.27218537      95.36882247     103.31114079
C      88.44692557      97.42295497     104.54324234
H      89.62800452      97.36059400     102.85949620
H      89.57509219      97.27366659     106.26100356
C      86.89357055      99.81156903     104.42041013
H      85.39879704      99.93062179     105.83392542
H      86.04697316      99.78700259     102.54391191
N      88.38078515     102.21152145     105.02701228
H      87.59654873     102.84457976     106.64839746
H      88.18803307     103.40204903     103.54735658
H      90.27429093     101.99042347     105.12149860
C      84.02874545      90.47632105     102.48155094
O      84.39913182      89.39161814     100.43686707
N      81.86689855      91.68196643     102.88028319
H      81.55698343      92.46053367     104.59615468
C      79.86000920      92.28667885     101.10583018
H      79.04364745      90.47254159     100.56725818
C      77.70194177      93.76255510     102.36627763
H      77.15770059      92.57391725     103.95931691
C      78.63357683      96.26455274     103.38295039
H      77.47706433      96.85603708     104.97976912
H      78.38791242      97.61003788     101.84093372
H      80.66314289      96.22108904     103.72877030
C      75.27175372      93.97420445     100.70142875
H      75.04876601      92.12605212      99.81703684
H      75.60056610      95.26488752      99.13106618
C      72.99463352      94.85103746     102.30013721
H      72.50519440      93.43563245     103.71554222
H      71.39970451      95.39905809     101.11905827
H      73.64658909      96.48754045     103.36972230
C      81.11856694      93.61326673      98.80414353
O      82.71349595      95.28189506      99.06492576
N      80.20204967      93.04445911      96.52324387
H      78.65436383      91.93518976      96.40986029
C      81.01841144      93.94207910      93.92864964
H      81.82343484      95.83180542      94.07037912
C      83.24261931      92.20542062      93.33149613
H      84.43314688      92.01077881      95.00012446
H      84.27252015      93.18240913      91.83672262
C      82.72672402      89.59192913      92.29403638
C      82.75506993      89.38972842      89.66920654
H      83.00262406      90.95442180      88.38230292
C      82.27507943      87.05969587      88.61662898
H      82.56231784      86.60994101      86.64753416
C      82.12012187      84.84115718      90.14730729
O      82.18248284      82.52813217      89.23079003
H      82.66436305      82.38073352      87.48657264
C      82.07098899      85.17374901      92.75512960
H      82.15413695      83.42386245      93.80392771
C      82.36767602      87.53401718      93.93053937
H      82.69648840      87.69653364      95.93931844
C      78.96994811      93.85515169      91.98601100
O      76.83644711      93.20508584      92.76079878
N      79.68048520      94.92662651      89.86195862
H      81.34533409      95.83558487      89.64841955
C      77.86445822      95.24221081      87.65853774
H      76.06543878      94.88694226      88.59017281
C      77.71139039      97.95585779      86.72879239
H      76.75707861      97.89160710      84.90331677
H      79.63513178      98.63993872      86.45856153
C      76.51141418      99.74353888      88.62418788
H      77.68871368      99.78133341      90.31360321
H      74.65192350      99.02544289      89.14575235
C      76.20716825     102.48742149      87.56972060
H      74.58011389     102.43639888      86.30738342
H      77.96839318     103.15827433      86.74013075
C      75.73095722     104.46785467      89.59361748
H      77.17470812     104.30911766      91.05437592
H      73.85634871     104.02565871      90.32494157
N      75.34356333     106.95095504      88.63174679
H      76.90825670     107.74275037      87.88152544
H      74.20216862     107.89203875      89.83928190
H      74.12091039     106.80544612      87.17287808
C      78.29909527      93.33547696      85.52692646
O      80.41936820      92.79123578      84.72001332
N      76.21661687      92.48321039      84.42332629
H      74.59901115      92.70241864      85.41165315
C      75.91426067      91.31535953      81.90999029
H      77.31643759      89.83192437      81.63597998
C      73.22895958      90.13617031      82.08573484
H      71.76820113      91.57803149      82.28037665
H      72.87369103      89.00800370      83.77137071
C      72.77353553      88.43541663      79.83129135
O      71.63592030      89.30469073      78.00581573
O      73.61824320      86.19798067      79.81617354
C      76.16181481      93.36382285      79.88987287
O      75.77253119      95.65606087      80.21490579
N      76.62101830      92.62305014      77.47858209
H      77.24462800      90.85237658      77.14032108
C      76.50952446      94.23876614      75.22980778
H      78.14035827      95.49165468      75.33374272
C      77.12368550      92.61360151      72.92056222
H      75.66670652      91.20008622      72.56718340
C      77.54509447      94.17640517      70.56407351
H      75.99929835      95.42929371      70.03495014
H      78.03075413      92.81013304      69.09764589
H      79.23450981      95.35181493      70.59430913
O      79.34600366      91.40984584      73.22480816
H      79.83166332      90.68041149      71.63554833
C      74.04910080      95.70897321      74.87453923
O      74.24374260      97.88971737      74.16589186
N      71.87024635      94.65828538      75.61342222
H      71.87591554      92.81958167      76.12175860
C      69.35691037      95.91684310      75.50948727
H      69.33234391      97.10737068      73.82763085
C      67.34057239      93.76822428      75.20335161
H      67.12892303      92.91217826      77.06662175
H      67.81489369      92.39250353      73.74826235
C      64.57968225      94.49765864      74.47013780
H      63.78599720      95.71464239      75.92900651
H      63.42505946      92.79123578      74.42478437
C      64.50031373      95.81857733      71.86042576
O      64.37559180      98.15805851      71.77916753
O      65.07101109      94.57891687      69.97069945
C      68.85235343      97.62326596      77.82440201
O      66.66027091      98.57946748      78.18533973
N      70.66460097      98.00121122      79.53271459
H      72.26519916      97.05067889      79.11130562
C      70.80444071      99.82857657      81.66810533
H      69.91248989     101.65594191      81.34118267
H      72.81888896     100.10258688      81.99502798
C      69.86524675      98.62671063      84.16821324
O      70.21484610      99.67550874      86.25069164
N      68.63692463      96.33447262      84.14364680
H      68.29110472      95.61448689      82.41076777
C      67.44261760      95.00032584      86.26014027
H      66.08768385      96.17762533      87.27303357
C      65.88737285      92.69297001      85.50047029
H      65.14282069      91.95975620      87.27681302
H      66.99475247      91.23977048      84.54993795
C      63.65371634      93.15784268      83.64664878
C      63.64804718      91.93707949      81.24291691
H      65.16549739      90.77678753      80.52293118
C      61.68462153      92.38872407      79.58562693
H      61.78099758      91.33425679      77.84140954
C      59.63237875      93.95719691      80.33584828
O      57.61415106      94.06302159      78.73902954
H      56.17984878      94.97575940      79.37586731
C      59.60970203      95.01733338      82.78682330
H      58.07146482      96.21730958      83.38775627
C      61.59769412      94.63749839      84.49513589
H      61.63737837      95.57291291      86.30927315
C      69.47218366      94.05735241      88.20844810
O      71.44883739      93.20130639      87.29382056
N      68.76542602      94.15372845      90.61595942
H      67.00609083      94.85859637      90.83894712
C      70.37736257      93.51689068      92.74190152
H      72.23685326      94.35403944      92.45655285
C      69.49108093      94.91339843      95.08138270
H      70.53798930      94.18018462      96.69709869
H      67.52198612      94.35781889      95.32515739
C      69.97485086      97.78389270      95.25334779
C      68.07756564      99.51866145      95.20610463
H      66.10091192      99.01788398      95.30626013
C      68.68605752     102.14538103      95.02469091
H      67.07979015     103.33779833      95.42531288
C      71.21262160     103.03166267      94.84138745
O      71.89103334     105.54499867      94.59383331
H      70.52665095     106.72229816      94.38785314
C      73.14014244     101.22130486      95.00390392
H      75.06388383     101.88270907      95.17586901
C      72.59023208      98.58513666      95.09650051
H      74.07555697      97.22264398      94.76957785
C      70.51720231      90.56891764      92.96866868
O      68.74652876      89.21965305      92.60017205
N      72.89069856      89.90562370      93.41464409
H      74.14358712      91.26811637      93.88896539
C      73.91115077      87.32425756      93.25779680
H      72.29732450      86.04491284      93.20488447
C      75.65158872      87.02190135      90.96366906
H      77.38824720      88.08770699      91.27169445
C      76.27897785      84.31959272      90.36651554
H      74.57822416      83.20843365      90.02447508
H      77.13124441      83.34638367      91.96900346
H      77.52619721      84.23644476      88.72812283
O      74.45350222      87.78913023      88.63552624
H      74.16248438      89.57114214      88.81505024
C      75.44560854      86.93686366      95.64830059
O      76.78164505      88.64139680      96.56670758
N      75.39836539      84.58793385      96.77457747
H      74.07177751      83.37661929      96.13018080
C      77.11234715      83.98511116      98.83059970
H      78.76018849      85.21910244      98.75312092
C      75.76119284      84.18731188     101.36472269
H      74.95427971      86.07514846     101.52912888
C      73.55021306      82.18231226     101.53290833
H      72.49763549      82.33915954      99.76979368
H      72.22929435      82.58104451     103.06169692
H      74.41759742      80.32282157     101.68786589
C      77.40147527      83.89629402     103.77979291
H      78.64491519      82.25601158     103.70798331
H      76.16937372      83.48244396     105.37472192
C      79.09278032      86.19042177     104.47710192
H      79.98095170      85.79924842     106.29312891
H      77.86445822      87.81747612     104.18230462
H      80.66314289      86.24711356     103.14862433
C      78.08366648      81.22422102      98.59627364
O      76.66259229      79.73322696      97.62117486
N      80.32110242      80.61005997      99.57326214
H      81.55509371      81.98578072     100.04947317
C      81.10911830      78.11751096      99.98522248
H      79.68426467      76.97611627     100.93764454
H      82.80987199      77.99467875     101.14173498
C      81.78375060      76.88540940      97.53235772
O      83.20860423      77.97389176      96.11128354
N      80.71416550      74.59884056      97.01835217
H      79.45371805      73.95255417      98.29391743
C      81.07132377      73.40453353      94.49934699
H      82.66625278      74.25113092      93.50724068
C      81.64013139      70.50002419      94.57871550
H      80.08866609      69.61374255      95.60105743
C      81.62879304      69.24146647      92.02569525
H      81.49840192      67.19678260      92.24868295
H      83.31442890      69.85562752      91.01280194
H      80.04898185      69.90098095      90.88241083
C      84.31598385      70.00302617      95.71822046
H      84.51062566      71.34851131      97.26401659
H      85.81264710      70.40175842      94.35950724
C      84.55408938      67.46890319      96.98811655
H      84.61267088      66.03271119      95.51224030
H      82.87412267      67.06828121      98.11250370
H      86.19626154      67.38953468      98.22966673
C      78.75262960      74.28325627      92.97811731
O      76.81754985      72.95099922      92.93087415
N      78.88302070      76.42620591      91.67420615
H      80.57054630      77.31437728      91.74223630
C      76.89313889      77.35028208      89.88841479
H      76.71550462      75.97834077      88.36340565
H      77.51107941      79.08883028      88.97000780
C      74.27208850      77.95121504      90.84650603
O      72.66960058      78.85261449      89.40086540
N      73.44438838      77.25768549      93.20110501
H      74.62924677      76.17298258      94.22911613
C      70.91782430      77.59972595      94.24234421
H      69.57044944      76.19943875      93.55637356
C      71.08412021      77.04603614      97.13740492
H      72.14047722      78.56348637      98.04636328
H      72.04410117      75.25646532      97.47377621
C      68.40637803      76.99312380      98.19565166
N      66.73019078      74.95221938      97.96888450
H      67.17994565      73.23445817      97.26968577
C      64.61369731      75.55693180      99.16130181
H      63.00554022      74.30593299      99.09516138
N      64.79133158      78.00034793      99.97577385
H      63.27955053      78.94710081     100.65607532
C      67.17238674      78.84316586      99.59404913
H      67.84890877      80.66297230     100.22332799
C      69.89548236      80.27746813      93.99667979
O      70.83656606      82.08404649      95.27035533
N      67.90749028      80.44565378      92.65497411
H      67.38403609      78.90930628      91.65341916
C      66.55444624      82.80970139      92.02191580
H      67.88103412      84.27234956      91.43799036
C      64.98219395      82.06325950      89.71833942
H      63.58568621      80.71777437      90.41375870
H      66.42783457      81.17319841      88.55426801
C      63.47986152      84.10983310      88.11396178
H      62.11547914      83.05725554      86.98579517
C      61.95296267      85.93152926      89.69188325
H      63.01309912      87.08048286      91.02980948
H      60.56968301      84.75989895      90.67076148
H      60.92117210      87.22599179      88.46545087
C      65.31856523      85.52901756      86.33950877
H      64.23575206      87.07292396      85.50991892
H      66.04799958      84.17408379      84.96756747
H      66.83601547      86.42852728      87.39964523
C      65.04833436      83.60149672      94.46533192
O      63.83324035      81.99522935      95.69932320
N      65.33557276      85.88428611      95.32893684
H      66.59602021      86.84426707      94.27069011
C      64.33212810      86.92741503      97.75156598
H      63.90882940      85.52523811      99.20098606
C      66.35035579      88.63950707      99.04602850
H      65.44895634      89.92074151     100.38584446
H      67.23285798      89.84137300      97.62495431
C      68.43850337      87.12394657     100.37072665
H      69.20573226      85.68019566      99.11783810
C      70.45106189      88.83036943     101.35338433
H      69.57422888      90.63316833     101.82203645
H      71.92693814      89.24610922      99.97766357
H      71.52820589      88.14817823     102.97099005
C      67.34246211      85.67263676     102.55525026
H      68.97140620      84.90351815     103.55491548
H      65.99508726      84.24589339     101.93353031
H      66.35224553      87.11638766     103.64373262
C      61.83768936      88.24833372      97.30181111
O      60.09914115      87.69086446      98.76634901
N      61.42950847      89.80357848      95.33460602
H      62.85625184      90.08136825      94.09872501
C      58.95207729      90.87505330      94.84327718
H      57.60281269      89.36705170      94.45210383
C      57.90327918      92.50966656      96.98433709