 %block lattice_cart
   137.614   0.000   0.000
   0.000 142.646   0.000
   0.000   0.000   160.855
 %endblock lattice_cart

 %block positions_abs
N      89.76028537      42.06436750      77.37937146
H      89.21982363      40.93431116      78.81745319
H      91.55930482      41.64862771      76.88993235
H      88.50550709      41.69587087      75.98853290
C      89.28596405      44.69486653      78.30533735
H      90.60877247      45.07848097      79.83790539
C      90.10988473      46.57325448      76.25120485
H      89.49005449      45.98554960      74.37659635
H      92.16590695      46.64884353      76.15482881
C      89.11021951      49.29823982      76.68584190
H      87.06931509      49.56280151      76.68017273
H      89.57698190      50.38105300      74.99642658
S      90.24216558      50.70797565      79.55444645
C      93.39233934      51.34292370      78.45840519
H      93.29218384      52.70730609      76.91827824
H      94.38066620      49.59303713      78.00109142
H      94.40901209      52.17251355      80.04766502
C      86.51751500      44.88950834      79.25964914
O      84.97738806      43.18119575      78.65304700
N      85.69737378      46.86427233      80.67883360
H      86.92191643      48.28345679      81.03032270
C      83.12167682      47.14773128      81.92227352
H      81.84422183      46.00444686      80.77898910
C      83.08577202      45.90051191      84.56789036
H      84.07220915      44.09204383      84.55466227
H      81.14691283      45.32603511      84.95906370
C      84.11567286      47.39717515      86.72784753
O      82.90246858      48.97131717      87.90892648
N      86.49672802      47.21009225      87.20405856
H      87.25828773      48.17007322      88.66670673
H      87.62678435      45.97610097      86.28754130
C      82.05020201      49.79712757      82.19250438
O      83.49395291      51.63961073      81.91093516
N      79.55387355      50.07680707      82.65359760
H      78.59578231      48.43085545      82.55533183
C      78.16681443      52.44085468      82.83123187
H      78.42948639      53.34603359      81.00008708
C      75.45505717      52.05535052      83.72507242
H      74.57255498      50.61159961      82.55533183
C      75.11301670      51.08214146      86.19683444
H      76.05410041      49.28123229      86.52942627
H      73.08345064      50.88372020      86.48029338
H      75.64780925      52.53156155      87.56121684
C      73.87335624      54.40428032      83.45862101
H      74.23807342      55.92362028      84.80221642
H      71.96095322      53.76933228      83.88758888
C      73.86390762      55.54189556      80.77331992
H      75.70072160      56.39416213      80.39348493
H      72.58645262      57.15761156      80.69962059
H      73.43493974      54.33436045      79.16327310
C      79.63135232      54.27577893      84.56600063
O      79.71827973      56.60770120      84.03687726
N      80.47605998      53.56713157      86.89792290
H      80.73306276      51.72086896      87.30610378
C      81.57588071      55.39260718      88.68938344
H      80.37590450      57.04800743      88.94071704
C      81.91792116      54.21341796      91.36523590
H      82.61334045      55.76488327      92.52741759
H      83.22561178      52.64116567      91.12524066
C      79.44237969      53.49910142      92.68615460
C      77.94949590      55.09025097      94.24706853
H      78.63924601      57.01021291      94.29809114
C      75.60245582      54.30979401      95.18626251
H      74.44216386      55.76488327      96.02530099
C      74.69916665      51.87771624      94.84044259
H      72.95683899      51.26733464      95.71349615
C      76.18260181      50.11271187      93.70093763
H      75.53253596      48.19841911      93.43070676
C      78.50696516      50.88560993      92.49907169
H      79.66725713      49.46453574      91.60901060
C      84.09677561      56.48864845      87.81444016
O      84.65046541      58.77899674      88.09222993
N      85.78997037      54.82190984      86.79209823
H      85.13234562      53.05312601      86.51241873
C      88.19748171      55.62315379      85.92849330
H      89.07998389      57.00265400      87.17760239
C      90.01539841      53.23831919      85.61479873
H      91.27395614      53.65027952      84.03687726
H      88.77573795      51.77378129      84.86835684
C      91.64812194      52.26888959      87.78231481
H      93.27895575      53.49910142      88.04876622
H      92.24716519      50.38294273      87.20972774
C      90.39523340      52.11582176      90.36746041
O      88.95904140      50.22987490      90.81910500
O      90.54074232      53.75610420      92.05309628
C      87.98394262      57.08013278      83.40003949
O      89.52029013      58.79222482      82.82934215
N      86.07153960      56.37148541      81.93361188
H      85.03219012      54.90505780      82.57611882
C      85.38178949      57.71886028      79.63381495
H      87.08821235      57.63949177      78.48297163
C      83.16703026      56.24109430      78.36580860
H      81.71572045      55.87637712      79.78310333
H      83.57710087      54.45719266      77.41716599
C      81.96327460      57.73586781      76.16049799
H      83.48450428      57.49587257      74.79233614
H      81.66847728      59.68795509      76.74442342
S      79.10789813      56.62281901      74.78666696
C      79.53497628      57.64894040      71.58358086
H      78.02886442      57.03099990      70.32124368
H      81.28486284      56.78533548      70.92784583
H      79.58977834      59.70496263      71.44941029
C      84.79219489      60.48352987      80.13081297
O      86.10744440      62.00475955      79.03099226
N      82.87790213      61.14304435      81.71629335
H      81.89713418      59.66149893      82.41171263
C      82.15791640      63.80944818      82.20006329
H      81.52296836      64.59557433      80.40671301
C      79.71261055      63.92283176      83.86302244
H      79.29498105      65.86736014      84.39025608
H      80.08110718      62.84568776      85.58078366
C      77.30131979      62.94017408      82.60446472
H      78.02130551      61.39248823      81.44984194
C      75.42671128      61.81956637      84.58678762
H      73.88658433      60.97107926      83.51153335
H      74.78987351      63.17072069      86.00408235
H      76.36401552      60.31534423      85.63936518
C      76.00874699      64.96218123      81.02465352
H      74.10201313      64.33857155      80.55789112
H      76.93471288      65.20973538      79.20295735
H      75.89914285      66.73852397      82.05644409
C      84.17425438      65.46673816      83.45295183
O      84.47472086      67.69094603      83.07878602
N      85.77296284      64.15526810      84.93638699
H      85.19092713      62.43183770      85.50708433
C      88.14267963      65.31556005      86.05510496
H      87.37356103      67.01442401      86.93382770
C      89.37478119      63.73007968      88.13569364
H      90.82231155      62.55466991      87.26264008
H      87.80630835      62.63592814      88.89914307
C      90.41791011      65.56689365      90.23328984
H      88.94392360      66.60435340      91.23106534
H      91.72560072      66.94072468      89.43015616
C      92.01850830      63.85102216      91.96427915
H      93.03707078      65.16627167      93.17559371
H      93.27706604      62.66238431      90.84745089
N      90.31019572      62.00098010      93.20393961
H      89.16880102      62.48475004      94.65902887
C      90.13067172      59.58402015      92.63891144
N      91.54607673      58.75254057      90.81721527
H      91.91268363      56.89871906      90.54887414
H      92.48149125      59.80511812      89.53031165
N      88.71148725      58.15160760      93.93148424
H      88.70959754      56.31290390      93.42692731
H      87.66079942      58.75820975      95.40547076
C      90.02673678      66.40782186      84.06900261
O      91.15301365      68.39014476      84.43560951
N      90.22893749      65.13225660      81.84290501
H      89.65257096      63.31433989      81.81266939
C      91.90701445      66.23585677      79.81711841
H      93.60776814      67.15237403      80.53332468
C      92.47015289      63.95873656      78.08234965
H      90.65601564      63.04221930      77.74597837
C      93.53028935      64.72029626      75.45374035
H      91.96937542      65.31178060      74.24998469
H      94.34665112      63.19150768      74.34069155
H      94.78506762      66.35301980      75.43673281
C      94.28429015      61.92539105      79.11602994
H      93.51139210      61.67405745      81.00953571
H      96.11165549      62.87025420      79.21429571
C      94.38444564      59.28544339      77.93306127
H      95.45969992      59.56134343      76.19640279
H      92.46826316      58.65049535      77.53054957
H      95.46914856      57.90216373      79.00453609
C      90.41979985      68.35235024      78.49808944
O      91.70103429      70.04554501      77.66849959
N      87.88378714      68.55266123      78.61714220
H      87.03718974      66.99930620      79.33523820
C      86.16980537      70.49152042      77.47574750
H      86.92569590      71.17371162      75.68428696
C      83.72449952      69.03454144      76.96363167
H      82.11823216      70.27609163      76.60269395
H      83.35600288      67.84590359      78.60391411
C      83.80575774      67.45095079      74.67139365
O      85.22116275      68.11424472      72.86859475
O      82.60389181      65.48563542      74.68840119
C      85.53107787      72.90281120      79.13870666
O      85.07754356      74.98717932      78.12203390
N      85.59721830      72.65336733      81.60290977
H      86.03374507      70.93938556      82.31911604
C      84.68637021      74.45427650      83.46240046
H      84.44826470      76.24573705      82.47218388
C      82.17114448      73.53397979      84.47340404
H      81.75918415      74.99662796      85.86424261
H      82.57554591      71.70850417      85.34078842
C      79.78442015      73.41870648      82.68383322
H      78.38035351      72.19794329      83.56822514
H      80.37590450      72.62313171      80.87725487
C      78.60145148      76.08511031      82.44950716
O      76.27897785      76.42904050      82.49297086
O      80.06598938      77.94649073      82.34935166
C      86.59499378      75.14780606      85.51086379
O      86.47972049      77.16225431      86.47273448
N      88.39779269      73.45461128      86.02297962
H      88.23527622      71.85401310      84.99874796
C      90.19870187      73.72106269      88.15081145
H      91.23616162      75.45772118      87.76341755
H      91.55552536      72.17715630      88.28498201
C      88.75117151      74.01208055      90.53942551
O      86.47972049      73.31099208      90.67926525
N      90.05697240      75.22339511      92.24206891
H      91.80118977      75.94527056      91.97561750
C      88.91746742      75.87913014      94.69304394
H      86.85955547      75.93204248      94.64202133
C      89.77729290      73.70405516      96.47694558
H      91.78040280      73.60578939      96.01396263
H      88.89290098      71.96361722      95.81743110
C      89.33887639      74.10845659      99.30586587
H      90.53885261      75.58811229     100.09010229
C      86.55719926      74.71127928      99.94081391
H      85.69926351      72.84800914     100.10333038
H      85.55564431      75.81865890      98.52351918
H      86.38523416      75.75818766     101.70770802
C      90.02862649      71.74251924     100.89134625
H      89.80563879      69.97562514      99.85388650
H      88.91746742      71.52709044     102.61099719
H      91.98071377      71.89936653     101.53007374
C      89.86422031      78.47750382      95.68515026
O      91.94858844      79.21827654      95.00862824
N      88.33543172      79.87779102      97.11189362
H      86.62711914      79.10489296      97.46338272
C      88.31086527      82.50451060      97.81676154
H      90.25539366      83.14323809      98.04919787
C      87.09010208      83.95204095      95.53397215
H      86.29830675      85.72460423      96.23128116
H      85.39501757      82.97505245      94.88957548
C      88.92124687      84.87044794      93.53464171
H      89.91713264      83.16213535      92.95827519
H      90.15712788      86.13089539      94.59666790
C      87.68725559      85.94003303      91.22539616
H      89.11966815      87.07386882      90.27108437
H      86.25295332      87.29118735      91.82632912
N      86.61956023      83.96715876      89.66070277
H      86.13201084      82.42703182      90.67548580
C      85.70682242      84.12589577      87.29098597
N      85.95248684      86.24427897      85.88880905
H      84.74306200      86.18569745      84.41293280
H      86.88979109      87.80141345      86.46895503
N      84.45204415      82.35144277      86.15715019
H      84.14212903      82.65946815      84.29765949
H      84.66369350      80.65446854      87.00374757
C      86.73294381      82.98072163     100.31497972
O      84.47850032      82.48183388     100.46426810
N      87.86300015      84.13723413     102.24816974
H      89.74705728      84.38856773     102.07431492
C      86.92002672      84.14479304     104.90701466
H      85.33265662      82.83521270     104.81630780
C      88.86266536      83.23205523     106.96492662
H      88.05008304      83.55141897     108.83197622
H      90.43302793      84.56431228     106.98382388
C      89.73382919      80.45604727     106.84020468
H      90.45003546      80.08566092     104.94480919
C      91.75961580      79.59055262     108.86221184
H      92.03362612      77.60822972     108.37466245
H      90.79585538      79.59055262     110.68201828
H      93.60965787      80.48817262     108.75638716
C      87.48505488      78.67403536     107.21814994
H      86.25484305      79.08788542     105.61755176
H      86.73105408      79.13323885     109.07953036
H      88.10488512      76.71249945     107.13500199
C      85.66335872      86.59765779     105.57975723
O      84.72983392      86.77718179     107.80774455
N      85.54430595      88.38911834     103.78262751
H      86.23216634      87.93558402     102.06108684
C      84.12701123      90.83253446     104.06419673
H      82.86278431      90.91001324     105.68747163
C      85.86555943      93.10965467     104.12844742
H      86.54208146      93.42901841     102.21037521
H      87.57198229      92.53139841     105.13189209
C      85.01140313      95.70046944     105.27551129
H      83.66024882      95.31874473     106.78162317
H      84.10811395      96.89288674     103.86010629
C      87.18836785      97.31051626     106.35832447
H      88.27118103      96.01227428     107.53373424
H      86.63845749      98.91867335     107.52050615
C      88.99494621      98.22703352     104.38733993
H      87.90079466      99.49503988     103.18925344
H      89.65068123      96.71525247     103.14956919
N      91.22104380      99.62543099     105.61755176
H      91.96559597     100.74603870     104.26261799
H      92.49849878      98.34986573     106.23171281
H      90.92246705     100.74981815     107.13122253
C      82.42247808      91.10654477     101.77195871
O      82.90246858      90.08987202      99.70648785
N      80.26819009      92.42935319     102.04785875
H      79.92425990      92.97170464     103.84498848
C      78.46539119      92.93013067     100.09577147
H      77.96272398      91.07441943      99.35310903
C      76.16559426      94.44002199     101.27685042
H      76.83266765      95.84219891     102.62989446
C      74.33822892      95.69480026      99.34743985
H      73.67871444      94.56285420      97.75818002
H      75.48340307      97.16689706      98.47060684
H      72.73763073      96.63588397     100.23939067
C      74.56499607      92.55029568     102.79619037
H      75.73662640      91.70747774     104.26450772
H      73.76564185      91.11221395     101.55841964
C      72.28220669      93.68224174     104.39489883
H      70.94239074      94.44947062     103.03240616
H      73.01919996      95.14866936     105.64211820
H      71.37513807      92.20258603     105.50227845
C      79.49718175      94.52128022      97.86211497
O      80.76518812      96.29573323      98.42336368
N      78.97939675      93.70869791      95.53208242
H      77.88902466      92.14589425      95.46783173
C      79.90914209      94.78206245      93.18315262
H      80.67259153      96.64722232      93.61023076
C      82.22972601      93.28728894      92.15892096
H      83.76229405      93.30240675      93.53464171
H      82.73806238      94.40978637      90.50730016
C      81.63824166      90.56419332      91.35011809
C      80.87101279      89.93869391      88.91993005
H      80.73684221      91.48449004      87.59712164
C      80.24929282      87.40646065      88.38702723
H      79.54253519      86.90001400      86.54076463
C      80.14157843      85.56964668      90.33344534
O      79.58788861      83.03741342      89.80054252
H      79.38757763      82.81631544      88.01286142
C      80.92581485      86.24049952      92.82221489
H      80.75762921      84.83076369      94.28864251
C      81.34911354      88.81619648      93.31165401
H      81.75729442      89.47382124      95.19949059
C      77.87957603      95.13544127      91.16114546
O      76.11835111      93.68602119      91.02319544
N      78.11012265      97.08374910      89.53220138
H      79.44237969      98.37443217      89.98762542
C      76.63424640      97.41445121      87.17004349
H      74.59712142      97.29728817      87.44594353
C      77.07455262     100.15077491      86.06644332
H      76.06165931     100.08274476      84.27498278
H      79.10600840     100.48336674      86.16659882
C      75.87646614     102.27293756      87.46295107
H      76.81377040     103.87731520      86.57477970
H      76.50385527     102.05561903      89.41314862
C      72.97384652     102.60930884      87.44405380
H      72.20661764     101.07674080      88.58544850
H      72.16882311     102.53560951      85.54676859
C      72.32944985     105.15854964      88.54954370
H      73.41982194     106.40576900      87.32500105
H      72.95116980     105.37019898      90.50163098
N      69.69706109     105.65932711      88.43616012
H      69.29265967     106.00325730      86.60312560
H      69.33990282     107.38275751      89.17126365
H      68.52165134     104.43100501      89.30165477
C      77.37879856      95.29417828      85.23874320
O      79.31576802      95.38110569      83.94050122
N      75.68749351      93.40067252      84.88725410
H      74.02453436      93.57452734      85.81322000
C      75.90292231      91.48826949      82.84634968
H      77.85500959      90.89300570      82.57044964
C      74.59145224      88.86910882      83.55688678
H      72.53920947      88.93524924      83.38870114
H      75.18860577      88.36644162      85.46362063
C      75.61946337      86.67324684      82.08290025
O      77.62635271      86.86221947      80.88103432
O      74.56877554      84.51895885      82.25864480
C      74.88435983      92.61076692      80.32356506
O      73.88658433      94.68379668      80.19506367
N      75.19238522      91.20481054      78.23730721
H      75.88402505      89.43980617      78.45462573
C      75.29254070      92.17046069      75.59358010
H      77.10478824      93.02272725      75.11358961
C      75.13191398      89.93491446      73.79834010
H      75.08278108      90.48293509      71.81412747
C      77.24840744      88.08487240      74.05156342
H      77.20305401      86.37278036      72.90638928
H      77.59044791      87.59165383      76.02065824
H      78.98506593      88.89367526      73.29567290
O      72.96817735      88.43636149      74.10447576
H      73.33667397      87.24961337      75.42728418
C      73.48218291      94.16601167      74.79800532
O      74.14169739      96.17290102      73.82857572
N      71.06900239      93.90711917      75.52932940
H      70.59657083      92.17612987      76.17750553
C      69.09612813      95.61354203      74.56367926
H      69.78965768      96.64344287      72.92150709
C      66.79444147      93.97514932      73.87770860
H      65.38092620      94.03562056      75.37626157
H      67.27632168      91.98148806      73.68306679
C      65.36958784      94.78584190      71.44185139
H      65.01998847      96.81162851      71.57413223
H      63.63292936      93.69546982      71.62137539
C      67.04766480      94.05262810      69.25165859
O      66.16327290      93.42334923      67.06713497
O      69.43438914      94.07530481      69.41795450
C      68.28354581      97.71113824      76.31734527
O      66.57334350      99.05851310      75.72019176
N      69.65548711      98.00782527      78.37336750
H      71.18616543      96.91178401      78.68895180
C      69.24352679     100.13376737      80.13459243
H      67.80166560     101.48114223      79.54310809
H      71.00853116     101.17878602      80.32545478
C      68.18339031      99.32685423      82.74619419
O      67.07412097     100.82162775      84.05577453
N      68.35724515      96.93446072      83.29799427
H      69.17549664      95.76849959      82.02620847
C      66.95884767      95.81574275      85.32000143
H      65.62848034      97.15366897      86.14392210
C      65.35069058      93.53106363      84.22962935
H      64.15449383      92.94713820      85.79999191
H      66.67916818      91.99660587      83.87625053
C      63.89182186      94.10554043      81.91849407
C      63.26821218      92.13644561      80.17994586
H      63.92394721      90.21081450      80.35569040
C      61.78288730      92.65612035      78.17494624
H      61.34447079      91.23504616      76.77654877
C      60.65850014      95.11465428      77.97841470
O      58.97853344      95.57952696      76.11892401
H      57.91461753      96.89288674      76.78221795
C      60.99109197      96.95524771      79.81144923
H      60.13315623      98.79395141      79.61113824
C      62.64649222      96.49982367      81.81077967
H      62.85625184      97.84341908      83.33200935
C      68.73896985      94.89355630      87.43649490
O      70.77609483      93.95625205      86.86201810
N      67.98685879      94.97670426      89.80621170
H      66.22941332      95.65133656      90.11801654
C      69.56666999      94.38333020      92.00207367
H      71.55844151      94.88221795      91.82254967
C      68.62180682      95.97636948      94.20549455
H      69.46273504      94.81796725      95.68515026
H      66.56956404      95.80440439      94.26029662
C      69.55533163      98.67489866      94.48328432
C      67.89804165     100.54194825      95.36767623
H      65.96296191     100.03172215      95.76829821
C      68.69172669     103.05528425      95.58499476
H      67.51631693     104.60297010      96.21049417
C      71.24852639     103.67889393      94.96894398
O      72.05354981     106.09963334      95.01996659
H      70.81955853     107.31661709      95.56042832
C      72.92282391     101.80239570      94.17147948
H      74.88813928     102.23136358      93.82376984
C      72.05543954      99.25315491      93.96360958
H      73.49730071      97.89066224      93.47794992
C      69.60824396      91.64511677      92.89591422
O      67.66371559      90.65301046      93.38535333
N      71.81733402      90.66245909      93.15480672
H      73.37635823      91.75283117      93.02252588
C      72.46739987      87.78818537      93.35700744
H      70.92538321      86.64112150      94.09966988
C      73.29698973      86.96615442      90.61501456
H      74.96750778      87.96392991      89.93471309
C      73.74485485      84.24872798      90.28620218
H      72.18772037      83.22638605      91.16114546
H      75.22829001      83.36433607      91.41058934
H      73.86201789      83.85188546      88.26797448
O      71.20128324      87.65212507      88.99173965
H      71.34679216      89.32075341      88.29443065
C      74.66704130      87.23449556      95.16925497
O      76.00874699      89.03162528      95.72672423
N      74.93916189      84.95170617      96.30687021
H      73.84878980      83.52118335      95.66814272
C      76.80432176      84.04652727      98.27218558
H      78.48050899      85.23516512      98.15124309
C      75.57033048      84.66824722     100.92914077
H      75.00152286      86.64868040     100.94425858
C      73.00597188      83.19804015     101.25228397
H      72.21984572      83.70259708     103.08909795
H      73.19305477      81.16280491     101.00661955
H      71.53576480      83.61944912      99.87278377
C      77.22384100      84.08243207     103.17224591
H      78.05910004      82.20782357     103.33854182
H      76.09378467      84.33187594     104.87677904
C      79.35356255      86.04207825     103.44058704
H      80.31543324      85.83609809     105.25094485
H      78.83766728      88.03573951     103.37633635
H      80.67259153      85.55263914     101.93636490
C      77.52997666      81.25540150      97.91313758
O      76.16937372      79.96282871      96.55442436
N      79.59922697      80.40502466      99.33232204
H      80.78219565      81.69003856     100.10144065
C      80.42314765      77.66870096      99.60444263
H      78.83199810      76.73706589     100.52473934
H      81.91792116      77.39280092     100.99528120
C      81.01085253      76.47628366      97.00417922
O      82.54908975      77.45705161      95.62467901
N      79.61245507      74.58466762      96.30309076
H      78.62412819      73.84389490      97.76006975
C      79.73339755      72.94060573      93.99573493
H      81.35478272      73.64169419      92.93748820
C      80.44582436      70.12680325      94.46627678
H      78.81121110      69.21406544      95.32421253
C      80.80487236      68.79454620      91.86412365
H      82.63223770      69.46350931      91.18382218
H      79.37434955      69.38603053      90.50541043
H      81.06376486      66.77442877      92.16836959
C      82.77585690      69.72618127      96.18403800
H      82.52641304      70.76931019      97.94148347
H      84.26874070      70.64458826      95.10122482
C      83.65835909      67.11835896      97.10055526
H      85.31942852      67.15426376      98.31942874
H      84.03630435      65.88625740      95.49239817
H      82.04453283      66.42482940      98.17580954
C      77.24651771      73.70405516      92.55198403
O      75.26608454      72.51730703      92.52741759
N      77.42037253      75.87913014      91.25185233
H      78.82254946      77.13579814      91.56554689
C      75.30387907      76.44982749      89.40181026
H      75.25663590      74.73017654      88.26986420
H      75.78764901      77.91247566      88.03553814
C      72.75463828      77.08288580      90.57910976
O      70.85546333      76.76352206      89.06921843
N      72.65259305      77.91814483      92.84867106
H      74.21161725      77.97483662      93.94849177
C      70.22807420      77.95971881      94.23950963
H      69.08290005      76.48951174      93.36267662
C      70.39625983      76.92981797      96.96638470
H      71.31844627      78.14113254      98.35533354
H      71.22962913      75.04954029      97.09299636
C      67.90371082      76.57076997      98.25895749
N      66.71507297      74.30498812      98.71438154
H      67.47474295      72.57210910      98.45548903
C      64.52488017      74.67348476      99.99939543
H      63.12648271      73.24674139     100.41513522
N      64.17906027      77.19815911     100.29608246
H      62.55389563      78.03719759     100.84221336
C      66.40326813      78.37167915      99.29074806
H      66.66971954      80.38045822      99.04886309
C      69.07156169      80.65635826      94.08455207
O      69.81422412      82.40246538      95.50940571
N      67.34813128      80.93792748      92.30820933
H      67.00042164      79.43559506      91.18382218
C      65.97052081      83.14701754      91.86979283
H      67.31222648      84.60399653      91.30098521
C      64.06567668      82.80875653      89.63235687
H      62.89215665      81.12690011      89.82699869
H      65.19573302      82.47049552      87.94294155
C      62.24775998      84.94792672      89.29220614
H      61.17250569      85.32020280      91.00618790
C      63.58946565      87.47449080      88.68938344
H      64.59480006      88.20392516      90.33344534
H      62.31956957      89.02406638      88.21884159
H      64.99542202      87.28740789      87.19460993
C      60.53566793      84.37156019      87.07933663
H      58.77444301      83.45693266      87.62735726
H      61.65438590      83.57409569      85.54298913
H      59.91772743      86.17624882      86.30454884
C      64.58535142      83.85377518      94.32643704
O      63.18317449      82.27207426      95.22594676
N      64.62314595      86.24805842      95.09744537
H      65.78343790      87.42724764      94.14880276
C      63.25876355      87.32898187      97.19315185
H      62.54444701      85.85499535      98.44037122
C      65.06156246      88.84832183      99.07720899
H      63.78032802      89.75161101     100.41513522
H      66.02532288      90.32986726      98.02085198
C      66.97396547      87.05497156     100.49639345
H      68.13803688      86.03829880      99.13768023
C      68.78810275      88.96548486     101.82487105
H      70.33200913      88.37777998     103.05508288
H      67.53143474      90.03695968     103.05508288
H      69.62336177      90.17679943     100.38112014
C      65.89115230      85.05753085     102.37478140
H      65.07101109      83.45126348     101.38267509
H      64.48897537      85.87389261     103.64467749
H      67.49930939      84.60966571     103.58042679
C      61.22541803      89.03918419      96.17836882
O      58.95396701      88.52139918      96.60922642
N      61.89060170      90.95725639      94.75162546
H      63.73875403      91.13489067      94.30753977
C      59.98764730      92.56919294      93.54975952
H      58.43807173      91.31063522      93.03953342
C      58.95963619      94.55907475      95.51696461