 %block lattice_cart
   137.614   0.000   0.000
   0.000 142.646   0.000
   0.000   0.000   160.855
 %endblock lattice_cart

 %block positions_abs
N      86.27751976      40.97021596      77.04961422
H      85.67847652      39.44898627      78.03416163
H      88.04819332      40.48455630      76.53749839
H      85.19659631      41.31603587      75.51326673
C      86.46838212      43.25300535      78.68422748
H      87.75717547      42.86372173      80.24325169
C      87.55497475      45.53957419      77.33307317
H      86.54775063      45.90807082      75.57373797
H      89.56753327      45.29390976      76.96646626
C      87.29986170      48.16629377      78.75792681
H      88.30141664      48.33069996      80.55127708
H      85.34777442      48.54045957      79.30027826
S      88.29007829      50.79679278      76.70946348
C      91.60654797      50.08814543      76.54505729
H      92.55330085      51.55646277      75.45279548
H      92.14323024      48.26833898      75.74759279
H      92.41724055      50.12027077      78.43856306
C      83.80197829      43.68386295      79.84451944
O      81.96705404      43.54780265      78.47635759
N      83.64891046      44.05991848      82.32195063
H      85.28352372      44.00322669      83.30649804
C      81.43982040      44.79880148      83.80538579
H      79.72772836      43.75756227      83.33295421
C      82.04642255      44.14117672      86.62674717
H      83.54308579      45.38839608      87.29760001
H      82.94971173      42.28924493      86.68910814
C      79.70127219      44.43030484      88.40686936
O      77.78508971      45.32603511      87.67365555
N      79.89024483      43.62906089      90.76146835
H      78.48050900      43.84259995      92.02758498
H      81.57588070      42.93175188      91.32649651
C      80.86156415      47.64661903      83.71656865
O      82.58310482      49.25666585      83.91498991
N      78.52208298      48.27589789      83.50302958
H      77.11423687      47.00600180      83.70523029
C      77.83611232      50.89505856      83.40854326
H      78.91325632      51.66984634      81.83251152
C      75.08656054      50.95930925      82.70745480
H      74.77853515      49.78389949      81.04449564
C      73.41226302      50.04279198      84.92788322
H      71.46206547      50.51333385      84.45545164
H      73.74485486      51.27300381      86.54548894
H      73.80343637      48.07936636      85.40976343
C      74.52720155      53.58791856      81.86841632
H      74.99207422      54.99954410      83.29326996
H      72.50708412      53.65594871      81.47724297
C      75.68182433      54.61781939      79.45523582
H      75.18671603      53.35548221      77.90566024
H      77.70572121      54.96930848      79.62531118
H      74.80688104      56.39416212      78.89398710
C      78.69404807      52.32180193      85.82172376
O      79.25340706      54.60648104      85.63086141
N      78.72617342      51.03489830      88.01191656
H      78.04209249      49.25477611      88.07994671
C      79.74851535      52.12716011      90.40619980
H      78.50507544      53.73342747      90.73690190
C      78.88680015      50.22042627      92.46222203
H      79.88646537      48.44408352      92.17309390
H      76.85723409      49.89161388      92.38285352
C      79.27608377      51.22387093      95.15508202
C      78.06854866      53.43107126      95.92042118
H      76.75896833      54.21530768      94.56737714
C      78.30287472      54.47420019      98.27124071
H      77.43549035      56.25432238      98.75501065
C      79.72205918      53.13060479     100.11561360
H      79.98095169      53.88271586     101.99589128
C      80.92203539      50.89694829      99.40129705
H      81.99728966      49.96909267     100.86583494
C      80.51763396      49.74799468      97.03158025
H      81.49840192      48.00188757      96.62906855
C      82.59822263      52.55612799      90.43832515
O      83.53930634      53.72586858      92.17687335
N      83.94181804      51.88716487      88.32939058
H      83.09522065      51.02544968      86.85351433
C      86.64223694      52.41817796      87.89853298
H      87.06364591      53.56902129      89.55393323
C      88.21070978      49.83303236      87.89475353
H      90.21004022      50.32436121      87.79648776
H      87.94047892      48.86360278      86.09573408
C      87.53796721      48.10015334      90.10195386
H      88.19559197      46.21231676      89.59928666
H      85.53107787      47.63339095      90.14730729
C      88.49227900      49.00344252      92.55670834
O      88.16157690      47.55780189      94.50312645
O      89.68847576      50.99899351      92.82504948
C      86.94837260      53.92240012      85.41543261
O      88.24094540      55.84614149      85.51936755
N      85.42903265      53.53122676      83.45578642
H      84.18937219      52.08369640      83.56539055
C      85.49328334      54.91261669      81.08040044
H      87.23561100      54.48742827      80.06561741
C      83.27285493      53.93940765      79.43255910
H      81.61934440      53.77689118      80.64387367
H      83.78497076      52.13093957      78.58785144
C      82.62845825      55.79511888      77.10063683
H      84.39913181      56.43195666      76.26726753
H      81.51918891      57.46941639      77.55984032
S      80.82187990      54.40239059      74.48525561
C      82.72861375      51.62827237      73.65755549
H      84.68637021      52.17818272      73.32118420
H      81.90280335      50.57380509      72.09286210
H      82.52452331      50.37727354      75.28083039
C      85.21738330      57.81334659      81.50747859
O      86.82931985      59.25520776      80.69300655
N      83.31631863      58.52955286      83.00414183
H      82.26941025      57.27855405      83.99246869
C      82.93270419      61.20162586      83.46523505
H      83.01585215      62.31278493      81.73424575
C      80.20393939      61.44351083      84.54237905
H      79.99984895      63.45984882      84.90898595
H      80.23417501      60.52132440      86.38486221
C      77.99862879      60.55911893      82.70367535
H      77.86634794      58.54278095      82.30116364
C      75.49474142      61.44540056      83.87908511
H      75.17915713      60.62903879      85.74424499
H      73.95461448      60.69328948      82.73580069
H      75.31332770      63.49575361      83.82617278
C      78.32366171      61.62114510      80.05805851
H      79.65969822      60.40983055      79.06406247
H      78.71105561      63.64504199      80.06561741
H      76.75140942      61.19406697      78.79761106
C      84.93581408      62.56033908      85.05827433
O      85.43659155      64.77887777      84.64631400
N      86.33043210      61.19028751      86.63241635
H      86.11311357      59.29867148      86.49446633
C      88.59432422      62.07467942      88.01002683
H      88.12756182      63.48063581      89.44054965
C      90.16657652      60.13959967      89.50480035
H      91.89000691      60.85202650      90.38163336
H      90.67869235      58.50687615      88.35962620
C      88.51306599      59.02466116      91.50035133
H      86.98616713      58.00798839      90.55926763
H      87.50773159      60.45140453      92.59261314
C      89.70170384      57.21052389      93.46944615
H      91.09443214      58.00420895      94.76201895
H      90.68436153      55.63260243      92.58127479
N      87.69292477      55.96330452      94.93776350
H      87.41324528      54.11704192      94.54847988
C      86.61200132      56.71730532      97.07504396
N      87.28096444      58.88293169      98.04258383
H      86.47594103      59.32701737      99.71499162
H      88.40913104      60.15282776      97.16953027
N      84.82432023      55.38693801      98.04069410
H      84.03819408      55.99542987      99.66963819
H      84.19882082      53.89972339      97.02402135
C      90.51239643      63.32945770      86.17510258
O      92.02039803      64.95084288      87.11618629
N      90.72971496      62.69261993      83.66743577
H      89.75083673      61.16950053      83.06083362
C      92.21692957      64.01542835      81.69078204
H      93.35832426      65.45539980      82.62430684
C      94.06130245      62.18239383      80.43600377
H      94.96270190      63.23875084      78.91288436
C      96.20425209      61.37359097      82.38620133
H      95.44080266      60.03944419      83.75625290
H      97.11321044      62.89860010      83.43688916
H      97.76138657      60.45896343      81.39787447
C      93.14289546      59.71819072      79.05272411
H      94.32208468      59.50465164      77.37653687
H      91.25883832      60.15471749      78.34596647
C      93.21470506      57.19351635      80.50781337
H      92.00528022      57.18217800      82.17455198
H      95.15167453      56.72675396      81.02937783
H      92.45314535      55.82724423      79.16610769
C      90.57286767      65.52154022      79.88420369
O      91.44781096      67.54354738      78.99981177
N      88.24472486      64.76942915      79.43066937
H      87.67213778      63.10835972      80.17900099
C      86.65546503      65.84279369      77.42000058
H      87.72882957      66.63269929      75.84963801
C      84.90746819      63.61480637      76.40521755
H      83.01396242      64.38392497      76.14254559
H      84.86400448      61.92539104      77.58251704
C      85.71249160      62.46774249      73.82007195
O      87.85922069      62.77765761      72.84497317
O      83.94937695      61.32256836      72.67489780
C      85.16636069      68.11613445      78.24203152
O      84.76573871      69.67515866      76.54316757
N      84.24984343      68.10479609      80.58718188
H      84.78463598      66.64403764      81.69078204
C      83.39001796      70.30443752      82.05738895
H      82.67003223      71.48740618      80.53237981
C      81.20549434      69.42571478      83.73546591
H      81.81776567      68.51675642      85.47968330
H      80.13779897      68.02164813      82.67532945
C      79.47450504      71.57622333      84.63875509
H      80.61023055      72.98217970      85.62897168
H      78.05343085      70.85812732      85.94644570
C      78.04020277      72.98595916      82.51281299
O      76.14102782      72.08078025      81.47157379
O      78.90191796      75.18938003      82.03093278
C      85.51596006      71.77653431      83.36318983
O      85.71438132      74.13302302      83.31027749
N      86.99183631      70.43104918      84.97701610
H      86.69136983      68.54699204      85.02614899
C      88.67558245      71.44772194      86.83650679
H      90.14201007      72.73840501      86.18266149
H      89.85477167      69.90192581      87.52058772
C      87.19403703      72.48518169      89.04937631
O      84.88668120      72.72139748      89.05315576
N      88.57164751      73.54720787      90.86351357
H      90.44814574      73.85712299      90.69343820
C      87.64568161      74.32766483      93.33527558
H      85.61422583      73.99696273      93.44298998
C      89.05352772      72.36234948      95.10783887
H      91.05474788      72.15636930      94.66564291
H      88.33732144      70.45939508      94.77902649
C      88.71904616      72.92359819      97.93486943
H      89.11399896      74.91725944      98.27690989
C      86.02429644      72.29242960      98.84760724
H      84.64101678      73.64358391      98.13707015
H      85.99406082      72.48518169     100.89796029
H      85.62745391      70.27987108      98.65296543
C      90.47082245      71.08111503      99.35783334
H      90.31208544      71.47795756     101.37417132
H      92.39834329      71.27764656      98.65296543
H      90.12878199      69.05910787      99.17830934
C      88.36188789      76.98462003      93.91920102
O      90.62766974      77.42492626      93.97400308
N      86.65546503      78.73072715      94.45588329
H      84.82243050      78.20349350      94.54092097
C      87.29230279      81.33099055      95.42720261
H      89.27840515      81.17225355      95.95443625
C      86.73861298      83.19992987      93.21055365
H      86.49294856      85.02918494      94.12707091
H      84.94337299      82.71615995      92.32616173
C      88.86077563      83.48716828      91.24712801
H      89.54485656      81.57098579      90.91642590
H      90.37822586      84.69659311      91.93498839
C      87.89701521      84.68714448      88.78859408
H      89.59587917      84.80619724      87.63397130
H      86.91624726      86.41246460      89.34417361
N      86.18303345      83.03552369      87.36374044
H      86.66491366      81.19304053      87.49035210
C      84.35377838      83.42291758      85.75747307
N      84.06465025      85.61500010      84.79182292
H      82.49239796      86.01751181      83.78837825
H      85.37423059      86.98883113      84.98835446
N      83.17080971      81.45571250      84.79560238
H      81.90280335      81.74484062      83.39909463
H      83.03096996      79.87590129      85.85573884
C      85.99217109      81.63901594      98.01423794
O      83.69426389      81.88090091      98.04069410
N      87.32442814      81.64090566     100.14018004
H      89.21982363      81.76751733      99.96254576
C      86.26429168      81.77507624     102.65162631
H      84.87912229      80.31620752     103.09760172
C      88.44314612      81.34988782     104.46954302
H      87.60599736      81.91302625     106.26478302
H      89.89823538      82.76151337     104.10104639
C      89.78107235      78.73072715     104.55080125
H      91.15868283      78.72694769     103.02012294
C      91.46859795      78.57576959     106.93752559
H      92.54952140      76.85989809     106.57469813
H      90.43302793      78.32254626     108.69875051
H      92.74794266      80.18014722     107.12271876
C      88.02929606      76.47628366     104.54702180
H      86.68003147      76.42526104     106.10415628
H      89.12155786      74.73206627     104.45631494
H      87.14112469      76.27786239     102.70075919
C      85.17580932      84.30541978     103.36594285
O      83.39190768      84.49439240     104.71142799
N      86.10177522      86.50884066     102.37194681
H      87.61166654      86.40112625     101.20787540
C      84.76195926      89.02028692     102.67808248
H      84.08543724      89.10154515     104.62072113
C      86.79341505      91.09142696     102.46643313
H      87.62300490      91.38811399     100.60127326
H      88.23149677      90.61332620     103.86294087
C      85.59343884      93.64633693     103.42641410
H      84.52952292      93.28539920     105.15362395
H      84.31031467      94.42679390     102.01667827
C      87.85355151      95.44724611     104.34482108
H      88.88723180      95.80818383     102.60060370
H      88.94770304      94.53450831     105.83203569
C      87.01829248      97.94924375     105.44842125
H      86.66302393      97.33886216     107.38350100
H      85.24572920      98.39332943     104.49977864
N      89.08943252      99.81251389     105.40117809
H      90.55208068      99.07552064     106.38005632
H      88.64156738     101.40744290     106.34604125
H      89.55808464     100.32085027     103.62294563
C      82.54908975      89.28295887     100.90929865
O      82.83254870      88.32675736      98.74556202
N      80.52897232      90.66434881     101.67652753
H      80.30598461      90.91568241     103.55680521
C      78.37090487      91.14622902      99.98900193
H      77.50729995      89.33398148      99.53357789
C      76.17126344      92.62210527     101.41385557
H      75.96528327      91.90967845     103.33570723
C      77.10667797      95.31118582     101.99778100
H      77.14447249      96.43935242     100.27435061
H      79.01908100      95.20536114     102.75367153
H      75.96906273      96.34486612     103.36594285
C      73.58422812      92.49927306     100.03624509
H      72.96250816      90.54340632     100.19498210
H      73.86201789      93.06430124      98.07659890
C      71.54710315      94.04317946     101.20409595
H      69.69895082      93.38177525     100.58237599
H      71.83623128      96.07841471     101.04157949
H      71.51875726      93.78995613     103.24877982
C      79.08144196      92.34242577      97.34905427
O      80.75384975      93.83153011      97.28480358
N      77.96083426      91.72448527      95.25334779
H      76.44716348      90.56608304      95.30059095
C      78.85656453      92.31219015      92.60017205
H      79.58032971      94.24160072      92.55292889
C      80.81810045      90.43947138      91.53058696
H      82.49806714      90.62277484      92.70410700
H      81.47761493      91.01583790      89.66542708
C      80.08110718      87.60110246      91.22634102
C      79.23639952      86.86032975      88.93221328
H      78.82443919      88.20770461      87.45633702
C      79.11734676      84.39612664      88.36340565
H      78.55987750      83.93125396      86.45478208
C      79.33088584      82.53096677      90.11329222
O      79.41781325      80.17447805      89.37629896
H      78.86979262      79.84944513      87.67743500
C      79.99229005      83.23016549      92.55481862
H      80.25118255      81.86200365      94.04959213
C      80.22472638      85.81531109      93.12173651
H      81.03352925      86.41246460      94.89807925
C      76.55865734      92.20069630      90.92587454
O      74.51586319      91.45803386      91.68743424
N      76.69660736      93.14366974      88.54859883
H      78.39547131      93.88822190      88.10262342
C      74.72940226      93.38177525      86.51147387
H      72.86046294      93.01516834      87.29571029
C      74.57822416      96.06896606      85.44188877
H      73.43871919      95.78550712      83.74869400
H      76.45472239      96.82674633      85.05071543
C      73.42171166      97.75649166      87.49791100
H      74.55365772      97.44279710      89.19110578
H      71.46584492      97.18201486      87.80215694
C      73.29132054     100.59675031      86.76280747
H      72.03276282     100.89343734      85.15842983
H      75.16403932     101.27516207      86.23557383
C      72.46551014     102.20301768      89.02103041
H      73.97351174     102.55639650      90.37785390
H      70.92349347     101.13910176      89.87896616
N      71.54143397     104.77115575      88.21978646
H      70.38870092     105.44956749      89.58038940
H      70.43783381     104.59919064      86.67399033
H      72.93983145     105.91255043      87.59428705
C      75.22262083      91.55818935      84.34395779
O      77.24084853      91.81897159      83.12508432
N      73.44060892      89.91790692      83.61452343
H      72.03087309      89.40957054      84.79560238
C      73.95272475      88.13778473      81.44511762
H      75.89347367      87.45748326      81.36007994
C      72.18583065      85.88523096      81.53960394
H      70.19216939      86.24616869      81.17110731
H      72.30299368      85.28429800      83.50680903
C      73.16659860      83.69881763      80.05805851
O      75.14514205      82.55364348      80.68922710
O      71.97229157      83.09788466      78.07195615
C      73.48974180      89.66846304      78.95067889
O      73.44249865      91.99849559      78.92233300
N      73.12691435      88.37589024      76.72836075
H      72.71117456      86.52017901      76.89465666
C      73.59934593      89.49271849      74.19234803
H      75.17159822      90.76828376      74.56840357
C      74.53476045      87.69180932      72.16656143
H      75.06199410      88.82186565      70.52816871
C      76.92904369      86.40490570      73.18134446
H      77.82099451      85.42980692      71.60342298
H      76.67582037      85.06131029      74.72336113
H      78.30287472      87.86566414      73.64810686
O      72.84534513      85.73972204      71.56184901
H      71.18238598      86.31419884      71.11965305
C      71.41104286      90.95158722      73.08874787
O      71.68883263      92.45391963      71.39177364
N      69.09423840      90.33931588      73.85408702
H      69.04510552      88.90501362      75.11075502
C      67.04199562      92.11187916      73.45346505
H      67.25553470      92.79973954      71.52405448
C      64.59291032      90.68135635      73.55739999
H      64.06567668      90.60954675      75.54917153
H      64.88770763      88.74438688      72.92056223
C      62.56901344      91.89645036      71.87932303
H      62.01154418      93.70302872      72.69568479
H      61.04778376      90.51128098      71.98325797
C      63.52899441      92.23849083      69.17701440
O      63.18884367      90.49238372      67.72003541
O      64.39637879      94.36821238      68.50049238
C      67.01931891      94.20569593      75.52649481
O      65.49053032      95.87621398      75.47358247
N      68.83156644      94.18868838      77.42000058
H      69.94650497      92.63911282      77.34441152
C      69.20762198      95.98581812      79.35130087
H      68.19850813      97.66011563      78.70123502
H      71.22207023      96.41289625      79.43066937
C      68.27409718      95.20914059      81.96101291
O      68.51787187      96.60942780      83.83562141
N      66.94939903      93.11532384      82.32950954
H      66.51476198      92.12132780      80.75914697
C      65.47163306      92.62021554      84.66332153
H      64.68550691      94.40222746      85.33039492
C      63.19451285      90.84576253      84.30616326
H      62.10603049      90.99883037      86.04660120
H      64.17150135      89.03540474      84.23246393
C      61.42761875      91.06119134      82.05360950
C      60.21252473      88.88233691      80.92355316
H      60.59802890      87.14000925      81.91376975
C      58.72342039      89.17524447      78.78627270
H      57.86737437      87.60110246      77.80739447
C      58.61381627      91.50338729      77.57873759
O      57.40061197      91.60921197      75.39988315
H      57.70296818      93.10209575      74.41344601
C      59.58135614      93.70869790      78.64076377
H      59.66261437      95.34898035      77.42944921
C      61.09313719      93.47815130      80.88575863
H      62.07579487      95.13544127      81.55472175
C      67.06467234      91.63566814      86.77981500
O      68.72952122      90.10310010      86.52092250
N      66.33901744      92.46714771      89.05693521
H      64.97652476      93.76538969      89.37251951
C      67.83001150      91.76039008      91.19610540
H      69.72729671      92.51061142      90.92020536
C      67.23852716      93.03217589      93.71133112
H      68.13425743      91.87944283      95.16642038
H      65.20140219      92.93579984      94.01179760
C      68.33078897      95.66078518      94.07793803
C      66.82089765      97.76783002      94.05904076
H      64.81967748      97.47492245      94.34249971
C      67.81489369     100.25659957      94.12707091
H      66.56200514     101.85908749      94.29714628
C      70.48129751     100.46635919      94.30659491
O      71.51875726     102.81717873      94.47667028
H      70.12980842     103.98313986      94.44076548
C      72.10835187      98.35742464      94.47667028
H      74.12468984      98.51049246      94.75446005
C      70.98585444      95.86487562      94.35761752
H      72.21984572      94.24726990      94.51446480
C      67.98874851      88.89556498      91.79892809
O      66.03477150      87.63889699      91.97278291
N      70.33956804      88.10754911      92.28269803
H      71.71339907      89.42279862      92.15230691
C      71.18427570      85.46949118      92.58316451
H      69.56100080      84.39612664      93.25779681
C      72.00441692      84.67958558      89.87896616
H      73.68060416      85.75295012      89.34606334
C      72.89069856      81.95271051      89.62385311
H      71.21262160      80.87367679      90.12841003
H      74.58578307      81.40091042      90.65564367
H      73.60879456      81.63712621      87.71900898
O      70.14870568      84.96304453      88.00246793
H      69.62336177      86.69403383      88.11585151
C      73.26864383      85.24083429      94.65241482
O      74.54987827      87.00772840      95.29681150
N      73.62958155      82.88056613      95.71444101
H      72.42582589      81.60122141      94.96610939
C      75.38702702      82.28341262      97.77802215
H      77.04431700      83.50228608      97.64574130
C      74.06610833      82.68214486     100.45009515
H      73.41982193      84.63423214     100.58048627
C      71.57733877      81.18170217     100.56914791
H      71.94772513      79.17103337     100.81859178
H      70.40192901      81.59366251      98.93075520
H      70.51342286      81.89223927     102.18486391
C      75.62324281      82.13034478     102.70642837
H      76.50763473      80.27085410     102.61383178
H      74.53287073      82.26262562     104.44875603
C      77.64147051      84.35833211     102.84437839
H      79.10789813      84.01062246     101.44031174
H      78.40114049      84.18447728     104.75111224
H      76.80810121      86.23483033     102.68564138
C      76.42637649      79.68503893      97.36039263
O      75.19616466      78.13735309      96.00923832
N      78.77908575      79.06331898      98.18242358
H      79.75229480      80.38801712      99.15374290
C      79.53497628      76.40447405      98.56225857
H      78.13279935      75.30276362      99.59593886
H      81.37367998      76.55376243      99.48066555
C      79.97339278      75.02686357      96.13584998
O      81.29809093      76.12290483      94.50501617
N      79.17970773      72.65147760      95.86183966
H      78.06476921      72.04865490      97.28858303
C      79.36112146      71.36268425      93.20488447
H      81.02219089      71.98440421      92.15797609
C      79.80709687      68.51675642      93.33149613
H      78.17059388      67.87424947      94.40297095
C      80.28708735      67.56622409      90.60840051
H      80.49873670      65.52342995      90.43454569
H      81.95760541      68.48841053      89.82983327
H      78.54664942      67.94605907      89.57660995
C      82.16547531      68.04054539      95.13807449
H      81.60611632      68.56399958      97.05047752
H      83.61678512      69.42004560      94.65052510
C      83.54119606      65.44406145      95.16831011
H      82.26185135      64.11180438      96.08104792
H      85.17202987      65.55366557      96.41930893
H      84.07031943      64.80533395      93.28425297
C      76.93849232      72.01652955      91.85561988
O      75.17726740      70.52742523      91.73845685
N      76.87613136      74.34467238      90.94099235
H      78.41814803      75.44071363      91.19988485
C      74.92971325      75.28575607      89.26480511
H      74.90703654      73.94216067      87.70389117
H      75.34923250      77.11123170      88.40875909
C      72.23685326      75.42748556      90.32683129
O      70.36035503      75.29709443      88.83772696
N      71.76631141      75.73740066      92.84394674
H      73.17415751      76.40636378      93.94376746
C      69.13959183      75.89613767      93.69999276
H      67.99063823      74.48073266      92.74001180
C      69.17360690      75.15158551      96.64229663
H      70.28476598      76.65958710      97.50023238
H      69.96918168      73.25430029      96.60261238
C      66.56389487      75.03253275      97.91597217
N      65.39226455      72.77053035      98.56225857
H      65.97618998      70.99229789      98.20510029
C      63.05467310      73.46783937      99.46554774
H      61.69218043      72.11668505     100.15529785
N      62.94695870      76.01519043      99.43720185
H      61.45596464      76.99406867     100.11183414
C      64.94628914      77.00162758      98.22588728
H      65.44895634      78.95749430      97.93675916
C      67.72796628      78.34144353      93.29181188
O      68.44795200      80.23494929      94.46533192
N      65.62281116      78.46049628      91.90286304
H      65.04833436      76.79942685      91.16020060
C      64.14693491      80.77730074      91.48712325
H      65.57934746      82.14546259      90.92398481
C      62.09658186      80.41069384      89.40086540
H      61.21596940      78.59466685      89.80715656
H      63.00554022      80.07432255      87.58483841
C      59.91016852      82.20593383      89.20055441
H      59.17695471      82.63301198      91.07894237
C      60.71141248      84.75139518      87.98357067
H      62.11925858      85.62066928      89.21000304
H      59.02955606      85.86633371      87.57350006
H      61.61659138      84.45281843      86.15809505
C      57.80312368      81.23083506      87.44499867
H      57.32313320      79.31465257      88.02514464
H      58.51932995      81.19493026      85.51369837
H      56.25921728      82.58954827      87.32783564
C      62.80522923      81.65791320      93.77936127
O      61.49564890      80.12723490      94.96988885
N      63.02254776      84.13534440      94.54092097
H      64.00331571      85.31453362      93.40330573
C      61.72241605      84.91958082      96.98811655
H      61.31612490      83.33787990      98.24478455
C      63.57245811      86.68458519      98.22777701
H      62.58980043      87.72582440      99.70932244
H      64.10158148      88.19636624      96.93331448
C      66.00831533      85.48460898      99.27090593
H      66.94561958      84.48683349      97.73077899
C      67.77898889      87.48393943     100.54080202
H      67.14782030      87.67291206     102.49099957
H      67.71851764      89.17335475      99.36161280
H      69.73674535      86.87733728     100.74300273
C      65.29399878      83.49472719     101.20976513
H      64.36992262      81.80342213     100.48411023
H      64.22063424      84.55486364     102.61194205
H      66.87003053      82.80497707     102.34738037
C      59.27711020      86.36900090      96.34560960
O      57.31746402      85.93625357      97.31125975
N      59.34325062      88.26628612      94.59950249
H      61.04589403      88.77462250      93.90030375
C      57.17951400      89.78373636      93.81904552
H      55.59781307      88.55163479      93.34283449
C      56.40094676      91.61488114      95.93364926