 %block lattice_cart
   137.614   0.000   0.000
   0.000 142.646   0.000
   0.000   0.000   160.855
 %endblock lattice_cart

 %block positions_abs
N      92.21409497      40.41369157      80.23285819
H      92.63739367      39.85622230      82.00920093
H      93.83170071      40.33621279      79.22374434
H      90.94230917      39.16080301      79.55633617
C      91.12561263      42.95915290      80.24608628
H      91.85882642      43.98338457      81.87880981
C      91.75300176      44.45392642      77.79700097
H      90.20531590      45.56886495      77.02032346
H      92.37661144      43.09521321      76.37970624
C      93.78823700      46.43246987      78.39982367
H      94.62538575      47.23182411      76.69529053
H      95.37749683      45.63878482      79.44295259
S      92.74510807      49.10643261      80.18372531
C      95.42662971      51.02072535      80.24230682
H      97.11226558      50.00972178      80.86591651
H      95.17340638      52.51549887      81.63692484
H      95.78189826      51.96180906      78.44517710
C      88.23811081      43.08765430      80.68261305
O      86.93608939      41.33776773      80.00042185
N      87.17986408      45.01328540      81.86747145
H      88.24566971      46.44569795      82.54399347
C      84.74400687      44.74116481      83.05988876
H      83.33238131      43.88322908      81.82967693
C      84.85361099      43.53362971      85.77920492
H      86.46176808      44.06653252      86.94705578
H      85.26179188      41.51540200      85.74141039
C      82.58971887      44.12700376      87.44216408
O      82.77302231      45.72193277      89.07488761
N      80.50913020      43.00072688      87.00563730
H      78.92931900      43.42969475      87.98451553
H      80.30503975      41.85177329      85.49574597
C      83.45899296      47.42457618      83.15059562
O      84.93486921      49.27272851      83.50397444
N      80.97589260      47.68724814      83.23941276
H      79.98378627      46.05452460      83.26775865
C      79.86473352      50.24404784      83.48696690
H      80.08016233      51.19458017      81.67471937
C      76.94699610      49.98704506      84.18805536
H      76.21756174      48.79840721      82.67438459
C      76.07961171      48.80029694      86.82800302
H      75.95488977      50.09286974      88.42671148
H      77.44021467      47.37733302      87.43271544
H      74.34295324      47.70047623      86.70517081
C      75.38419244      52.47203517      83.91026560
H      76.30826860      53.87232237      85.10646235
H      73.56249626      52.31140842      84.85701848
C      74.93821703      53.45091340      81.19283916
H      73.52092229      52.34164405      80.18939449
H      76.76936183      53.39800106      80.24986573
H      74.24657720      55.37465478      81.45362139
C      80.97589260      51.92023509      85.61668846
O      81.24234401      54.15767103      85.13102879
N      81.46533171      51.19646991      87.94861073
H      80.90408300      49.46170114      88.51363889
C      82.34027500      53.07674758      89.84400622
H      80.98912068      54.63010261      89.80810142
C      82.16642018      51.73693163      92.51041005
H      83.01679702      53.05974004      93.84077737
H      83.11695251      49.90956628      92.55954293
C      79.43765537      51.17001373      93.27008002
C      78.57027100      48.60376540      93.18882179
H      79.74946021      47.15056586      92.37246003
C      76.08717062      48.03684750      94.22250209
H      75.39553080      46.12822394      94.00707329
C      74.59995602      50.03428822      95.19571114
H      72.75369341      49.69602722      95.99695509
C      75.49757601      52.57597011      95.20138032
H      74.22390047      54.01783130      95.88168179
C      77.92587432      53.22792569      94.19226647
H      78.55326346      55.15355681      93.94660204
C      84.96132539      54.16522995      89.19205064
O      85.08982678      56.46691660      89.00118828
N      86.79247019      52.55518312      88.32088681
H      86.40129684      50.69191298      88.42293203
C      89.22643767      53.47925929      87.21161747
H      90.10705014      54.86442867      88.46072656
C      90.99333178      51.24560279      86.90737153
H      92.78479233      52.01472140      86.24218787
H      90.38672963      49.75460872      85.62424736
C      91.71142778      49.86421285      89.41125889
H      93.22320883      48.50360990      89.08433624
H      90.05413781      49.04029218      90.31265834
C      92.76400534      51.88055084      91.32933110
O      91.89473123      51.92779399      93.50629581
O      94.39672887      53.39422160      90.54509468
C      88.91652257      54.90600266      84.59623625
O      90.22799263      56.83352350      84.19372454
N      87.00222981      54.37498956      82.85579831
H      85.71343645      53.02950442      83.26397920
C      86.27090573      56.01905145      80.68639251
H      87.59371415      55.88299116      79.11414021
C      83.76701836      55.18757187      79.61491769
H      82.28925238      55.65055483      80.97552063
H      83.67820123      53.13154964      79.53365946
C      83.25112308      56.25904670      76.89371180
H      84.53235752      55.09119584      75.78066300
H      83.81237179      58.23570042      76.74064397
S      79.99512463      55.39355204      76.15671853
C      80.07260342      55.48992809      72.83080022
H      78.47011550      54.38254846      72.15994738
H      81.94532220      54.83230333      72.28277959
H      79.97622738      57.50437633      72.40372208
C      85.91563718      58.66277856      81.67093992
O      87.11939284      60.53360762      80.79032745
N      84.17897870      58.87064847      83.60035048
H      83.47222106      57.25304274      84.32600539
C      83.33616076      61.41799953      84.50174993
H      83.27757924      62.58774012      82.80477570
C      80.78880968      61.34996939      85.87747069
H      80.60172679      62.95812648      87.15114622
H      80.64896995      59.65110542      87.03398319
C      78.68365457      61.51437558      83.87814025
H      79.02758477      60.01204316      82.51186812
C      76.31015833      60.68667544      85.26708909
H      74.61318410      60.59974803      84.10301768
H      75.81127058      62.00381469      86.77320096
H      76.62196317      58.80072859      86.03620770
C      78.34728330      63.95968142      82.39470509
H      76.67865496      63.88598210      81.18905971
H      79.88552051      63.97479923      81.02465352
H      78.17531820      65.57161797      83.66460118
C      85.49989738      62.73324905      86.09289949
O      85.69264947      65.01981789      86.09100976
N      87.09860585      61.26493171      87.30610378
H      86.56759275      59.44323553      87.49885586
C      89.26045275      62.38364968      88.62702247
H      88.50834167      63.93511498      89.75329936
C      90.64184269      60.50148228      90.49407207
H      92.37283199      61.35374883      91.21405780
H      91.27301128      58.91033272      89.35267738
C      88.92597120      59.81929108      92.67481624
H      87.24600449      58.98781150      91.81877022
H      88.22110327      61.41044062      93.77463695
C      90.19397754      58.11664767      94.54186583
H      91.66229490      59.22213755      95.47350091
H      91.05758248      56.68801457      93.33433072
N      88.16441149      57.07162901      96.30309076
H      87.27812984      55.46914109      95.76451876
C      87.75245116      58.12609629      98.50840136
N      88.74266773      60.24825894      99.06776035
H      88.21354437      61.03627481     100.72316060
H      89.79524530      60.98147275      97.65424507
N      86.39184821      57.13021053     100.30742081
H      85.87028374      58.17711891     101.81542241
H      85.58871453      55.41622876     100.06553585
C      91.17852496      63.69511973      86.94327633
O      92.95864715      64.78360209      87.94294155
N      91.05758248      63.61008205      84.39025608
H      89.57603704      62.72569015      83.57200459
C      92.72054163      64.93855966      82.78398871
H      93.82603152      66.23869136      83.93483204
C      94.65184193      63.18300390      81.45929057
H      95.75544208      64.45101027      80.26876299
C      96.35826479      61.84507767      83.47751827
H      95.22631871      60.66966791      84.73040682
H      97.33147383      63.24536487      84.63403077
H      97.71130883      60.61108640      82.53454484
C      93.58792601      61.09296661      79.66405057
H      92.37283199      62.00381469      78.27321200
H      92.44086214      59.72669448      80.69206169
C      95.46064478      59.33552114      78.22596885
H      96.90250596      60.48069528      77.29811323
H      94.29468364      58.16200110      76.99953647
H      96.41684629      58.11286821      79.58090261
C      91.33537225      66.56939346      80.95284392
O      92.55991489      68.31739031      80.20262257
N      88.87683831      66.08751326      80.31978560
H      88.04535874      64.45478972      80.85457815
C      87.28946820      67.56149978      78.48297163
H      88.36850193      68.14353549      76.82757138
C      85.20321036      65.91176871      77.55322628
H      83.62906833      66.32561877      78.81178400
H      85.81359195      63.97857869      77.91794346
C      84.55503423      66.24058109      74.78666696
O      86.20287558      66.18577902      73.13126671
O      82.33271609      66.51459139      74.05534287
C      86.13295571      69.91231930      79.78688278
O      85.71910564      71.87574494      78.71918741
N      86.06681528      69.79515627      82.36257975
H      86.73577840      68.32305947      83.37925250
C      85.27879941      71.87574494      83.99530328
H      85.29391721      73.61429315      82.89359284
C      82.60483668      71.49024078      84.70395065
H      82.31192910      69.80649463      85.85479397
H      81.45021389      71.49213051      82.99752779
C      81.66564270      73.81838360      86.05699469
H      83.06026071      74.54403851      87.38925174
H      79.96299928      73.25524515      87.06988799
C      81.01935629      76.00101749      84.28254168
O      82.67664627      77.55815198      83.58523267
O      78.86317858      76.11062161      83.41326758
C      87.24411478      72.42376558      86.05510496
O      88.08126354      74.51002342      86.17982690
N      87.82426076      70.67765846      87.81255043
H      87.32537301      68.84651367      87.61034972
C      89.82548092      71.07072154      89.86668294
H      91.49599897      71.87574494      88.96906294
H      90.24688989      69.27170209      90.77375157
C      89.03179586      72.70911426      92.07766272
O      87.01545789      73.88830348      92.13246478
N      90.60404816      72.90753551      94.01841164
H      92.26133814      71.97401072      93.84266710
C      89.83303983      74.05081993      96.44482023
H      87.78457650      73.83350140      96.38056954
C      90.86483039      72.45967038      98.66146920
H      92.89817591      72.50502382      98.34966435
H      90.22988234      70.53781872      98.27974448
C      90.12594741      73.44610751     101.26551206
H      90.22421317      75.50212975     101.18236410
C      87.42741822      72.97367594     102.10644026
H      86.14240434      73.76547127     100.70426334
H      87.10805448      73.97523089     103.87900355
H      86.89073595      70.98568386     102.04785875
C      91.95142302      72.37274297     103.20626098
H      93.56902874      73.41587189     103.93947479
H      92.66384984      70.50758310     102.70359378
H      91.00278041      71.92109837     104.97882426
C      90.46420842      76.87596077      96.65080040
O      92.64873203      77.62618212      96.56009354
N      88.71054240      78.42742607      97.24984364
H      86.98711199      77.61106430      97.29708680
C      88.76534445      81.21288266      97.62967863
H      90.74955708      81.76090330      97.70526768
C      87.44253604      82.63395685      95.51318516
H      87.49733810      84.64084619      95.97427838
H      85.46966177      82.04247252      95.53586187
C      88.78046227      82.51679381      93.09811493
H      88.82392598      80.54202981      92.51229977
H      90.74010846      82.99678431      93.51574445
C      87.59749360      83.89440430      90.90981186
H      87.96410049      85.89184502      91.25185232
H      85.57737617      83.51267959      91.04965161
N      88.62361499      83.14607267      88.52875671
H      89.93130559      84.42919684      87.98451553
C      87.59560387      81.45098818      86.93760715
N      85.39974190      80.33415992      87.33633940
H      84.88573633      78.97922616      86.09289949
H      84.36417188      80.52502229      88.92559923
N      88.62739444      81.19398539      84.74741435
H      87.74867170      79.99022973      83.55688678
H      90.18074946      82.25601158      84.41671225
C      87.57103743      81.92719920     100.13356599
O      85.25423296      81.75523411     100.43970166
N      89.07714929      82.30325475     102.07620464
H      90.95553725      82.60939040     101.92880599
C      88.09638134      82.49033764     104.69725504
H      86.47310644      81.24878746     104.95614754
C      90.09571178      81.67964507     106.68146767
H      89.44942539      82.17475335     108.57308371
H      91.83048053      82.70576644     106.26950733
C      90.68341667      78.78080490     106.55863546
H      91.07647973      78.20065892     104.62166599
C      93.20242183      78.18176166     107.98726855
H      92.87738892      78.87718093     109.89967158
H      94.80868921      78.99245425     106.98760333
H      93.46320407      76.14841614     108.18946927
C      88.57826156      77.18965535     107.70003015
H      88.35527384      77.72066843     109.67857360
H      89.13762053      75.20922216     107.75672194
H      86.79435992      77.31437727     106.67957794
C      87.02490653      85.02635036     105.49094009
O      85.39407271      85.18130792     107.07075129
N      87.66363402      87.16741027     104.13600632
H      88.67274786      86.85938488     102.54485677
C      86.52790850      89.75066614     104.23049264
H      85.71532619      90.12861141     106.08242443
C      88.47432661      91.79157057     103.96404123
H      87.40096206      93.51689068     104.28340498
H      88.99589106      91.94085893     101.97793888
C      90.65318104      91.72920960     105.86321617
H      91.87961341      90.08325797     105.71014834
H      90.01067410      91.64039245     107.81719318
C      92.27078676      93.93074074     105.50227845
H      91.05758248      95.52378002     105.98793811
H      92.82825603      93.95719691     103.51995555
C      94.28334528      93.65673044     107.51294725
H      95.34348175      91.88983633     107.48271162
H      93.42163010      93.53767767     109.37999684
N      96.08236473      95.73920883     107.29562872
H      97.30312793      95.58236154     108.75449743
H      95.37938655      97.51366183     107.23515748
H      97.10092722      95.60503827     105.68747163
C      84.47944517      89.98499220     102.18202932
O      84.92731031      89.05146740     100.04852831
N      82.44609966      91.39661777     102.90390477
H      82.52735789      92.04479389     104.69725504
C      80.30692948      92.04479389     101.27874014
H      79.35828686      90.25522306     100.90268460
C      78.47200523      93.55657494     102.98516300
H      78.44743879      92.42084943     104.70670367
C      79.34694852      96.18140478     103.54641171
H      78.12240586      96.88816243     105.04307495
H      79.24490330      97.54011800     102.00439504
H      81.28013853      96.34014179     104.24750018
C      75.78292469      93.44886053     102.06486629
H      75.28781639      91.48921436     102.45603963
H      75.59395206      93.64539208     100.02207214
C      73.68343875      95.00977448     103.39334388
H      71.86363231      94.53356344     102.55241567
H      74.16531897      97.00532546     103.22515824
H      73.85918330      94.70552853     105.42102022
C      81.22155702      93.35437423      98.84288292
O      82.61806476      95.18740874      98.86933909
N      80.24834796      92.46620286      96.73016890
H      79.23356494      90.85048685      96.79252987
C      80.83038366      93.33358723      94.10155960
H      81.43131664      95.28756424      94.34344457
C      82.90530316      91.60448765      93.22094714
H      84.17897870      91.29268282      94.81020697
H      84.18842732      92.43785696      91.84333666
C      82.12484620      89.10249002      92.15514150
C      81.83382833      88.96453999      89.44149451
H      82.61617503      90.39128336      88.21128268
C      81.17809331      86.54946976      88.59111767
H      81.28202826      86.46821153      86.55588243
C      80.63763159      84.39896122      90.11990626
O      80.02158081      82.16530472      89.08244652
H      79.46978072      82.22199652      87.35523667
C      80.75857407      84.66730236      92.72961830
H      80.28047331      83.08560144      93.92581506
C      81.52391323      86.96709929      93.76896777
H      81.47855979      87.12016712      95.80420301
C      78.47578469      93.48854479      92.27230453
O      76.54448439      92.09014731      92.54064567
N      78.62129361      95.15717312      90.31832752
H      80.14819246      96.28345001      90.11990626
C      76.99801870      95.23087245      88.11679637
H      75.23490406      94.35970862      88.73284715
C      76.51424876      97.69507556      86.93571742
H      75.56749588      97.42106524      85.12913907
H      78.32082712      98.61726201      86.56722079
C      75.30104447      99.73975943      88.64403001
H      76.69566249      99.91172452      90.15203161
H      73.63430587      98.78733737      89.39614108
C      74.69255261     102.20774200      87.28531679
H      73.04471126     102.09813788      86.05510496
H      76.46700562     102.79733660      86.41982214
C      74.18610596     104.13337311      89.32055203
H      75.43899450     103.83857581      90.92870912
H      72.27937210     103.98408473      90.08778091
N      74.74735467     106.68639335      88.51174917
H      73.55115790     107.37614346      87.19272020
H      76.53125630     106.90182216      87.87113195
H      74.61318410     108.03376823      89.85534458
C      78.15642093      93.56980302      86.17415772
O      80.17086919      94.06680105      85.08378564
N      76.35551176      92.02967607      85.25764046
H      74.75869303      91.80101919      86.27431321
C      76.58605837      90.48199023      82.97863052
H      78.46633604      89.66562846      83.19216960
C      74.42799092      88.58659474      82.98618943
H      72.73668586      89.67507710      83.42838539
H      74.51113888      87.26189659      84.56033145
C      74.06516347      87.15040274      80.48797124
O      72.34551253      87.79290968      79.07067651
O      75.52781164      85.41374425      79.78688278
C      76.58983783      92.17329528      80.54844249
O      75.95866924      94.45986412      80.66371579
N      77.39108178      91.16040197      78.42627984
H      78.22445108      89.44453049      78.47541272
C      77.38541259      92.56635834      76.00743016
H      78.74790527      94.08569830      76.29088910
C      78.48145386      91.43252256      73.57535239
H      78.03925790      92.50966655      71.87459871
C      81.45210363      90.92985536      73.80211955
H      81.71666530      89.81302711      75.51232186
H      82.61617503      92.62116042      73.97975382
H      82.30814965      89.82814493      72.28844877
O      77.36084615      89.02501123      73.21819412
H      78.33594494      88.18975221      71.93695968
C      74.85317933      93.66995852      75.19295811
O      74.80593619      95.44819098      73.81345791
N      72.71778861      92.80068442      76.29466856
H      72.88408452      91.09993074      77.14504540
C      70.24035740      94.08569830      75.80144999
H      70.27437249      94.86993472      73.89660586
C      67.94433994      92.32636310      75.98853289
H      67.73835978      91.75944521      77.95762771
H      68.45267632      90.61805053      74.95674233
C      65.35163544      93.34870505      75.27799580
H      64.77715864      94.84536828      76.57056860
H      63.95701742      91.83314454      75.26854717
C      65.40265805      94.13294147      72.51710566
O      66.21524036      96.22297876      71.75176650
O      64.24992500      92.77989743      70.98075816
C      69.86052242      96.23998631      77.75920645
O      68.40921262      97.97853450      77.35669474
N      71.26080961      96.27400137      79.82467731
H      72.52881598      94.85859636      80.00987049
C      70.98868903      98.06924138      81.85991255
H      70.75247323     100.03833619      81.31189192
H      72.72345778      98.03144685      82.97296135
C      69.16510314      97.26988714      83.84790463
O      68.90999009      98.77788874      85.56566585
N      68.51692701      94.82836074      84.18805536
H      68.76826062      93.69074550      82.67627431
C      67.15632407      93.83247497      86.34234336
H      65.91666360      95.21953410      87.23051473
C      65.58218204      91.70653287      85.31811170
H      64.20646129      91.39661777      86.82044412
H      66.67822331      89.98877165      85.01575549
C      63.93434071      92.08636786      83.09957301
C      63.34285637      90.08514770      81.43283440
H      64.12709279      88.24455427      81.82400775
C      61.41533553      90.35348883      79.55633617
H      60.85219709      88.73399339      78.45084628
C      60.28149974      92.77989743      79.08768405
O      59.04939819      93.17107076      76.94662413
H      59.07207490      94.98142857      76.81812274
C      61.12053823      94.79623539      80.59001646
H      60.30417646      96.61415211      80.14215133
C      62.77026930      94.49009974      82.62336198
H      63.31073102      96.13983081      83.69483680
C      69.05549902      93.04634884      88.39836559
O      71.14175686      92.02589663      87.76152782
N      68.39598453      93.63216399      90.72083923
H      66.78593771      94.57891688      91.11201258
C      69.94367038      92.98587760      92.91481148
H      71.87686039      93.40161738      92.33277577
C      69.46934907      94.63560866      95.22783649
H      69.77170528      93.23532146      96.70938191
H      67.49269535      95.21008547      95.30720499
C      71.26836852      96.85603708      95.61523038
C      70.44255813      99.45819022      95.36956596
H      68.45834550      99.79834094      95.04075358
C      72.23968784     101.45563092      95.70782697
H      71.69922612     103.41527711      95.88735097
C      74.75491358     100.92839729      96.45426886
O      76.36685012     102.81245442      96.59788806
H      75.73190207     104.47163412      96.23695034
C      75.42009724      98.36592841      96.69426410
H      77.30793382      97.69507556      97.07409909
C      73.66643122      96.52911443      96.44482023
H      74.19744431      94.56568879      96.60166751
C      70.17988616      90.12483196      93.49873691
O      68.34118247      88.77556737      93.52897253
N      72.53448515      89.25177840      94.00518356
H      73.86296276      90.60671217      94.19037674
C      73.28848595      86.53246223      94.29053223
H      71.68788776      85.46287713      95.02185632
C      74.40153476      85.65940867      91.77908596
H      76.20055421      86.59671293      91.41814824
C      74.55082312      82.91552606      91.38791262
H      72.63086119      82.17286363      91.39547152
H      75.86796237      81.94798619      92.64269089
H      75.19144034      82.55458834      89.46228150
O      72.77070095      86.27356973      89.79865279
H      72.40409404      88.01778712      89.46228150
C      75.42954586      86.50033688      96.28230377
O      76.68810358      88.33715086      96.99284086
N      75.88874936      84.29691600      97.35188886
H      74.38074776      83.14796241      97.11756280
C      77.88807980      83.44653917      99.07153981
H      79.65497390      84.14951736      98.28163421
C      77.24179340      84.58226468     101.66424431
H      76.59361728      86.52679305     101.46393332
C      75.10640266      82.91174661     103.07020068
H      74.66231698      83.59393782     104.96181672
H      75.41820750      80.87840110     103.15145892
H      73.40942843      83.09693979     101.91935736
C      79.52836224      84.68242018     103.51428637
H      81.14407823      85.17941819     102.33509715
H      79.86284380      82.94954114     104.57631256
C      79.19199095      86.73655267     105.54196270
H      80.93809806      87.51134047     106.31108131
H      78.11673669      85.93719844     107.10854581
H      77.96933803      88.35037895     105.16590717
C      78.31326821      80.49478666      99.00161993
O      77.28336738      79.10961728      97.51251560
N      79.98189655      79.50834952     100.66079963
H      81.08549672      80.71966409     101.63778814
C      80.48834321      76.73801076     100.74961677
H      78.71200047      75.79314759     101.19370246
H      81.74690093      76.44321344     102.35210469
C      81.65808380      75.70622018      98.32320819
O      83.18498265      76.98556489      97.12890116
N      81.11384262      73.26469379      97.63156836
H      79.94788148      72.30660255      98.79752949
C      81.18565222      72.31605117      95.08421729
H      82.79191958      73.08328006      94.04675754
C      81.53525158      69.33784250      95.17681387
H      79.86662324      68.62352596      96.15191265
C      81.66942216      68.37975126      92.46883607
H      83.07915798      69.31705553      91.29720575
H      79.93465339      68.61596705      91.38413316
H      81.83760779      66.32561877      92.46127716
C      84.02780058      68.76147599      96.60166751
H      83.91063755      69.47390280      98.53296781
H      85.64351659      69.67799324      95.71160642
C      84.64952055      65.97601940      96.55442436
H      85.04069390      65.44878575      94.60044735
H      83.11695251      64.81194799      97.28763817
H      86.40507630      65.67744264      97.59377383
C      78.68554431      73.16642801      93.75384996
O      76.89408375      71.75669219      93.88613080
N      78.80081760      75.38874617      92.49718196
H      80.44110005      76.36384494      92.50285114
C      76.90920157      76.20132847      90.72083923
H      77.02069543      74.97300637      89.07299788
H      77.54225988      78.04192190      90.04053776
C      74.15587032      76.30148397      91.71861472
O      72.33039472      75.53992426      90.43549056
N      73.71556409      77.14997109      94.09400070
H      75.16498419      77.77924995      95.16169606
C      71.22301509      77.21233206      95.34688924
H      70.20634234      75.65708731      94.46249733
C      71.62363708      76.45266208      98.12667665
H      72.66676599      77.83972119      99.23594599
H      72.84440026      74.79159264      98.19281707
C      68.97235106      76.11251135      99.23216654
N      67.56639467      73.94310554      98.82776511
H      68.17866600      72.28770529      98.09833075
C      65.30061283      74.50435425      99.76317964
H      63.76237561      73.21745064     100.15435298
N      65.21179570      76.79092309     100.55875441
H      63.74914753      77.58082869     101.49605867
C      67.54938714      77.93798696     100.34899479
H      67.84040500      79.94298658     100.60410785
C      69.94744984      79.62173311      94.81209670
O      70.65798693      81.49634160      95.82687973
N      68.04260570      79.47055500      93.17181426
H      67.37931178      77.71310952      92.83544297
C      66.49491986      81.59460737      92.38568811
H      67.74024950      83.15741103      91.88302091
C      64.66377506      81.05414565      90.23706929
H      63.63954340      79.27591318      90.40903439
H      65.91099443      80.69509765      88.63647111
C      62.55673023      83.02701993      89.65125414
H      61.27927524      83.26323571      91.24807287
C      63.49214475      85.57248126      88.85001018
H      64.67322370      86.38695331      90.32966588
H      61.88587738      86.81970064      88.52119780
H      64.75826138      85.27201478      87.25319144
C      61.12809713      82.32593146      87.28909624
H      60.27205111      83.99455980      86.43871940
H      59.77694282      80.80659151      87.61790862
H      62.59452475      81.61350463      86.02864879
C      65.02660252      82.46577120      94.89146520
O      63.31451048      81.25823610      95.88546124
N      65.82028757      84.71832498      95.81743109
H      67.22813367      85.54224564      94.82721451
C      64.40110311      86.04302311      97.80731290
H      63.77371397      84.68242018      99.22082818
C      66.09807733      88.02534601      99.16224667
H      64.89810113      88.83036943     100.63056401
H      66.36641847      89.61460584      97.87912250
C      68.67377430      87.06536506     100.41702494
H      69.68855733      86.10727381      98.90146444
C      69.91532449      89.35760306     101.64534704
H      68.50558865      90.50088748     102.61666637
H      70.90365135      90.56135873     100.29608246
H      71.35907539      88.93241464     103.05130342
C      67.96890638      85.21910245     102.61288692
H      66.82940142      83.64873988     101.91557791
H      66.84451922      86.09215600     104.10199125
H      69.71123404      84.63139757     103.53885281
C      62.05595275      87.31858838      96.80197850
O      60.04150450      86.64206635      97.48416970
N      62.38665486      89.02690096      94.93303918
H      64.13654142      89.29524210      94.22061236
C      60.39488332      90.76166973      94.23573017
H      58.63743785      89.69397435      94.15636167
C      59.86575996      92.67407275      96.33521610