 %block lattice_cart
   137.614   0.000   0.000
   0.000 142.646   0.000
   0.000   0.000   160.855
 %endblock lattice_cart

 %block positions_abs
N      90.81286292      40.60171933      81.72479712
H      92.66101525      40.35038573      81.31283677
H      89.63745315      39.67386371      80.54182844
H      90.76373003      39.78913702      83.45200696
C      90.16657652      43.31158687      81.83818069
H      91.05285816      44.01456505      83.55972136
C      91.03396090      44.64384392      79.43822828
H      90.20815050      43.81803352      77.74125404
H      93.05785778      44.37172333      79.17555631
C      90.34610052      47.48977174      78.99792204
H      90.71081770      48.49699587      80.75725724
H      88.31275501      47.47087448      78.66533021
S      91.98260351      49.04501650      76.61686690
C      94.48271142      50.64939414      78.34785619
H      95.64300337      51.80779637      77.09874711
H      95.53906843      49.35493161      79.54783240
H      93.72115171      52.17251355      79.51003787
C      87.34521513      43.44764716      82.18966978
O      85.98083274      41.61461264      81.65865669
N      86.37767526      45.63595023      83.03059799
H      87.69670423      47.01545044      83.12319458
C      83.66213855      46.01956467      83.66365631
H      82.38657329      45.07092206      82.35218625
C      83.17647889      45.06714261      86.31305260
H      83.70749198      43.07726080      86.23179437
H      81.17525872      44.79313229      86.70989512
C      84.52385375      46.38806130      88.52781184
O      85.85989025      48.33069995      88.22734535
N      83.95315640      45.50555911      90.75012999
H      84.79597434      46.13294825      92.34505899
H      82.50751577      44.26022947      90.80493205
C      82.98750626      48.66707124      83.13642267
O      84.49172840      50.36215574      82.65076300
N      80.51574424      49.29068092      83.41610216
H      79.30820913      47.93763688      84.00947623
C      79.70505165      51.90417241      83.58617753
H      80.23606474      52.68273965      81.75314300
C      76.74574024      51.91740049      83.93199744
H      76.02953397      50.43585507      82.69422671
C      76.03142370      51.25599629      86.61918826
H      76.37346416      53.01155203      87.63775074
H      76.99707384      49.61004467      87.39397605
H      73.99051928      50.97631679      86.65320334
C      75.69505241      54.67451119      83.19689391
H      76.80054231      55.33969485      81.58873682
H      76.09378467      55.90094356      84.80316127
C      72.94361090      54.91639615      82.60918902
H      71.86457718      54.70663653      84.35151670
H      72.38614164      53.26855481      81.50558886
H      72.55810674      56.66439299      81.58873682
C      80.95982992      53.64083089      85.57039016
O      80.92203540      55.94251754      85.34551273
N      81.83855266      52.65250403      87.70578089
H      81.69871291      50.79301334      88.11207205
C      83.20860424      54.08113712      89.74290586
H      81.90091363      55.59480790      90.23423470
C      83.29931110      52.65439376      92.26758021
H      84.25551261      54.00743780      93.49401260
H      84.51251539      51.00088323      92.08238703
C      80.76518811      51.99865873      93.13118514
C      79.41592353      50.06735843      91.99168017
H      80.31165380      48.64250479      90.83516767
C      76.93660260      49.59870631      92.83071865
H      76.02764425      47.83748139      92.34127954
C      75.44749827      51.34103397      94.21210859
H      73.43493974      51.05379557      94.38785314
C      76.81377039      53.42540209      95.24389915
H      75.67237570      54.84458655      96.16419587
C      79.50096121      53.65405898      94.78658539
H      80.47983944      55.31890786      95.44043069
C      85.74272722      55.29056196      88.93599272
O      86.65735476      57.06312525      90.07171823
N      86.92002671      54.21908714      87.01414106
H      86.18303345      52.56935607      86.39620057
C      88.94959277      55.09780988      85.49102165
H      89.92280183      56.45652310      86.69666704
C      90.77317867      52.90761708      84.87686060
H      89.99839088      52.03456353      83.18177610
H      90.73538414      51.28434218      86.14297723
C      93.55863525      53.77311173      84.64064481
H      93.63233458      55.30190032      83.26492406
H      94.66601487      52.13282929      84.06427829
C      94.93246628      54.76521805      87.02736914
O      95.05151904      53.40272538      88.93599272
O      95.98693356      56.90249851      87.05004586
C      88.10488511      56.55478887      83.15531993
O      89.18769829      58.57868575      82.77737467
N      86.33988074      55.78000108      81.53015530
H      85.50273198      54.09247548      81.82495260
C      85.28919291      57.18784718      79.29649880
H      86.89168082      57.36359173      78.01337463
C      83.28797274      55.59480790      78.03416162
H      81.60800605      55.30001060      79.18689467
H      83.89268516      53.62760281      77.93400613
C      82.77963636      56.67006217      75.44334685
H      84.39157291      56.10881346      74.29061379
H      82.20893902      58.61081110      75.82885101
S      79.97528251      55.31890786      74.20368638
C      81.44548959      52.58069443      72.87709852
H      81.25084777      52.93029380      70.85509136
H      80.36456613      50.94041199      73.49314929
H      83.43537139      52.31802247      73.34008146
C      84.36322701      59.85614074      80.00703589
O      84.88101202      61.64193210      78.63887404
N      83.05742613      60.24164490      82.02337387
H      82.34877876      58.84702688      83.11563569
C      82.42058836      62.73608364      82.99658292
H      81.86689855      63.69984406      81.26181416
C      80.18126268      62.56789800      84.80127155
H      79.85245030      64.51053664      85.40598397
H      80.66503262      61.47563619      86.48123825
C      77.67926504      61.60602730      83.78459879
H      77.91170138      59.94684760      82.58462258
C      76.02764425      61.35847315      86.14675668
H      75.56844075      62.96851997      87.34673289
H      76.73440189      59.75598524      87.23334931
H      74.17193301      60.61959017      85.64786894
C      76.50574500      63.72818995      82.14998553
H      77.60745544      64.26109277      80.49458528
H      75.98607027      65.26642717      83.42177134
H      74.73318172      62.92694599      81.47157378
C      84.44637497      64.38770443      84.10774199
O      84.44259552      66.71773698      83.81105496
N      86.20382044      63.14993370      85.35685108
H      86.21893825      61.25264848      85.14898119
C      88.38078515      64.34235100      86.76280746
H      87.74772684      65.89570603      87.95522476
C      89.41446545      62.14459930      88.38608236
H      90.43491766      60.82179088      87.18043699
H      87.72693985      61.24508958      89.14953179
C      91.13978557      62.83434941      90.73501217
H      89.97382444      64.11369412      91.85184042
H      92.65345635      63.82078654      89.74479558
C      92.06008229      60.44762507      92.19577062
H      93.31297083      61.24886903      93.62062425
H      93.22226397      59.23064133      91.00902249
N      89.86799976      59.37615025      93.48834341
H      88.55841943      58.47664053      92.43009667
C      89.33887639      59.53488726      95.90908282
N      90.38767450      61.13548545      97.42842277
H      90.24405530      61.12792654      99.33137718
H      91.54985618      62.46396305      96.69898841
N      87.36600212      58.24420419      96.75001102
H      86.89923972      58.62025973      98.56225856
H      87.27529526      56.45085392      96.10939380
C      90.47460191      65.16816140      85.04882569
O      91.47237740      67.21851445      85.41732233
N      90.81664237      63.78488174      82.89075825
H      90.11555391      62.01042873      82.86052262
C      92.32275424      64.68628119      80.74213943
H      93.96681614      65.37414157      81.77204027
C      93.15612355      62.55278018      78.82217749
H      91.38922944      61.80633829      78.06250753
C      94.90978957      63.56945294      76.72647101
H      94.09909698      65.27209635      75.89877089
H      95.31608072      61.99909037      75.45468520
H      96.71825765      64.05700233      77.58251703
C      94.53373403      60.29455724      80.25836949
H      93.82508666      59.70496263      82.09896292
H      96.41212198      60.97107926      80.77048532
C      94.97781971      57.83602331      78.67099939
H      95.71859243      56.26566074      79.78026873
H      96.55385146      58.40483093      77.47291291
H      93.31486056      57.31634857      77.57117867
C      91.21915408      67.05599799      79.45334608
O      92.56085976      68.93249622      79.10563644
N      88.90234962      66.84623837      78.58218225
H      87.85355151      65.49130460      79.41933101
C      87.43781172      68.72651605      77.21402040
H      88.37511597      69.52209083      75.56050988
C      84.92258600      67.51331176      76.40521754
H      83.38056933      68.87769415      76.44490179
H      84.24795371      66.09223757      77.73369514
C      85.13990453      66.48719037      73.72558563
O      86.75184107      67.26386788      72.19490731
O      83.46182756      64.93383534      73.12654239
C      86.92569589      71.20961642      78.68611720
O      86.37956499      73.12579891      77.58251703
N      86.90112945      71.15292464      81.15598950
H      86.94270343      69.46161958      82.03660195
C      86.27374031      73.41114758      82.70178561
H      85.77863202      75.01741495      81.51125804
C      83.58088032      72.88769339      83.76759125
H      83.56954196      70.98095954      84.54615850
H      82.19949038      72.75919200      82.24636157
C      82.45271371      74.76986080      85.68566346
H      83.60922621      75.02497385      87.36940961
H      80.73117304      73.83066682      86.31305260
C      81.39824643      77.24729199      84.52348178
O      80.17937296      78.75907304      85.94833542
O      82.11634243      77.96916745      82.39942940
C      88.11433374      74.17648674      84.94867020
O      88.22204814      76.38368707      85.68755319
N      89.55619492      72.37179811      85.83306211
H      89.44092162      70.56333003      85.23023942
C      91.21348490      72.71572830      88.00246792
H      92.53251386      74.23884770      87.56972061
H      92.36243850      71.04521024      88.36340565
C      89.70548330      73.03509204      90.40431007
O      87.49450351      72.64202897      90.48934775
N      91.11332940      73.74562914      92.39041242
H      92.99549681      73.73618050      92.08805621
C      90.29129846      74.36545937      95.01902172
H      88.24094541      74.38813608      95.21744299
C      91.23238216      72.20928164      96.85583570
H      93.28840439      72.06755217      96.80859254
H      90.47460191      70.36301904      96.34749933
C      90.85254717      72.74407419      99.68853544
H      92.01472885      74.39758471     100.07781906
C      88.01228852      73.19004960     100.40663144
H      87.48505488      75.16859305     100.63339860
H      87.36222267      72.15070013     102.06203169
H      86.87278356      72.28676042      98.94587300
C      91.89000692      70.52175605     101.21732403
H      93.56430443      69.66193057     100.38017527
H      90.45381492      69.07422569     101.51401106
H      92.43046864      71.02253352     103.14106542
C      91.12655749      76.96950223      95.89774446
O      93.42446468      77.51941258      96.06215065
N      89.22927227      78.59088740      96.51946441
H      87.50584187      78.12979418      95.84294239
C      89.47871614      81.14012820      97.72510980
H      91.39300890      81.63145704      98.31092496
C      88.68125164      83.10166411      95.63318277
H      87.99150153      84.79863834      96.57237675
H      87.17513977      82.10955780      94.63729701
C      90.83742936      83.69503817      93.82093525
H      91.94858843      82.09066053      93.16708995
H      92.17535559      84.84966095      94.87729226
C      89.74138810      84.98572125      91.45310817
H      91.09821159      86.03073990      90.30793402
H      88.33732145      86.42002352      91.91609112
N      88.48849955      83.06009013      89.90731205
H      88.17858444      81.26485014      90.47611967
C      87.53796722      83.78952449      87.73790624
N      87.71371177      85.90790769      86.75524856
H      86.79152532      86.36522145      85.14898119
H      89.05541745      87.06630992      87.46578565
N      86.46082322      82.24183864      86.37352384
H      85.86744916      82.75395447      84.63497563
H      86.11122385      80.46171645      86.96122872
C      87.88378713      81.53508100     100.16852593
O      85.48761417      81.55964744      99.96632521
N      89.06486608      81.74673035     102.25667350
H      90.89979033      82.26262563     102.18675363
C      87.93858920      81.73350226     104.78512731
H      86.45704377      80.31809725     104.98543830
C      89.85666140      80.63746100     106.74477349
H      89.03840991      80.70549115     108.63261008
H      91.41568561      81.97727696     106.89028242
C      90.87144443      77.86901195     106.31202617
H      91.74071854      77.68381877     104.45442520
C      92.85565706      77.20571802     108.26600318
H      92.03740557      77.54019957     110.12927332
H      94.43357853      78.49262163     107.97120587
H      93.25627904      75.22150539     107.87860928
C      88.83998865      75.70905478     106.80524474
H      87.38867884      76.03975688     105.38039111
H      88.26173240      75.83944589     108.77622928
H      89.33698667      73.75129832     106.39517413
C      86.61200132      84.13345468     105.61471716
O      84.95471135      83.98983548     107.20775645
N      87.50773160      86.28585295     104.54702179
H      88.98171812      86.05530634     103.35460449
C      86.33232183      88.83320402     104.87772390
H      85.00951341      88.50061219     106.42163029
C      87.98205290      90.80796802     105.81313842
H      89.36911202      89.79318499     106.95075366
H      86.89923972      91.73771336     107.29846330
C      89.21415446      92.52006006     103.67585796
H      87.68536587      93.46303349     102.67052356
H      90.12878199      91.52984347     102.11872348
C      90.93758486      94.49671378     104.81347320
H      92.37188713      93.50460747     105.90762474
H      89.84721277      95.80062494     105.97565488
C      92.38322548      95.95558249     102.73855371
H      91.22671298      97.54673205     102.13006185
H      92.58164675      94.63844325     101.16819114
N      94.88333340      96.94201963     103.73821893
H      96.05496371      95.54173243     104.29568819
H      94.69814022      97.81129373     105.42952398
H      95.68457735      98.11742940     102.46454341
C      84.52007430      89.43224726     102.75745097
O      85.13234562      88.44014095     100.63717805
N      82.38657329      90.73804814     103.14673459
H      82.04642255      91.49582839     104.86638554
C      80.36645586      91.25394343     101.20976512
H      80.07921746      89.33209177     100.52946366
C      77.95516509      92.66367926     102.07714950
H      78.44082475      94.57608228     102.66485438
C      76.01819561      92.79784982     100.00789919
H      75.69883187      90.91568242      99.23311140
H      76.60401077      94.07152536      98.49800786
H      74.20594808      93.49893829     100.69575957
C      76.78353477      91.44102633     104.45064575
H      78.30287473      91.34465029     105.83959459
H      76.06354905      89.54374111     104.09537720
C      74.44027414      92.66745871     105.60904798
H      73.91304050      92.01361340     107.48743594
H      72.85479377      92.52006006     104.30135737
H      74.75774816      94.68946586     105.84904322
C      81.41336424      92.70147378      98.93453464
O      82.51507468      94.70647340      99.36350253
N      81.11667721      91.52228456      96.71977540
H      80.14157843      89.88200212      96.69142951
C      81.82721430      92.45958881      94.37273532
H      82.75129047      94.28884389      94.56359768
C      83.70938171      90.75316595      93.02347074
H      85.23628057      90.47915564      94.37651478
H      84.45015442      91.59598389      91.29437117
C      82.60011236      88.10565939      92.34127954
C      82.41680891      87.33654078      89.79392847
H      82.67381169      88.62722385      88.23490426
C      81.68359510      84.73816710      89.18354687
H      81.54564508      84.15991085      87.23145959
C      81.70816154      82.90135312      91.11673689
O      81.38501834      80.46927536      90.57060599
H      81.14124365      80.13668353      88.80371188
C      82.30909451      83.73661215      93.70755166
H      82.52830276      82.30042016      95.13807448
C      82.66058360      86.28018377      94.26313120
H      82.84955624      86.79040988      96.23222602
C      79.48962285      92.99249163      92.68898918
O      77.29187115      92.63911281      93.34094476
N      80.09622500      93.89389109      90.43454569
H      81.88957527      94.40222746      90.02258535
C      78.42759666      94.38333020      88.29348577
H      76.46228130      94.14522469      88.85473449
C      78.65814327      97.18201487      87.43743975
H      77.72083902      97.46925327      85.62708195
H      80.65558399      97.68279234      87.50924935
C      77.31832732      99.11520489      89.22134139
H      77.55832256      98.60875824      91.20366430
H      75.26797427      98.98859323      89.06638384
C      77.90603220     101.82696215      88.55426801
H      76.67015119     102.94756985      89.76369285
H      77.28431224     102.17089234      86.62296771
C      80.64046618     102.56773486      89.18921605
H      81.81776567     102.27671701      87.52436717
H      81.45304849     101.08052025      90.36084637
N      80.80109291     105.07729141      90.20966826
H      80.51952369     106.42466627      88.88874956
H      82.47916988     105.46657503      91.03169920
H      79.54820437     105.12075511      91.64963971
C      78.66192273      92.53328814      86.10329298
O      80.64235590      91.99093669      85.18866544
N      76.55676761      91.81330242      85.16976818
H      75.01664067      92.23660111      86.21289710
C      76.20149907      90.29018301      82.89075825
H      77.47895405      88.68769509      82.67910890
C      73.46139591      89.19981092      82.93422195
H      71.91937924      90.56230360      83.02681854
H      73.25919520      88.17179981      84.70678523
C      72.87936021      87.31575379      80.78938259
O      71.49041137      87.89212032      78.99792204
O      74.08122614      85.32587198      80.70245517
C      76.42637650      92.04006957      80.56261543
O      76.03142370      94.33419732      80.85363329
N      76.68715873      91.05363244      78.34218701
H      76.53787035      89.15823695      78.18345000
C      76.60590050      92.53328814      75.93467569
H      77.95327536      94.08286372      76.08963324
C      77.22384100      90.86654953      73.68212192
H      77.12746496      92.14211479      72.06451620
C      79.78442016      89.61366099      73.35708900
H      81.27163476      91.02528654      73.54039245
H      79.64835986      89.06941981      71.37476609
H      79.92237018      87.94692238      74.56084466
O      75.29820989      89.03918419      73.33441228
H      76.15425591      87.54441067      73.89755072
C      74.02831381      93.81263285      75.38665506
O      74.14169739      95.73259479      74.05628773
N      71.97985048      92.86399025      76.46379905
H      72.09701351      91.45614414      77.74692322
C      69.67627411      94.32285896      76.20112710
H      69.72351727      95.29039883      74.38321038
C      67.23285799      92.60131829      76.52238057
H      66.70373462      92.49549361      78.51037265
H      67.90938001      90.70781252      76.07829489
C      65.00676039      93.03406561      74.66666933
H      64.37937125      94.98804262      74.82918580
H      63.40427247      91.88889147      75.27327148
C      65.71540776      92.79029092      71.91144837
O      67.24797580      94.23782127      70.80028929
O      64.36425344      91.15756738      70.84186327
C      69.71028918      96.65289150      77.96235202
O      68.11347045      98.31207121      77.46724373
N      71.27876202      96.74737782      79.87097560
H      72.75274855      95.53606325      79.93522629
C      70.93105238      98.59364043      81.96857180
H      70.08256527     100.38321124      81.40543336
H      72.86424240      99.20213230      82.33517871
C      69.77642960      97.63365946      84.44600300
O      69.52131655      99.23614737      86.12030051
N      69.27943158      95.22992759      84.75213866
H      69.30210830      94.01105412      83.28193159
C      68.18339032      94.06396645      86.92532393
H      67.04199563      95.53039407      87.81160556
C      66.52421062      91.86054557      86.39053138
H      65.87603449      90.91757214      88.10262342
H      67.60135462      90.34120562      85.51180864
C      64.29055412      92.24416001      84.65576262
C      63.96741092      90.42813303      82.58651231
H      65.26565289      88.88044718      82.29171501
C      61.94162431      90.73993787      80.86308191
H      61.85280717      89.42846781      79.30216798
C      60.14071513      92.58809020      81.28827033
O      58.00910385      92.72792995      79.81806326
H      56.78267147      93.97514932      80.30561265
C      60.42795353      94.33230759      83.19689391
H      59.00309989      95.78928658      83.30271858
C      62.49153467      94.25860826      84.80505100
H      62.67861757      95.77794822      86.15620531
C      70.14681596      93.20036153      88.98134615
O      72.23685326      92.33486688      88.38986182
N      69.42116106      93.45358485      91.38129857
H      67.80355533      94.26805690      91.98034181
C      71.01609006      92.88288751      93.59038863
H      72.91148556      93.51405610      93.08583170
C      70.21673583      94.60253845      95.82593486
H      71.44316821      94.15845277      97.42086387
H      68.25708965      94.21514456      96.33238151
C      70.45484135      97.30862653      95.27413477
C      68.26653828      98.75237744      95.45743823
H      66.63570447      97.80373483      96.23411574
C      68.15882388     101.27894152      94.65430454
H      66.39381950     102.29372455      94.80737238
C      70.29610434     102.42222594      93.54125575
O      70.09957280     104.71446395      92.43765558
H      68.50464379     105.54783326      92.67009192
C      72.61479852     100.95957777      93.33905504
H      74.18327136     102.02538341      92.57749533
C      72.75274855      98.47080822      94.38785314
H      74.49696593      97.43901765      94.15352707
C      70.84223524      90.14467408      94.27069010
O      68.94683975      89.01083829      94.60139221
N      73.09478901      89.10154516      94.59194358
H      74.60468033      90.26561656      94.66564290
C      73.71083979      86.36900091      94.39919149
H      72.04221145      85.24650348      94.83949773
C      74.67460021      85.64901518      91.78192055
H      76.42637650      86.68080575      91.45499790
C      74.92782353      82.97505245      91.52491777
H      76.43960458      81.94137216      92.47167065
H      75.06199410      82.49317224      89.52747706
H      73.18738560      82.23427973      92.34316927
O      72.92282391      86.29341185      89.87518670
H      72.97573625      88.09432103      89.66164763
C      75.72528804      85.83042891      96.35883768
O      77.30131978      87.44803463      96.85961516
N      75.66859625      83.63456693      97.51535018
H      74.06988779      82.61600445      97.27724467
C      77.58288900      82.77852091      99.35783334
H      79.13624403      84.12400605      99.21610386
C      76.75140942      83.21693742     102.13573102
H      75.81977435      85.04997194     102.25667350
C      74.70483583      81.33477001     102.89729072
H      72.98707461      81.66736184     101.81069809
H      74.10579259      81.54830908     104.85693691
H      75.40781402      79.42047725     102.62328041
C      79.00585292      83.43236622     104.10860529
H      80.48550862      84.57376091     103.24500036
H      79.82977359      81.56342689     104.37316697
C      78.26508020      84.38478828     106.70508924
H      80.02819485      85.26351101     107.31169139
H      77.60934517      82.77663119     107.80868941
H      76.94416151      85.96270975     106.57847758
C      78.58255422      80.04786639      98.75879010
O      77.42226226      78.79308812      97.24133987
N      80.86534361      79.40535944      99.65641009
H      82.28074862      80.63746100     100.01545809
C      81.65713893      76.68982273      99.76790395
H      80.23984420      75.55598694     100.73922328
H      83.22750150      76.52352682     101.08882264
C      82.27318971      75.65236299      97.05992614
O      83.64135156      76.84478029      95.57838071
N      81.07510323      73.49807499      96.59505348
H      79.91670100      72.79131735      97.93297970
C      81.04108815      72.50596868      93.93053937
H      82.56042811      73.44705238      92.90630770
C      81.84800129      69.69216620      93.65085987
H      80.54597986      68.38258586      94.56170795
C      82.01618693      68.68116262      90.88241082
H      82.07098899      66.62325066      90.95799988
H      83.49584263      69.62035660      89.79959765
H      80.39858121      69.10446131      89.67865516
C      84.46527223      69.36146409      94.85839499
H      84.23094617      69.51264220      96.89929940
H      85.74272722      70.82222253      94.16486543
C      85.97327383      66.85568700      94.23667503
H      87.67024806      66.68372190      95.39318753
H      86.82931985      66.85757673      92.36206653
H      84.99439560      65.08879290      94.63918673
C      78.64302546      73.03887150      92.42064804
O      76.92715397      71.47039866      92.13718909
N      78.33688980      75.47850817      91.83672261
H      79.71072083      76.58021861      92.57371587
C      76.29031620      76.48006311      90.17565318
H      75.93315793      75.22339511      88.58072418
H      76.88557999      78.24695721      89.30448936
C      73.65225827      76.81076522      91.33594514
O      71.91937924      76.64824875      89.99234973
N      73.37257878      76.96194332      93.81715579
H      74.99018450      77.03375292      94.83004909
C      70.97829554      77.17737212      95.29114231
H      69.90493099      75.63157600      94.45966273
C      71.76631141      76.42526105      98.03880437
H      73.06644311      77.87468113      98.71154694
H      72.71117457      74.60545461      97.85928037
C      69.50808847      76.19093499      99.84349300
N      68.08701428      74.17648674      99.93986904
H      68.50464379      72.56643992      99.00256479
C      65.94217491      74.77364025     101.16441169
H      64.46629866      73.41492703     101.54235695
N      65.93272628      77.28697625     101.81636727
H      64.38504043      78.33388462     102.21320980
C      68.17394169      78.17325789     100.94142399
H      68.74652876      80.13101435     100.88662193
C      69.85390838      79.73228210      95.10594913
O      70.47940779      81.33665974      96.59316374
N      67.94906426      80.07432256      93.51857903
H      67.75253272      78.63813056      92.27702884
C      66.40515786      82.49884142      93.44865916
H      67.61647243      84.05219645      92.84961592
C      64.22441369      82.32120714      91.61184518
H      63.16049778      80.69415279      92.29025693
H      65.14660014      81.72405363      89.86762779
C      62.50854220      84.55675337      91.19610539
H      61.75832086      85.22571649      92.99512484
C      63.74442321      86.89056537      90.12274085
H      64.62881513      86.45403859      88.31427276
H      65.15793849      87.53118259      91.47956435
H      62.32712848      88.24927859      89.49535171
C      60.45251997      83.75739914      89.52558733
H      58.88782659      85.09343565      89.62574282
H      59.72308562      81.98861531      90.28525731
H      60.92495155      83.70259708      87.52247744
C      65.28077070      83.19992988      96.12262189
O      64.05244860      81.54641936      97.32070837
N      65.27321180      85.60933093      96.90118913
H      66.60735858      86.76773316      96.18120340
C      64.30378220      86.44081051      99.34460525
H      63.61214237      84.77596163     100.34238075
C      66.21240578      87.80330318     101.03402058
H      65.39793374      88.96170541     102.53068382
H      67.34435184      89.15067804      99.96821494
C      67.86780603      85.68680971     102.15651801
H      68.36669377      84.10699851     100.93008563
C      70.28098653      87.02284621     103.08626335
H      71.26742366      87.69180933     101.40440693
H      71.48285246      85.72838369     104.14639981
H      69.75753234      88.73871770     104.09726693
C      66.55444624      84.33754512     104.41096150
H      67.92827727      83.06386959     105.26700752
H      65.01809875      83.13567919     103.74766757
H      65.70784885      85.75106040     105.64495279
C      61.89438115      87.92046621      99.01768260
O      60.15583294      87.67480179     100.44631569
N      61.67328317      89.43035753      97.07126450
H      63.11514435      89.49838768      95.82026568
C      59.52844381      91.02150709      96.37773495
H      57.83713876      89.89334048      96.70654732
C      59.38671433      93.49704856      97.83471393