 %block lattice_cart
   137.614   0.000   0.000
   0.000 142.646   0.000
   0.000   0.000   160.855
 %endblock lattice_cart

 %block positions_abs
N      89.85193709      40.50628814      80.00892562
H      91.48088116      40.79730600      79.05650356
H      88.49133413      40.80486491      78.70501447
H      89.76311994      38.66947416      80.52482091
C      89.50044800      42.10688633      82.24825130
H      90.64940158      41.38501088      83.79782689
C      90.38672963      44.74116481      81.91943893
H      89.13006164      45.63500536      80.55127708
H      92.32747855      44.78084906      81.22968883
C      90.36216318      46.25483560      84.44600300
H      88.70109376      45.69925605      85.53259564
H      89.93697477      48.21259206      83.96412280
S      92.97565468      46.24349723      86.65698280
C      94.61782684      49.15745520      85.75747306
H      93.24588554      50.63522118      86.18077177
H      95.01088992      48.87966543      83.75436318
H      96.29968326      49.22926480      86.94233146
C      86.70365305      41.75161778      82.94556031
O      85.05392198      42.05964317      81.25047581
N      86.14807351      41.45115130      85.36629973
H      87.44442577      40.80297518      86.60784990
C      83.61206079      41.76484587      86.38297248
H      82.34972362      40.67258406      85.17732710
C      83.44954434      40.80486491      89.07016329
H      84.69109453      41.92736233      90.27013951
H      84.18086841      38.87923379      89.10228864
C      80.78880968      40.88801286      90.35895665
O      79.34505878      42.72860629      90.27769840
N      80.17086918      39.04363997      91.86884796
H      78.81404570      39.24395096      93.19732556
H      81.21210838      37.46004932      92.08427676
C      82.63507229      44.53329491      86.05604983
O      84.05803621      46.44002876      86.47367934
N      80.21811235      44.70526001      85.26047504
H      79.02569504      43.23127349      85.03748734
C      79.05782039      47.10710215      84.79560237
H      80.03480888      47.86110295      83.14587130
C      76.19299530      46.74616443      84.21923584
H      76.14197269      45.02462377      83.08540006
C      74.58105875      46.36443972      86.62485745
H      74.46389572      48.11621600      87.70011171
H      75.50324520      44.96226280      87.81916448
H      72.61196394      45.81641908      86.36785467
C      75.10073349      48.86076818      82.38809105
H      75.41820750      50.65978762      83.33862339
H      73.07305715      48.51872771      82.27848693
C      76.21567201      48.97037230      79.68578242
H      78.17342848      49.61098952      79.71790777
H      75.16120473      50.43679993      78.69556583
H      76.07205282      47.17891176      78.68233775
C      79.39986085      49.08186616      86.90264722
O      79.82504926      51.38166307      86.49257661
N      79.26758001      48.22582013      89.28937154
H      79.45088345      46.34176301      89.53125651
C      79.23545466      49.86232313      91.61184518
H      78.04303735      51.53284118      91.43988010
C      78.28114288      48.49983045      93.87573731
H      79.02191558      49.35209701      95.60105744
H      78.88207583      46.53829453      93.70755167
C      75.35017735      48.45825647      94.03258460
C      74.02547921      46.52128700      92.88363100
H      74.97223210      44.96037306      91.96900346
C      71.35340620      46.59876578      92.75890906
H      70.32728482      45.17391213      91.72333904
C      70.04004642      48.38266742      94.10250447
H      67.99914201      48.41479277      94.11762228
C      71.29293497      50.17979714      95.55381428
H      70.25736495      51.46103159      96.75945967
C      73.90453672      50.32341634      95.50846085
H      74.66609643      51.96558850      96.44954455
C      82.02847015      50.93190821      92.16175555
O      82.17019963      52.52872695      93.81148662
N      83.99945469      50.20625331      90.81438069
H      83.39096283      48.88722434      89.57849967
C      86.66585853      51.11899112      90.76902725
H      86.95876609      52.78195027      91.94821647
C      88.66329924      49.05918943      91.41531364
H      90.55680499      49.78106490      91.04681701
H      88.50267250      47.33197958      90.30226486
C      88.32125877      48.27306330      94.14218872
H      89.64784664      46.81230485      94.73367305
H      86.35783313      47.72315294      94.41997849
C      88.87116912      50.54073487      95.87317802
O      87.69386963      50.86765752      97.79313995
O      90.35082483      52.19235566      95.11728749
C      87.42741822      52.32085705      88.22356590
O      88.93919927      54.11987650      88.17065357
N      86.42964273      51.33819938      86.09951353
H      85.42619806      49.71681419      86.18266149
C      86.63184344      52.64022080      83.62208233
H      88.62739444      52.75738383      83.12886377
C      85.32604256      51.00749726      81.63031080
H      83.66875258      50.32719579      82.65076300
H      86.62428454      49.48437785      81.14465114
C      84.38306913      52.30951869      79.24736592
H      85.99878513      52.96903319      78.15321439
H      83.29269705      54.00838265      79.65176736
S      82.36106198      50.56719103      77.37653687
C      81.38407348      52.75927355      74.89532622
H      81.99445507      54.67167659      75.35641945
H      79.33938961      52.78006054      74.64966180
H      81.97933726      52.09031045      73.03961498
C      85.60005288      55.36709588      83.71278919
O      86.91719212      57.23603519      83.11185624
N      83.21521828      55.69968771      84.29293517
H      82.07382359      54.17089911      84.30805298
C      81.97933726      58.29428194      84.50269479
H      82.14941264      59.14654849      82.63564519
C      79.11451217      58.16011136      84.91087569
H      78.62696278      60.15377263      84.74080032
H      78.80270734      57.28516808      86.74957939
C      77.51769344      56.56707208      83.08162061
H      78.18287710      54.62065397      83.16854801
C      74.63964026      56.60297689      83.57861862
H      73.64375449      55.88488089      81.92510810
H      73.80438123      58.45112921      83.93955636
H      74.14453198      55.38032395      85.16220928
C      77.84083663      57.45335372      80.29049485
H      79.75701912      56.91100226      79.75759203
H      77.69343799      59.50748622      80.27537703
H      76.48968232      56.47636522      79.08107000
C      83.55725874      60.10086028      86.22990465
O      83.89740947      62.32317842      85.47968331
N      84.79313974      59.06340053      88.30104468
H      84.53613696      57.18501258      88.52214266
C      86.23689064      60.69612408      89.97912166
H      85.02935554      62.23058185      90.64052587
C      87.32726274      59.13521013      92.15797610
H      89.18108424      58.50026209      91.51924859
H      86.09894063      57.49681743      92.37340489
C      87.88851145      60.57707131      94.57304631
H      86.16697078      60.80194875      95.68042593
H      88.80502871      62.38553939      94.21210859
C      89.50044800      59.05395190      96.32482261
H      90.32814812      60.34841443      97.69487419
H      91.20876058      58.35664289      95.41208481
N      88.04913819      56.96391460      97.64952075
H      88.58204101      55.19891022      97.15441247
C      86.63751262      57.32296261      99.61861558
N      86.18397831      59.46024307     100.72410547
H      85.82115086      59.30906497     102.59115507
H      87.18175380      61.02493646     100.27057115
N      85.81926114      55.36709588     100.73922328
H      84.65896918      55.58630412     102.23966598
H      86.49578315      53.70980590     100.07781906
C      88.33070740      62.27782500      88.68087967
O      88.67841705      64.46423834      89.47456472
N      89.84437818      61.15343784      86.91587530
H      89.74800214      59.30717524      86.43399508
C      91.61694146      62.41766474      85.28126203
H      92.21031552      64.21479446      86.09573407
C      94.17941035      60.86241999      84.96378802
H      95.41151189      62.32317842      84.18900023
C      95.59292562      60.25014866      87.47334456
H      97.40706288      59.29394715      87.26169522
H      94.44586176      58.99159093      88.63174679
H      96.19952778      61.97168933      88.42387690
C      93.85437741      58.39065797      83.43121998
H      92.81691768      58.72513953      81.68511287
H      92.86038138      56.98470160      84.56316603
C      96.18252023      57.19824067      82.46368011
H      96.94030048      55.95291102      83.91876937
H      97.39005535      58.71191144      81.76070191
H      95.69875029      55.92267540      80.92166343
C      90.83459476      63.36441763      82.56005615
O      92.10638058      64.98202335      81.46023543
N      88.68786568      62.35719350      81.58495737
H      87.88284226      60.82273573      82.38809105
C      87.44631549      63.56094916      79.45334608
H      88.82581569      63.55527998      77.92266778
C      85.15029802      61.86019548      78.58596171
H      83.57426628      62.47246680      79.76326120
H      85.48288984      59.85897531      78.94123025
C      84.42464312      62.18333868      75.81562293
O      85.26557132      60.70935215      74.21124529
O      83.24356417      64.08629308      75.16177763
C      86.59593864      66.28782424      80.05994824
O      87.17797436      68.04904916      78.59352061
N      85.56414808      66.86797021      82.31628145
H      84.90274387      65.48091109      83.44822751
C      84.94620757      69.35862950      83.13831239
H      84.66652809      70.67954819      81.58117792
C      82.22500168      69.20556167      84.52159205
H      82.28736266      67.94322449      86.14864642
H      80.84739121      68.51203211      83.15720967
C      81.19888030      71.65842642      85.68188402
H      82.78814013      72.71667315      86.45478207
H      79.87796160      71.18032566      87.18799588
C      79.82693900      73.23445817      83.78270907
O      80.98912068      74.75946730      82.44856229
O      77.46478110      72.83572591      83.34051311
C      86.98522227      70.61529750      84.67088043
O      87.39718261      72.92832250      84.48946671
N      88.18330876      69.27926099      86.40564919
H      87.42363878      67.53693333      86.60407045
C      90.26200769      70.31861047      88.15931521
H      91.51111679      71.69244149      87.26736439
H      91.44875581      68.88808764      89.04748657
C      89.21698904      71.72834629      90.54037037
O      86.89262568      72.14408608      90.73690190
N      90.84215367      72.60328958      92.33183092
H      92.72999025      72.53903888      92.05971032
C      89.96910012      73.60484451      94.67698126
H      87.97732859      73.19477391      95.00579365
C      91.21254003      72.04959976      96.91252750
H      93.22887801      71.84550932      96.53647195
H      90.66262968      70.07483577      96.71410624
C      90.46609814      72.99068347      99.48444500
H      90.83648450      75.01647008      99.52790871
C      87.67497238      72.72801150      99.93986904
H      86.42775300      73.80893497      98.70776749
H      87.12695175      73.23634789     101.85983099
H      87.24978395      70.71356325      99.93986904
C      92.08937303      71.80393534     101.56125422
H      91.35993869      72.29904364     103.42263464
H      94.00933498      72.54470806     101.48944463
H      92.04590934      69.76114120     101.29102337
C      90.27712550      76.50179495      94.87729225
O      92.24055115      77.59405677      94.25557230
N      88.60471771      77.70555062      96.22844656
H      86.98900173      76.86651214      96.79914392
C      88.81636707      80.44376404      96.90685831
H      90.75333653      81.10138880      97.14307411
C      87.75434087      82.09160540      94.79225457
H      87.13451065      83.89062485      95.58216017
H      86.23878038      81.13162442      93.78314072
C      89.64217747      82.78513494      92.82882893
H      90.48499539      81.08438127      92.02947471
H      91.19364276      83.92275018      93.56204274
C      88.34393549      84.50478589      90.71611491
H      89.82170146      85.63673196      89.83550246
H      86.98333254      85.87105802      91.43988010
N      87.16285655      83.14985212      88.60151117
H      86.93419965      81.26390527      88.79048381
C      85.92319609      84.22132695      86.66643142
N      86.09894063      86.64395608      86.26203000
H      85.10305486      87.39795688      84.82016881
H      87.31592438      87.66629801      87.32027672
N      84.87439797      82.89284935      84.78993320
H      84.28669310      83.82259470      83.23279872
H      84.67408699      80.99556413      84.79560237
C      87.45198466      80.80659150      99.45987856
O      85.18998228      80.23589415      99.59215940
N      88.68597594      81.60027654     101.46298845
H      90.48499539      82.23900405     101.38739940
C      87.58048605      81.67775533     104.02545733
H      86.20854475      80.14329756     103.96309637
C      89.68753090      80.66108257     105.69219595
H      89.27746028      80.86139357     107.70097502
H      91.49032980      81.61728408     105.41629590
C      90.22988234      77.78680884     105.23866162
H      90.00878436      77.23689850     103.26767709
C      92.79046150      76.94588063     106.27990082
H      94.37405215      78.08538560     105.61849661
H      93.12872251      74.92576322     106.03990558
H      93.00778002      77.21989095     108.30946689
C      88.22110327      76.27124835     106.55013170
H      88.29669233      74.37774259     105.74132883
H      86.29547217      76.68887786     105.95108845
H      88.29291288      76.34305794     108.60804365
C      86.41074546      84.01156733     105.06858626
O      85.08226788      84.02290568     106.84870844
N      86.71877086      86.14317861     103.66451961
H      87.77701759      85.88050664     102.09793649
C      85.39596244      88.52423375     103.92908130
H      83.96354989      88.33904059     105.39739864
C      87.17041545      90.89773000     104.55269097
H      85.91563718      92.48510011     104.93630541
H      88.34771493      91.48354516     102.96532088
C      88.66896841      90.69741901     106.97343039
H      90.08248370      89.26311675     106.52934470
H      87.34049082      89.76956340     108.24521620
C      89.69886926      93.14650432     107.97120588
H      90.43208307      92.91595772     109.88171919
H      88.05858682      94.36348806     108.25655456
C      91.76434012      94.49576891     106.49155017
H      92.49188474      96.06424175     107.61215788
H      90.75144682      95.31779986     104.89662116
N      93.82225206      92.80824331     105.82069734
H      93.17785539      91.23032183     104.96087187
H      94.96931595      92.25077405     107.24366124
H      95.17340638      93.58870028     104.72276634
C      83.63284778      89.00044480     101.62928437
O      83.86150467      87.65495965      99.76412451
N      81.82060025      90.71820600     101.95053784
H      82.17208934      91.85582125     103.44342163
C      79.88552051      91.14150471     100.06270126
H      79.20899850      89.28012428      99.49578336
C      77.74068114      92.62682958     101.34204597
H      77.23990367      91.58370066     103.04657911
C      78.84239159      95.25165944     102.13195157
H      79.48489854      96.30801645     100.48411022
H      80.54314526      94.99843610     103.27145653
H      77.63107701      96.42140002     103.31680997
C      75.48623765      92.64194740      99.54680598
H      74.87963551      90.78245671      98.89862984
H      75.62040823      94.01766815      98.01801739
C      73.29037568      93.77767291     101.03968976
H      73.86296276      95.71464239     101.44220147
H      72.71400916      92.81769195     102.76689961
H      71.59529117      93.87215923      99.86994917
C      80.97589260      92.17140554      97.64763103
O      82.53491680      93.88160785      97.86872901
N      80.37495963      91.13394580      95.46121769
H      78.78569979      90.07569906      95.48200467
C      81.17053441      91.90873359      92.83638784
H      82.01146261      93.78145237      92.98567622
C      83.21899773      89.98499220      91.76869247
H      84.78936029      89.76578394      93.08583172
H      84.16386088      90.55379982      90.02825454
C      82.15319209      87.29402192      91.28870198
C      80.94187751      86.65529444      88.95488998
H      80.55826308      88.19920083      87.67743501
C      80.15953082      84.22699612      88.52403240
H      79.02002586      83.86983786      86.86863214
C      80.57905006      82.31837255      90.32116211
O      79.82693900      79.94487630      89.73156750
H      79.51513415      79.69921188      87.96278367
C      81.54281048      82.95332059      92.71355562
H      81.78091600      81.64185052      94.25746202
C      82.32326746      85.37594972      93.15575158
H      83.17742374      85.83326349      94.95288131
C      78.80648679      92.35659872      91.07516291
O      76.70889057      91.53834722      91.64963972
N      79.24679302      93.31468996      88.75268927
H      81.07037891      93.86460032      88.66765159
C      77.34005917      93.58303109      86.69666704
H      75.63174657      93.00099540      87.69255281
C      77.49123728      96.31557534      85.61574359
H      76.74479537      96.14927943      83.70334056
H      79.45466292      96.93351585      85.51180865
C      75.85473429      98.14672015      87.24279795
H      76.85062006      98.25443454      89.04181740
H      73.97445661      97.37949126      87.58861787
C      75.56371644     100.84146987      86.23935327
H      74.48846216     100.80556506      84.48190780
H      77.48556809     101.49153571      85.88408473
C      74.00469223     102.29277968      88.26891933
H      75.13285884     102.71607837      89.93943739
H      72.37574814     101.05122949      88.48812760
N      73.08061606     104.82501294      87.29382057
H      74.61696355     105.91160557      86.97067737
H      72.08095084     105.74341992      88.63552624
H      72.12630426     104.76454170      85.64219976
C      77.63863592      91.68385616      84.47245918
O      79.75890885      91.40606639      83.44822751
N      75.57694452      90.71253683      83.47279395
H      73.98201550      91.20764512      84.39309067
C      75.47678902      89.23288113      80.97457578
H      76.82983307      87.67952609      81.02748811
C      72.70833998      88.02156657      80.88575864
H      71.40820827      89.56547296      80.48702639
H      72.32850498      87.37150071      82.80194112
C      72.30393854      85.91830117      78.84107477
O      70.76759105      86.36805603      77.11008546
O      73.72690245      83.97188308      78.80139052
C      75.90575689      90.90339918      78.53304937
O      76.01158157      93.23910091      78.68800694
N      76.36496038      89.55980378      76.50537303
H      76.39330628      87.68519527      76.85875186
C      76.74668511      90.70686765      74.05250828
H      77.95799967      92.35659872      74.28116517
C      77.89374897      88.92296602      72.08341347
H      76.49535151      87.60204732      71.34453047
C      78.92742927      90.55191009      69.85731588
H      77.46478110      90.77489780      68.42301359
H      80.62818295      89.78468122      68.98804176
H      79.29025673      92.40951105      70.66800846
O      80.00646299      87.63984185      73.08874786
H      79.32427179      86.34915878      74.16589186
C      74.37129913      91.93141030      73.01693826
O      74.50357998      93.77389346      71.69035039
N      72.07717138      91.19252732      73.73314454
H      71.89386794      89.43508184      74.45501999
C      69.64698334      92.52289464      73.40433216
H      69.68099842      93.15784267      71.44468597
C      67.33584806      90.84481768      73.95424252
H      66.92955690      90.61616079      75.95924214
H      67.52482070      89.11949755      72.84497318
C      64.77337918      91.92385139      73.00371018
H      64.42189010      93.67373797      74.03361102
H      63.24837006      90.65584505      73.55739999
C      64.94156483      92.31880419      70.13321591
O      64.24425582      90.56891764      68.71970064
O      66.08673898      94.07435994      69.12788152
C      69.60351965      94.99276692      75.15421872
O      69.42777510      97.18107000      74.32273914
N      70.03248751      94.55057097      77.64487801
H      70.24980604      92.72509536      78.15699384
C      70.54271361      96.55368087      79.51192761
H      69.48068743      98.25065509      79.02437821
H      72.51180844      97.00154600      79.10752618
C      69.89075805      95.73920883      82.31439173
O      70.62208212      96.83713982      84.17955159
N      68.49236056      93.62082562      82.41832668
H      67.66843990      92.91406799      80.84985384
C      67.27348710      92.90272963      84.88064005
H      66.06028280      94.38616479      85.63464085
C      65.53304916      90.76544917      84.17199270
H      64.32173460      90.39128335      85.79715733
H      66.68389249      89.13839481      83.65609740
C      63.78316260      91.26244718      82.03849168
C      63.20301662      89.37461061      80.40198870
H      64.19323320      87.59259868      80.34151746
C      61.36620265      89.79412985      78.56895417
H      61.15644303      88.11794260      77.42755948
C      60.08307848      92.06747060      78.30817194
O      58.31996383      92.33392201      76.43734290
H      57.25415819      93.80034962      76.48836550
C      60.63298883      93.94585856      80.01270507
H      59.54450647      95.67117868      79.93144685
C      62.51893569      93.61137700      81.94967454
H      62.99136728      95.13827586      83.22146036
C      69.02715312      92.35848845      87.12941438
O      70.97168150      91.19819650      86.67210060
N      68.18622491      92.86871455      89.51991815
H      66.35508010      93.30713105      89.83928191
C      69.92288339      92.57391725      91.59672738
H      71.85607340      93.17485022      91.21689238
C      69.17644150      94.20286133      93.83983251
H      70.21579096      93.85326197      95.58216017
H      67.29805354      93.87971814      94.62028947
C      69.41643673      96.95808229      93.35984203
C      67.21868503      98.11648453      92.43765558
H      65.44045257      97.23398234      91.96144455
C      67.16199324     100.78477808      92.16553500
H      65.59541014     101.65594191      91.18854649
C      69.22179492     102.19451391      93.00835294
O      69.35029632     104.75320333      92.49245765
H      67.79883101     105.25398080      91.69499315
C      71.46301034     100.97186099      93.87006813
H      73.24691197     101.92806250      94.11951200
C      71.57072473      98.32435442      94.17431407
H      73.22045581      97.39082962      94.93020459
C      69.94556010      89.83570382      92.54159054
O      67.92166323      88.75855983      92.79103441
N      72.22645976      88.76233928      92.98756595
H      73.71556409      89.94908740      92.86284400
C      72.75936258      85.95420598      93.06882418
H      71.13986714      84.69375853      93.24645845
C      73.61729833      85.15107230      90.42131760
H      75.41253832      86.10538408      90.08305659
C      74.12941416      82.29002666      90.02447509
H      72.33417417      81.28469225      89.91676068
H      75.32183147      81.61350463      91.56082258
H      75.31049311      82.08782593      88.34639811
O      71.82583779      85.70854155      88.66387213
H      71.92221383      87.43764112      88.12341041
C      74.77570055      85.48933331      95.05303681
O      76.20811310      87.10882876      95.91286228
N      74.94766566      83.17063912      96.03191503
H      73.62863669      82.04058278      95.24767862
C      76.75235428      82.22955542      98.05203246
H      78.49657168      83.31614805      97.93864888
C      75.52592190      82.67175137     100.60883216
H      74.74546494      84.57848522     100.70709794
C      73.16187429      81.00879221     101.14551443
H      71.72568230      81.14863195      99.67530737
H      72.44944746      81.58893819     102.98799759
H      74.01414085      79.13418372     101.17575006
C      77.31927218      82.33538008     102.93130580
H      77.83327773      80.36817500     103.26956681
H      76.32527613      83.08560144     104.57158824
C      79.83260817      83.88117621     102.82170167
H      81.05148164      83.45031861     101.21543431
H      80.53936581      83.47110559     104.71142799
H      79.54348004      85.92019090     102.77445851
C      77.66509210      79.43842964      97.81203722
O      76.31960696      77.85483899      96.82371036
N      79.87418215      78.84127614      98.56603802
H      81.06470973      80.17731264      99.23311140
C      80.80581722      76.31660177      99.04413877
H      79.46600126      75.02969816      99.92664096
H      82.56326269      76.38463193     100.11561359
C      81.81871053      75.00891117      96.60072265
O      83.55347929      75.83472156      95.32137793
N      80.47511511      72.88674852      95.89396501
H      79.19388068      72.38030187      97.21488371
C      80.66786720      71.47890242      93.63952152
H      82.09650029      72.42187585      92.49623711
C      81.45588308      68.62919514      94.14974763
H      79.93843284      67.64653746      95.13618475
C      82.26468593      67.35551960      91.69499315
H      80.99856930      67.89031214      90.16053537
H      82.49145309      65.30894600      91.71955958
H      84.12984581      68.01125464      91.11673690
C      83.73300328      68.69911500      96.00734859
H      83.32860185      69.49468979      97.86305982
H      85.12195213      69.99168780      95.20799436
C      84.91597196      66.18199956      96.51379525
H      85.81737140      65.47524191      94.80359293
H      83.74812109      64.68155687      97.30559056
H      86.26334682      66.71679210      97.97644340
C      78.22445108      71.81338398      92.07104868
O      76.56527138      70.32805910      92.22411651
N      77.93532296      74.02625348      90.82760877
H      79.05971012      75.55693179      91.03169920
C      75.77158632      74.52703096      89.01725096
H      75.45978149      72.76202659      88.00813711
H      76.39519602      75.94054625      87.65475828
C      73.24880169      75.51913728      90.24368333
O      71.41765691      75.85550856      88.90575710
N      73.10329277      75.87251609      92.71355562
H      74.65853752      75.94999488      93.81904551
C      70.48413210      76.06526817      93.91164210
H      69.14998533      74.72734195      93.09150088
C      70.66743555      75.31693655      96.75945967
H      71.45734115      76.73045185      98.03124547
H      71.85796314      73.64263904      96.90874805
C      68.03315707      74.76891593      97.63818240
N      66.47791231      72.68643753      97.19031727
H      66.94845417      71.07450099      96.27946918
C      64.21402019      73.11729512      98.45643390
H      62.60397338      71.86440658      98.42430855
N      64.25370444      75.54748317      99.35783334
H      62.76837956      76.43754426     100.15907730
C      66.57995754      76.46400042      98.91563738
H      67.42277548      78.24790207      99.44476076
C      69.27848671      78.79781243      93.49779205
O      70.00414162      80.61572913      94.79225457
N      67.40198849      78.82426860      91.90475277
H      66.99947678      77.15375054      91.07705264
C      65.82406701      81.02579975      91.49846160
H      67.08262473      82.47333011      90.74635054
C      63.81528795      80.43998459      89.40464485
H      62.75704121      78.82048914      90.10951277
H      64.76393056      80.04881124      87.61885348
C      61.74414790      82.53191163      88.86607285
H      60.56306895      82.83237811      90.52525256
C      62.83263026      84.90351815      87.57916923
H      63.72269136      84.47077081      85.77448061
H      64.13276197      85.62161414      89.00780233
H      61.27171632      86.17530396      87.14453219
C      59.94701818      81.32437651      87.07083285
H      60.85786626      81.03902783      85.24535724
H      58.35019945      82.59427258      86.78170472
H      59.25915781      79.49323170      87.71900898
C      64.76393056      82.13506910      94.09494556
O      63.18222962      80.68375929      95.27791423
N      65.44423202      84.30825436      95.08327242
H      66.64798769      85.34382437      94.02502569
C      64.13654141      85.70665182      97.15630218
H      63.27671594      84.26290092      98.34494004
C      65.74847797      87.60015759      98.48855923
H      64.51637641      88.74911119      99.67341763
H      66.48358150      88.90217902      97.06937477
C      67.97079611      86.22065738      99.97766358
H      69.19722848      85.07359351      98.78524627
C      69.71312377      88.20487001     101.30614117
H      70.82806229      87.32803700     102.80091469
H      68.64731812      89.72987914     102.19053308
H      71.16821303      88.95131190     100.05136290
C      66.98813843      84.56336741     102.28501940
H      65.89587661      83.07048362     101.38550968
H      65.66910945      85.74633608     103.33570724
H      68.48102221      83.90952211     103.54546686
C      61.86509039      87.13717465      95.96766433
O      59.73158938      86.39073276      96.45143427
N      62.27138154      89.03068042      94.35950725
H      64.07229073      89.45208937      93.88518594
C      60.01504833      90.32325321      93.20866392
H      58.60342277      88.88328175      92.78347551
C      59.00404476      92.34715010      94.92075597