 %block lattice_cart
   137.614   0.000   0.000
   0.000 142.646   0.000
   0.000   0.000   160.855
 %endblock lattice_cart

 %block positions_abs
N      90.57759198      43.92480305      81.83629097
H      92.34826555      44.50305930      82.24825131
H      90.48499539      42.18625484      81.05772373
H      89.44942539      43.98905375      83.37641792
C      89.69320007      45.96192802      80.13364756
H      90.04846862      47.78740364      81.01426002
C      91.07836947      46.05641433      77.56173005
H      90.71365228      44.35377093      76.45812988
H      93.11171498      46.23215888      77.83763009
C      90.33381730      48.27495303      75.97247022
H      88.61227662      47.64756389      75.03138652
H      91.65851545      48.65667774      74.44368163
S      89.79524530      51.24749252      77.48992045
C      88.59526909      52.80840645      75.01059953
H      89.86516517      52.72714822      73.39110408
H      88.05669708      54.72269920      75.54539207
H      86.81703663      51.86921247      74.55895494
C      86.81514689      45.69169716      80.02971262
O      85.90429882      43.97960512      78.83162613
N      85.57737617      47.46615016      81.12575388
H      86.52979823      48.59242705      82.33517872
C      82.83538329      47.36977412      81.26181417
H      81.89052012      46.38144726      79.71979750
C      82.38940788      45.88066979      83.76192208
H      83.77079781      44.37266819      84.01703514
H      80.62818295      44.81486415      83.72790701
C      82.20988388      47.47370907      86.18077176
O      80.18598700      47.97448654      87.04626642
N      84.37551022      48.34298317      87.12374519
H      84.14685335      49.43524498      88.67521050
H      86.13673515      47.84976460      86.57572456
C      81.53336186      50.00027315      81.43755872
O      82.82971410      51.93535289      81.24669636
N      79.00679777      50.19302523      81.72668684
H      78.05815517      48.54140444      81.84196015
C      77.58950304      52.55518312      81.66810533
H      77.95233050      53.08997567      79.71034887
C      74.66042726      52.06763374      81.96479236
H      74.24468746      50.57852940      80.60607914
C      73.92721345      50.93001849      84.47812836
H      74.15776006      52.30951870      85.98990941
H      75.27647803      49.43713471      84.91465513
H      71.99969261      50.20247386      84.51970234
C      73.10329277      54.52049849      81.31283678
H      73.64375449      56.25337752      82.28793556
H      71.11719042      54.04806691      81.58684710
C      73.32439075      55.17812325      78.41588634
H      73.53981956      53.47359011      77.27827110
H      75.02136498      56.28361314      78.03983081
H      71.63497542      56.24203916      77.91321915
C      78.43232098      54.52238822      83.67877413
O      78.68554431      56.73147828      83.09484870
N      79.09750464      53.72114426      86.01636558
H      78.77058199      51.91267618      86.53226086
C      80.38629798      55.33497053      87.88152545
H      79.15230671      56.96958379      88.08939534
C      80.52046856      53.87043264      90.45911214
H      81.52391323      55.19324106      91.67987534
H      81.85083588      52.30573925      90.29092650
C      78.06571408      53.20902843      91.74223630
C      76.48590287      55.07607803      92.73245289
H      77.08305638      56.95446598      92.20710898
C      74.21634158      54.46380670      93.86439895
H      73.08628523      55.94346240      94.69776826
C      73.36029555      51.93157344      93.89652430
H      71.49513569      51.47803913      94.58627440
C      75.04215197      50.03050877      93.07260363
H      74.56972039      48.09542903      93.51857904
C      77.47989892      50.59742666      92.08427677
H      78.77436144      49.10454288      91.56838148
C      82.95443604      56.34786383      86.86863214
O      83.41930871      58.57585116      87.25980549
N      84.42653284      54.79450880      85.40220452
H      83.76701836      53.04651197      85.01103118
C      86.83404416      55.75448977      84.22868448
H      87.90173953      56.92234063      85.54960318
C      88.57637182      53.57185588      83.62208234
H      90.06736589      54.14066350      82.31817118
H      87.53513263      52.06574401      82.67155000
C      89.71020762      52.55896258      85.94644570
H      88.25889781      52.44368927      87.40531442
H      91.00467013      53.95924977      86.72501294
C      90.92719135      49.95680944      85.43055042
O      93.26856226      49.70358612      85.22645998
O      89.60816239      48.01606052      85.24346751
C      86.38239957      57.42311811      81.92321838
O      87.49355865      59.53583212      81.91943893
N      84.65518973      56.81462623      80.17333182
H      83.56859710      55.34063971      80.71379354
C      84.18842732      58.16767027      77.76771022
H      85.81170223      58.13365520      76.50537304
C      82.07760304      56.86753857      76.39009974
H      80.27858359      56.94690708      77.39543414
H      82.38184897      54.84553142      76.16711203
C      81.73367285      57.98436682      73.68401166
H      83.33805048      57.31540371      72.57663204
H      81.52391323      60.03283014      73.69346029
S      79.06726901      56.46502687      72.41033612
C      79.46222181      57.36075714      68.99749040
H      79.22222658      59.37520539      68.64222185
H      77.93910240      56.48392413      67.92412585
H      81.26880017      56.68612484      68.27750468
C      83.38718336      60.96446522      78.40265826
O      84.27157529      62.80883810      77.34819098
N      81.77524683      61.14020976      80.28293594
H      81.22722620      59.54528076      81.17866621
C      80.80770696      63.69134029      81.14843059
H      80.01969107      64.45478972      79.40610293
C      78.65530868      63.40977107      83.13642267
H      78.52113812      65.09351721      84.31750162
H      79.19199095      61.92255646      84.45734137
C      76.01536103      62.89576551      81.81172453
H      76.22512065      61.46902214      80.33962773
C      74.16720868      61.90365919      83.76570154
H      75.18955063      60.58463023      84.97134692
H      72.50613925      60.81895629      83.21390145
H      73.52092229      63.41732997      85.00347227
C      74.78136973      65.22012887      80.44734213
H      72.79904684      64.88564732      80.00325645
H      75.80182195      65.60185359      78.69745556
H      74.97223210      66.81883733      81.73235602
C      82.83349355      65.24847477      82.42588558
O      83.24356417      67.39898331      81.58306764
N      84.12795608      64.24314037      84.27214819
H      83.47600051      62.61797574      85.03181817
C      86.29547217      65.47146247      85.54771345
H      85.42808779      67.17788533      86.30360397
C      87.38206479      63.75748071      87.57538978
H      87.83937857      61.98302770      86.63430608
H      85.87784265      63.27182104      88.89819820
C      89.64595691      64.82895553      89.00780233
H      89.15084863      66.74891746      89.56149214
H      91.29001881      64.88186786      87.77003159
C      90.27334605      63.44945532      91.47389517
H      88.66140950      63.74803208      92.72111453
H      92.03835043      64.34329586      92.04837197
N      90.87994819      60.69612408      91.02791976
H      89.50044800      59.42622800      91.38507803
C      92.80935877      59.88543149      89.81093601
N      94.60270904      61.34618993      88.88497012
H      95.80268524      60.49203364      87.66987610
H      94.44775147      63.22457789      89.18543660
N      92.85660193      57.57240648      89.34039416
H      94.44019257      56.98470160      88.44844334
H      91.36749758      56.52549811      89.91676069
C      88.44598071      66.20845574      83.75625290
O      89.58359595      68.20022727      84.07750638
N      88.86927941      64.70045414      81.77393000
H      87.61828059      63.29071831      81.47913270
C      90.89128655      65.16532681      80.02971262
H      92.55235598      65.71145772      81.11819497
C      91.63961818      62.80694837      78.37809182
H      90.00689465      61.97924825      77.43133894
C      93.45753490      63.51370601      76.24270108
H      92.48999502      64.46423835      74.69123578
H      94.66884946      62.04160922      75.45846466
H      94.98821320      64.58707056      77.10441628
C      92.85849165      60.67911654      79.87475506
H      92.01189426      60.59407886      81.75314301
H      94.89372689      60.84163301      80.15254483
C      92.43708269      58.05428669      78.58029253
H      90.38295017      57.90877777      78.51793157
H      93.22698827      56.60675634      79.81617354
H      92.99266221      58.06184560      76.59607990
C      90.13728575      67.46323401      78.37998154
O      92.06102714      68.64620268      77.68645199
N      87.80914294      68.10952041      77.76393077
H      86.38428931      67.07961957      78.50848293
C      86.76412429      70.08995358      76.08396407
H      88.17197040      70.54159817      74.64966180
C      84.15441226      69.50224870      74.84430361
H      83.33238131      71.20111265      74.01660349
H      82.78814013      68.97123561      76.29183397
C      84.08827184      67.55205114      72.58608067
O      85.65674466      67.98290874      70.94390850
O      82.54247571      65.75870087      72.47080736
C      86.32381806      72.52959025      77.60330403
O      86.64885098      74.67442962      76.62064635
N      85.44887478      72.31227173      79.96168247
H      84.94053840      70.50002419      80.27915649
C      84.67030754      74.46844945      81.58306764
H      84.42464312      76.21833602      80.52293118
C      81.93776329      73.92420827      82.72824179
H      81.24990290      75.20355299      84.18900023
H      81.88107150      71.98534907      83.41799189
C      80.03480889      73.72956646      80.54749763
H      78.66664704      72.24802103      80.96323741
H      80.96077479      73.28737050      78.76170626
C      78.32838603      76.16542368      80.30561266
O      76.18354666      76.01802503      81.23913746
O      79.17120397      78.18743083      79.47035363
C      86.52790850      75.13552284      83.64097960
O      86.44854000      77.27280330      84.39687012
N      88.13039642      73.38374655      84.63308591
H      88.14551422      71.65086752      83.83184196
C      89.87839325      73.96200280      86.77036637
H      91.17096606      75.53047564      86.44344372
H      91.20498113      72.38975051      86.90642667
C      88.51023141      74.24924120      89.36118115
O      86.14429406      74.29270490      89.23834894
N      89.74422269      74.76513648      91.45310818
H      91.55835995      75.33961328      91.29437117
C      88.54424647      75.30748793      93.89652430
H      86.51657015      75.27536259      93.54503521
C      89.39651305      73.28359105      95.75412527
H      91.45442500      73.19666364      95.71444101
H      88.88061776      71.41654145      95.05870598
C      88.93353010      73.62185206      98.52446404
H      89.68375145      75.33583383      99.38239979
C      85.99122622      73.40642326      99.00634425
H      84.91975140      74.78970292      97.92164135
H      85.74934125      74.10751172     100.92819591
H      85.34493983      71.51102777      98.52068459
C      90.56058445      71.56016065      99.93419987
H      90.28846387      69.78948710      98.91752711
H      90.04657890      71.25780444     101.90707414
H      92.53345873      72.14975526      99.99089166
C      89.20943013      78.00412738      94.76579840
O      91.46009417      78.48222814      94.84327718
N      87.31025519      79.45543719      95.54058619
H      85.58115562      78.75812818      95.13240531
C      87.50489701      82.04436224      96.48166990
H      89.44942539      82.47333011      97.01268299
C      86.59404893      84.06070021      94.64296619
H      85.70020838      85.67263676      95.56326291
H      85.13329049      83.23677954      93.44676944
C      88.83526432      84.89973870      92.94410224
H      90.14106521      83.38039874      92.46978093
H      89.84626790      86.47577044      93.80014826
C      87.78079705      86.07703819      90.45533268
H      89.29257810      86.88206160      89.31204827
H      86.66396880      87.72110008      90.99768414
N      86.25389818      84.40652013      88.79237353
H      85.64162685      82.76056851      89.53692570
C      86.01201321      84.71832497      86.36407522
N      86.70554277      86.64395608      85.07906132
H      86.20287558      86.70253760      83.24035762
H      87.85071691      87.99700012      85.78959842
N      84.89140552      82.97788704      85.22645998
H      84.74211714      83.00056375      83.32539531
H      84.41330476      81.30925870      86.02392448
C      85.83437894      82.25790131      98.86272505
O      83.60261217      81.84405125      98.85516615
N      87.16285655      83.06859390     100.96599044
H      89.05636230      83.28024325     100.85071713
C      86.21043447      83.02135074     103.54357713
H      84.56448287      81.78546973     103.46609835
C      88.21543410      81.84405125     105.34448630
H      87.36505726      81.90263276     107.21909481
H      89.91618777      82.98922539     105.12716778
C      88.76156500      78.97733643     104.85504719
H      89.24155548      78.52191239     102.90484963
C      91.02356740      78.30270414     106.63327965
H      90.99144205      76.24290246     106.56902896
H      90.64562213      78.72411311     108.61371283
H      92.70920327      79.11150700     105.76967473
C      86.50901124      77.31437728     105.62227607
H      86.34649477      76.97800599     107.64806268
H      86.76979346      75.40575370     104.89662117
H      84.80258837      78.02302464     104.71142799
C      84.97455347      85.48744358     104.53757317
O      83.94654235      85.45153878     106.56524950
N      85.21265898      87.49055347     102.97099006
H      86.37106121      87.19386644     101.48566517
C      84.12795608      90.03034564     103.50200315
H      82.69932300      90.05869153     104.98354858
C      86.58837974      91.62338492     104.01222925
H      88.21543410      91.22465267     102.81414277
H      87.11183393      91.09804100     105.93219119
C      85.77768715      94.42206959     103.72121140
H      84.27346500      94.59781414     105.11960887
H      85.00667882      94.95119296     101.88628715
C      87.76756897      96.54612196     103.97821418
H      89.50233772      96.10770546     102.95776197
H      88.13795531      96.55557060     106.00400079
C      86.94742774      99.23709223     103.17885995
H      85.25612270      99.81912794     104.19553271
H      86.42964274      99.22386415     101.18519869
N      88.92975065     101.20618705     103.72688058
H      89.09604656     101.61436794     105.58448155
H      88.60849717     102.86725648     102.84437839
H      90.57948172     100.47864242     103.09949144
C      82.53113734      90.95631153     101.25889802
O      83.10750387      90.45364433      99.07815385
N      80.40141579      92.30179667     101.79558029
H      79.97244793      92.78556660     103.59082029
C      78.61562442      92.78934605      99.72444025
H      77.84461609      90.99410606      99.07248467
C      76.33661449      94.45797439     100.70898766
H      76.88463513      95.69385540     102.26423241
C      75.01947526      96.05101367      98.65863461
H      74.49791079      94.63182921      97.26023714
H      76.38196792      97.27933577      97.72510981
H      73.27336815      96.87304462      99.37673061
C      74.31271761      92.67785220     101.82203646
H      75.24246296      91.23221157     102.95776197
H      73.28281678      91.71787123     100.32159376
C      72.26425428      93.94585856     103.33570723
H      70.87908491      92.54935081     103.94797856
H      71.13041850      95.33291767     102.31714475
H      73.19777909      95.05323818     104.79835540
C      79.81749036      93.86837978      97.30748030
O      81.36706593      95.53511839      97.57393171
N      79.35072797      92.64194740      95.17208956
H      78.00902229      91.28701364      95.11917722
C      80.38062881      93.30335161      92.73434262
H      81.49178787      95.01922310      92.98567622
C      82.37429006      91.30780062      91.74979521
H      83.77268754      90.93741427      93.21811255
H      83.40419091      91.92574113      90.07738742
C      81.19888030      88.73966257      91.06004510
C      80.69243364      88.22565701      88.49190705
H      81.07982753      89.76011477      87.20122397
C      79.72678350      85.90696282      87.74168570
H      79.36773551      85.52334838      85.76881143
C      79.38474304      83.91519129      89.54826405
O      78.60617580      81.61917382      88.78481462
H      78.76869225      81.27335390      87.01225134
C      80.05370616      84.32715162      92.08427677
H      80.05559587      82.72277398      93.34472422
C      80.99290013      86.73844240      92.84016729
H      81.48611870      87.02001162      94.80170320
C      78.21500245      93.86082087      90.79170397
O      76.00024322      93.23910092      91.16209033
N      78.96900325      94.81324294      88.52214267
H      80.80014805      95.10804024      88.07616726
C      77.33438999      95.35370466      86.24313273
H      75.40686915      94.93229569      86.83650680
C      77.62540784      98.15805851      85.39086617
H      76.67676524      98.48498116      83.59373644
H      79.55670814      98.86292642      85.28693122
C      76.35929121      99.72464162      87.42799113
H      77.65753319     100.17628621      88.96055917
H      74.58105875      98.78355792      87.87585627
C      75.73946098     102.36080983      86.26391972
H      74.64153000     101.92995223      84.57639412
H      77.41753794     103.40204903      85.67054566
C      74.32405597     103.79133265      88.26702961
H      75.61851850     104.71162936      89.57660995
H      73.10140305     102.54033383      89.35551197
N      72.58550777     105.80956035      87.20122397
H      71.75969736     106.96229340      88.48056869
H      71.15120549     105.00642667      86.23368410
H      73.50958393     106.98685984      86.01636558
C      77.71422498      93.66239961      83.95278444
O      79.82882872      93.06713582      83.16665830
N      75.62418768      92.50021793      83.10240760
H      73.94989016      92.75533098      83.97924061
C      75.78292469      90.80513343      80.72891135
H      77.60084140      89.83948328      80.62686613
C      73.65698259      88.84926669      80.71946272
H      71.83528642      89.79979903      80.86875110
H      73.99524360      87.38283907      82.12541910
C      73.51903257      87.24866850      78.21746508
O      75.50324520      86.34159987      77.41055195
O      71.55182747      87.21087398      76.94945873
C      75.97000758      92.39817271      78.24959043
O      75.39742051      94.65828538      78.40832744
N      76.36873984      91.28512391      76.04805927
H      76.31393777      89.38405924      75.89499144
C      77.25880094      92.64950631      73.67456303
H      79.00112860      93.59436946      74.23203229
C      78.06949353      90.87883275      71.54106202
H      78.97089297      92.04290416      70.10109057
C      80.03480889      88.97965781      72.42167448
H      81.50690568      89.84893191      73.57251780
H      81.14785768      88.32392278      70.81540711
H      79.15419643      87.37528017      73.36464791
O      76.00969184      89.62594421      70.38265979
H      76.68621387      88.74533174      68.94646779
C      75.37663353      94.57135797      72.56718341
O      76.06071446      96.35336988      71.13666059
N      72.86518725      94.26711203      73.24370543
H      72.52314680      93.12760706      74.73658921
C      70.91498971      96.09447738      72.36120324
H      71.63308571      97.19240836      70.77194341
C      68.45645577      94.71686689      71.56751819
H      67.40198849      94.51844563      73.32496366
H      68.85518803      92.85359675      70.78895095
C      66.69334112      96.03022668      69.50204733
H      66.58562672      98.03711603      69.95936109
H      64.80361480      95.25921835      69.76471928
C      67.57584331      95.68440677      66.81107706
O      66.06028281      94.92473679      65.13677954
O      69.80949981      96.18140479      66.15912148
C      70.23090878      97.93129135      74.33785696
O      69.30116344      99.93818070      73.78605688
N      71.04160136      97.46452895      76.67733814
H      71.95811862      95.82991569      77.04016559
C      70.79215749      99.25598950      78.79761106
H      69.27470727     100.56179038      78.31384112
H      72.62141257     100.20085265      78.72769119
C      70.34051290      98.11270508      81.26181417
O      70.88853353      99.33346828      83.04382608
N      69.25580999      95.81857733      81.48480188
H      68.71723801      94.98520803      79.85585779
C      67.80638992      95.31591013      83.80538579
H      67.18089051      97.14138575      84.52348179
C      65.66533001      93.52255986      83.21579118
H      64.75070247      93.23721119      85.03937707
H      66.55350137      91.74432740      82.67721918
C      63.75292698      94.45041548      81.23724773
C      62.85152753      92.75533098      79.37208786
H      63.43923241      90.80135397      79.32673443
C      61.34919511      93.85326197      77.47102319
H      60.82007174      92.80257414      75.80428458
C      60.44212648      96.41006167      77.46346428
O      58.68090156      97.26799742      75.72680580
H      58.14799874      98.96686137      76.08018462
C      61.23392181      98.02010849      79.42311047
H      60.96369094     100.03833619      79.30027826
C      62.98569810      97.01288436      81.18433539
H      63.73402972      98.37726676      82.50336436
C      69.30494289      94.13105174      85.99935804
O      71.07561644      92.68352138      85.63464086
N      68.56417017      94.80757376      88.38230292
H      67.06750693      95.99243215      88.44844334
C      69.63753472      93.86460033      90.80493205
H      71.59718091      94.45986411      90.59706216
C      68.81928322      95.15906285      93.24078927
H      69.56761485      94.05168323      94.80926211
H      66.78404799      94.87749363      93.38629820
C      69.56005594      97.99743177      93.49590232
C      67.70434470      99.75865670      93.60172700
H      65.77115468      99.10481139      93.62629344
C      68.27315232     102.22097008      94.01368733
H      66.70467948     103.50031480      94.27069011
C      70.79971639     103.13748734      94.27635929
O      71.50269459     105.69050759      94.48233946
H      70.07217177     106.80355639      94.52013398
C      72.73857560     101.31201173      94.06659967
H      74.69633205     101.85058372      94.26691066
C      72.18488579      98.78544765      93.64897015
H      73.74579972      97.47019813      93.63952152
C      69.61296828      91.07725401      91.08461155
O      67.61363784      89.92074151      91.48145407
N      71.87875013      89.93774905      91.13374443
H      73.50013530      90.91662728      90.89374919
C      72.42866048      87.16930000      91.42665201
H      70.69578144      86.31136425      92.13340965
C      73.12596949      86.19798067      88.82449888
H      75.04026225      86.84615680      88.42576662
C      73.01258591      83.34638367      88.62229816
H      74.24279774      82.73600207      87.08595067
H      71.14553632      82.55458834      88.27080907
H      73.85351411      82.65852329      90.37218473
O      71.40442882      86.98977600      86.95178010
H      71.39686991      88.78690572      86.71745404
C      74.34673269      86.65529444      93.53558657
O      75.55993697      88.36360703      94.63918674
N      74.58105875      84.36494615      94.54659015
H      73.45478187      82.99678430      93.83983251
C      76.08339116      83.54291520      96.76512884
H      77.86540308      84.57659550      96.78024665
C      74.50924915      84.14195845      99.16697099
H      73.81760931      86.04491284      98.79280518
C      72.26992347      82.55836780      99.18586825
H      72.80282629      80.57793462      98.97610863
H      71.08128562      83.14985213      97.60983651
H      71.12663904      82.87395209     100.87150412
C      75.91331580      83.71488030     101.66518917
H      76.00402267      81.78358001     102.37761599
H      74.91365058      84.71643524     103.15996269
C      78.48334359      84.85249554     101.79180084
H      79.29403618      84.97154830     103.68152715
H      78.40586480      86.72332459     100.93008564
H      79.97811710      83.64307070     101.05480757
C      76.66920633      80.90296755      96.46088291
O      75.33128010      79.36850978      95.22500190
N      78.71577992      80.21321744      97.69676392
H      79.52458279      81.75712384      98.47911061
C      79.85150544      77.70366090      97.83660366
H      78.47011550      76.42620591      98.67753187
H      81.70721668      77.68476363      98.72666476
C      80.35984182      76.81359980      95.19476628
O      81.80737218      77.88507462      93.79447908
N      79.33749987      74.61584810      94.43509630
H      78.70633130      73.26469379      95.62562388
C      79.36395605      73.73901509      91.85750961
H      80.78314051      74.87663033      90.88996974
C      80.24456851      70.95166878      91.81215618
H      78.77436144      69.89153232      92.79481386
C      80.51101991      70.06538714      89.14764208
H      78.68554431      70.14286592      88.19333029
H      81.11384262      68.09629232      89.18921605
H      81.79036464      71.15764895      87.95711450
C      82.87506753      70.42632487      93.15197213
H      83.09994496      71.50157914      94.89429979
H      84.52668834      70.77403451      91.97278291
C      83.17931348      67.61252239      93.66597769
H      84.63062329      67.16276752      95.05492653
H      83.51379504      66.40309755      92.03136443
H      81.49934679      66.90576474      94.62595866
C      76.73345701      74.30593299      90.68398957
O      74.99868826      72.76202659      90.99012523
N      76.43488027      76.41486755      89.41409349
H      77.70477634      77.83594174      89.51046953
C      74.23712857      76.89674776      87.67554528
H      73.96311825      75.32071602      86.37541357
H      74.76814165      78.49923568      86.49635606
C      71.68788776      77.31626700      88.83961669
O      69.98146490      77.77924995      87.35618153
N      71.30616305      77.59027732      91.41342393
H      72.85195917      76.94588065      92.32805146
C      68.89298254      77.86050818      92.53781108
H      67.44923164      76.73612103      91.59105820
C      68.93077708      77.07816149      95.33082657
H      70.31216700      78.22333563      96.33805070
H      69.66399089      75.15253037      95.27791424
C      66.48169178      77.10650738      96.72166514
N      64.89810113      74.99568309      97.14874329
H      65.42155532      73.17965610      96.88229187
C      62.85908643      75.84605993      98.47155170
H      61.40588690      74.73112141      99.36917170
N      63.22380361      78.38585210      99.01390316
H      61.90288492      79.51590843      99.80002930
C      65.35541489      79.21544195      97.76668379
H      65.86753072      81.18264704      97.57393171
C      68.09740777      80.59872161      92.17687336
O      69.12730862      82.25412186      93.48834342
N      66.31350614      81.15997032      90.47422995
H      65.59541014      79.60661529      89.63141201
C      65.04738951      83.52779739      90.20777854
H      66.51192740      84.96398939      90.02258536
C      63.42033515      83.47488506      87.78703913
H      62.13721098      81.89318413      88.09506452
H      64.66377506      83.16685967      86.17510259
C      61.82351642      85.89373474      87.26358494
H      60.34575044      86.12617107      88.68087968
C      63.55261599      88.15195768      87.09728903
H      62.49625898      89.78846067      86.42643619
H      65.00203606      87.56236307      85.75747307
H      64.44645654      88.60738172      88.89630848
C      60.61220185      85.51956893      84.65387290
H      62.12776235      85.43642097      83.25925488
H      59.63332362      87.27890413      84.22112558
H      59.75237638      83.64873988      84.62552701
C      63.56584408      84.34982834      92.63985630
O      61.96146644      82.98355622      93.59416809
N      63.84552357      86.71198623      93.47511533
H      65.28171557      87.58503979      92.56993643
C      62.60775284      87.89873436      95.73711773
H      61.89154656      86.40585057      96.96355011
C      64.60141409      89.45397911      97.23000152
H      63.65088176      90.79757452      98.46966198
H      65.63320466      90.54813065      95.82404514
C      66.44956643      87.65873911      98.51879486
H      67.36608369      86.23388547      97.34716455
C      68.58873662      89.52011953      99.27468539
H      67.90654542      91.33992597      99.95876631
H      69.55627649      89.92263124      97.50212211
H      69.66777034      88.57525638     100.75056164
C      65.36675325      86.57592594     100.89796029
H      66.73302538      85.30791958     101.78046248
H      63.91166399      85.23044080     100.33482185
H      64.67700315      88.03290492     102.17919473
C      60.24559494      89.42185376      94.91697651
O      58.09697613      88.75667010      95.70121293
N      60.70290871      91.38716913      93.38062902
H      62.51326652      91.49866298      92.78536523
C      58.98325777      93.39405847      92.59828232
H      57.17478969      92.48698984      92.21088843
C      58.59208442      95.34803548      94.63729702