 %block lattice_cart
   137.614   0.000   0.000
   0.000 142.646   0.000
   0.000   0.000   160.855
 %endblock lattice_cart

 %block positions_abs
N      93.11738415      41.92641748      81.74558411
H      94.88805772      42.24767095      81.11063606
H      92.37661145      40.28424531      81.11063606
H      93.57847738      42.00200653      83.59562616
C      91.36749760      43.88417394      81.01614975
H      92.24999978      45.60949406      81.71345876
C      90.92341190      44.19219933      78.14376576
H      88.88628694      44.18653015      77.84707872
H      91.65095654      42.61049840      77.04205531
C      92.18385936      46.66207162      77.28771973
H      91.99488672      46.64695381      75.23736669
H      94.19074871      46.51467297      77.73180541
S      91.01978795      49.34359326      78.90721519
C      93.81847261      51.26544492      79.04894466
H      94.46097957      51.34670315      77.09307792
H      95.09970706      50.34514820      80.37553253
H      93.43485817      53.12682534      79.83696052
C      88.78802117      43.50433895      82.36541433
O      87.85638610      41.37272767      82.59785067
N      87.62017031      45.54335364      83.16287883
H      88.51023140      47.22332033      82.98335484
C      85.00856855      45.51878720      83.72790700
H      83.80481288      44.42274594      82.46556982
C      84.67975617      44.29046510      86.31116288
H      85.64918576      42.48577647      86.52281222
H      82.68042574      43.81614379      86.46234098
C      85.44509532      45.96476261      88.63174678
O      84.07126429      47.49733065      89.48968254
N      87.73355390      45.68319339      89.52936679
H      88.20220602      46.58081339      91.14697251
H      88.92219174      44.31881099      88.92465437
C      83.88040194      48.41573764      83.83373167
O      85.48477958      50.21853654      83.93199745
N      81.39730156      48.60282054      84.12097008
H      80.25779660      47.09670867      83.84884949
C      80.12929521      51.12749490      84.10585227
H      80.64708021      51.99109982      82.30683282
C      77.18132216      50.66829140      84.09640364
H      77.01313651      49.34548298      82.52604107
C      76.03803774      49.31146791      86.45667181
H      76.85817897      47.44441831      86.73635129
H      74.01414085      49.02045006      86.20155874
H      76.31204805      50.36971465      88.20277892
C      75.69599727      53.08336163      83.49358094
H      76.18732611      54.36648580      85.02614898
H      73.71556410      52.58447388      83.75058373
C      76.16464941      54.32113237      80.90276617
H      76.53125630      52.65628348      79.74625367
H      77.81815993      55.54945447      80.92544288
H      74.46389572      55.18284757      80.12419893
C      81.01935631      53.01533148      86.06927791
O      81.47667007      55.21875237      85.50802920
N      81.45966254      52.08558614      88.30104468
H      81.53903103      50.19774955      88.56560637
C      82.26657567      53.73342748      90.40242034
H      80.99290013      55.34725375      90.26069087
C      81.98689617      52.42762660      93.01591183
H      82.47633529      53.76555283      94.50312644
H      83.23222581      50.81002088      93.28425297
C      79.34694852      51.38827713      93.65085988
C      78.45688742      49.18863570      92.58694396
H      79.57182595      48.09826362      91.27358417
C      75.90764662      48.53290067      93.04425772
H      75.20466844      46.87939015      92.07671785
C      74.31082789      49.78956867      94.82249018
H      72.46645501      49.11682610      95.38562863
C      75.32561093      52.00432791      96.02057668
H      74.27303337      52.84903557      97.55314472
C      77.76713731      52.83391776      95.23067108
H      78.25657643      54.56112761      96.20010067
C      84.92164113      54.79923312      90.09439496
O      85.79658442      56.52077379      91.30193006
N      86.38806876      53.78822955      88.27458852
H      85.59249397      52.35014782      87.30515891
C      88.99211161      54.62726803      87.60751512
H      89.69886926      55.74409628      89.18732632
C      90.80246942      52.31424302      87.65286855
H      89.82737065      50.59081262      87.09161984
H      91.19175304      52.11960121      89.66731681
C      93.36682803      52.33691974      86.22045601
H      94.51200217      53.75610420      87.18043697
H      93.03612592      52.60148142      84.20411803
C      94.52334053      49.70264126      86.29604506
O      93.68619177      47.82614303      85.03937706
O      96.55668604      49.64217002      87.47901373
C      89.14140000      55.98787097      85.03559762
O      90.51712076      57.87381784      84.65198317
N      87.54836072      55.43040171      83.25925488
H      86.20665503      54.20396934      83.83562141
C      86.86239006      56.65683409      80.87442028
H      88.45164990      56.55667859      79.56861940
C      84.62306438      55.28300306      79.53082486
H      83.01490728      54.98631603      80.78182369
H      85.29769667      53.43296100      78.92233300
C      83.70276767      56.56612723      77.10819574
H      85.00100964      56.46597173      75.51137700
H      83.44198543      58.54278095      77.62220128
S      80.66030831      55.54756474      76.04805927
C      81.39919130      52.47864921      74.61564673
H      80.85683983      50.76277772      75.61909139
H      83.27379980      52.50132593      73.76149044
H      79.99701436      52.62604786      73.11331430
C      86.13673515      59.43095232      81.30338815
O      87.34615999      61.19973615      80.32262019
N      84.40196640      59.76543387      83.14020213
H      83.65552450      58.20640967      83.95278444
C      83.59316355      62.23530617      83.99246869
H      82.70499218      63.07056520      82.33328898
C      81.45210363      61.69673417      85.88597445
H      80.89085492      63.35780360      86.96689790
H      82.03413933      60.26243189      87.24279795
C      78.89530393      60.71218676      84.63497563
H      79.37529441      59.11725775      83.42555079
C      77.01502625      59.79000032      86.61918826
H      76.31204805      61.54555606      87.43743976
H      77.88619008      58.75632002      88.17254329
H      75.48812738      58.90938785      85.55338263
C      77.71611470      62.65104595      82.97201649
H      77.55737769      64.48219075      83.89798237
H      75.83205757      62.10491505      82.34084789
H      79.02191558      62.64726650      81.37708747
C      85.70209811      63.82834545      85.37952781
O      85.11628294      65.95239782      86.01447584
N      88.10394024      62.98552751      85.47968330
H      88.24755945      61.15438271      84.96567774
C      90.22988236      64.36691745      86.60596018
H      89.70642817      66.21318005      87.35051234
C      91.39773321      62.57167745      88.70544612
H      92.92652180      63.67527762      89.53692570
H      92.28212512      60.87281349      87.94955559
C      89.58170623      61.77043349      90.82382932
H      88.00378475      60.71029703      90.03014426
H      88.97510407      63.41071593      91.91042194
C      90.81191806      59.93550924      92.56237752
H      92.50322310      60.56667783      93.55637355
H      91.49221952      58.22908638      91.63074245
N      89.16596644      59.02088171      94.65619427
H      87.92630597      57.68673493      94.08927639
C      89.24533494      59.66527838      97.09583094
N      90.68530639      61.56256360      97.96321532
H      90.37161183      61.91405269      99.81325739
H      91.81536272      62.66616376      96.89363023
N      87.79780458      58.54278095      98.64540652
H      87.66741347      59.13048583     100.45576432
H      87.04191406      56.80990192      98.38084484
C      92.16685183      65.44406144      84.55938658
O      93.45942462      67.38103092      84.84851471
N      92.20086689      64.31589484      82.31628145
H      91.15584824      62.73230419      82.10463211
C      93.16084786      65.29855252      79.88231396
H      94.88238853      66.37191706      80.25459004
C      93.51233695      62.90993846      78.22313425
H      91.72843531      61.92539105      78.53493909
C      93.60682327      63.54110705      75.34508109
H      95.24710572      64.57100789      74.64777208
H      91.82859081      64.46329349      74.86509059
H      93.78256781      61.76287459      74.32084941
C      95.51733658      61.12414709      79.06973164
H      95.48521123      60.95596145      81.12386414
H      97.42784987      61.76854377      78.64454323
C      95.08269953      58.38782339      78.13998629
H      93.33659241      57.65271986      78.94689944
H      96.65873127      57.28800268      78.87508984
H      95.02978719      58.16672541      76.09341270
C      91.32781334      67.27898569      78.90910490
O      92.03646070      69.45784013      78.40643771
N      88.82014652      66.71584725      78.89587682
H      88.26267725      65.15682305      79.84262971
C      86.97199418      68.34101188      77.86975544
H      87.85071693      69.16115310      76.19545792
C      84.78747057      66.39837323      77.11953408
H      83.17175457      67.63047479      76.77371418
H      84.20354513      65.14170523      78.64265349
C      85.23911516      65.06233673      74.56462411
O      86.65640989      66.09223757      73.07740950
O      83.82559987      63.23875084      74.17156105
C      86.01201323      70.58411702      79.52515568
O      85.47722067      72.46817415      78.43100416
N      85.48100013      70.21751011      81.93833618
H      86.16319132      68.67927289      82.83784592
C      84.78369111      72.32833440      83.68255358
H      84.41519449      74.01774973      82.56005615
C      82.41586405      71.47417811      84.98835446
H      83.07537853      70.29498889      86.54359922
H      80.94943642      70.71072868      83.75814263
C      81.07226864      73.72106270      86.21856629
H      82.64452094      74.87001629      86.89697803
H      79.77780612      72.88769339      87.58294868
C      79.48489853      75.27252800      84.38553176
O      77.14730708      75.17048278      84.35718586
O      80.67164666      76.76541179      82.96823703
C      87.06459077      72.94249545      85.60440524
O      87.69953881      75.27441773      85.88408473
N      88.18330875      71.22284451      86.85162461
H      87.34238054      69.50697302      86.84784515
C      89.82359120      71.60834868      89.00780233
H      91.08214892      73.20138796      88.66576187
H      91.00278041      70.01719912      89.57472022
C      88.61227662      72.52864539      91.47956435
O      86.33893588      73.06343794      91.53814586
N      90.04846862      72.68171322      93.51857903
H      91.85504699      72.16014876      93.18220774
C      89.18297398      73.58500240      96.06404037
H      87.13073120      73.70216543      96.16608559
C      90.24122070      71.44772194      97.87817764
H      92.29535322      71.61023840      97.90652353
H      89.82548092      69.60145933      97.06748505
C      89.22265823      71.42126577     100.59182462
H      87.20443052      71.13402737     100.29324787
C      90.27901524      69.22351407     102.02612690
H      88.89762530      68.78131811     103.48877506
H      92.21787443      69.59201070     102.61572151
H      90.52845910      67.59834944     100.78646643
C      89.48155073      73.73429078     102.32470366
H      91.39206404      74.50718884     102.30580639
H      89.17730479      73.36201470     104.32781354
H      88.22299301      75.18938004     101.58960011
C      90.19397756      76.16258909      96.71221650
O      92.44842105      76.72194808      96.43442673
N      88.38739920      77.67814960      97.43598169
H      86.69420442      76.80320631      97.33393646
C      88.75589583      80.35022260      98.29958661
H      90.77223380      80.55620277      98.66808324
C      88.08126354      82.35522222      96.29647672
H      88.24000054      84.24872799      97.09205149
H      86.13106597      82.02640984      95.72577936
C      89.95020285      82.30797906      93.94376745
H      90.11460905      80.35400205      93.31259887
H      91.83803944      82.89946340      94.52391343
C      89.04502396      83.92936424      91.74034657
H      90.43964198      83.84999573      90.22667580
H      88.66329923      85.91546659      92.13340965
N      86.75467567      82.74639557      90.59328271
H      86.17263995      81.05698024      91.26602526
C      85.88918101      83.15079700      88.20088918
N      86.41074547      85.19548087      86.92910338
H      85.33171175      85.52240352      85.39086617
H      87.46521276      86.52017901      87.80782612
N      84.40007668      81.44815359      87.09539929
H      83.66119369      81.69192828      85.35118191
H      83.68009095      80.21983149      88.36340566
C      87.24411477      80.92658913     100.83748905
O      84.95565622      80.59021784     100.87717330
N      88.76345473      81.86011393     102.64406740
H      90.61160706      82.09255026     102.23210707
C      87.98110804      82.14168315     105.34826575
H      86.77546265      80.57132058     105.91140419
C      90.17319056      81.92247489     107.09059342
H      89.70453843      82.18325713     109.07858549
H      91.44686609      83.46638129     106.60304403
C      91.45631472      79.26174025     107.14350576
H      92.23677169      78.94615595     105.26322806
C      93.59737465      79.21449709     109.19385880
H      94.89372689      77.63279616     108.95575329
H      92.57314297      79.31465258     110.97776043
H      94.71609262      80.93225831     108.98976835
C      89.67241308      77.15658513     107.74443872
H      88.27779508      76.98273031     106.24021658
H      88.78424172      77.48539751     109.57369378
H      90.87805847      75.48984652     107.82380722
C      86.56003386      84.60210681     105.93030146
O      84.88573633      84.48494377     107.54790719
N      86.95309692      86.75261535     104.66607455
H      88.25700808      86.56553245     103.28279489
C      85.33927066      89.06186090     104.60749304
H      84.50779108      89.34343013     106.47265290
C      87.34238054      91.15945711     104.28812930
H      88.35716357      90.64734128     102.56847834
H      88.71054240      91.04040435     105.82447679
C      86.36350232      93.87499382     104.23332723
H      84.96132539      94.07719454     105.72621101
H      85.32226311      94.12632742     102.47399204
C      88.30236152      96.03495100     104.51678617
H      89.22832740      95.84975782     106.34604125
H      87.29513739      97.80751428     104.21065051
C      90.25633852      95.86109618     102.30958584
H      89.45698429      95.81952220     100.41230063
H      91.34104142      94.11687879     102.47588175
N      91.91929767      98.12120885     102.33415228
H      93.67107397      97.81507319     101.64062273
H      92.02890181      98.87898910     104.08025940
H      91.26923182      99.36842822     101.04346921
C      83.22655664      88.94091842     102.68753111
O      83.46655187      88.15101282     100.52001502
N      81.06848919      90.02751105     103.41696547
H      80.80203778      90.68135636     105.18952874
C      78.99734914      90.78907075     101.64440218
H      77.84272637      89.15823695     101.14362471
C      77.36840506      92.91879231     102.95587224
H      78.54759429      94.48348570     103.58893055
C      75.36340544      94.20380620     101.24378021
H      74.81916426      96.02172292     102.04502415
H      73.64375451      93.06997041     101.24378021
H      76.21756174      94.73103984      99.44476076
C      75.65442329      91.68669075     104.97787940
H      76.86006868      90.84576254     106.41974057
H      74.59050738      90.08798229     104.23332723
C      73.66643121      93.30240675     106.35171042
H      72.66676599      92.27628536     107.83136612
H      72.09606865      93.65011639     105.06291708
H      74.67743479      94.97481454     107.00177627
C      80.26724522      91.97014970      99.22555249
O      81.44076527      93.93357534      99.31436963
N      79.99512465      90.86465981      96.99189599
H      79.20521905      89.12800133      96.97299874
C      80.86250902      91.70558802      94.52580316
H      81.82060025      93.45925404      95.02847035
C      82.83727301      89.79129526      93.45432834
H      84.21866295      89.53618221      94.95855048
H      83.33994021      90.83820364      91.75357465
C      81.67698105      87.27795927      92.60206178
C      80.65274940      87.21937775      90.12841002
H      80.73211790      88.80107867      88.84339614
C      79.78914448      84.82320478      89.22890030
H      79.22222658      84.84021232      87.26736439
C      79.89874860      82.58765856      90.74446080
O      79.38096358      80.37100959      89.54259487
H      79.32616153      80.69037334      87.75680350
C      80.76235353      82.77096201      93.28236324
H      80.73211790      81.13256930      94.49556753
C      81.41052964      85.16335552      94.25179285
H      82.17208935      85.26729047      96.13962943
C      78.50413058      92.23471138      92.88174126
O      76.37440903      91.47693113      93.28425297
N      78.77625116      93.83153012      90.92587453
H      80.56204253      94.45325008      90.66131284
C      76.84117142      94.22081374      88.87930094
H      75.04404170      93.43279787      89.50480035
C      76.43299054      97.10453609      88.25380153
H      78.24523808      97.71869714      87.49035209
H      76.05126583      98.12498830      90.00179837
C      74.28437172      97.44468683      86.33761904
H      72.56283106      96.90611483      87.33350481
H      74.71144986      96.33730721      84.65387290
C      73.81949904     100.24337150      85.59684633
H      72.44377829     100.23959205      84.06238856
H      75.51458356     101.28272097      85.06205378
C      72.77825985     101.65688678      87.93065832
H      74.36185051     101.70979912      89.24968730
H      71.28726578     100.51360236      88.77158654
N      71.87308094     104.07762619      87.25980548
H      70.79971640     104.78249410      88.67332076
H      70.68066365     104.17967141      85.77259087
H      73.34706747     105.20390307      86.81005063
C      77.62918730      92.76005530      86.57194510
O      79.45844236      93.37232662      85.47779357
N      76.19488502      90.78907075      85.90487172
H      74.49602107      90.61899539      86.75335884
C      76.77881045      89.27539998      83.57861862
H      78.68932376      88.56864234      83.88286457
C      74.88719441      87.10032499      83.64475905
H      72.98235030      87.85999497      83.84129058
H      75.12907938      86.00239400      85.37007918
C      75.12529993      85.26351102      81.43566899
O      73.57005517      85.17847333      79.70656941
O      77.14730708      84.21093346      81.29960869
C      76.41031383      90.75883513      81.03315728
O      75.30860338      92.81107791      80.86119218
N      77.40053041      89.71192676      78.89776654
H      78.56460182      88.21337379      79.09996727
C      77.05660022      90.90245433      76.45624015
H      77.47989892      92.91123340      76.63009497
C      78.71389020      89.68358086      74.43801246
H      78.10728805      90.43569193      72.61820601
C      81.57304611      90.36577206      74.72525086
H      82.83160384      89.41523973      73.39677325
H      82.06815441      90.10121038      76.70568403
H      81.90752767      92.34242578      74.25470899
O      78.48901276      86.99072087      74.24715009
H      79.13718890      86.49939202      72.62576491
C      74.40720393      90.99127147      75.49436947
O      73.81194014      92.47281690      73.69535002
N      72.69889134      89.44358562      76.69245595
H      73.03526263      88.28707312      78.17400137
C      69.91721422      90.07097476      76.19923737
H      69.74524911      90.09554120      74.14699459
C      68.42055097      87.82786962      77.30283754
H      68.70023047      87.84865661      79.34185224
H      69.08006545      86.10632895      76.38254083
C      65.51793136      87.87133333      76.91733337
H      64.66944424      89.67224250      77.44456701
H      64.57117847      86.35010365      77.93400614
C      64.49936887      87.41590929      74.21880419
O      62.48303089      86.29908104      73.63865823
O      65.64265330      88.42880259      72.36687241
C      68.95345380      92.59942856      77.22913822
O      67.16010352      93.71814654      76.15199422
N      70.12697384      93.36665745      79.38909539
H      71.50458431      92.24038056      80.07884549
C      69.65454225      95.90455988      80.66277092
H      68.56794962      97.09319774      79.37775704
H      71.51592267      96.76627508      80.86875109
C      68.32417494      95.63432902      83.19122473
O      67.82906664      97.61854165      84.39120095
N      68.13709202      93.41012115      84.16632351
H      68.80794486      91.87755311      83.24791652
C      67.11663981      92.90367450      86.70422594
H      66.14343077      94.63844325      87.23334931
C      65.03416142      90.89489543      86.40375947
H      64.07607017      90.68702553      88.21600699
H      66.14343077      89.22059792      85.94644569
C      63.10475085      91.44291606      84.42710575
C      62.50381788      89.49460823      82.62241711
H      63.39009952      87.65779425      82.68666781
C      60.37787578      89.85554596      80.97268604
H      59.71080239      88.37589025      79.73869476
C      59.19490711      92.20825522      80.89331753
O      57.06140610      92.65612035      79.41744128
H      56.81007250      94.43246309      79.68200297
C      59.91489283      94.05262810      82.53737943
H      59.03428037      95.89133180      82.62619656
C      61.87642875      93.80318422      84.33261942
H      62.38098567      95.45291530      85.42110178
C      69.02337366      92.37077168      88.72623311
O      70.96790204      91.20481054      88.10073370
N      68.37708727      92.91690258      91.09217044
H      66.86908567      94.05073837      91.37184995
C      69.84540462      92.23093193      93.35417284
H      71.82205834      92.61265665      92.91386661
C      69.23502301      94.06774591      95.63129305
H      70.66932528      93.61232187      97.03535970
H      67.26025902      93.98081850      96.21710820
C      69.97957518      96.74737782      95.06248544
C      68.26559341      98.74859799      94.77146758
H      66.24925543      98.43301369      94.71288606
C      69.13864698     101.28272097      94.52013397
H      67.73458032     102.76237667      94.42753740
C      71.78048435     101.79672653      94.31415381
O      72.96345303     104.08518509      93.82282498
H      71.92977274     105.27004349      92.91764607
C      73.55682709      99.68968169      94.31037435
H      75.52970136     100.16022354      94.09683528
C      72.57794886      97.15177925      94.71855525
H      73.95177989      95.67779273      95.03224982
C      69.82461763      89.46437261      94.01179760
O      67.80450020      88.33998545      94.35005861
N      72.11874536      88.34187518      93.77558182
H      73.69288739      89.42090890      93.77558182
C      72.67054545      85.69247889      93.75668455
H      71.08128562      84.51517940      94.32549217
C      73.63997504      84.92336028      91.19799513
H      75.58450343      85.53374188      90.88430056
C      73.37352363      82.00751258      90.54037037
H      71.45356170      81.31776247      90.82571903
H      74.46578544      80.85855898      91.85561988
H      74.00469222      81.95271052      88.58072418
O      72.08095084      86.06286525      89.33094553
H      71.87686039      87.85810524      89.48590308
C      74.51680805      85.11989182      95.99412051
O      75.76969661      86.90568318      96.79158501
N      74.83806154      82.83143325      97.01835217
H      73.71745383      81.36878508      96.51001579
C      76.80337689      82.10955780      98.96477026
H      78.30759904      83.50984500      98.82304079
C      75.92843361      82.67080651     101.66707890
H      74.94199647      84.47171569     101.50267271
C      73.72312300      80.84722062     102.41352079
H      72.63842010      81.48027894     104.04624433
H      74.63586082      79.05576008     102.86705510
H      72.55338241      80.62612264     100.73355409
C      78.12051614      83.02796479     103.59082029
H      79.63229718      84.23172045     102.88028318
H      79.05404093      81.30642412     104.23143751
C      77.16998380      84.43581089     106.00400078
H      76.12874461      86.16302074     105.58448154
H      78.75735391      84.99139043     107.19074890
H      76.16464941      82.97883190     107.05657834
C      77.85217500      79.42425671      98.62461953
O      76.67109605      77.87468113      97.42464333
N      79.93276367      78.85355936      99.90207452
H      80.68487475      80.26518492     100.93953426
C      80.89085492      76.25140623     100.15718757
H      79.59261294      74.93237726     101.05858703
H      82.55570379      76.43470968     101.35716378
C      81.60895092      75.17993141      97.60416732
O      83.38529364      75.86590206      96.35694796
N      80.22756097      73.20138796      96.84071790
H      78.82160459      72.62502143      97.99534066
C      80.42976169      71.88613845      94.45021410
H      81.72422421      72.74218447      93.09905979
C      81.09872480      69.13280721      94.52202371
H      79.68898898      67.97629470      95.47822522
C      81.52958240      68.15014953      91.85939934
H      79.68709925      68.15392898      90.93910261
H      82.52357844      66.35301980      91.69688286
H      82.92797988      69.35579491      90.94477180
C      83.69331904      68.81533319      95.86183966
H      83.60450189      69.50697302      97.79880913
H      85.11061376      69.80177032      94.73934224
C      84.58904931      66.12625264      96.51379524
H      82.88640589      65.10202098      97.05425697
H      85.87595293      66.31711500      98.11061398
H      85.42997751      65.25130936      94.84894636
C      77.91075652      72.46628442      93.04236801
O      76.34984259      70.75797184      92.79481386
N      77.53848043      74.87946493      92.24490349
H      78.97845188      76.12290484      92.37718434
C      75.42765614      75.56543558      90.48556830
H      75.41253833      74.21428126      88.93032354
H      75.79048359      77.34366804      89.51046952
C      72.79337767      75.69015751      91.72711849
O      70.93388696      76.09644867      90.37974363
N      72.55905159      76.04920551      94.12518119
H      74.25791555      76.17581718      94.98689637
C      70.13453273      76.11345621      95.44421014
H      69.00258668      74.67915394      94.49745727
C      70.49358073      75.30087389      98.13140097
H      71.51403294      76.80509604      99.10272029
H      71.57261446      73.55098733      98.26368181
C      67.78938238      74.85867794      99.20665523
N      66.37586710      72.63447007      98.81170244
H      67.04105076      71.02442325      98.03502492
C      64.07795991      72.95950299      99.95498685
H      62.64932681      71.50441373      99.83782382
N      63.98725304      75.25929991     101.02079249
H      62.54350213      76.19471444     101.84660289
C      66.22657872      76.43470968     100.37072664
H      66.83696033      78.32821545     100.82426095
C      68.82306267      78.64946892      95.30059095
O      69.84918407      80.41069384      96.40797056
N      66.62342125      78.83088265      94.14029899
H      65.93556087      77.26429953      93.29181188
C      64.99258744      81.07209805      93.92298046
H      66.19634310      82.58765856      93.21055365
C      63.00837481      80.59966648      91.87640687
H      61.52871910      79.38268273      92.63985629
H      63.78316260      79.72094374      90.18510181
C      61.60241843      83.01473670      91.11862662
H      60.52149498      83.82164984      92.67576110
C      63.45435022      84.94792672      90.24368334
H      64.69967986      84.19203620      88.78670435
H      64.63731889      85.69058916      91.75924384
H      62.29783771      86.55041463      89.66164763
C      59.81662707      82.46104689      88.89441874
H      58.62987894      80.84911035      89.37818868
H      61.08652315      81.95648997      87.35240207
H      58.84341801      84.18636702      88.33128031
C      64.25181473      82.33065578      96.35883768
O      63.03294125      81.01729599      97.93864888
N      64.70723876      84.76651300      96.85772543
H      65.65021219      85.77751657      95.54247592
C      63.67166874      86.19136664      98.96854973
H      63.44112213      84.70793148     100.37828555
C      65.59541013      88.20392516     100.13451086
H      65.09274293      89.09020680     101.92597141
H      65.88453827      89.64389661      98.68887022
C      68.22212971      87.06819964     100.72221573
H      68.92132845      86.10821868      99.04035932
C      69.97390601      89.18280339     101.58204122
H      69.37108330      89.60421236     103.50389287
H      69.89831695      90.85710090     100.38206500
H      71.91087547      88.48171493     101.54424668
C      68.01614954      85.20681923     102.98043868
H      69.81516899      84.67391641     103.83459497
H      66.88420349      83.52874226     102.60438315
H      67.32828917      86.27451459     104.60182385
C      61.12998685      87.43291682      98.44887499
O      59.34797494      87.10788390      99.80947793
N      61.06573616      88.78029168      96.26057192
H      62.52838432      88.98249240      95.05114707
C      58.85097692      90.26939602      95.53680673
H      57.22203284      89.01083829      95.45176905
C      58.32374328      92.39722785      97.39818715