 %block lattice_cart
   137.614   0.000   0.000
   0.000 142.646   0.000
   0.000   0.000   160.855
 %endblock lattice_cart

 %block positions_abs
N      91.08120405      39.92897677      81.85896768
H      90.48971972      38.32648885      81.00670112
H      90.76561976      39.83826989      83.73924536
H      92.97659955      40.09338295      81.68889231
C      89.87177921      42.22121479      80.79316204
H      90.77506839      43.83882051      81.69267177
C      90.40090258      42.39129014      77.95857257
H      89.46170860      40.79069197      77.06284230
H      92.43802755      42.13617710      77.77715885
C      89.79807989      44.83659599      76.63954361
H      87.78174191      44.61360829      76.28616479
H      90.60499302      45.06147342      74.75548647
S      90.17224570      47.67118547      78.56328499
C      88.52440435      49.86893716      76.57151346
H      89.49572368      49.73287688      74.75926592
H      88.79652494      51.85881897      77.03071695
H      86.55153008      49.29068091      76.45435043
C      87.06931509      42.03413187      81.53204503
O      85.75217585      40.33148846      80.75914697
N      86.26240196      43.72921638      83.20067337
H      87.27340553      45.27690223      83.67877412
C      83.48639400      43.98810888      84.01514541
H      82.51129522      42.71443334      82.72257261
C      83.22372204      42.98466422      86.60029100
H      84.22716672      41.20265230      86.84028624
H      81.23195051      42.54624770      86.88941913
C      83.90213379      44.72888159      88.64497487
O      82.24484381      45.96287288      89.53692569
N      86.32287320      44.96887683      89.30070990
H      86.81420204      46.32003116      90.55737790
H      87.64190216      44.16196370      88.18577138
C      82.44893426      46.75466821      83.56728027
O      83.72827897      48.55179792      83.33484393
N      79.90914209      47.15906964      83.88853374
H      78.70160698      45.74933380      84.33639888
C      78.78475493      49.75366387      83.72223783
H      78.99640428      50.48876739      81.81172452
C      75.84623052      49.26800420      83.99813787
H      75.25852563      47.59748614      82.94745004
C      75.06199410      48.79935208      86.67965951
H      73.07967120      48.25889035      86.80438144
H      75.51552841      50.33758930      87.97412203
H      76.21850660      47.38394707      87.62641239
C      74.19083027      51.42418192      83.19878364
H      74.13980766      53.04745682      84.46678999
H      72.34078821      50.54356946      82.97579593
C      74.62357759      52.41250878      80.50592364
H      74.88813928      50.70041674      79.39098512
H      76.13157919      53.81468571      80.44356267
H      72.98140543      53.47453497      79.86341670
C      79.88646537      51.66984634      85.62897168
O      80.08299691      53.94885627      84.99591336
N      80.56487712      50.98576542      87.99679875
H      80.58566411      49.13572335      88.45789197
C      81.98595131      52.69407801      89.65975790
H      80.85589497      54.40994949      89.80715656
C      82.07287872      51.59425729      92.42820695
H      83.06498503      52.90761708      93.66786741
H      83.18025834      49.86137826      92.30159529
C      79.51418929      51.12749489      93.59227836
C      78.60523093      48.74455002      94.12896063
H      79.41025434      47.07970114      93.26724543
C      76.31488264      48.43085544      95.40074644
H      75.57033048      46.58459284      95.84294240
C      74.77097625      50.57380508      96.01868695
H      73.10234791      50.22987490      97.14118438
C      75.78197982      53.04745682      95.46121768
H      74.77097625      54.74821050      95.96577461
C      78.07043839      53.32902604      94.18943188
H      78.78475493      55.20552428      93.82849415
C      84.54086128      53.44429935      88.60151117
O      85.17014015      55.67417640      88.78292489
N      86.04319370      51.72275869      87.43743976
H      85.52540869      49.89161388      87.57916923
C      88.29196802      52.59203279      86.06738818
H      89.28785378      53.86381859      87.34484317
C      89.95303744      50.44719343      85.13386338
H      91.47048767      51.28623191      84.02270431
H      88.88345235      49.17918707      83.91121046
C      91.27017668      48.76533700      87.12563492
H      89.97571416      48.36660475      88.67898995
H      92.74794266      49.98610020      87.87396654
C      92.30952616      46.34837704      85.82739294
O      94.21059083      46.39750994      84.49324616
O      90.95081294      44.39062059      85.97101214
C      87.64001244      54.33247073      83.77137071
O      89.01573319      56.07101892      83.21768090
N      85.48761417      53.81468571      82.53926916
H      84.42936743      52.34825809      83.14587130
C      84.75817981      55.04111809      80.25836950
H      86.34554991      55.01655164      78.94878916
C      82.48294933      53.65594871      79.02437821
H      80.77841619      54.50632554      79.81239409
H      82.44137535      51.61882373      79.32295497
C      82.35633767      53.88082613      76.08396407
H      83.75851459      52.59203279      75.29216875
H      82.77207745      55.82346478      75.53972289
S      79.14758239      52.76588760      74.92178239
C      79.82410441      51.63394154      71.71491683
H      78.52586243      50.07680706      71.35019966
H      81.72138962      50.87238184      71.46169351
H      79.35356255      52.99265476      70.24093031
C      84.46716196      57.90594317      80.81205931
O      85.55564431      59.44040095      79.51003788
N      82.53208221      58.55411931      82.48824655
H      81.31509847      57.21808281      83.10429732
C      81.88768554      61.19217723      83.31972612
H      81.80831704      62.45262468      81.69267177
C      79.44048997      60.88982102      84.77292566
H      79.13246458      62.51120621      86.00691694
H      79.75040508      59.33835572      86.09195462
C      77.12935468      60.51187576      83.20823227
H      77.47139515      59.11536802      81.73235602
C      74.92215435      59.34591462      84.80316128
H      75.23584892      57.60736643      85.86329774
H      73.22140067      58.98119746      83.69767139
H      74.29665494      60.74998127      86.16943340
C      76.10134357      62.96285080      82.09140402
H      77.67359586      63.94928793      81.19756347
H      75.05254547      64.13070165      83.42555080
H      74.78609406      62.41483016      80.60418941
C      83.99662011      62.48286030      84.95055993
O      84.43314688      64.71273736      85.04315652
N      85.70304297      61.01076352      86.01258612
H      85.59910802      59.10591938      86.06738818
C      87.94236865      62.10491504      87.33539454
H      87.50206242      63.81889682      88.38986182
C      89.19336747      60.50431685      89.51424898
H      90.99427664      61.44729029      89.84684081
H      89.49950313      58.66372343      88.64119542
C      87.82142616      60.25298325      92.06915895
H      86.32476292      58.88104196      91.71389041
H      86.84254793      61.97641366      92.62662821
C      89.64879151      59.34591462      94.02124623
H      88.60566258      58.84324743      95.72388964
H      90.89601087      60.83879841      94.69776825
N      90.97348965      57.12359649      92.94599196
H      92.52495496      57.54500546      91.91609112
C      90.45759437      54.60837076      93.32582695
N      88.52251463      53.84492134      94.58438467
H      88.08031867      51.98921009      94.64674564
H      87.67969669      54.98631603      95.86372939
N      91.85410212      52.88494036      92.37340489
H      91.37222191      51.04623667      92.54914944
H      93.53784826      53.27233425      91.56460203
C      89.92280182      63.05355765      85.63086140
O      91.24749997      64.91304834      86.23368410
N      90.23082721      61.84602254      83.50869875
H      89.48627504      60.09991542      83.30271859
C      91.63111441      62.66238430      81.25614499
H      93.36588317      63.46740772      82.02148415
C      92.32086451      60.44573534      79.42877964
H      90.48594026      59.65582974      78.92611245
C      93.62099622      61.57201223      77.08740874
H      92.50038851      62.93072545      76.01971338
H      94.65467651      60.06967980      76.12931750
H      95.21025605      62.61514115      77.88298352
C      93.96303668      58.41616929      80.69489627
H      93.36210371      57.83224386      82.57895341
H      95.86410135      59.21174406      80.67032983
C      94.37877647      55.91417164      79.14721042
H      94.69058131      56.42061829      77.17622588
H      92.65534607      54.78600504      79.18689468
H      95.91890341      54.83324819      79.98057973
C      90.16468679      64.89226136      80.02593316
O      91.33631711      66.67994244      79.18311522
N      87.66268915      64.88470245      79.70845914
H      86.66869311      63.30678098      80.11286057
C      86.27185059      66.93505551      78.35352537
H      87.29230280      67.58512136      76.68678676
C      83.68859472      65.77287381      77.51448689
H      82.12579106      67.11457950      77.51070744
H      83.21238369      64.31022565      78.88453847
C      83.77930158      64.54455171      74.90477485
O      85.27407509      65.27209634      73.22858761
O      82.20704929      62.80600350      74.45124054
C      85.80886764      69.41059698      79.84262971
O      85.17958878      71.31355136      78.67855830
N      86.13956974      69.36524354      82.36730406
H      86.51940473      67.79110152      83.37830764
C      85.82398545      71.75952678      83.83373168
H      86.30397593      73.27130783      82.52226162
C      83.04797750      72.02597818      84.46112082
H      82.64546579      70.91103967      86.14486696
H      81.91603144      71.45906030      82.83595619
C      82.50184659      74.88702382      85.06583324
H      83.98906120      75.76196710      86.19022039
H      80.70093742      75.29142526      85.98235050
C      82.59822263      76.61801313      82.73580069
O      84.56731745      77.73862084      82.23502322
O      80.59889219      76.90525153      81.49802996
C      87.57387202      71.95983777      86.25825054
O      88.30330637      74.12357439      86.86863214
N      88.08598785      69.83011622      87.63586102
H      87.49639324      68.15959815      86.92343420
C      89.51084149      69.62602577      90.08116687
H      91.26450751      70.70128005      89.95455521
H      90.18358405      67.69283576      90.32494157
C      88.05008305      70.75041293      92.34316927
O      86.58554515      72.51352758      92.12396102
N      88.27873993      69.68082784      94.57871550
H      89.37100174      68.11802417      94.66564291
C      86.73483353      70.56144030      96.61206101
H      84.76951817      70.91292939      96.10750408
C      86.50617665      68.68872153      98.88162231
H      85.44981964      69.76964498     100.28190951
H      88.43936667      68.21251048      99.41263540
C      84.92258600      66.27743075      98.42808800
H      85.10588945      66.05066358      96.38907330
C      85.76540393      64.04944342      99.87750808
H      85.67280735      64.29321812     101.91841250
H      87.69670423      63.60724747      99.31059018
H      84.37456537      62.62836924      99.33893608
C      82.04264310      66.66482464      99.01012370
H      81.57966015      66.78198768     101.01323359
H      81.09400049      64.96974013      98.32604277
H      81.21494297      68.29754818      98.06337082
C      87.64190216      73.15981397      97.73833789
O      89.79996961      73.12768862      98.72666475
N      86.03752452      75.11379099      97.86117010
H      84.20826945      74.80954504      97.41141524
C      86.52885337      77.59878108      98.98555726
H      88.48283037      77.78208453      99.60916694
C      85.80130873      79.54708891      96.94654257
H      85.44604019      81.37823371      97.81770640
H      84.06465025      78.92914841      96.02435613
C      87.84599261      80.04786638      95.00012446
H      88.42802831      78.28097228      94.11762228
H      89.60343808      80.71116033      95.84861158
C      86.98427741      81.92625434      92.91197689
H      88.70014890      82.37978865      91.86884796
H      86.16224646      83.60622104      93.77369209
N      85.30809017      80.58076920      91.07327319
H      84.62022979      78.91592033      91.70633150
C      84.68070103      81.46516113      88.76591736
N      85.49706280      83.57409569      87.88719462
H      85.62745391      83.72716352      85.98801968
H      86.65546503      84.72871846      88.86985230
N      83.11222819      80.22550066      87.42043222
H      82.84388705      81.05698023      85.72534772
H      82.41869863      78.49640109      87.83239256
C      84.98872642      77.89357839     101.27401582
O      82.80609253      77.01863510     101.30992062
N      85.94870739      79.07087788     103.33192778
H      87.64757134      79.88912938     103.02201266
C      85.12667644      78.98206075     105.92463228
H      83.26340630      78.11467637     106.05880285
C      86.98427741      77.47027969     107.49121539
H      85.93169985      77.33799885     109.25621977
H      88.57920641      78.68348399     107.96553670
C      87.98016317      74.98717932     106.73343514
H      88.88345235      75.06087865     104.88150335
C      89.97382443      74.06310315     108.67985324
H      91.67835757      75.16103415     108.31135661
H      90.57286767      72.11101587     108.40962238
H      89.71115248      74.26908332     110.71508848
C      85.79186010      73.05020985     106.53501388
H      84.69770857      73.55476677     104.86260609
H      84.47472086      73.38091195     108.08269973
H      86.39846225      71.08300475     106.53501388
C      84.74495173      81.61255977     107.21720508
O      83.73016870      81.84310638     109.25999922
N      85.42336347      83.64212584     105.96809598
H      86.63278831      83.32654154     104.52623481
C      84.49550785      86.23672006     106.48588099
H      83.20104533      86.42380296     108.07514082
C      86.75562052      87.90723812     106.92618722
H      87.41891446      87.69369905     108.86315670
H      86.23594579      89.90089939     106.90917969
C      88.87967290      87.52173396     104.97598967
H      88.11055429      87.15323732     103.09949144
H      89.92847100      85.79641384     105.38417055
C      90.63711837      89.77428772     104.95142323
H      89.57131273      91.27850986     104.03490597
H      92.17724531      89.47382124     103.61916618
C      91.69158565      90.68702552     107.45720032
H      92.83675980      89.07886844     108.03923602
H      90.29696763      90.71537143     108.97087110
N      93.23738178      93.09453686     107.13405712
H      94.84553887      93.03406562     106.10793573
H      93.90823462      93.84664792     108.75544230
H      92.25661382      94.42490417     106.18163506
C      82.92514529      87.11544280     104.09348748
O      83.19348642      86.10443922     101.95809675
N      81.06187514      88.71037180     104.49033001
H      80.78786483      89.39445273     106.24966520
C      79.25529679      89.48893904     102.57792698
H      78.55042887      87.67102234     101.91085359
C      76.91581561      91.11788312     103.28468462
H      77.56210201      92.63155391     104.52623481
C      75.44749827      92.35943331     101.10771991
H      76.69282791      93.54429171      99.97577385
H      73.88469460      93.60098350     101.62361519
H      74.61601869      90.73048923     100.16285675
C      75.05065574      89.41523972     104.70764853
H      75.90481203      88.32675736     106.23643712
H      74.35901591      87.97526827     103.40940656
C      72.91148555      91.08386806     106.07581038
H      72.36346492      90.10687956     107.80490996
H      71.30143873      91.25961261     104.80213485
H      73.37068905      93.08697795     106.20620150
C      80.57243603      90.55096524     100.25923279
O      82.39980137      92.07975383     100.40096227
N      79.78253043      89.70436785      97.97455368
H      78.58822340      88.21526352      97.96699477
C      80.95416074      90.49238371      95.58404989
H      82.42247809      91.89456065      95.92420063
C      82.52263358      88.27195531      94.63540729
H      83.82087556      87.62377918      96.09805545
H      83.74906596      88.83509374      93.07827280
C      81.13935392      85.91357687      93.56393247
C      80.22472638      85.95893029      91.19421567
H      80.30598462      87.64834562      90.05660043
C      79.22317144      83.72338407      90.16242510
H      78.69593780      83.44937376      88.21033782
C      79.04364744      81.51807346      91.56271230
O      77.94571645      79.52063275      90.55737790
H      77.36746020      80.19526504      88.97567698
C      79.92237017      81.46894058      94.02124623
H      79.70316192      79.84377595      95.23634025
C      81.06754432      83.68369982      95.02847036
H      81.85367047      83.59488268      96.91063777
C      79.00774264      91.55440990      93.52613794
O      76.78353477      90.79851938      93.59416809
N      79.82599413      92.96981492      91.55893285
H      81.53619645      93.81263286      91.51924859
C      78.16870416      93.44980539      89.24212839
H      76.20149906      93.53295335      89.84306136
C      78.69593780      96.04250991      88.07994671
H      77.86067877      96.14644484      86.20155875
H      80.69148878      96.46580859      87.79270831
C      77.51485885      98.13632666      89.82227437
H      78.55420832      97.89444169      91.58160956
H      75.58544829      97.66578480      90.36462582
C      77.68493422     100.67233936      88.64119542
H      76.17126344     100.83107638      87.25035685
H      79.42348243     101.05028463      87.60184595
C      77.07077317     102.83418626      90.48934775
H      75.42293182     102.25215056      91.57971984
H      76.54920871     104.52549132      89.43677020
N      79.23262007     103.37086855      92.22411651
H      80.92959430     103.43511924      91.34917323
H      79.38757763     102.00081697      93.54314548
H      79.23450980     104.93745165      93.31448859
C      78.47295009      91.64133731      87.11618629
O      80.45338327      90.56419332      86.73068212
N      76.42826622      91.33142220      85.57039016
H      74.86546256      92.34809495      85.97479159
C      76.33944909      89.17713420      83.78270907
H      77.54887393      87.61999972      84.37608313
C      73.77509048      87.92046620      83.81861387
H      72.37858273      89.26784106      83.12886377
H      73.36124042      87.47638052      85.78770869
C      73.50108016      85.43736584      82.43533421
O      75.33033523      83.92747450      82.36163488
O      71.48285246      84.90068356      81.06906208
C      77.10289852      90.08231310      81.12953333
O      77.77753081      92.27250591      80.85552301
N      77.03864782      88.42880258      79.28893990
H      76.71361490      86.58253998      79.64609817
C      77.53186639      89.10910405      76.62820525
H      79.10411868      90.42057411      76.84930323
C      78.24807266      86.92080098      74.88776731
H      77.92303974      87.45559353      72.92434167
C      80.82943881      85.89090014      75.30539683
H      80.95038129      83.91235669      74.75170702
H      81.49273274      86.13656456      77.24236630
H      82.16925476      86.67702629      73.95235279
O      76.54920871      84.84210204      75.36397835
H      77.24273826      83.99172520      76.80772925
C      75.19994412      90.47726590      75.52271536
O      75.20372357      91.51472566      73.36464791
N      73.04754585      90.65301045      76.96268681
H      72.90959583      89.64200687      78.57462335
C      71.04254623      92.49171416      76.61308744
H      71.68505318      93.68035201      75.05784268
C      68.56133558      91.12922148      75.93278597
H      67.79599642      90.36388233      77.68456226
H      68.87503015      89.60043290      74.58730083
C      66.65082228      92.95280737      74.63265426
H      66.75286750      94.77072409      75.59074550
H      64.77432405      92.10243053      74.66100016
C      67.21774017      93.53295335      71.74704218
O      65.79666599      92.49927307      70.15400290
O      69.11691512      94.89166657      71.18012429
C      70.69672631      94.15089387      79.02059876
O      68.49330543      95.04095495      79.45901527
N      72.79243280      94.77450354      80.43222432
H      74.38547208      94.06963563      79.65365708
C      73.08911983      96.87587920      82.18022116
H      72.39936972      98.61253769      81.31661623
H      75.11679616      97.04406485      82.50714381
C      71.70206071      96.49604422      84.88252978
O      72.20283819      97.99648691      86.55115812
N      70.12224952      94.67434805      85.07717159
H      69.12447402      94.37577129      83.47846313
C      68.64826299      94.29829251      87.39964523
H      68.12102935      96.15211403      88.13096932
C      66.35602497      92.82241626      86.84028624
H      65.14660013      92.93957929      88.50513513
H      66.85302299      90.88733651      86.34139850
C      64.44551167      93.73893352      84.93544212
C      63.38348548      92.07786409      83.04382608
H      64.17150136      90.19947615      82.92288360
C      61.55423041      92.81296764      81.28827034
H      61.07801938      91.66968321      79.66688516
C      60.97219471      95.35275979      81.21835046
O      59.60214313      96.28817432      79.34941114
H      59.65694519      98.08908350      79.13965152
C      62.09847159      97.08185937      82.93611168
H      61.65816536      99.07174119      82.81894865
C      63.77087938      96.32029966      84.82394827
H      64.39070961      97.55996014      86.32250123
C      70.15437486      93.13611084      89.67865517
O      71.78142922      91.49771811      89.27614346
N      69.65548712      93.96192124      91.96711373
H      68.86180206      95.69480025      92.06726923
C      70.66649069      93.04351425      94.39919150
H      72.69983621      93.19280263      94.10439419
C      69.77453987      94.80851861      96.60072265
H      70.23563309      93.81263286      98.34494004
H      67.72607655      94.96725563      96.75190076
C      71.06144349      97.29728818      96.66875280
C      69.79910632      99.58007756      96.32860206
H      67.76576080      99.42889945      96.24356438
C      71.05199486     101.87987448      96.44765482
H      70.08634472     103.65999666      96.18120341
C      73.67871444     101.85908750      96.65741444
O      74.92215435     104.11731044      96.72733431
H      73.83934117     105.53082571      96.37206577
C      74.99396395      99.57062892      97.02780080
H      77.01786083      99.58763647      96.77079802
C      73.71272951      97.23492720      97.03724943
H      74.96183860      95.62299065      97.15063301
C      70.17894131      90.32419807      94.92264568
O      68.04544030      89.44169589      95.20043545
N      72.19527928      88.81997594      94.92264568
H      73.88847406      89.62688907      94.58060522
C      71.95339431      86.02318099      94.81682101
H      70.02209402      85.35988706      95.08894160
C      72.80377115      85.35232815      92.15419664
H      74.76908652      85.82853918      91.75735411
C      72.59590126      82.52529759      91.66286779
H      70.62680644      81.96215914      91.88018632
H      73.71272951      81.49917619      93.05559609
H      73.31777671      82.11711671      89.77881066
O      71.14648118      86.35766255      90.48178885
H      71.33356408      88.15290254      90.27769841
C      73.90926105      85.04997194      96.91630694
O      75.69316269      86.30097076      97.60416732
N      73.63147128      82.70293186      97.95943587
H      72.04410118      81.65035431      97.84227284
C      75.52308732      81.37067480      99.59971831
H      77.35045266      82.30042016      99.39373814
C      74.58956252      81.52374263     102.43241805
H      74.37035427      83.51740390     102.90107018
C      71.90993061      80.36723013     103.03335102
H      71.92693814      80.29164109     105.08937325
H      72.01953473      78.39057641     102.47021258
H      70.40381874      81.40846934     102.08659814
C      76.58889296      80.63179181     104.41663068
H      77.07455262      78.64191002     104.19931216
H      75.74418530      80.55431304     106.29312891
C      78.86223371      82.27585372     104.26545258
H      80.27007982      81.42547687     103.02579211
H      79.64647013      82.22294138     106.17029670
H      78.52775216      84.19014646     103.58515110
C      75.78575928      78.53230588      98.69642913
O      74.17571246      77.58555301      97.16008164
N      77.51674858      77.18115158      99.70176353
H      78.83199809      78.09577910     100.74111300
C      77.88902466      74.42971005      99.35216416
H      76.06354904      73.56043596      99.74333751
H      79.21939199      73.50563389     100.62394997
C      78.97939674      73.69271679      96.76701857
O      81.08077240      74.51285802      96.04703284
N      77.51107940      72.09967751      95.51979920
H      76.09945384      71.26252876      96.49300825
C      77.41092390      72.24707617      92.72300426
H      78.85656453      73.55098732      92.05593087
C      78.07988702      69.62791549      91.37373967
H      76.79676285      68.15770843      92.03514388
C      78.07043839      70.06633200      88.49568649
H      78.48428845      68.37691667      87.39208633
H      79.21750226      71.64614320      87.83995146
H      76.22228605      70.51608687      87.70389117
C      80.78975455      69.08934350      92.11262266
H      80.85589497      68.88147360      94.16297571
H      82.03886365      70.64269852      91.59483765
C      81.89335472      66.68750135      91.18476704
H      80.89557923      65.34768539      92.39041243
H      83.88134680      66.34735061      91.60239655
H      81.47383548      66.30955610      89.20433386
C      74.77475570      73.12768862      91.96144455
O      72.90014720      71.83889529      92.30915419
N      74.58200361      75.17426223      90.52714228
H      75.94449629      76.48762201      90.78792451
C      72.53920947      75.69204723      88.74702009
H      72.10457242      74.13113330      87.47334456
H      72.86424240      77.14524678      87.32216645
C      70.12413924      76.27975212      90.17565319
O      68.12291908      76.44037886      88.97945643
N      70.30933242      76.53108571      92.73434261
H      72.03465254      76.28731103      93.51290986
C      68.11347044      76.66714601      94.38218396
H      66.61869693      75.70149586      93.34283449
C      68.39126021      75.26874854      96.91819667
H      69.77076042      76.19660416      98.13518042
H      69.24919596      73.49996472      96.30781507
C      65.94595436      74.83978067      98.47533115
N      64.52299045      72.66470569      98.44509553
H      65.05589327      71.04143078      97.59471869
C      62.33279765      73.11257081      99.63562311
H      60.78511180      71.79543158      99.45609911
N      62.48586548      75.55976639     100.60694243
H      61.03266595      76.41014323     101.50645216
C      64.73275007      76.61423368      99.88884644
H      65.27510152      78.54553397     100.25734307
C      67.19695318      79.37890327      94.78280594
O      68.09646291      80.75651375      96.38151440
N      65.66438514      80.30864862      92.98945567
H      65.26376316      78.99150937      91.66664725
C      64.55889525      82.79363872      92.68520973
H      66.21807495      84.01251219      92.72867344
C      63.25876355      83.01284698      90.09439495
H      61.74320304      81.61633922      90.06982851
H      64.70251445      82.53474622      88.70544611
C      61.91327841      85.55452887      89.39708595
H      60.28811378      85.71704532      90.64997449
C      63.50631769      88.05274704      89.53881542
H      63.76332047      88.18124843      91.57783011
H      62.70129428      89.74594182      88.69032830
H      65.36958784      87.70692714      88.73190228
C      60.84936250      85.28996717      86.71556431
H      62.46129904      85.09721509      85.44755795
H      60.09536170      87.14756815      86.24691218
H      59.51899517      83.71771488      86.64942389
C      62.93751007      83.53441144      94.91697651
O      60.94006936      82.63301198      95.22878135
N      63.81434308      85.32776171      96.52513360
H      65.51320704      86.07420360      96.08104791
C      62.37815109      86.14223374      98.71721612
H      61.46730300      84.55108419      99.65829982
C      64.19984725      87.25906199     100.77701780
H      63.00742995      88.19069708     102.17541527
H      65.46596388      88.48738410      99.71688134
C      65.93461601      85.38256376     102.11494403
H      66.36547361      83.98983548     100.65796504
C      68.52165133      86.50128175     103.00500513
H      69.81044467      86.79985851     101.42708365
H      69.58745697      85.11989181     104.09915666
H      68.07756565      88.18502789     104.10671557
C      64.91983298      84.24872798     104.46576357
H      66.28988455      82.84277160     105.09126297
H      63.16049778      83.25095248     104.07647994
H      64.62125622      85.75861930     105.83581514
C      60.40149736      88.03573951      97.90841326
O      58.09414153      87.63511754      98.44320581
N      61.19518241      90.04451858      96.58182539
H      63.03955529      90.09365146      96.09238627
C      59.54734107      92.15156343      95.80325815
H      57.56312844      91.60165306      95.75412526
C      59.39805269      94.26238771      97.82337558