 %block lattice_cart
   137.614   0.000   0.000
   0.000 142.646   0.000
   0.000   0.000   160.855
 %endblock lattice_cart

 %block positions_abs
N      93.05029887      44.48888636      82.17644171
H      94.92301765      44.55313704      81.81172453
H      92.49849879      42.69175664      81.83440124
H      92.74416321      44.76289666      84.03971185
C      91.49127466      46.21987566      80.57017434
H      91.69536511      48.16251431      81.22779910
C      92.54574195      46.46931953      77.83196091
H      92.55519058      44.75155831      76.69245595
H      94.42979908      47.29324021      77.93211641
C      90.96593075      48.30424378      76.34852576
H      89.18202912      47.35371145      75.95735241
H      92.08842818      48.74077055      74.67611797
S      90.41791012      51.54134495      77.76204104
C      87.91780220      52.59581223      75.72491607
H      86.42302869      51.24843738      76.16900176
H      88.37511597      52.69407801      73.71991646
H      87.51906995      54.46664129      76.49025523
C      88.73038453      45.35438101      80.87631000
O      88.05386250      43.06214299      80.63253531
N      86.98238768      47.09670867      81.51881695
H      87.35844321      48.96375827      81.63031080
C      84.32921193      46.41640720      81.90810057
H      83.81331665      44.88950834      80.62686613
C      84.00606874      45.22398990      84.57261467
H      85.74272722      44.22243495      85.04882570
H      82.53019248      43.78968762      84.57450440
C      83.63190293      46.98521482      86.69666705
O      81.63257250      47.22143061      87.87396654
N      85.56698267      48.23432391      87.60751513
H      85.16636069      48.80313152      89.38385786
H      87.35466376      47.84315057      87.06894313
C      82.81176171      48.96186854      81.62842108
O      83.99850983      50.97064761      81.25236554
N      80.31732297      48.90328702      82.01959442
H      79.42537215      47.23654842      82.26336912
C      78.66003301      51.05379557      81.82873206
H      78.86223372      52.00054845      80.00892563
C      75.74985448      50.20152900      81.88920331
H      75.60245582      48.84092605      80.35096609
C      75.35868113      49.04690623      84.53104069
H      75.60812501      50.55490782      85.91432035
H      76.74007106      47.60693477      85.04504625
H      73.55777195      48.05102045      84.48001808
C      73.88469460      52.39361152      81.56228065
H      73.82422336      53.37626920      83.37263846
H      71.99496830      51.59992648      81.36007994
C      74.29854467      54.27955839      79.45334609
H      74.82955777      53.22131165      77.76771022
H      75.92748875      55.39638663      80.03349207
H      72.59779098      55.37748938      79.06595219
C      79.51418929      52.91139654      84.03215295
O      79.46694614      55.10725851      83.37452819
N      80.24551338      52.20274917      86.40186974
H      80.09055581      50.42073726      87.06705340
C      81.16392036      54.05468096      88.14041795
H      79.83166331      55.62126407      88.20655837
C      81.46060739      53.07580273      90.71800464
H      82.72105484      54.29467620      91.79892809
H      82.45460343      51.27300382      90.71233546
C      79.07010361      52.69785746      92.23734460
C      78.71861451      54.23231523      94.27257984
H      80.12457090      55.58346954      94.87351280
C      76.43393540      54.14160837      95.66719785
H      76.18827099      55.36804074      97.27913440
C      74.56310636      52.47675948      94.99067583
H      72.88124993      52.31046357      96.13396025
C      74.93727216      50.65695305      93.04425773
H      73.61824319      49.12060555      92.79103441
C      77.15014167      50.87616130      91.59861710
H      77.35423212      49.46075629      90.14541757
C      83.73583787      55.28489278      87.23145959
O      83.80764747      57.51476984      87.48657265
N      85.49328334      53.89594394      85.95400461
H      85.05108739      52.09314504      85.50613947
C      87.86300015      55.02977972      84.88819897
H      88.69070027      56.37526487      86.20722793
C      89.86799977      52.86226364      84.34584751
H      91.43458287      53.77878091      83.37452819
H      88.92313660      51.58669839      83.03248773
C      90.79207593      51.56591140      86.66454170
H      89.30486132      51.14261271      88.02325492
H      92.16968642      52.78289514      87.59050759
C      91.81252814      48.85982331      86.23746355
O      94.18602438      48.70675549      86.29604507
O      90.33476217      47.04190661      86.01447585
C      87.23750073      56.53778132      82.29549446
O      88.62455984      58.48608916      81.91376975
N      85.21927303      55.95952508      80.84796411
H      84.15346740      54.42506730      81.23535800
C      84.52952292      57.45996777      78.70123502
H      86.08665741      57.56012327      77.35386016
C      82.35822740      56.02944495      77.67322390
H      80.70093741      56.65872382      78.72202201
H      82.54908975      53.98287136      77.82629173
C      82.18248284      56.58502449      74.82162690
H      83.73583787      55.55323392      73.94290416
H      82.07098899      58.64104672      74.85564197
S      79.14380293      55.27166469      73.63676850
C      79.23450980      56.03700386      70.42990294
H      80.70849632      54.98820575      69.44724526
H      79.62757287      58.05523156      70.27494539
H      77.38068828      55.74220655      69.58330556
C      83.55253443      60.09235652      79.66499544
O      84.18181329      61.96318557      78.52360074
N      82.01807665      60.04700309      81.61330326
H      81.38123889      58.41805901      82.38053215
C      80.93715320      62.21640890      82.58273286
H      80.55731821      63.38803922      80.93111207
C      78.58633367      61.49264371      84.07183720
H      78.32933089      63.08379328      85.35496136
H      78.89246933      59.83535375      85.25669560
C      76.27330867      61.02588132      82.34462735
H      76.63613611      59.63693248      80.86875110
C      74.15114601      60.13770996      84.10396255
H      74.90514681      58.36325695      84.83150718
H      72.46928959      59.59535851      83.04571581
H      73.59367675      61.50776153      85.53826482
C      75.57599966      63.51843032      81.00859084
H      76.89502862      63.69417488      79.43444883
H      75.84056134      65.07178536      82.33517872
H      73.61824319      63.37481113      80.38876061
C      82.93081446      63.70173378      84.21734612
O      82.94782201      66.00719989      84.03782212
N      84.80542297      62.39593290      85.55338263
H      84.68825993      60.49486823      85.68566347
C      86.99372604      63.78677147      86.77036637
H      85.96004575      65.09635180      87.97979121
C      88.73983315      61.94239859      88.29537551
H      89.05730718      60.17172503      87.29382056
H      87.83087479      61.43595192      90.07171824
C      91.42324451      62.96851996      88.87363176
H      91.23238216      64.94139424      89.43488047
H      92.62700018      62.86080557      87.20500342
C      93.06163724      61.57390195      90.72178409
H      92.06008228      61.05422721      92.44521449
H      94.52995458      62.79655487      91.49090270
N      94.08586890      59.07946322      89.96589357
H      93.39422906      57.49587256      90.77847588
C      95.69402598      58.48986860      88.13285904
N      97.00738577      60.05645173      86.77414583
H      97.80862973      59.58024070      85.10929694
H      97.19446867      61.70429307      87.72089871
N      95.76583558      56.19763058      87.48090347
H      96.94313507      55.56079283      86.12030052
H      95.02317314      54.76521804      88.49946595
C      88.58865504      65.16438195      84.71056469
O      89.16502157      67.36213365      84.91087568
N      89.05352772      63.91716258      82.52604107
H      88.21448924      62.25231369      82.11597046
C      90.72215605      64.97540932      80.45490103
H      92.43235836      65.86547041      81.18055594
C      91.93347062      62.87403366      78.80705969
H      90.45570464      61.49453345      78.41210689
C      93.10510093      63.96818519      76.32584904
H      91.74071853      64.97540932      75.15988791
H      93.82319693      62.50364730      75.06729132
H      94.56396965      65.35902376      76.76048609
C      93.86099146      61.43028276      80.39820925
H      92.78006801      60.61959017      81.95345400
H      95.40678758      62.55089046      81.17110731
C      94.64522788      59.02844061      79.16988714
H      95.65434174      59.23820022      77.38598550
H      93.17691053      57.62626368      78.82406723
H      95.90945478      58.16294595      80.54560790
C      89.43336271      67.01064455      78.85619257
O      90.75239167      68.93249622      78.26848769
N      87.00506440      66.94450414      78.38943017
H      86.12634166      65.35524430      78.97524533
C      85.66902789      69.03454143      77.08551902
H      86.78963559      69.60712851      75.45657494
C      83.11222820      68.01408923      76.13120723
H      82.18059313      69.38225107      74.90477485
H      81.89335472      67.73063027      77.76771022
C      83.30498027      65.75775601      74.29061380
O      85.03407985      65.69917450      72.58041149
O      81.60233687      64.02298726      74.32084942
C      85.21549358      71.43449385      78.63320487
O      84.93014490      73.44138320      77.53338416
N      85.03785930      71.16426298      81.20512238
H      85.09077164      69.41059698      81.95723345
C      84.76951818      73.48673663      82.76603632
H      84.20260027      75.14213688      81.67944369
C      82.71727540      73.14280643      84.77292566
H      82.74751101      74.45805596      86.35651631
H      83.01963161      71.23229314      85.48535248
C      79.99229005      73.34500716      83.66554604
H      78.76774740      72.71005912      85.19433463
H      80.07732773      71.94283022      82.15754444
C      78.95860975      75.71283422      82.50525408
O      76.57755460      75.91881439      82.37108352
O      80.43826547      77.29075570      81.55472175
C      87.29419252      74.37112855      83.92443855
O      88.00850908      76.59344669      83.83373168
N      88.53196325      72.62124198      85.29449012
H      87.92725083      70.81844308      85.14709147
C      90.57097795      73.01241533      87.04815614
H      91.58954044      74.65080803      86.32439096
H      92.07897954      71.60834868      87.02925888
C      89.47115723      73.56988458      89.69755243
O      87.17891922      74.01019082      90.01880591
N      90.99427664      73.61334829      91.64774999
H      92.82164199      73.07855575      91.51168969
C      90.19681214      74.05554425      94.31226409
H      88.19559197      73.56799485      94.31415381
C      91.39300889      72.07889053      96.03569449
H      93.38289070      72.42093098      95.63318278
H      90.62955946      70.24018682      95.51035057
C      90.94514376      72.68171322      98.92319629
H      91.58765070      74.62624159      99.15563263
C      87.96882482      72.74596392      99.15563263
H      86.88601164      74.17459700      98.14273932
H      87.57387202      73.28642564     101.10394046
H      87.22238293      70.87324514      98.72666476
C      92.13945079      70.98284926     100.81292260
H      92.64211800      72.11290560     102.46076395
H      93.87988873      70.23640737     100.00411974
H      90.82609100      69.51831137     101.42519393
C      90.57853685      76.85611864      94.91319706
O      92.65534607      77.85578387      94.40864013
N      88.65101601      78.15814008      95.92609036
H      87.14490414      77.09233443      96.40986030
C      88.87967291      80.71116032      97.11472821
H      90.86010608      81.03619325      97.58904951
C      87.81764671      82.61033527      95.23445053
H      87.11466852      84.29786087      96.18309314
H      86.33232183      81.68058993      94.15163735
C      89.71304220      83.28496757      93.23512009
H      90.22326831      81.40468988      92.56237752
H      91.41190617      84.29975060      93.80770716
C      88.42424886      84.93280891      91.19232595
H      89.94547854      85.45815282      89.90542233
H      87.37356102      86.36522145      92.23923432
N      86.70270819      83.45126348      89.62007365
H      85.95437656      81.87145227      90.38541281
C      86.56097872      83.51740390      87.12941437
N      87.55875420      85.25973156      85.76503197
H      87.53607750      84.98572124      83.87530566
H      88.56030915      86.65245986      86.59840128
N      85.27785454      81.74862006      85.93699707
H      85.18336823      81.89790844      84.03593240
H      84.59944280      80.24817737      86.90453694
C      87.09199180      80.79430828      99.57137242
O      85.30620045      79.38079299      99.82270602
N      87.89134603      82.48372360     101.37228159
H      89.32186885      83.70259707     101.04346922
C      87.09955071      82.52718730     104.14262037
H      85.53674706      81.18737135     104.27301148
C      89.29163324      81.81476048     105.79802062
H      88.74172289      82.18325712     107.75010790
H      90.76373003      83.20181960     105.41629590
C      90.12311281      79.00095801     105.59581990
H      90.57286767      78.49073191     103.65129153
C      92.25283437      78.48128327     107.33058866
H      93.93469078      79.61133960     106.95642285
H      92.93313584      76.53675490     107.32869893
H      91.44403150      78.85922853     109.18818962
C      88.01417825      77.27374816     106.29123919
H      87.05041783      78.09766883     107.91640382
H      88.90423935      75.45394171     106.65784609
H      86.76884860      76.89580290     104.69442045
C      85.85611080      84.97816233     105.02890201
O      84.50495649      85.06697947     106.89028243
N      86.33610128      87.00772840     103.49444424
H      87.63245353      86.64112149     102.14140020
C      84.82809968      89.37555547     103.45664972
H      83.97205367      89.36421710     105.33125822
C      86.55908898      91.63944760     103.39995793
H      87.52851859      91.44291605     101.59337957
H      88.04441388      91.11410367     104.72654580
C      85.26273674      94.18868839     103.77034428
H      84.13457012      94.30585142     105.48999523
H      84.23283589      94.66867887     102.05069334
C      87.38867884      96.13132703     104.06892104
H      88.63967765      96.19368800     102.43430778
H      88.38645433      95.82519138     105.84337405
C      86.35877799      98.86576102     104.39395397
H      85.18903742      98.67867811     106.07958984
H      85.22116275      99.30984670     102.73477427
N      88.33543173     100.71769280     105.19141847
H      89.12911677     100.36620371     106.89217215
H      87.55686449     102.45435127     105.33314795
H      89.84343333     100.79328186     104.02545734
C      82.70782676      89.34154039     101.42330420
O      83.06876449      88.09243131      99.55814433
N      80.60456138      90.77773240     101.67274808
H      80.55920794      91.82086132     103.26956681
C      78.99073510      91.37488590      99.54680598
H      78.40491994      89.58720482      98.70776749
C      76.66070256      92.83564435     100.56536846
H      77.28053279      94.60631790     101.41385557
C      74.76152762      93.55751980      98.50934623
H      73.75808294      91.85298667      97.94242834
H      75.72150858      94.18868839      96.79914392
H      73.58044867      95.13355155      99.11783810
C      75.09600918      91.33142220     102.58548589
H      76.12591001      90.35821316     104.07836967
H      74.26452959      89.61555071     101.80502892
C      73.08345066      92.96036629     103.83648471
H      72.27086833      91.59787361     105.14984449
H      71.58111823      93.58208624     102.57414753
H      73.99051929      94.68379669     104.51489645
C      80.30409489      92.81863680      97.42275360
O      81.88012663      94.44569116      97.80447831
N      79.81843523      91.91912708      95.09272106
H      78.65436382      90.41112548      94.96610939
C      80.86723333      92.63533336      92.59450287
H      81.75729442      94.45513979      92.96488923
C      82.76073909      90.71159198      91.52491778
H      84.41802907      90.70025361      92.74946043
H      83.57899059      91.44480578      89.78259012
C      81.82154513      88.12833611      90.96933824
C      81.34155463      87.55574902      88.43521525
H      81.45304849      88.92769033      86.92532393
C      80.61589973      85.05375138      87.90987134
H      80.09055581      84.60399652      85.98990941
C      80.25118255      83.21126824      89.75613395
O      79.57655026      80.77352129      89.00213315
H      78.72239396      80.58265893      87.41287332
C      80.77274701      83.78763475      92.37907407
H      80.55542850      82.47616469      93.92864965
C      81.63257250      86.22916115      92.92709470
H      82.10311434      86.84521193      94.81682101
C      78.66948163      93.13044165      90.71233546
O      76.61723885      91.96448052      90.98634578
N      79.01152210      94.59120010      88.67521050
H      80.68392988      95.50960708      88.71111530
C      77.18037729      94.81418779      86.63052663
H      75.32466605      94.37766102      87.40342469
C      77.08778071      97.49759916      85.48535248
H      75.64402981      97.35775942      84.02270431
H      78.91703577      97.87176498      84.61229892
C      76.41125869      99.60275427      87.13697328
H      77.97784180      99.96180227      88.42576662
H      74.65381321      99.10386653      88.08561589
C      75.55899213     101.99136834      85.70834019
H      74.15492547     101.45279634      84.30049408
H      77.12179578     103.07796097      84.91843459
C      74.53476045     104.02282412      87.48468292
H      75.98607026     104.95445919      88.61095980
H      73.07967120     103.23858770      88.71111530
N      73.34234315     106.01648538      85.96156351
H      71.94016623     105.31728664      84.87308115
H      74.77286598     106.61741835      84.84851471
H      72.82833759     107.47346436      87.08028149
C      77.52997666      92.84509298      84.49702562
O      79.39891599      92.84698271      83.17043775
N      75.58544828      91.27662014      84.00947623
H      74.04532134      91.58275581      85.09417913
C      75.48151334      89.40201163      81.87408550
H      77.18793620      88.25305803      81.97235126
C      73.46517536      87.41212982      82.62808629
H      71.66804565      88.41179505      82.74524933
H      73.96028366      86.55419409      84.43466465
C      73.19305478      85.23894456      80.67977847
O      74.49318648      83.29630592      80.80450040
O      71.61135386      85.64712545      78.95445834
C      75.57599966      90.60765702      79.26437346
O      75.56844075      92.97359436      79.09051864
N      75.90103258      89.16957530      77.19890260
H      76.43015596      87.33654078      77.26882247
C      76.75518887      90.32041863      74.77627346
H      78.30287472      91.60921197      75.20713106
C      77.70761093      88.21337379      73.04528416
H      78.06665893      88.97115403      71.16500648
C      80.05087156      86.94536743      74.04872883
H      79.59166808      85.78318574      75.68523182
H      81.36234162      88.39100806      74.70824332
H      80.73684221      85.55641859      72.69379507
O      75.98040108      86.12522621      72.92623140
H      76.31299291      85.17469388      71.41822981
C      74.72562281      91.84353803      73.28149995
O      75.40214484      92.91312312      71.28027979
N      72.39747999      92.06274629      74.23959119
H      71.94961487      91.08008861      75.81184348
C      70.64192425      93.90711916      73.27394105
H      71.34490245      94.46269870      71.42011953
C      68.02843276      92.75816556      72.59552930
H      67.04577509      92.48604497      74.38698984
H      68.20039786      90.91379269      71.69601957
C      66.36547360      94.43435281      70.94768795
H      65.98752834      96.22392362      71.89255111
H      64.48141648      93.64255748      70.67745709
C      67.43505870      94.68379669      68.26427659
O      66.08012493      93.65578557      66.58808935
O      69.47596311      95.97636947      67.84853680
C      70.46806943      96.20313664      75.18823380
O      69.84445976      98.21947461      74.33218778
N      71.16159899      95.98581812      77.67322390
H      71.64158947      94.23215210      78.24770070
C      71.45450657      98.03239170      79.45901527
H      70.39437011      99.66322551      78.78249325
H      73.41982193      98.62954523      79.61586255
C      70.44728244      97.55618067      82.12541910
O      70.30366324      99.32685423      83.63531042
N      69.38525626      95.32252417      82.64509383
H      69.63092067      93.90522943      81.38842583
C      67.71095874      94.82741588      84.88819897
H      67.11191550      96.66045041      85.61574360
C      65.29777824      93.34587045      84.25703038
H      64.28488493      92.87343888      85.98612995
H      65.97241053      91.74527226      83.14587130
C      63.53655331      94.64222270      82.34651707
C      63.01498885      93.36098827      79.92955712
H      63.68773142      91.54685100      79.27949127
C      61.32746325      94.71970149      78.26659796
H      60.74164810      93.76161024      76.56206483
C      60.44874052      97.14611007      78.58218226
O      58.85003206      98.11553967      76.86820049
H      58.29256279      99.73881456      77.45779510
C      60.96085635      98.27994585      80.94811960
H      60.43740216     100.21502560      81.33173404
C      62.59357988      97.15177925      82.74146987
H      62.95451761      98.13065748      84.49324617
C      69.16226855      93.69358010      87.11618629
O      70.57956329      91.86810447      86.74391020
N      68.64826299      94.66489941      89.32527635
H      67.51253748      96.17479074      89.60117639
C      69.89359264      93.78050751      91.68365479
H      71.92693814      93.92979589      91.39074721
C      69.44194805      95.66834409      93.99290034
H      70.65137289      94.93702000      95.49334303
H      67.42938952      95.54362215      94.40864013
C      70.49074615      98.28561504      93.48078451
C      68.84101508     100.44368248      93.63763179
H      66.81522847     100.23014341      93.78314072
C      69.87280564     102.87576024      93.57905028
H      68.68983697     104.51604269      93.31070914
C      72.54676837     103.17055756      93.35228312
O      73.73351650     105.45712640      93.25779681
H      72.61668825     106.88575948      93.19165638
C      74.12657957     101.10319696      93.12362624
H      76.15614564     101.17878602      92.91953580
C      73.08345066      98.60497878      93.28236325
H      74.20972753      96.92501209      93.01213238
C      69.78776797      90.95536666      92.28080830
O      67.60324434      90.15601243      92.58694396
N      71.90237171      89.52484385      92.37718434
H      73.62202265      90.35065425      92.38285352
C      72.11024159      86.82442495      92.47733984
H      70.40570847      85.78129601      92.97244813
C      72.67526976      85.93436386      89.66542708
H      74.36657482      86.81686604      88.88685984
C      72.96817734      83.16402507      89.24401812
H      73.20439314      82.58009965      87.28248220
H      71.35246134      82.30230988      90.18888127
H      74.58767280      82.76151338      90.45155323
O      70.64948315      86.67513657      88.00624738
H      70.84223524      88.46281765      87.74735488
C      74.13791793      85.96082001      94.36706615
O      75.79709764      87.41779901      95.05114708
N      74.06610833      83.56464705      95.13996421
H      72.53920948      82.50073115      94.72044497
C      75.64214007      82.58198938      97.26779604
H      77.41848282      83.62133884      97.31692893
C      74.42515633      82.93158874      99.89451562
H      73.78831856      84.85910958     100.24600471
C      71.94583542      81.42736659     100.33482185
H      72.20850737      79.38646218     100.42174926
H      70.69294686      81.90924680      98.77390791
H      71.12380447      82.13412424     102.08659814
C      76.26197031      82.10199889     102.12061321
H      76.69282791      80.08944037     102.05258307
H      75.25285645      82.23616945     103.90829431
C      78.52019325      83.91802587     102.43052833
H      80.10756335      83.25284222     101.30047199
H      79.33277556      83.86133408     104.32403409
H      78.09122539      85.90601795     102.09982622
C      76.28275729      79.79464307      96.72355486
O      74.97128724      78.23939830      95.78247116
N      78.72617342      79.15213612      97.39251798
H      79.77497152      80.58832811      98.08226808
C      79.82221469      76.71060972      97.45676867
H      78.68459945      75.47094925      98.64540652
H      81.69304374      76.71249945      98.31848387
C      80.11134280      75.52575131      94.90563815
O      81.26029640      76.75596314      93.15953104
N      79.09278033      73.24107220      94.64863537
H      78.60145148      72.12424395      96.11695272
C      78.71105561      72.21306110      92.14852746
H      80.17181405      72.99351805      90.92209508
C      79.13246458      69.40870725      92.16742472
H      77.48273350      68.63014001      93.12929542
C      79.30442967      68.31266598      89.57849967
H      77.56021229      67.50197339      88.83961669
H      80.67259153      66.78009795      89.42165239
H      79.70316192      69.89814635      88.32561113
C      81.66658756      68.59801466      93.64519070
H      82.20893901      66.67805273      93.12740569
H      81.40769506      68.55833041      95.68798484
C      84.02685572      70.02664775      92.63985630
H      83.81142693      72.04109600      93.01024266
H      84.23283589      69.82255731      90.60084161
H      85.72949913      69.31233121      93.55637356
C      76.10890248      73.12012972      91.18665677
O      74.16437411      71.75952677      91.40397529
N      75.95205519      75.47094925      90.34383883
H      77.65280888      76.33266445      90.34005938
C      74.07933642      76.53108572      88.67710022
H      73.93004803      75.08355536      87.21823151
H      74.60468033      78.45293738      88.15175631
C      71.46395520      76.91281043      89.75235449
O      69.79343714      77.21138720      88.18955083
N      71.05010513      76.69171246      92.20899870
H      72.59968072      76.61801313      93.31826805
C      68.54054859      77.11879061      93.32204750
H      67.15915865      75.98117536      92.30159529
C      68.76920548      76.15125072      95.98278215
H      70.02020429      77.42492626      97.00701381
H      69.55155217      74.25774497      96.19443150
C      66.32200990      76.12290483      97.26401659
N      64.98219394      73.93649149      97.73644817
H      65.53399403      72.20550219      97.15252274
C      63.23797656      74.59411624      99.47121692
H      62.10980995      73.39225031     100.66930341
N      63.26065327      77.07532690     100.02490673
H      62.01154418      78.17514762     100.95843153
C      65.10313643      78.13168391      98.49989760
H      65.64737761      80.08566092      98.27124071
C      67.71662792      79.97794651      93.07260363
O      68.87125069      81.59555223      94.45588329
N      65.85335777      80.52974660      91.57216093
H      65.14093095      79.28252722      90.31549294
C      64.68361719      83.15835589      91.36807049
H      66.25775920      84.34132456      90.75957862
C      62.65972030      82.85033051      89.22134140
H      61.25565365      81.42547686      89.71644969
H      63.60458346      82.37411948      87.45444730
C      61.26132283      85.43736583      88.66954132
H      60.00276511      86.09877004      90.16053538
C      63.04711420      87.63511754      87.93254806
H      64.38315070      87.21370857      86.42265673
H      64.06756641      88.24738885      89.61251475
H      62.07012569      89.30185615      87.22201096
C      59.54356161      84.95926508      86.41320810
H      60.69251521      84.96304453      84.70300579
H      58.20563538      86.50884066      86.18266149
H      58.41917446      83.23772440      86.52848140
C      63.41372110      84.01251219      93.84550169
O      62.56712371      82.38734756      95.28547314
N      63.28710944      86.50506119      94.34816889
H      63.98063900      87.82597990      93.15953104
C      62.27232641      87.52173396      96.67631171
H      61.48620026      85.84365698      97.57960088
C      64.34724590      88.84265265      98.31659415
H      63.31923479      89.99916516      99.67530736
H      65.39226455      90.05585693      97.02213162
C      66.36358388      86.93024961      99.36350252
H      66.59602021      85.39012268      98.01423794
C      68.92605276      88.11321829      99.72632997
H      70.41704682      86.79418933     100.25923280
H      68.79944109      89.37366574     101.34771515
H      69.48919120      89.08642735      97.99912012
C      65.56233993      85.63389736     101.82581591
H      63.81434308      84.56809173     101.59148985
H      65.23352754      87.02851539     103.30358189
H      67.05522371      84.36211155     102.45509477
C      60.01221374      89.25650271      95.88262665
O      57.86737437      88.86910882      96.83315899
N      60.32968776      91.04418381      94.16297571
H      61.94540376      91.09520642      93.14630295
C      58.41539500      92.83564435      93.25968653
H      56.55212486      91.95881134      93.20866392
C      57.98831686      94.82363643      95.18720737