 %block lattice_cart
   137.614   0.000   0.000
   0.000 142.646   0.000
   0.000   0.000   160.855
 %endblock lattice_cart

 %block positions_abs
N      88.78707632      41.42186055      81.75125328
H      88.54141189      41.24422628      83.63720014
H      90.62389028      41.14596051      81.31472650
H      87.71182204      40.10283159      80.88386890
C      88.09543647      43.91251983      80.82150794
H      89.02518183      45.20509263      82.12730882
C      88.78140713      44.52479116      78.03605135
H      87.79119055      43.36071975      76.65466142
H      90.79018620      44.20164796      77.71290815
C      88.52062491      47.28946076      77.20835123
H      86.67058284      48.06424854      77.68267253
H      88.75684068      47.64283958      75.19390298
S      90.73538414      49.45508711      78.56328499
C      88.82676057      52.21975671      77.99447737
H      88.73038453      52.67329102      75.98569830
H      89.66390931      53.71075077      79.14154124
H      86.88979109      51.90039296      78.61997678
C      85.26840591      44.33392880      80.96512714
O      83.82843446      42.83159638      80.05616878
N      84.51062566      46.30302362      82.30683282
H      85.66146898      47.36316008      83.40098435
C      81.77241223      46.71687368      82.80194111
H      80.94471211      45.64728859      81.24669636
C      81.34533408      45.68886257      85.49480111
H      82.52641303      44.13550754      86.15242587
H      79.35545228      45.18052619      85.67054566
C      81.54375536      47.55213271      87.60940485
O      79.70694137      48.40628901      88.65631323
N      83.81331665      48.17007322      88.53915020
H      83.75473514      48.91462538      90.29470594
H      85.42903265      47.46142585      87.80971584
C      81.05242652      49.45697684      82.51281299
O      82.46216234      51.28434218      82.01203551
N      78.53909051      49.94452623      82.80761029
H      77.43926981      48.53290067      83.47468368
C      77.35612184      52.55234854      82.69044726
H      77.88902466      53.40461510      80.88953808
C      74.45917141      52.15739574      82.80005139
H      73.91870968      51.03111886      81.15976895
C      73.56722059      50.73632155      85.16220928
H      74.06421861      51.87393679      86.80627117
H      74.24185288      48.79746235      85.00914145
H      71.52820589      50.44530370      85.10173804
C      72.87936021      54.63293721      82.79816166
H      73.61068429      55.80645725      84.32317079
H      70.93672155      54.44774403      83.45956587
C      73.17793696      56.11826209      80.21679552
H      72.89825748      54.75010024      78.70123501
H      75.09789889      56.86281426      80.19600853
H      71.92504841      57.74342672      80.06939686
C      78.45972201      54.33813990      84.62741673
O      78.93215359      56.47542036      84.01514541
N      79.12679539      53.64083089      87.06138422
H      78.83577754      51.85692925      87.67176582
C      80.38535312      55.26221607      88.96055917
H      79.30442967      57.01399236      89.02858931
C      80.55731822      54.01499670      91.51546914
H      81.70060263      55.34725375      92.59450287
H      81.25273750      52.11204231      91.15075196
C      77.91548084      53.89783367      92.72867343
C      76.71739435      51.49977098      93.11228788
H      77.49407186      49.71964879      92.48300901
C      74.26830904      51.33158534      94.06093049
H      73.27620273      49.54957343      94.15730653
C      73.07778147      53.43863018      94.96988884
H      71.17482707      53.33091578      95.69932320
C      74.22862480      55.83858260      94.71288606
H      73.28565137      57.52988765      95.35728274
C      76.62668748      56.10125455      93.49968177
H      77.39580610      57.98909114      93.58660918
C      83.19915560      56.08046756      88.01758574
O      83.90213379      58.27443981      88.45411251
N      84.60700170      54.52900226      86.69288759
H      84.08165779      52.75643898      86.21478683
C      87.03530001      55.31890786      85.73857580
H      88.05764196      56.29967582      87.23145959
C      88.44692557      53.04745683      84.90709622
H      89.90390457      53.77878091      83.64664877
H      87.06553564      51.87015734      83.93388717
C      89.81886687      51.48276344      87.05571504
H      88.69258999      51.72653814      88.76213790
H      91.59331988      52.39172180      87.57350005
C      90.30830599      48.76155755      86.21856629
O      88.52251462      47.45575667      85.47968330
O      92.43991727      47.73921562      86.15242587
C      86.63656776      57.23131089      83.48035286
O      87.73449876      59.33646600      83.77515016
N      84.90179901      56.73998205      81.68889231
H      83.85867008      55.16395030      81.96290263
C      84.23283589      58.19129186      79.47980225
H      85.83910327      58.03255485      78.19856781
C      81.99162048      56.97430811      78.11353013
H      80.32488188      57.19540609      79.30594743
H      82.31854315      54.96552904      77.79794584
C      81.48328412      58.53711177      75.66444483
H      83.02341105      58.33302133      74.31140079
H      81.18659708      60.46652234      76.32395931
S      78.58444395      57.37493009      74.10920007
C      78.48239872      59.30434065      71.30106677
H      76.76274778      59.05867623      70.19557688
H      80.21527775      58.82057072      70.29762210
H      78.66759190      61.29044301      71.81507233
C      83.67347691      60.96918954      80.17333181
O      84.94715245      62.80978296      79.08862891
N      81.98595130      61.30745055      82.07250676
H      81.16769981      59.77677223      82.86997126
C      81.03352925      63.83779408      82.76603631
H      80.75384976      64.99052713      81.08229017
C      78.64302546      63.50331252      84.26836873
H      78.44649392      64.89982027      85.76881142
H      78.86790289      61.78177185      85.37763808
C      76.25630112      63.04032957      82.68666781
H      76.78164505      61.81767665      81.11441551
C      73.86579735      62.30711577      84.15876461
H      74.49318647      60.70084840      85.28504149
H      72.22173545      61.67027800      83.09295896
H      73.34045342      63.88881669      85.36818945
C      75.65158870      65.67271833      81.51692722
H      73.95650420      65.65571079      80.34529691
H      77.15581085      66.33034309      80.27159758
H      75.52308731      67.13725622      82.95878840
C      83.12356655      65.22296347      84.32883997
O      83.36923097      67.53220902      84.05482966
N      84.58243526      63.93417012      85.86518747
H      84.28007905      62.06901025      86.13541833
C      86.64412667      65.02832166      87.14453218
H      86.11500330      66.88592262      87.86073845
C      87.69103505      63.25953783      89.21000304
H      88.98738729      61.98208284      88.24435289
H      86.10555468      62.40349181      90.20399908
C      89.32942776      64.59368460      91.33783487
H      88.07087003      65.95428755      92.23167541
H      90.80719373      65.78232245      90.53092173
C      90.43491765      62.92883572      93.34472421
H      91.56686372      64.19117290      94.51446480
H      91.48182604      61.39059850      92.46033230
N      88.41102077      61.72508006      94.87351280
H      87.52662885      62.53955210      96.35505823
C      87.53607750      59.39315779      94.55036960
N      88.46960229      57.73019863      92.94221251
H      87.51340078      56.08424702      92.81560084
H      90.16846624      58.13271034      92.17687335
N      85.63123336      58.77332756      96.03758421
H      84.87912230      57.01966154      96.03380476
H      85.37234086      59.87503800      97.57393170
C      88.74361261      65.92027248      85.25102641
O      89.98705251      67.81188851      85.67621483
N      89.07620443      64.68439147      82.99091374
H      87.98394262      63.16505151      82.61107875
C      90.97537938      65.37225184      81.11630524
H      92.77061937      66.00908961      81.89865193
C      91.51017193      62.96096107      79.62531118
H      89.69036549      62.19562191      79.04138575
C      93.07864477      63.55055568      77.13276217
H      92.29251862      64.86958465      75.75893114
H      93.33942699      61.94050886      75.87609418
H      94.97404026      64.16849618      77.64487800
C      92.99171735      60.90493884      80.99158330
H      92.62700018      61.09391147      83.00981101
H      95.03073205      61.13548545      80.80827985
C      92.47015289      58.25176310      80.11475030
H      90.42357929      58.06279047      80.21868524
H      93.37533179      56.99509510      81.47157379
H      93.03707078      58.05712129      78.14376575
C      89.82831551      67.64559260      79.56483994
O      91.21915408      69.34634628      78.90343573
N      87.43025281      67.71362275      79.08673918
H      86.32665266      66.20562115      79.46468444
C      86.20759989      69.73940935      77.55606087
H      87.45859871      69.89058746      75.92522706
C      83.48828373      68.86068662      76.84174432
H      82.06343008      70.31199643      76.51671140
H      82.83632815      67.87047003      78.52549047
C      83.46749673      67.09190279      74.62320563
O      85.05486684      67.35079529      72.83930399
O      81.76296361      65.50264296      74.62320563
C      86.12445193      72.20928165      79.00170150
O      86.60255269      74.24073743      77.93967531
N      85.60288747      72.08266998      81.48858132
H      85.10588946      70.40081356      82.24069240
C      85.20982439      74.44293815      82.83028701
H      85.15313262      76.05676442      81.54905257
C      82.48672878      74.59033680      83.90176183
H      82.37523494      76.26274459      85.09984831
H      82.38279384      72.95761327      85.15276065
C      79.86378866      74.51852720      82.42021640
H      78.27830829      74.62435187      83.72790701
H      79.75040509      72.77808927      81.32606486
C      79.79386879      76.70494054      80.58151269
O      78.51452407      78.53797507      81.23535800
O      80.64613535      76.44226859      78.36675346
C      87.16002195      74.99284850      84.90709622
O      87.73071931      77.19437966      85.42488123
N      88.35432898      73.00863588      85.84440048
H      87.79497000      71.26441849      85.30393875
C      90.15901762      73.31288181      87.92309942
H      91.45348014      74.80576560      87.33728426
H      91.30986093      71.64047402      88.26325016
C      88.95715168      73.78342366      90.38541281
O      86.76128970      73.34500716      90.78036561
N      90.52184507      74.64135941      92.22978569
H      92.40401248      74.71127928      91.93120893
C      89.73004975      75.46905954      94.76201895
H      87.77985219      74.90592109      95.11350804
C      91.42891370      74.39758472      96.64040690
H      93.32997836      75.17993141      96.51946442
H      91.58954044      72.42848990      96.06215065
C      90.61444166      74.64891832      99.46176829
H      90.86577525      76.50462955     100.31403485
C      87.86488987      73.82121819     100.16096702
H      87.68725560      71.82377748      99.69420462
H      86.55908898      74.93804644      99.02524151
H      87.64190217      74.00074219     102.19998172
C      92.40968165      73.22784413     101.10583018
H      94.18602438      74.26341415     101.01323359
H      92.67235360      71.27575685     100.50111776
H      91.76339526      73.38091196     103.05602774
C      89.75650591      78.36412025      95.19476627
O      91.66512948      79.64157523      94.70721688
N      87.56253366      79.45449233      96.09805545
H      86.00161972      78.46805519      96.58749457
C      87.25828773      82.19648521      96.26435137
H      89.04974827      83.10166411      96.72544459
C      86.32098347      83.49472719      93.81526606
H      85.83910327      85.48082954      94.08360720
H      84.82620995      82.35522222      92.97055840
C      88.47149201      83.68936900      91.74979520
H      89.37667092      81.87712146      91.39074720
H      89.84721278      85.00839796      92.53214190
C      87.23750073      85.06697948      89.54070514
H      88.64534683      86.37655981      88.80182216
H      85.67091762      86.21404335      90.23045525
N      86.20193072      83.20937851      87.73790624
H      85.44037101      81.63523649      88.50135567
C      85.48950389      83.48149910      85.34929218
N      86.14334919      85.61311038      84.14553652
H      85.54241623      85.98916592      82.37297324
H      87.40379664      86.82820440      84.90898595
N      84.19882082      81.60878033      84.22112557
H      83.56954196      81.66925157      82.42210612
H      84.37645510      79.90613692      85.06961269
C      85.60099775      82.80875653      98.57737637
O      83.39757686      83.55330870      98.17675439
N      86.69892874      82.60088664     100.76378972
H      88.43180777      81.80153241     100.72410546
C      85.50651143      82.87867641     103.22232365
H      83.99095092      81.48405839     103.20342639
C      87.47938570      82.22861056     105.13283695
H      86.73294380      82.63301199     107.00744546
H      88.96471059      83.65724365     105.16118285
C      88.63022903      79.62078824     105.21598491
H      89.25761816      79.24284298     103.29035380
C      90.87522388      79.66425195     107.03768108
H      91.82386650      77.85200442     106.79957556
H      90.47082245      79.93259309     109.03890124
H      91.78985142      81.38390289     106.36115906
C      86.69325955      77.65547288     106.09281792
H      85.07187437      77.65547288     104.82292184
H      86.15090810      78.23561886     107.99388259
H      87.63056381      75.82054863     106.13439190
C      84.24606399      85.38823295     103.93286074
O      82.63412744      85.53374188     105.56936373
N      84.79219488      87.49338806     102.66863384
H      85.93358957      87.08709691     101.19464732
C      83.59032895      89.96326036     102.75934070
H      82.25051300      89.93491446     104.32403409
C      85.79186010      91.69991884     103.34137641
H      86.73105409      91.78495652     101.50834188
H      87.02774111      90.85143172     104.75489169
C      85.07376411      94.45136035     104.21442996
H      84.76384899      94.52316995     106.24966520
H      83.39946660      95.05040359     103.17319077
C      87.27529526      96.24849007     103.71932167
H      87.58332064      96.26738734     101.68219671
H      89.00250511      95.54929134     104.59426495
C      86.49483829      98.97347542     104.71709716
H      86.21704852      99.06607201     106.75611186
H      84.74306200      99.45913508     103.74766757
N      88.51495572     100.68745718     104.05380323
H      88.04063441     102.40521840     104.73410470
H      88.72471534     100.66289074     102.15651801
H      90.22893748     100.35675508     104.82670129
C      82.19949038      90.53773715     100.26490197
O      82.75506992      89.60421236      98.22966673
N      80.11512225      92.04384903     100.70520820
H      79.91481128      92.79784983     102.44942559
C      78.34822815      92.68257652      98.56792774
H      77.24273826      91.02717627      98.03502492
C      76.57188543      94.63466380      99.36728197
H      77.77942053      96.25793870      99.75467587
C      74.61979815      95.34331117      97.31314947
H      73.56533085      93.65389585      96.78213638
H      75.41348319      96.03684073      95.54436564
H      73.37068905      96.83052578      98.00289957
C      74.88435982      93.80318422     101.67085835
H      76.09945384      93.01894780     103.13728597
H      73.83367200      92.04762848     101.41763502
C      73.37635822      95.80062494     103.14862432
H      72.84723486      95.19969197     105.04779927
H      71.67182510      96.18990856     102.06203169
H      74.44783305      97.55807041     103.08437363
C      79.63513177      93.34209100      96.10939381
O      81.28864230      94.92946111      96.11317326
N      78.76207822      92.44825046      93.88707566
H      77.25785608      91.27662014      93.98534143
C      79.44615914      93.57641707      91.37373967
H      80.08110719      95.51527626      91.65152944
C      81.67225674      92.04573875      90.24557306
H      83.21427342      92.04951821      91.60995546
H      82.25240271      93.08319850      88.56182691
C      80.81621072      89.42468836      89.76558258
C      80.09811472      88.56486288      87.31649727
H      79.99229005      89.92735556      85.80093677
C      79.75418454      85.92113577      86.93666229
H      79.39324680      85.22382676      85.05260515
C      80.00173868      84.15613140      88.96433862
O      79.77497152      81.64090567      88.51836321
H      78.82443918      81.10422340      87.07083285
C      80.62912782      85.10477401      91.38885748
H      81.00896281      83.79519367      92.90630771
C      81.08077241      87.67291206      91.71578013
H      81.53241700      88.48171493      93.53558657
C      77.18037729      93.61232187      89.60495584
O      75.43804963      92.00227505      89.79581820
N      77.13124441      95.39055433      87.90987134
H      78.61656930      96.58297163      87.78892885
C      75.39836539      95.50771736      85.81983403
H      73.55966169      95.00127071      86.59651155
C      75.13569342      98.18734927      84.52159206
H      74.43271523      98.24404106      82.58462259
H      76.96116904      99.10575626      84.26080983
C      73.37824796      99.67078443      86.23368410
H      74.06799806      99.75582211      88.17254329
H      71.47718328      98.88843773      86.31683205
C      72.89258829     102.48458691      85.46645521
H      71.86079772     102.67355954      83.69200221
H      74.70861527     103.40677335      85.16220928
C      71.37135861     103.82251314      87.62074321
H      71.84756964     103.43322951      89.58794830
H      69.51753709     102.97591575      87.32027673
N      71.55277233     106.58907246      87.36185071
H      70.47562834     107.46590547      88.67332077
H      71.12380447     107.16165953      85.59306688
H      73.35746097     106.96890745      87.85128982
C      75.80465653      93.51783555      83.83940086
O      77.84367123      93.27406086      82.70934452
N      73.66926581      92.86587997      82.67532945
H      71.99874775      93.27406086      83.50113985
C      73.36690960      91.54685101      80.07884550
H      74.48751730      89.82342061      79.94278520
C      70.62491671      90.68324608      79.54783240
H      69.39470489      92.31785934      79.31350634
H      69.96351251      89.66468360      81.21268128
C      70.97262635      88.79351977      77.28394028
O      70.95372909      89.57019728      75.13910091
O      71.37324833      86.53529682      77.96991093
C      74.05476997      93.58775542      78.09274314
O      73.47651372      95.78550713      78.49903430
N      75.08089136      93.02272726      75.79105649
H      75.79520790      91.29740713      75.40366260
C      75.16592904      94.91245357      73.74826235
H      76.33189018      96.54139765      74.22636310
C      76.24496278      94.07341509      71.14610921
H      76.02575451      95.59653449      69.77605764
C      79.04931662      93.62366022      71.26705170
H      79.52552765      91.99660587      72.43868201
H      79.81654550      95.25827348      72.25915801
H      79.83355303      93.47059239      69.36787675
O      74.88624956      92.01361341      70.33163717
H      75.97095246      91.39378317      69.01827739
C      72.57133482      96.10298115      73.22858761
O      72.30677313      98.31018148      72.68812589
N      70.55310711      94.57986174      73.57251780
H      70.87058114      92.76383475      74.06195691
C      67.89993137      95.23559677      73.19268281
H      67.52387583      96.33730721      71.49192913
C      66.41649621      92.88855669      72.97347456
H      66.36547361      91.88889147      74.77438373
H      67.38025663      91.66590376      71.62609970
C      63.64615745      93.12288275      71.98136824
H      62.36303327      93.99215686      73.33819174
H      62.98664296      91.24071534      71.46169351
C      63.54411222      94.67434805      69.50393705
O      65.23541728      94.29451307      67.82019090
O      61.94729348      96.33352776      69.05040273
C      66.83979491      96.92879155      75.26760230
O      64.71763226      98.07585542      74.83107552
N      68.19283895      97.33508270      77.37653687
H      69.88603373      96.48659559      77.61464238
C      67.32356484      99.06418228      79.45523581
H      66.12358864     100.56840442      78.71824255
H      69.08478977      99.83141116      80.19411880
C      65.98563861      97.89255197      81.77393000
O      65.55478102      99.25504464      83.53137547
N      65.76265091      95.41890022      81.87408549
H      66.23508250      94.34364595      80.37175307
C      65.13715150      93.85231711      84.11152145
H      63.37592657      94.56096448      84.91276540
C      64.55700552      91.16701602      83.46334532
H      63.87103487      89.98215762      85.00347227
H      66.41649621      90.43947139      82.96634730
C      62.82412649      90.83442419      81.18433539
C      63.61970127      89.31886368      79.09051863
H      65.40927210      88.37966971      79.36263922
C      62.09658186      88.79729922      76.89276693
H      62.76743470      87.78440592      75.25437422
C      59.81379247      90.13900490      76.68867649
O      58.49665323      90.01239324      74.48336588
H      56.87337833      90.78529130      74.72714058
C      59.07490949      91.71881610      78.66533021
H      57.33825100      92.78840119      78.61997678
C      60.49409395      92.14778397      80.81961821
H      60.02733155      93.51783555      82.25581021
C      67.22151962      93.90711917      86.14864641
O      69.36068982      93.98837740      85.39275589
N      66.53554897      93.51972528      88.52592211
H      64.68361719      93.28539921      88.93410300
C      68.48007735      92.86021079      90.58383407
H      70.27342763      93.63310886      89.92809904
C      67.76765054      94.10365071      93.05937554
H      68.81266919      93.29295812      94.63540728
H      65.73052556      93.93546507      93.32582695
C      68.30433281      96.90611483      93.07260362
C      66.34090717      98.64655276      92.97055840
H      64.38126098      98.25915887      92.54725971
C      66.93995040     101.32429495      93.24078927
H      65.59824473     102.82851709      92.92520497
C      69.42871995     102.06506766      93.50913040
O      69.86902620     104.61997764      93.70944139
H      68.35157596     105.60074560      93.86628867
C      71.32600518     100.30195301      93.45621806
H      73.31399726     100.74603870      93.33716531
C      70.77231536      97.71491769      93.10283924
H      72.23874298      96.29951268      93.02158101
C      68.72952122      89.95948090      90.93532316
O      66.88514835      88.54974507      91.16586977
N      71.05199487      89.13178078      91.34350405
H      72.62991633      90.19758642      91.46444653
C      71.70772989      86.44458996      91.84806097
H      70.17705158      85.50728571      92.85906455
C      72.34078820      84.98005207      89.34795306
H      73.58800758      83.44937375      89.93376822
C      70.10524197      83.63267721      88.08750561
H      68.68416780      85.00839796      87.51302881
H      69.23596788      82.28908180      89.38763731
H      70.71562357      82.60277637      86.41320810
O      73.76186240      86.30286049      87.57538978
H      75.20750302      86.93402908      88.47300978
C      74.00374737      86.30663994      93.69432358
O      75.48340307      88.08487240      93.95132636
N      74.10390286      84.13534441      94.97177857
H      73.01919996      82.65568870      94.44832438
C      76.22228605      83.47771965      96.79347473
H      77.87390686      84.59454790      96.27568972
C      75.25474618      84.56998146      99.37673060
H      74.27397823      86.36333173      99.12350728
C      73.17982670      82.87867641     100.59938353
H      71.87969498      82.35900167      99.08949220
H      72.05732926      83.70826626     102.11494403
H      74.11524121      81.38201317     101.66140972
C      77.49029241      85.13123017     101.12094799
H      78.96994811      86.03451935     100.00789919
H      78.28775691      83.34732853     101.77479329
C      76.99896356      86.87733729     103.36783258
H      76.26197031      85.68303026     104.87583417
H      75.71205996      88.42880259     102.94642361
H      78.77152685      87.60866137     104.12183338
C      76.98384576      80.66013772      96.91630694
O      75.56844076      79.03308336      96.10183490
N      79.14380293      80.17258833      98.16919549
H      80.18504214      81.74295089      98.49044896
C      80.01496676      77.58933246      98.73422366
H      78.49184736      76.38935625      99.43342239
H      81.49840192      77.72161330     100.15718757
C      80.95416074      76.21928088      96.35505823
O      82.53019248      77.16414404      94.84327718
N      79.71827974      73.98562438      96.01301777
H      78.51830352      73.53775924      97.42842277
C      79.85056058      72.70627967      93.49212286
H      81.37556972      73.52453116      92.37340489
C      80.43070656      69.92838199      93.63574206
H      78.87735152      68.94383458      94.56737714
C      80.67637097      68.69250098      90.90697727
H      78.93971250      68.83612018      89.80904628
H      81.14880256      66.71962671      91.24712801
H      82.16925477      69.69972510      89.90164287
C      82.94404256      69.35579491      95.19287655
H      84.39157291      70.79576636      94.91319705
H      83.82087555      67.70039466      94.33683053
C      82.41680891      68.73785441      97.92164134
H      82.09555543      70.44616700      99.02902096
H      83.84166254      67.50764258      98.76067983
H      80.73117303      67.55299601      97.93675915
C      77.24651772      73.35445579      92.10128430
O      75.48718252      71.86157200      92.03325415
N      76.96494849      75.52575132      90.84083685
H      78.57310559      76.48951174      90.47422994
C      74.72940227      76.27408294      89.27236401
H      74.55176800      74.91348000      87.73601652
H      74.99774340      78.17514762      88.52970157
C      72.21795600      76.55754189      90.46667104
O      70.37736256      77.12445979      89.19866468
N      72.01953474      76.45549667      92.94599196
H      73.63525073      76.32888501      93.95321609
C      69.60824396      76.75785288      94.28013874
H      68.24197184      75.35945541      93.62440371
C      69.94461524      76.20983225      97.12984602
H      71.41293258      77.26052008      98.12195233
H      70.50964341      74.25018606      97.41519469
C      67.65237722      76.41392269      98.71343667
N      65.68895158      74.70938956      98.79091545
H      65.70028994      72.97084135      98.00100985
C      63.70473895      75.72228286      99.92097178
H      61.94540376      74.80954505     100.40852117
N      64.26220822      78.08822020     100.53513283
H      63.15293887      79.36189574     101.42897338
C      66.69806543      78.54931343      99.72066079
H      67.35380047      80.45604728      99.39940732
C      68.55944586      79.44693342      93.58849891
O      69.59312614      81.41224879      94.46344219
N      66.27287702      79.50173549      92.60395150
H      65.60958308      77.71783385      92.45466312
C      64.50409318      81.52752209      91.97278291
H      65.58123718      82.95615519      90.95233070
C      62.30067230      80.33132534      90.42887651
H      61.34258106      78.87812580      91.53058695
H      63.19073340      79.43559507      88.79993243
C      60.37126174      82.46482635      89.59361748
H      60.43551243      83.90101834      91.07138346
C      61.12715226      83.51740390      86.98201572
H      61.11959337      82.05097628      85.53259563
H      63.01687857      84.21282319      87.41098359
H      59.92339661      85.05942057      86.33383959
C      57.57635652      81.69570774      89.70133188
H      57.30234620      79.96282871      88.62229816
H      56.41417484      83.30764428      89.15709070
H      56.91306258      81.21193780      91.59105819
C      63.64426771      82.80686681      94.42753739
O      62.71074291      81.57854471      96.22277739
N      63.96174173      85.33532062      94.68076072
H      64.28110548      86.29530158      93.06126527
C      63.02821693      86.78852015      96.87284324
H      62.55389563      85.53563160      98.43753663
C      65.15793849      88.48171493      97.75912488
H      64.40582742      89.90278911      99.04413877
H      65.85902695      89.25650271      95.98467187
C      67.38403608      87.14567842      99.14618399
H      68.23063347      85.91168714      97.73077898
C      69.36635899      89.24894381      99.55436488
H      70.25264064      90.12199737      97.91219271
H      70.88380922      88.59131905     100.78457671
H      68.48574652      90.75316595     100.65229586
C      66.63948393      85.90412824     101.60093847
H      65.56800910      84.14857249     101.47432681
H      65.70406940      87.25339282     102.84248866
H      68.16260334      85.14256853     102.75934070
C      60.51677066      88.16802036      96.21710821
O      58.55145530      87.78062646      97.31692892
N      60.61692616      89.76105964      94.29714627
H      62.35547438      89.73838292      93.50913040
C      58.56657311      91.21047972      93.23512009
H      56.89983450      90.00294461      93.27480434
C      58.20374566      93.67279311      94.75823949