 %block lattice_cart
   137.614   0.000   0.000
   0.000 142.646   0.000
   0.000   0.000   160.855
 %endblock lattice_cart

 %block positions_abs
N      89.90768402      40.51573679      82.13959204
H      89.54485657      40.14724015      83.97829574
H      91.79741033      40.70848887      81.95250914
H      89.25761816      38.97749957      81.21740560
C      88.71526671      42.73427548      81.14181655
H      89.39367845      44.30463804      82.29077015
C      89.47115724      43.07253649      78.40171339
H      88.82676057      41.42658487      77.34724611
H      91.52340000      43.14623581      78.56611958
C      88.44125639      45.43469438      77.06945634
H      86.55719926      44.98116006      76.36836788
H      89.35399421      45.88633897      75.28177525
S      88.46582283      48.16534890      79.17083200
C      91.86921992      49.07997644      79.17461146
H      92.45125563      49.08753534      81.14937545
H      92.01472886      50.99048974      78.42250038
H      93.03896051      47.79685227      78.06345238
C      85.86744916      42.80230562      81.40826796
O      84.48983868      41.70059518      79.93995061
N      84.80164351      44.17235720      83.21673604
H      86.00917863      44.95848335      84.46962459
C      82.03886365      44.46904423      83.55121760
H      81.19415598      44.20448255      81.68794745
C      81.17903818      42.75317274      85.59023229
H      82.24862327      40.99950672      85.41826719
H      79.25529678      42.21082129      85.09134454
C      81.38123889      43.73205097      88.30387927
O      79.55198381      44.19692364      89.66259249
N      83.53552688      43.96448731      89.44149452
H      83.46560702      44.69203194      91.20649889
H      85.16069151      43.70748453      88.47017519
C      81.21683269      47.25450082      84.13703275
O      82.87979185      48.88155517      84.29388004
N      78.84333645      47.70992486      84.76442189
H      77.58477873      46.29074040      84.98174042
C      77.83611233      50.27239374      84.66426640
H      78.29531581      51.02828426      82.80477570
C      74.96750778      50.35554170      84.87213629
H      74.10579259      49.50327513      83.20539768
C      74.12846930      48.82486338      87.25508117
H      74.77664542      49.53917993      89.07488761
H      74.51964265      46.80096650      87.29476542
H      72.09323405      48.99304903      87.51019422
C      73.71839868      53.02383525      84.85134930
H      74.63302622      54.14255323      86.31966665
H      71.68883263      52.91045167      85.18772058
C      73.84123089      54.27105462      82.30588796
H      72.83211705      53.05785032      80.97930009
H      75.82355381      54.60175672      81.85424337
H      73.27053356      56.24581861      82.17549684
C      78.98317619      51.88055083      86.71461945
O      79.49718175      54.08586144      86.36690980
N      79.34978311      50.75994313      88.94449649
H      78.92270496      48.89856271      88.92181978
C      80.61967918      52.11109744      91.13468929
H      79.66536740      53.92523470      91.31610302
C      80.42881682      50.28940128      93.46094238
H      81.71383072      50.93757740      94.93492891
H      81.10344912      48.40345442      92.98095190
C      77.71139039      50.07208275      94.44548979
C      76.33566964      47.86299269      93.86156436
H      77.11612659      46.17924655      93.00929779
C      73.96406310      47.52662141      94.83288369
H      73.01164105      45.76539648      94.43793089
C      72.89636775      49.46359088      96.18025855
H      71.00286198      49.02706410      96.80008878
C      74.19838918      51.71992410      96.71127164
H      73.39525549      53.07674759      98.01140334
C      76.64369502      52.03739812      95.84388726
H      77.60178627      53.75515933      96.38056954
C      83.36923096      52.90856195      90.56021249
O      84.17425438      54.72080948      91.67893047
N      84.64101677      51.74826999      88.71583961
H      83.73205843      50.43491020      87.66893123
C      87.33765623      52.32652624      88.05821485
H      88.37322624      53.27327912      89.56621645
C      88.44881530      49.77539572      87.21350719
H      90.30830599      50.39144650      86.57855915
H      87.40946582      49.07619698      85.57700421
C      88.82676057      47.53418031      89.09378487
H      87.21293429      47.39245084      90.36557068
H      90.51617588      48.02928861      90.16525969
C      89.46737778      45.11344090      87.64814424
O      87.79497000      43.58654204      86.99051949
O      91.76528498      44.64289905      87.17382294
C      87.38489938      54.10475870      85.76597684
O      89.12344760      55.60142194      85.44661309
N      85.33265660      53.93090388      84.22207044
H      83.99662011      52.65533862      84.70017120
C      85.06809492      55.44079521      81.93172215
H      86.80475340      55.38032396      80.82623225
C      82.82121034      54.63766152      80.18939449
H      81.22061215      54.60742590      81.48574674
H      83.28797273      52.90100304      79.18594981
C      81.89524445      56.65777895      78.20896131
H      83.58843923      57.02060640      77.09024333
H      81.24517859      58.40199634      79.08957377
S      79.37434955      55.51071508      76.13593155
C      80.84077717      53.16556472      74.26699222
H      82.48483905      53.90066826      73.26732700
H      79.41025434      52.62132355      72.88749201
H      81.20738406      51.65756313      75.62381571
C      84.93392436      58.09586068      82.76509145
O      86.49672802      59.71913558      82.06778244
N      83.06687476      58.71191145      84.46206568
H      81.94815678      57.32107289      85.13669797
C      82.35255822      61.34052075      84.87213629
H      82.13146024      62.34396543      83.08634492
C      79.82032496      61.52571393      86.16281936
H      79.56710163      63.39843271      86.98485031
H      79.79008934      60.20857469      87.74452029
C      77.72650819      60.98903166      84.27498278
H      78.34066925      59.39221293      83.12980863
C      75.28876125      60.16511099      85.60912955
H      74.33255974      61.76381945      86.48596256
H      75.84245107      58.70246282      86.94894551
H      74.01697544      59.53583213      84.11624577
C      77.22951018      63.18300391      82.49675031
H      78.66381245      63.23591625      81.02087406
H      77.12746495      64.98202336      83.49074636
H      75.55710240      62.72946959      81.38181179
C      84.41424962      62.71624151      86.22518033
O      84.41802908      65.02926652      86.00030290
N      86.14523893      61.39532282      87.50830450
H      85.89012587      59.50559650      87.54798875
C      88.38267488      62.51593052      88.76308277
H      87.87811795      64.18266913      89.86290348
C      89.39745790      60.66966791      90.71517005
H      91.37789109      61.02304673      91.15547628
H      89.45414969      58.78372105      89.89124938
C      87.94425838      60.34841444      93.13213000
H      85.93358957      60.13676509      92.72961830
H      88.05197277      62.01137360      94.34533430
C      88.79274548      58.12231684      94.46816651
H      90.52751425      58.45112922      95.53208242
H      89.24061063      56.68612485      93.06221013
N      86.79530478      57.18690232      96.20671472
H      85.84288272      55.61842948      95.68515025
C      86.37956499      58.13743465      98.53674726
N      87.36978158      60.21991305      99.35121930
H      87.35655349      60.35786307     101.25417370
H      88.91368798      60.98336248      98.52729863
N      84.76573871      56.89399474     100.06742557
H      84.57298664      57.43634619     101.88912174
H      83.81331665      55.29717601      99.63278852
C      90.52184506      63.49291903      86.97351195
O      92.13567133      65.00470008      87.64058534
N      90.48782999      62.68411616      84.63214105
H      89.13289622      61.42933789      84.14837111
C      92.17346586      63.56094917      82.52131676
H      93.22226396      65.21823915      83.15248535
C      93.94602914      61.70334821      81.38748097
H      94.71892720      62.81828673      79.83790539
C      96.11732468      61.06273099      83.36602442
H      97.63855435      59.90810821      82.59690581
H      95.18379988      59.78527600      84.68505339
H      96.88455355      62.74836686      84.27309305
C      92.62133099      59.40922046      80.40104383
H      91.35521436      60.09330139      78.92705731
H      91.48749521      58.60797651      81.92416324
C      94.09909697      57.26627082      79.02721280
H      95.23293277      56.24581861      80.41238219
H      95.14600535      57.86909352      77.35858447
H      92.59676456      55.95480076      78.51698670
C      90.76373003      64.98013363      80.46718425
O      91.85599185      66.54671675      79.18972927
N      88.35621871      64.57384248      80.26309381
H      87.52851859      63.20757035      81.30811246
C      86.63278831      65.87586391      78.39037504
H      87.74016794      66.08562353      76.66694464
C      84.48983868      63.96913006      77.69306603
H      83.09333093      64.17133077      79.19350872
H      85.16636069      62.04538867      77.40582763
C      83.20104532      64.79494045      75.30067251
O      84.63534759      65.03115624      73.30701125
O      80.85589497      65.22957751      75.30634169
C      85.50840116      68.29282386      79.39192998
O      85.20604495      70.07861523      77.89904620
N      84.87156339      68.49124512      81.82778720
H      84.72794418      66.93033119      82.91815928
C      84.11945232      70.96111741      82.98052025
H      84.17047492      72.46156011      81.57078442
C      81.48517383      70.91198453      84.00286219
H      81.30564983      69.39831375      85.38992130
H      80.34944832      70.19577826      82.44194825
C      80.50818533      73.56516027      84.89292328
H      81.97083349      74.43821383      86.04943578
H      78.88491043      73.35162120      86.14392210
C      79.83733249      75.40953315      82.77642981
O      77.59044791      76.20888739      82.71217911
O      81.38879780      75.91786953      81.04166105
C      86.05642178      71.80960453      84.94394589
O      86.94648288      74.02436377      84.77198080
N      87.10710961      70.04460015      86.50485982
H      86.54397117      68.22668344      86.36313035
C      89.23683118      70.36963308      88.32277654
H      90.88278279      71.28426061      87.48373805
H      89.81319769      68.50258348      88.97473212
C      88.32409336      71.97023127      90.63202209
O      86.28129922      73.17776638      90.79453856
N      89.73760864      71.80960453      92.73150803
H      91.31175067      70.75324752      92.50663059
C      89.03085101      72.68643754      95.29586663
H      87.04096920      72.33305872      95.70215779
C      90.37822587      70.87419000      97.18748267
H      92.42668919      70.86474137      96.97016415
H      89.72816002      68.95989725      96.79252987
C      89.79430043      71.18788457     100.10333037
H      90.93380541      72.72045261     100.87622844
C      87.06553564      71.91353948     100.65702018
H      86.87089382      73.92798773     100.28096465
H      86.50050746      71.56771956     102.60721774
H      85.75217584      70.87796946      99.45137480
C      90.60121356      69.02792740     101.76439980
H      89.36722228      67.41788058     101.40346208
H      90.45570464      69.49846925     103.76561997
H      92.51739606      68.36652319     101.40535180
C      89.49950313      75.47945303      96.05364688
O      91.62544524      76.17298259      96.63568259
N      87.56442338      77.02335943      96.20482499
H      85.92036149      76.22778465      95.65113518
C      87.67024806      79.66330709      97.23094638
H      89.63556343      80.24345306      97.43125737
C      86.68003146      81.53413614      95.38846322
H      86.69892873      83.42953163      96.19537636
H      84.73172365      81.01824085      94.96138508
C      88.11433374      81.57004094      92.80709708
H      87.85733097      79.73322696      91.90380790
H      90.06642102      81.82137453      93.41180950
C      87.26206717      83.62984262      90.96650365
H      87.38300965      85.57248127      91.63924622
H      85.22683194      83.35772203      90.81910500
N      88.37511597      83.61661453      88.51552862
H      90.08153884      84.45565302      88.35679161
C      87.59465900      82.42986641      86.42549132
N      85.62367446      80.89351892      86.22140088
H      85.07565383      80.35305719      84.47529376
H      84.61078115      80.47399967      87.78231481
N      88.93258524      82.51301437      84.29576976
H      88.56786806      81.36406077      82.81611406
H      90.15901761      83.92086047      83.89514779
C      86.41358005      80.00156810      99.77073854
O      84.19693109      80.31904212     100.02396187
N      87.98016318      79.96377357     101.80975323
H      89.85477167      79.67653517     101.60755252
C      87.16191167      79.99400919     104.41757555
H      85.61422583      78.65041378     104.62922489
C      89.39178872      79.31937690     106.05596826
H      89.15179348      80.01668591     107.97781992
H      91.05285815      80.33604965     105.38700514
C      90.21759913      76.46022098     106.17880047
H      90.28940873      75.99723804     104.17380085
C      92.95770228      76.07660654     106.99138278
H      93.14856463      74.02436377     107.00272114
H      93.13533655      76.62462717     108.96803651
H      94.23137782      76.81359981     105.55141133
C      88.31275500      74.95410911     107.56019040
H      88.79652495      72.95288895     107.50160889
H      86.49294857      75.46622494     106.74193891
H      88.36944680      75.52291673     109.53873385
C      86.18303345      82.59616232     105.24905512
O      85.29297236      82.69631782     107.37499723
N      86.29830675      84.57848523     103.59554460
H      86.91246781      84.08715638     101.85699639
C      85.54808540      87.15796164     104.25127963
H      84.18937218      86.97087874     105.78951685
C      87.81197753      88.89650985     104.82386670
H      89.17069075      88.74533175     103.28373976
H      88.83054001      88.28234880     106.50572312
C      87.62111517      91.70653288     105.03740578
H      86.17736428      92.45108505     106.29974295
H      87.35277403      92.63060905     103.21570961
C      89.96626552      92.76100016     106.06541689
H      91.49694385      92.33959119     104.75394683
H      90.05319293      92.09203705     108.01183499
C      89.81697714      95.63149443     106.47926695
H      88.65668519      95.88471776     108.16112337
H      89.17069075      96.21353013     104.61221736
N      92.32842342      96.83713982     106.87044030
H      92.25472410      98.71363805     107.21626022
H      93.56619416      96.22675822     105.55330106
H      93.04651942      96.03967531     108.45025150
C      84.01551736      88.24644400     102.00250532
O      84.87534285      87.84393229      99.90490911
N      82.07287872      89.65051065     102.66579925
H      81.75729442      90.07002989     104.50072350
C      80.28897708      90.83725877     100.87055926
H      78.88491043      89.45019966     100.28852355
C      78.66192272      93.00666458     102.16880123
H      79.68426466      94.42584904     103.25539386
C      77.34289376      94.76599978     100.10333037
H      77.00463274      93.60003864      98.43848149
H      78.47672954      96.43462811      99.68759058
H      75.59678664      95.45763961     100.94992776
C      76.65125393      91.49299380     103.60310350
H      77.76052327      90.17585456     104.73127011
H      75.59489692      90.40829090     102.20659576
C      75.00341259      93.06713582     105.39078460
H      73.41604247      93.76633456     104.27962552
H      76.15803535      94.68663127     105.92368742
H      74.41192824      91.86904934     106.95736771
C      81.79886840      91.98243292      98.59910823
O      83.59788785      93.30713107      98.94681787
N      80.90880730      91.45141983      96.36923118
H      79.47450504      90.19475183      96.28230377
C      81.96516431      92.36604736      93.97116849
H      82.94404255      94.17262572      94.09022125
C      83.87756735      90.49710804      92.95449573
H      85.38556895      90.10971414      94.30565004
H      84.80353324      91.47409654      91.39358180
C      82.71349593      88.09526589      91.90947708
C      82.40358083      87.67196720      89.32811094
H      82.93459391      88.95320164      87.83144770
C      81.05431624      85.44964906      88.58355877
H      80.66125317      85.03957845      86.62202286
C      80.25874146      83.71865975      90.45249809
O      78.88868989      81.74578548      89.72684319
H      78.09689456      81.98767045      88.11112719
C      80.78030592      84.17597352      92.98284163
H      80.03197431      82.92308498      94.40580554
C      82.12012187      86.34159988      93.66314310
H      82.34121986      86.83103899      95.63223792
C      79.75040508      92.96887006      91.98128668
O      77.66414724      92.09014732      92.09844971
N      80.45905244      94.62616003      90.09911927
H      82.25051299      95.27811561      90.17470832
C      78.66003299      95.32724849      88.10545801
H      76.70605599      95.34614576      88.75552386
C      79.30253995      97.92373245      86.97162222
H      78.63924601      98.03144685      85.02520412
H      81.34911354      98.08246946      86.79020850
C      78.19138087     100.21974992      88.51174917
H      78.95483031     101.92806251      87.64625452
H      78.87735152     100.04400537      90.44493919
C      75.16025987     100.21408074      88.43804984
H      74.39303098      98.97819973      89.89502883
H      74.60279060      99.51866146      86.58044888
C      74.27208850     102.97497088      88.79709784
H      75.21317221     104.19384435      87.43271544
H      74.82199886     103.43606410      90.73028786
N      71.61324357     103.25654010      88.34545325
H      71.01042089     104.88737391      89.13535885
H      70.53420986     101.87326044      89.09756433
H      71.24474695     103.46441000      86.48407284
C      78.70160698      93.27878517      85.95305974
O      80.69904768      92.82525086      84.76631162
N      76.54731897      91.98999183      85.49952543
H      75.11112698      92.27345077      86.72595780
C      75.77631064      90.43474707      83.29799427
H      76.98573549      88.77556737      83.15059562
C      73.06455338      89.55035516      83.49830526
H      71.87591554      91.22843212      83.45862101
H      72.73385128      88.77745709      85.37858294
C      72.07811625      87.81558640      81.41771659
O      72.54676837      85.48933331      81.92983242
O      70.91971401      88.49777760      79.48074712
C      76.21850661      91.79535001      80.85268842
O      76.22984496      94.10648530      80.88481377
N      76.64180529      90.45175461      78.64359836
H      76.38480252      88.56202829      78.69084152
C      76.99518412      91.78212193      76.27010211
H      78.44649392      93.20319612      76.61025285
C      77.80776644      90.11916278      74.14982919
H      77.84934041      91.14528416      72.36592755
C      80.31921270      88.98154753      74.59202515
H      80.28330791      87.79668914      76.27766102
H      81.63257248      90.55757928      74.78099778
H      80.96738883      87.94219806      72.93662490
O      76.08244631      88.09337617      73.94951820
H      76.47928884      87.00867326      72.55301046
C      74.65948239      93.33547696      75.44429171
O      74.91081599      95.42173481      74.55423062
N      72.38425191      92.54179191      75.97341508
H      72.11402105      90.70497793      76.41939049
C      70.01642485      94.04223460      75.71452258
H      70.31500159      95.07213544      73.95707711
C      67.85079848      92.11849321      75.48019651
H      67.22718880      91.57047258      77.36614338
H      68.53109996      90.43474707      74.50509774
C      65.54911183      92.96131115      74.24998468
H      64.67227883      94.58647578      75.16461222
H      64.22252396      91.40039722      74.46919294
C      65.97618998      93.56980302      71.40405686
O      66.21618523      91.90306441      69.84503265
O      66.82467709      95.70330403      70.83902869
C      69.60635423      95.91495338      77.85936194
O      67.77709917      97.19807754      77.80267015
N      71.22395995      96.13983081      79.80389032
H      72.85857322      95.15528340      79.83979512
C      71.35813053      98.15427906      81.68038855
H      70.93672156      99.98920331      80.84323979
H      73.27998218      97.91050436      82.38714619
C      69.75564261      97.56468445      84.12002522
O      69.54588298      99.03111207      85.83211726
N      68.92983222      95.25921835      84.62458214
H      69.00164181      93.84003389      83.34712716
C      67.67505393      94.54112235      86.96595305
H      66.33523798      96.02077805      87.48184833
C      66.11980919      92.16195692      86.65414820
H      64.81589802      92.03723498      88.24340803
H      67.48041213      90.62749915      86.85256947
C      64.58157196      91.93330004      84.16348892
C      64.71196309      89.72609970      82.78965789
H      65.88737285      88.16140631      83.36980387
C      63.22474847      89.45586884      80.56356030
H      63.61025265      87.86849874      79.34090737
C      61.58446603      91.44575065      79.71318346
O      60.05756718      91.27756501      77.52299066
H      59.30356638      92.88572210      77.15071458
C      61.65249618      93.74743730      81.01331516
H      60.59424945      95.30457178      80.22718901
C      63.20396149      94.08569831      83.13169836
H      63.14537997      95.83747460      84.17482728
C      69.72351726      94.13672092      89.07488761
O      71.73607578      93.03878993      88.47584437
N      69.16415828      94.62804976      91.53531127
H      67.49741966      95.46519851      91.94727161
C      70.81955853      93.82869553      93.57621569
H      72.73385128      94.23687641      92.93559847
C      70.13169815      95.33858685      95.93459413
H      71.21262160      94.50899700      97.47850052
H      68.20795675      95.15150395      96.64702095
C      70.59279136      98.09947700      95.69837834
C      68.66338081      99.80967931      95.26563101
H      66.68672707      99.29567375      95.26185156
C      69.19250417     102.46663450      94.90847274
H      67.61647242     103.70629497      94.53430693
C      71.68883263     103.42661547      95.06532002
O      72.06677790     105.99664326      94.82910423
H      70.47184888     106.82623311      95.07098920
C      73.65603773     101.70696453      95.48672899
H      75.54198458     102.46852423      95.64357627
C      73.20628285      99.06890659      95.67003244
H      74.82955777      97.95774752      96.20671472
C      70.74585919      90.82969987      94.29809114
O      68.67093970      89.95664631      94.71194120
N      72.88691911      89.56925242      94.09589042
H      74.48373784      90.51033612      93.64613556
C      72.86424240      86.75922939      94.46249733
H      71.11057637      85.99955941      95.22783649
C      73.55021305      85.75389499      91.79798323
H      75.53253595      86.29813617      91.66948184
C      73.21006232      82.96276923      91.35389754
H      74.06988779      82.56970615      89.52464247
H      71.26175448      82.33726982      91.58255443
H      74.36468509      81.78735946      92.59166828
O      72.02898337      86.98410682      89.82699868
H      71.99496830      88.76989819      90.15014188
C      74.97884613      86.06947929      96.28797295
O      76.69282791      87.63984185      96.77930179
N      74.94861051      83.83204333      97.41802928
H      73.53320552      82.63962603      96.95315661
C      76.91203615      82.74734043      99.06398090
H      78.62034875      83.78668990      98.57265206
C      76.21850661      83.29158161     101.87589365
H      75.72150858      85.24744834     102.29163344
C      73.99240900      81.86861769     102.97760410
H      72.23874299      81.92341976     101.89668064
H      73.49919044      82.30136502     104.92969138
H      74.44027415      79.86172835     102.89067668
C      78.54475969      82.90607744     103.52184527
H      80.03953320      83.90574266     102.51651087
H      78.98128648      80.91997508     103.85254738
C      78.33877953      83.92086047     106.21659500
H      77.86823768      85.92586009     106.17691074
H      80.10567362      83.87550704     107.27484173
H      76.70038682      83.09693980     107.15578897
C      77.23139991      79.84283109      98.60288768
O      75.74418529      78.68631858      97.32165324
N      79.28742213      78.78836380      99.59499399
H      80.64613535      79.93542767     100.29041328
C      79.96205443      76.14463669      99.41358027
H      78.59200284      74.92198377     100.34521534
H      81.81020677      75.92731816     100.29608246
C      80.22850584      75.28103177      96.43159215
O      81.25084777      76.59439155      94.92170082
N      79.30065022      72.94910950      95.89113042
H      78.41436857      71.90976002      97.22527720
C      79.29876049      71.90220112      93.36645607
H      80.91069703      72.67509918      92.34600386
C      79.83166332      69.07895001      93.40991977
H      78.31043363      68.23613207      94.51540967
C      79.70505164      68.01692382      90.63958100
H      81.35667245      68.79549106      89.68337948
H      78.05343086      68.68021775      89.60401098
H      79.58410917      65.98546803      90.33155561
C      82.48672878      68.48746567      94.67792613
H      82.27129998      68.54793691      96.72449973
H      83.94181805      69.80082546      94.04108836
C      83.72638925      65.91554816      94.37934937
H      85.30997989      65.95523241      95.69459888
H      84.49928730      65.78704677      92.47450525
H      82.47350069      64.29227326      94.57966036
C      76.71550462      72.88863825      92.37623948
O      74.66893103      71.76992028      92.94126765
N      76.81377038      75.15064065      91.27263931
H      78.57877477      75.87818528      91.32177220
C      74.75396871      76.58494292      90.04431721
H      74.04343162      75.60417497      88.37568887
H      75.53253595      78.46144115      89.71172538
C      72.25008134      77.00446216      91.49751674
O      70.28098653      77.66775610      90.37879877
N      72.08567516      76.67564978      94.04675754
H      73.73729595      76.59061210      95.00295905
C      69.80855494      76.94021147      95.48672899
H      68.51031298      75.56638044      94.66847750
C      70.06555773      76.03692229      98.26840612
H      71.17482707      77.43531976      99.29830696
H      71.06333322      74.23790284      98.39123833
C      67.53899365      75.80637568      99.53074330
N      66.14815508      73.61618288      99.88412212
H      66.67916818      71.95889291      99.09610625
C      64.00331571      74.33049943     101.00850928
H      62.31201067      73.22123008     101.28629904
N      64.02977189      76.81926898     101.54330182
H      62.53688810      77.66586637     102.38234031
C      66.32200990      77.63563075     100.68914553
H      66.90782506      79.58960776     100.70237361
C      68.85235343      79.62551256      95.12012209
O      69.96540223      81.34705323      96.09711059
N      66.67916818      79.99778864      93.82188011
H      65.87036532      78.54080966      92.89213476
C      65.51509677      82.64529521      93.48361910
H      66.94184014      83.84527142      92.61056554
C      63.23419710      82.50545546      91.69971746
H      61.96808048      80.94454153      92.15514150
H      63.79166636      82.03302388      89.77408635
C      61.57123795      84.83548800      91.71861472
H      61.51076671      86.09215600      93.34944853
C      62.62570523      86.69119924      89.74007127
H      62.36681273      85.90507310      87.85223469
H      64.59102060      87.13528493      90.15959051
H      61.38226531      88.30124606      89.41692807
C      58.93506974      84.18920161      90.64147072
H      58.85003205      83.14607268      88.86512799
H      57.80312369      85.89373474      90.39769603
H      57.98453740      83.00812266      92.03419902
C      64.81211857      83.65062961      96.21805307
O      64.14315547      82.16341500      97.81676153
N      65.07290081      86.16774505      96.60733669
H      65.83068105      87.27512467      95.24862347
C      63.76898965      87.36394181      98.88634663
H      62.87325938      85.98444160     100.12600709
C      65.83257079      88.73021394     100.47749618
H      64.66094047      89.73554833     101.83998885
H      66.68861681      90.20042101      99.31531450
C      67.88292383      87.20331507     101.61889088
H      68.69928561      85.99766969     100.16191189
C      70.12413924      88.62438926     102.65257117
H      71.23718804      87.56047335     104.02073302
H      69.41171242      90.30624568     103.60310350
H      71.36190998      89.14973318     101.09543669
C      66.71318325      85.82948404     103.92057753
H      65.83068105      87.20709453     105.17157634
H      68.13992662      84.67675099     104.85599205
H      65.23919672      84.55391878     103.25350414
C      61.71296743      89.25933730      98.11155884
O      59.60781231      88.95509137      98.99973021
N      62.44051205      91.09993073      96.66402848
H      64.22252396      91.40039722      96.05175716
C      60.67172823      93.08036391      95.98939619
H      58.89349576      92.28856858      95.32232280
C      60.29000351      95.00788475      98.14179446