 %block lattice_cart
   137.614   0.000   0.000
   0.000 142.646   0.000
   0.000   0.000   160.855
 %endblock lattice_cart

 %block positions_abs
N      89.73382919      40.48833575      78.78438297
H      88.71337698      39.65874590      77.39921358
H      89.48060587      39.47544245      80.38120170
H      91.55363563      40.44865150      78.20990618
C      88.78518658      43.07348135      79.24736592
H      89.89823538      43.78212872      80.82717711
C      89.22927227      44.67785899      76.88898749
H      88.38267488      43.86338695      75.19579271
H      91.15868283      44.67974871      76.17089148
C      88.01039879      47.21765115      76.83418541
H      85.97138410      46.92852303      76.83985459
H      88.66991328      48.01322593      75.05217350
S      88.90801879      48.88627949      79.58562693
C      92.32275424      48.81635961      79.41744128
H      92.89534131      49.01667060      77.44834647
H      93.11643929      47.11371621      80.25836949
H      93.29029411      50.30735367      80.46057022
C      86.02429644      42.73144089      80.13364757
O      84.64668596      41.23666737      79.06973165
N      84.99817505      44.27723701      81.90243139
H      85.92792040      45.90429136      82.25958966
C      82.44326508      44.24889111      82.94367058
H      81.07510323      43.74433419      81.48858132
C      82.35066849      42.66530046      85.31716683
H      83.91347215      43.04135600      86.60218074
H      82.48861851      40.65463167      84.89197841
C      79.99040032      43.16418821      86.84217598
O      80.04898184      44.77234530      88.54103992
N      77.90981165      41.83760034      86.55493757
H      76.51330391      42.27979630      87.77570078
H      77.85878904      40.40518779      85.29260039
C      81.77430196      46.98899427      83.57294945
O      83.38056933      48.46487052      84.30238380
N      79.30631940      47.65606766      83.48413231
H      78.21972677      46.13483798      83.09295896
C      78.13279936      50.20152900      83.95278444
H      78.91892550      51.53756550      82.59407122
C      75.06577355      50.23554407      84.15498515
H      74.16437410      49.65539810      82.39564995
C      73.98485010      48.24188281      85.88219500
H      74.85979338      46.37672294      85.87841556
H      72.02898337      47.91684989      85.32850519
H      73.84312063      48.79746235      87.86073846
C      74.18138164      52.90005818      84.56694549
H      74.75018926      53.42918154      86.47367934
H      72.12724913      52.79234378      84.66143180
C      74.62735705      54.68018036      82.35785544
H      73.31966644      56.26755047      82.48446709
H      73.95272475      53.86003914      80.59096134
H      76.60023132      55.25465716      82.23691295
C      79.34789338      51.59425729      86.21667657
O      79.84867085      53.92617956      86.13919778
N      79.69749274      50.37349410      88.35395702
H      79.12490567      48.55746711      88.47300979
C      80.68959906      51.30890862      90.78603478
H      79.54820436      52.94163215      91.30193008
C      80.39858121      49.30768845      92.79292413
H      81.61556495      49.71020016      94.40297096
H      81.22250188      47.50488955      92.22789597
C      77.84934041      49.23398913      94.09116611
C      75.99929835      47.35182172      93.49968177
H      76.43015595      45.98932905      92.04270279
C      73.73729595      47.26489431      94.86784362
H      72.46551014      45.72287764      94.46533193
C      73.16848833      48.92029456      96.96355010
H      71.44316821      48.68407877      98.02935575
C      75.00530231      50.72309346      97.47566593
H      74.92026462      51.72464841      99.25389839
C      77.22573073      50.90072774      96.04703285
H      78.55987750      52.38227317      96.48166989
C      83.52796798      51.76244294      90.85784438
O      84.50117703      53.17028904      92.44143503
N      85.04919766      50.86482294      88.97756671
H      84.13645985      49.57980904      87.90231243
C      87.67024806      51.71897923      88.48245841
H      88.37889543      52.54856908      90.22856552
C      89.29730241      49.47209464      87.72656788
H      91.08876296      50.26955915      87.09728902
H      88.49227900      48.49321641      86.10518271
C      89.87177921      47.43307995      89.82794354
H      88.08787757      46.76411684      90.60651078
H      91.01506363      48.51589313      91.15831087
C      91.55363563      45.09548850      88.95866944
O      93.66257020      45.44319814      88.03648300
O      90.68814098      42.90718543      89.39897568
C      87.66079943      53.83736243      86.37919302
O      88.98549757      55.76110381      86.54548895
N      86.09232659      53.38571784      84.50647426
H      84.87723257      51.91929022      84.39498040
C      85.86933888      55.01655165      82.34273762
H      87.64001244      54.84080710      81.30338815
C      83.87945707      53.95263573      80.59096134
H      82.05020200      54.20585906      81.50558886
H      84.20071055      51.91929022      80.52293119
C      83.97961257      55.33780512      77.97746983
H      85.88823614      54.93529341      77.31228617
H      83.94937695      57.35603282      78.39131991
S      81.84611156      54.42317758      75.49814892
C      83.76985295      51.78700938      74.35864394
H      85.77107311      52.26699986      74.45502000
H      83.38812823      51.33158534      72.38765940
H      83.41080495      50.14105776      75.54350234
C      85.23061139      57.71886027      83.08351033
O      86.47027185      59.27977421      81.98179989
N      83.54875497      58.25743227      84.86174279
H      82.65302470      56.69840806      85.50047029
C      82.77963636      60.90304911      85.55338262
H      82.59255345      62.08223833      83.87719538
C      80.14346815      60.78399635      86.73257184
H      79.77119207      62.52254456      87.77003159
H      80.20015994      59.02466116      87.80215694
C      77.70761094      60.53833193      85.13953256
H      77.92492946      58.92072621      83.88286456
C      75.26041536      60.11125379      86.60407045
H      73.63525073      59.85236128      85.36252027
H      75.08845027      61.63248347      87.98168094
H      75.50041060      58.30278570      87.55838225
C      77.40525473      63.00064532      83.43499943
H      77.43549035      64.67494283      84.63497564
H      75.59867637      62.82868022      82.45990065
H      78.94160222      63.23308166      82.08195539
C      85.05864629      62.06523079      87.03681778
O      85.44037101      64.34235100      86.81194036
N      86.54019172      60.59313400      88.45789197
H      86.29263758      58.69962823      88.44655361
C      88.85888591      61.85547117      89.53314624
H      88.32598309      63.59023993      90.50446557
C      90.09854637      60.06401063      91.45688762
H      91.69536510      60.99942515      92.36017680
H      90.86577525      58.48419943      90.37596417
C      88.42424886      58.85269606      93.38062901
H      87.05608701      57.43540133      92.77213715
H      87.41324528      60.53266275      94.01179760
C      90.04374431      57.51099038      95.23256080
H      91.52528974      58.61648027      96.13773971
H      91.06986570      56.03889358      94.21966749
N      88.20882006      56.43006693      97.28291386
H      87.87244877      54.56112760      97.07126451
C      87.43970145      57.54689518      99.41830459
N      87.90835357      59.94495787      99.95876631
H      87.04285892      60.58179564     101.53479805
H      88.59999340      61.12792654      98.62839899
N      86.08287796      56.09936482     101.02079249
H      85.24383947      56.96296975     102.50233792
H      85.97894301      54.19452070     100.99622605
C      90.79018620      62.76065008      87.55082334
O      91.91457336      64.76187024      88.12530014
N      90.94136431      61.58901976      85.32472574
H      89.93036073      59.98275240      85.12252503
C      92.78006801      62.21829863      83.25736516
H      94.34854085      63.14426452      84.21545640
C      94.12177369      60.12637160      81.73991492
H      95.28773483      61.02399160      80.29805375
C      95.79607120      58.69206932      83.63153096
H      97.05273920      57.45807804      82.56194587
H      94.77183954      57.52232874      84.98457500
H      97.09998236      59.93172979      84.63497564
C      92.19803230      58.31979324      80.59474078
H      91.16624174      59.44418040      79.21146112
H      90.91679786      57.57713080      82.02526360
C      93.25060986      55.89338466      79.46657417
H      91.57064317      54.81057148      78.97146587
H      94.13122232      54.66317283      80.86308191
H      94.18980384      56.25810183      77.66944446
C      91.59709934      64.17038591      81.44700735
O      92.79707555      66.07900948      80.73647026
N      89.11588869      63.93605984      80.95945796
H      88.15779745      62.43750688      81.65298751
C      87.79685972      65.50075323      79.21713030
H      89.06486608      65.82389643      77.62598074
C      85.68981488      63.88881669      78.25714933
H      84.22905644      63.77732283      79.70467969
H      86.43058760      61.97830338      78.04738971
C      84.63723733      64.59935378      75.64176812
O      86.06209097      64.38392498      73.64810685
O      82.28830752      65.14548468      75.34886054
C      87.01262330      68.01597895      80.35663526
O      86.88412191      69.81688813      78.91288436
N      86.51562528      68.35612969      82.75280824
H      86.77073833      66.85190754      83.90176184
C      85.72760941      70.73718484      83.93010772
H      85.60855665      72.14692067      82.43533421
C      82.90624802      70.53687385      84.59340167
H      82.72861375      68.89281196      85.82172377
H      81.80264786      69.95483815      82.95500895
C      81.48895329      72.91792901      85.82361350
H      82.33555068      73.71161406      87.52436717
H      79.75796399      72.07322135      86.55493757
C      80.68204015      75.06843755      83.97168170
O      78.37657405      75.38402185      83.42933025
O      82.19760066      76.43659940      82.77548495
C      87.42080418      72.05810354      85.99746831
O      88.19748170      74.28609086      85.75747306
N      88.25039404      70.39892383      87.73223706
H      87.66268915      68.59990438      87.48090346
C      89.79430043      70.97718009      89.90353260
H      91.32497875      72.20928164      89.28559209
H      90.49916835      69.17438118      90.60651078
C      88.58109614      72.52297621      91.94632674
O      86.48161021      73.64169419      91.70444177
N      89.71682165      72.29809878      94.11762228
H      91.08120405      71.02820270      94.53336206
C      88.78140713      73.56610513      96.40797056
H      86.74050271      73.30343318      96.37017604
C      89.89445593      72.12802341      98.75312093
H      91.94669870      72.31321659      98.71910585
H      89.32753803      70.19861284      98.30714552
C      88.89479071      72.94627490     101.35527405
H      89.04596881      74.97206151     101.69731452
C      86.00161972      72.47762278     101.55180560
H      85.43659156      70.51986632     101.25322884
H      85.00006478      73.64736337     100.18364374
H      85.39312785      73.19004960     103.38672985
C      90.07020048      71.41181714     103.58515110
H      90.28184982      69.46539904     102.94831333
H      88.95526195      71.66126101     105.30102259
H      92.01661858      71.99385284     103.92152239
C      89.32186886      76.47817338      96.47222127
O      91.25694860      77.43437490      95.76924307
N      87.30931033      77.81987907      97.45676867
H      85.58021076      77.02241456      97.58715978
C      87.42647336      80.58643839      97.91786190
H      89.34643530      81.32343165      98.03124547
C      86.12823139      82.13979342      95.92231091
H      86.09232659      84.13156495      96.44765483
H      84.16291602      81.52563236      95.83727323
C      87.40001720      81.66547211      93.37495983
H      87.39812747      79.64913414      92.95355086
H      89.29163323      82.47616470      93.29370160
C      85.82965463      82.90891203      91.14508278
H      85.37045114      84.87422739      91.56271231
H      84.12323177      81.77696596      91.36807049
N      87.03530002      82.82387434      88.62607761
H      88.45637420      84.05597590      88.29348579
C      86.63467804      81.12123093      86.93477257
N      85.03785930      79.26740942      86.89886776
H      85.12667644      77.94271128      85.52503674
H      83.83221392      79.06331898      88.36340565
N      87.92158166      81.48972757      84.88064006
H      87.72882957      80.40691439      83.31972613
H      89.12155787      82.97316272      84.90142705
C      86.25673278      81.09855422     100.55969927
O      84.11945232      80.40502466     100.89229111
N      87.68914532      81.91491599     102.44942559
H      89.54863601      82.16058041     102.10171596
C      86.61200132      82.21916192     105.04590955
H      85.27596482      80.72060896     105.50700276
C      88.76817905      82.06798382     107.11893931
H      87.93480974      82.30230988     108.98787864
H      89.89256620      83.71960461     106.61627212
C      90.41979984      79.77574580     107.23043316
H      91.32875820      79.80787115     105.38228084
C      92.26228300      79.76818689     109.43385405
H      93.54351744      78.17136816     109.19952799
H      91.29852258      79.82865814     111.25177075
H      93.36588317      81.49728647     109.23543279
C      88.74928178      77.44949271     107.37027292
H      87.42080418      77.59311191     108.93874575
H      89.75839563      75.67126025     107.63672433
H      87.61733572      77.22650500     105.66573977
C      85.05675657      84.57376091     105.47487741
O      83.43159194      84.57565063     107.14917494
N      85.68603543      86.62033450     104.18041489
H      87.18080894      86.44836941     103.00500512
C      84.66747295      89.12611160     104.30891628
H      83.53174743      89.37744520     106.00778023
C      86.84065821      91.01394818     104.30891628
H      87.69670423      90.88544679     102.43997696
H      88.38645433      90.65490018     105.62227608
C      86.05075261      93.70869790     105.04024037
H      85.45737855      93.61799104     107.01122491
H      84.60322225      94.30774115     103.70420386
C      88.21826869      95.48693037     104.41663069
H      88.63967766      95.58141668     102.40218244
H      89.73193947      94.75560628     105.60904799
C      87.66646861      98.33663765     105.15929313
H      87.44915008      98.55584590     107.19641809
H      85.79563956      98.64655276     104.35615945
N      89.35966338     100.36998316     104.14828954
H      91.08498351      99.95613310     104.84937801
H      88.83242974     102.05939848     104.86260610
H      89.58454081     100.58730168     102.26612214
C      82.70593703      89.60232263     102.24911461
O      83.04041859      88.67446701     100.12128277
N      80.73684222      90.98560229     102.68375165
H      80.43826546      91.76605926     104.39962314
C      78.79420357      91.53362292     100.80914316
H      77.97784180      89.67980141     100.44253624
C      76.63424639      92.98871218     102.12817211
H      76.54164980      92.38588949     104.09537721
C      77.63013216      95.75716123     102.68564138
H      76.66826146      96.55651546     104.32214436
H      77.55454310      97.17634569     101.19464732
H      79.59733725      95.65322628     103.29035380
C      74.00941654      93.19091290     100.66552395
H      73.34990206      91.29362768     100.21576909
H      74.20216863      94.10176098      98.82870997
C      72.03087309      94.71970148     102.04691388
H      72.73763073      96.64155314     102.27557077
H      71.49230109      93.92412670     103.86861006
H      70.23752282      94.65734051     101.03591031
C      79.85434003      92.71659159      98.35627840
O      81.48706356      94.44002199      98.42997773
N      78.74885013      91.82086132      96.28891782
H      77.60367599      90.30719054      96.49111853
C      79.07577279      92.73926831      93.68676467
H      79.84489140      94.63844325      93.91164211
C      81.11478748      91.00260982      92.34316927
H      82.87223295      91.06308107      93.41842354
H      81.63824167      92.08731273      90.67454093
C      80.42503737      88.35699299      91.54003558
C      80.41936819      87.63511753      88.94166191
H      80.78975455      89.00327939      87.47523428
C      79.80331742      85.23327539      88.19333029
H      79.38946735      85.00272878      86.20911766
C      79.65213931      83.38890251      89.98101137
O      79.19671527      80.96816310      89.28370236
H      78.88113098      80.75273430      87.50924937
C      79.75985371      83.91235670      92.62851794
H      79.42537215      82.47805443      94.04014349
C      80.19827022      86.40679543      93.34283449
H      80.30598462      86.87355783      95.32704711
C      76.56810597      92.93013066      92.25057268
O      74.49696593      93.14744919      93.13118515
N      76.85345464      93.08508822      89.75802368
H      78.58066449      92.72792995      89.03236877
C      74.84656530      93.62554995      87.80404667
H      73.00030269      93.32697319      88.66576186
C      74.83522694      96.38644009      87.02736916
H      73.53698496      96.40722708      85.42488124
H      76.83644711      96.55084628      86.57194511
C      73.90926105      98.36876299      88.99457424
H      75.20750302      98.17601091      90.58005463
H      72.02709364      97.76216085      89.56905104
C      74.29287549     101.23925726      88.33505976
H      76.25063195     101.39421482      87.71333981
H      73.72217814     102.37120332      89.96022439
C      72.73007183     101.83830050      86.00502721
H      70.79310236     101.47169360      86.60218074
H      73.38391713     100.66100101      84.44411329
N      72.63747524     104.59163174      85.33606410
H      74.37791317     105.18689553      84.82772773
H      72.13480804     105.57995860      86.88941913
H      71.44694766     104.98469481      83.89609266
C      75.00152286      91.80763323      85.45133741
O      77.00841220      91.59220443      84.36096532
N      72.87180130      90.66056936      84.77859483
H      71.29765928      90.83820364      85.84440048
C      72.43338480      89.14500886      82.54304862
H      73.88847406      87.68991960      82.62430684
C      69.75942206      87.86566415      82.80572057
H      68.45551091      89.44358562      82.57706368
H      69.52887545      86.97560305      84.65009346
C      69.16037882      85.75106040      80.88008946
O      68.12480880      86.33120638      78.82217750
O      69.99752758      83.60811076      81.18055594
C      72.68660812      90.57175223      79.98813863
O      72.66771086      92.77706283      79.68200298
N      73.06077393      89.28673833      77.95668285
H      73.01919995      87.38378394      78.07951506
C      73.24785684      90.25238848      75.34886054
H      74.61223924      91.77172843      75.60586331
C      74.02831380      88.12455665      73.46480340
H      73.85256926      88.68391564      71.49003941
C      76.76085805      87.37244558      73.91644799
H      78.01752605      88.89556499      73.32874311
H      77.57344037      85.85499535      72.78261220
H      77.21250264      86.91324208      75.87420445
O      72.53543002      85.88334124      73.75204181
H      71.19561406      85.85688507      72.53127860
C      70.86113250      91.56196881      74.37376176
O      71.07089212      93.12666220      72.69757452
N      68.64259381      91.12733176      75.57562769
H      68.60290956      89.74972128      76.89654638
C      66.33523798      92.53517786      75.13343174
H      66.39759895      93.21358961      73.19079308
C      64.21874451      90.54151660      75.16366736
H      64.08835340      89.69869867      77.03827587
H      64.72330144      88.97493349      73.92400690
C      61.47486191      91.33331193      74.29439326
H      60.53944738      92.84698271      75.33185300
H      60.42984326      89.59287400      74.63832344
C      61.57690713      92.05707711      71.39744282
O      62.91105391      90.75127623      69.88566176
O      60.55267547      94.05073837      70.65855982
C      66.02721260      94.71970148      77.04772449
O      64.32456919      96.16912156      76.63009497
N      67.59946489      94.72159121      79.08295974
H      68.97518564      93.39878279      79.05650356
C      67.92449781      96.84375386      80.84229493
H      66.94184013      98.48214657      80.07317632
H      69.92571798      97.32374434      80.84796411
C      67.16104838      96.07085580      83.61830288
O      67.36702855      97.63365946      85.35118191
N      66.40326813      93.73704380      84.06616802
H      66.15949344      92.44636073      82.68288836
C      64.95951723      93.05107315      86.43588481
H      63.92772666      94.57041310      87.36563016
C      63.28899917      90.96859475      85.76881142
H      62.07390515      90.52828852      87.37318906
H      64.73652952      89.55885892      85.37196891
C      61.42005984      91.21614890      83.58050835
C      60.91928237      89.19792120      81.91565947
H      61.71485715      87.32520242      82.06494785
C      59.07868894      89.56452810      79.99002837
H      58.83869370      88.10943884      78.57840280
C      57.85414629      91.99282641      79.61208310
O      56.31968853      92.46336826      77.65810609
H      55.82646996      94.20569593      77.73747459
C      58.37004157      94.02617193      81.30716761
H      57.53289282      95.87999344      81.14465114
C      60.11992814      93.54051226      83.26681378
H      60.57346246      95.02016797      84.59718111
C      66.87380998      92.44636073      88.50702485
O      68.88258905      91.49771812      88.05915971
N      66.42783457      92.97359437      90.97878687
H      64.73275007      93.70869790      91.46444653
C      68.41771638      92.78273201      92.96488922
H      70.26964817      93.44224649      92.35261791
C      67.82623205      94.43624254      95.19476627
H      69.18872472      94.09609180      96.70087815
H      65.97807971      93.86176574      95.90341365
C      67.89993137      97.22358885      94.62973811
C      65.70784885      98.68245756      94.17998325
H      63.88426296      97.76405057      94.21588804
C      66.06689685     101.29972850      93.59605781
H      64.43606304     102.40710812      93.06315500
C      68.38181158     102.41655676      93.40708518
O      68.48385680     104.82595780      92.90630771
H      66.85302299     105.60830450      93.05748581
C      70.50208450     100.97280585      93.91353184
H      72.20472791     102.07451629      94.12518119
C      70.27531735      98.39899861      94.36517643
H      71.96662240      97.42578956      94.96610940
C      68.57645339      89.92168637      93.71700030
O      66.71129352      88.84454238      94.39163260
N      70.85168387      88.83320402      93.43732080
H      72.17449229      90.07286448      92.84205701
C      71.71339907      86.18569745      93.92109075
H      70.03721183      85.11044318      94.44643466
C      73.00219242      85.25973156      91.53247668
H      74.18894054      83.58354432      91.68554452
C      71.13136337      85.09343564      89.42921130
H      72.11402105      84.75706436      87.65097884
H      69.94272552      86.77529206      89.40842430
H      69.88036455      83.47582992      89.67865516
O      74.76908652      86.96804415      90.68209984
H      76.43960458      86.73371808      91.35295268
C      73.78264938      86.10443922      96.01868694
O      74.82955776      87.99038608      96.83504871
N      74.25508096      83.75172996      96.91063777
H      73.25730547      82.30797906      96.16230615
C      76.13913810      83.21126824      98.92697574
H      77.63769106      84.49628213      98.34305031
C      75.21884138      84.11644714     101.53479805
H      74.22673507      85.91357686     101.36283296
C      73.34423288      82.30797906     102.78957632
H      74.23429397      80.60344592     103.53223877
H      71.92126897      81.49728647     101.54046723
H      72.49574576      83.26984975     104.39773342
C      77.61312462      84.29786087     103.26956682
H      79.17403855      85.19170141     102.26612214
H      78.42003776      82.52529758     103.93475048
C      77.30698896      85.79074465     105.71676238
H      76.39236142      87.58787438     105.30480205
H      79.23073034      86.35199337     106.18919397
H      76.29787511      84.78918971     107.20964618
C      76.76274778      80.33888424      98.78713599
O      75.29632016      78.90080252      97.79880913
N      78.87924125      79.50551494      99.82837519
H      80.13024007      80.68092470     100.66174451
C      79.50285093      76.78430905     100.11561359
H      77.67548559      75.89613768     100.45387460
H      80.77274702      76.49896037     101.71243234
C      80.63479699      75.51252324      97.78558105
O      82.15980613      76.65202820      96.37395550
N      79.58977834      73.31855099      97.09961040
H      78.48239872      72.43793853      98.38273456
C      79.55765300      72.34345221      94.50312644
H      81.01085253      73.30910236      93.40897492
C      80.37212504      69.44083259      94.53903125
H      78.69593780      68.54132287      95.33271629
C      80.76140866      68.41093175      91.79136918
H      81.22250188      66.40404241      91.87073770
H      82.27696916      69.45217095      90.86162384
H      78.99262483      68.55266123      90.74824026
C      82.77585691      69.00619554      96.12262189
H      82.45649316      69.26697777      98.14084959
H      84.22905644      70.25152518      95.36106220
C      83.78875021      66.29632801      96.04892257
H      84.98305724      66.12058346      94.37840450
H      82.24862327      64.93005588      96.11128353
H      85.16069151      65.99208207      97.55314472
C      77.23328963      73.15981398      93.04803718
O      75.53442568      71.55354661      92.70977618
N      77.00652247      75.50874378      92.15797609
H      78.21783704      76.95060496      92.46789121
C      74.77475570      75.98873427      90.46856076
H      74.76152761      74.67726421      88.88119066
H      74.98451532      77.92570374      89.79959765
C      72.12157995      76.10211785      91.47956435
O      70.28287625      76.07566168      90.15675592
N      71.87024635      76.32510555      93.98156198
H      73.46895482      76.32132610      95.02469090
C      69.51564737      76.26274458      95.37806973
H      68.34401705      74.80765532      94.51068535
C      69.80855495      75.43504446      98.10494479
H      70.85168387      76.94115633      99.04602850
H      70.82711743      73.64925309      98.18998249
C      67.29332922      75.12323962      99.23122168
N      65.64926733      73.03887149      98.98933671
H      66.16327289      71.48173701      98.01423793
C      63.44962590      73.63035583     100.07970880
H      61.85847635      72.36234947     100.26490198
N      63.54789167      76.01896989     100.76189999
H      62.15138393      77.11312142     101.46676790
C      66.00075643      76.98650976     100.38584445
H      66.64515310      78.90836142     100.62017052
C      68.33645815      78.87812580      95.02847037
O      69.58934670      80.77352129      95.83916294
N      66.08957356      79.20126900      94.09683528
H      65.24675563      77.57610437      93.56015301
C      64.92172270      81.60122142      93.48645369
H      66.48263664      82.90513257      93.16897966
C      63.34002178      81.33099055      91.00335331
H      61.54289205      80.35022260      91.24145884
H      64.41905550      80.09133009      89.76180313
C      62.89782582      83.86322381      89.58227912
H      64.46251921      85.07453838      90.15108675
C      62.82601622      83.37000525      86.67210060
H      62.58224153      85.13689935      85.64219977
H      61.07801938      82.33254550      86.34328822
H      64.61558704      82.43837017      86.25825054
C      60.53188848      85.14823771      90.46667104
H      60.45629942      87.12678116      89.89597369
H      60.64338233      85.04997194      92.52269327
H      58.84247315      84.08054234      89.96778330
C      63.47230262      82.58954828      95.72955882
O      62.13626612      81.17036382      96.88229187
N      63.88804241      84.95359590      96.47978016
H      65.23352754      85.97404811      95.59160880
C      62.67105866      86.04207825      98.70587776
H      62.07012570      84.67958558     100.12884168
C      64.52488018      87.86188469     100.05325262
H      63.44017727      89.16390612     101.22488295
H      65.17872548      89.28106915      98.70965721
C      66.80200038      86.61655505     101.32881788
H      67.97741015      85.56586722     100.00411974
C      68.70306505      88.49683273     102.46076396
H      67.98685878      89.84042814     103.84782307
H      69.81233440      89.58153564     101.10394046
H      70.08445499      87.61811000     103.70798331
C      65.81934270      84.96682398     103.45098053
H      64.67227883      83.42669704     102.70453864
H      64.85369255      85.97782756     104.96276158
H      67.42372034      83.93125396     104.22387860
C      60.10103088      87.41968874      98.15407769
O      58.16406141      86.64868040      99.31625936
N      60.17095075      89.24516435      96.56859730
H      61.88115306      89.50405686      95.75790471
C      57.98264768      90.83253446      95.83538350
H      56.19118714      89.81586170      95.85617048
C      57.51966473      93.09831631      97.63440295