 %block lattice_cart
   137.614   0.000   0.000
   0.000 142.646   0.000
   0.000   0.000   160.855
 %endblock lattice_cart

 %block positions_abs
N      87.79402513      37.25690375      80.81394904
H      87.83370938      36.83171533      82.67343973
H      89.13951026      36.37818101      79.78593792
H      86.15941186      36.55959474      80.11664003
C      88.15874230      40.11228021      80.19033935
H      89.98799737      40.55825563      81.02370866
C      88.44031152      40.49211521      77.33307317
H      86.64696125      40.18031036      76.36931275
H      89.86705489      39.04647458      76.98347380
C      89.28501919      43.08859915      76.36553330
H      87.51056618      44.13550754      76.28049560
H      90.12594740      43.17552656      74.48525561
S      91.63016954      44.65518227      78.26281851
C      92.44842103      47.13639292      76.11042025
H      94.12460827      46.49766542      75.09563722
H      92.91329371      48.83147743      77.18567451
H      90.82892558      47.55969162      74.91044403
C      86.12728652      41.68264278      81.46779434
O      84.35094378      42.35160590      80.22813387
N      86.43531191      42.01901407      83.86963649
H      88.16252176      41.56170029      84.53293042
C      84.59093902      43.13584232      85.59495660
H      82.88073671      42.02846270      85.28882094
C      85.57170698      42.78624294      88.32372140
H      87.54269153      43.38339647      88.32561112
H      85.70020837      40.81903786      88.92465437
C      83.85205604      43.95031436      90.39864089
O      82.06248522      45.35249128      90.10006413
N      84.58338012      43.93330681      92.76646797
H      83.73678273      44.96509739      94.12896063
H      86.21421393      43.02812791      93.17653857
C      83.74056218      45.81358450      84.86174279
O      85.40919052      47.38961624      84.33450916
N      81.27635907      46.39750992      84.73891058
H      79.98000682      45.08226042      85.21701135
C      80.23889933      48.75021919      83.59184672
H      81.07226863      48.99021443      81.72290739
C      77.43832493      48.52534175      83.04382609
H      77.35706670      47.04568606      81.61141353
C      75.72056371      47.92629851      85.22457024
H      75.25569104      49.72531797      86.11085188
H      76.76747209      46.85482370      86.63997525
H      73.96689769      47.02867851      84.61985782
C      76.41976245      50.86860239      81.62086217
H      76.57283028      52.63360676      82.67154999
H      74.39208611      50.67207085      81.32417513
C      77.83705718      51.36937986      79.14343098
H      79.68520952      52.16495464      79.57806802
H      76.83928169      52.69974719      77.92833695
H      77.87863116      49.60437549      78.07951506
C      80.91920080      51.09347981      85.40031479
O      81.16486522      53.10603835      84.46678999
N      80.85872956      50.58136398      87.84562064
H      80.62629322      48.81258016      88.52592211
C      81.57304610      52.31046357      89.76558257
H      80.51101991      54.07546794      89.72211888
C      81.61084063      51.02733939      92.34505899
H      82.58215995      52.21408752      93.72266948
H      82.62751339      49.23965831      92.24490350
C      79.00868750      50.58703316      93.65841879
C      77.37974341      48.70297604      92.84394675
H      77.85217499      47.62016286      91.17909786
C      75.07427731      48.34770749      93.97211336
H      73.82894767      46.86994150      93.31826804
C      74.46956489      49.75744332      96.19821094
H      72.69511188      49.32658572      97.10527957
C      76.19488502      51.54323467      97.11094876
H      75.77158632      52.49187729      98.87028395
C      78.52491756      51.94007720      95.89963420
H      79.80426227      53.25532671      96.79536447
C      84.21488349      53.07769244      89.05882493
O      84.67597671      55.40016608      88.69221803
N      86.03280020      51.35804151      88.86229341
H      85.87217346      49.54012479      89.42354212
C      88.68786567      52.01755599      88.33128031
H      89.23966575      53.49721168      89.65030927
C      90.28846386      49.65350837      88.68843857
H      92.20842579      50.24688242      88.24246317
H      89.74989186      48.19274993      87.33917400
C      90.24311043      48.62171779      91.43799036
H      91.79268600      47.32158610      91.82160480
H      88.52723893      47.53890463      91.79514864
C      90.67585775      50.73821127      93.43165163
O      89.05447258      51.18040722      95.11539777
O      92.73754916      51.80212719      93.52802766
C      89.07714929      53.06068491      85.75558334
O      90.87049956      54.49876663      85.43055041
N      87.57103742      52.45030331      83.69011248
H      86.25956736      51.11615654      84.07183720
C      87.63717784      53.87326723      81.28638061
H      89.53446306      53.81468571      80.48891610
C      85.68320083      52.56179717      79.57239885
H      83.77268753      52.59014305      80.33962772
H      86.32192833      50.61159960      79.37397759
C      85.76445906      53.90161312      76.97024572
H      87.25167367      53.00588285      75.86286609
H      86.14240433      55.90472302      77.27071219
S      82.76735313      53.99609944      75.17689544
C      83.92386564      54.96741875      72.07774428
H      84.72699932      56.80423273      72.54639642
H      82.21933250      55.17150921      70.94201878
H      85.18242336      53.47831442      71.41067090
C      87.17797435      56.76454849      81.71345876
O      88.91085338      58.23475556      81.16354841
N      84.94431785      57.33524583      82.70367534
H      83.78591562      55.94818672      83.32161586
C      84.07126429      59.98653185      82.86997127
H      84.20543486      60.84257786      81.00292167
C      81.24990290      59.75787496      83.85451868
H      80.69999255      61.49642318      84.81072019
H      81.03825356      58.22719665      85.21890106
C      79.42064783      59.12481664      81.70401012
H      80.01402189      57.44484995      80.66466066
C      76.86006868      58.29144734      82.73202124
H      75.61473904      58.22341719      81.09173881
H      75.87741100      59.80133867      83.72979674
H      77.30226464      56.53589159      83.71467892
C      78.99923886      61.33390671      79.95412357
H      80.13874383      60.89737992      78.29494385
H      79.78914446      63.05166793      80.77615450
H      77.00557760      61.46807727      79.45145636
C      85.56603780      61.65138072      84.62741673
O      86.08571254      63.83023517      84.09262419
N      86.51657014      60.67250250      86.74957939
H      86.01768239      58.91694675      87.30704865
C      88.54046702      61.81767665      88.28781660
H      87.65418538      63.21985356      89.50857980
C      89.51934525      59.70496263      90.16431483
H      90.56247417      58.36892613      88.99457424
H      87.92252651      58.64104672      90.91075672
C      91.11805371      60.80100389      92.34127954
H      89.70264870      61.58713004      93.61495507
H      92.31991964      62.24286507      91.48712324
C      92.43519295      58.75632002      93.73022839
H      93.47643215      59.72008043      95.22500189
H      93.59548491      57.69240410      92.39986106
N      90.63995295      56.96485947      94.78280593
H      90.69286529      55.18095784      94.10817364
C      89.32092399      57.24075952      96.81237200
N      89.38139523      59.19473652      98.22777701
H      88.84660268      59.20418516     100.06081153
H      90.84215367      60.30211614      97.69865365
N      88.05858681      55.42662225      97.89140572
H      87.34993944      55.74787573      99.63562311
H      87.80536348      53.75421447      97.00890354
C      90.75900571      63.23119193      86.75524856
O      91.63961817      65.24375045      87.64719938
N      91.44119691      62.24475480      84.55182769
H      90.53601801      60.70273812      83.88286457
C      93.33848213      63.26520699      82.78115413
H      94.32680899      64.86958463      83.61074397
C      95.35670983      61.23942039      82.21423623
H      96.84392444      62.30144657      81.26559363
C      96.47542781      60.47408123      84.72190305
H      96.35826478      62.03499516      86.05982927
H      98.35381576      59.76921332      84.25136119
H      95.34159202      59.08891184      85.73857581
C      94.47798709      58.94340293      80.47379829
H      93.20809101      59.65016057      79.01303985
H      93.32903350      57.59035889      81.52070667
C      96.83069635      57.64138150      79.16232823
H      96.95730802      58.27821925      77.20646150
H      96.41117711      55.65527914      78.80705968
H      98.59003155      58.02688566      80.16199345
C      92.32747855      64.39715306      80.27915648
O      93.53501366      65.99586152      79.11319535
N      90.09004260      63.57134267      79.44011800
H      89.31336508      62.12381231      80.41143733
C      88.94108900      64.72218598      77.26882248
H      90.32436866      64.92438671      75.75326197
C      86.51845986      63.42016455      76.46946823
H      85.02746580      63.93605985      77.79416639
H      86.73766812      61.37170124      76.46946823
C      85.82870976      64.38014553      73.71991646
O      87.38395452      63.87936806      71.93979426
O      83.95977044      65.83145534      73.61220205
C      88.13039641      67.39425900      77.73936432
O      88.13417586      69.07233595      76.04994899
N      87.32348327      68.02542759      79.97113110
H      87.51056618      66.70072943      81.33173404
C      86.64885098      70.71261839      80.83095657
H      86.66585852      72.00519119      79.22657893
C      83.99189578      70.74663347      82.13675746
H      83.98622660      69.45972985      83.74491455
H      82.59160859      69.95105870      80.85552301
C      83.16797511      73.33177906      83.29704940
H      84.47377599      74.25774497      84.59340166
H      81.51068513      72.70627966      84.35151669
C      82.44609966      75.19693893      81.26181417
O      80.14063356      75.86023287      81.19945320
O      84.19976568      76.38179734      80.15065509
C      88.71054239      71.72173224      82.67910890
O      89.85571653      73.75129830      81.97991017
N      89.42485893      70.39703411      84.56883522
H      88.63873279      68.69061124      84.89386814
C      91.67363325      71.14914518      86.13163887
H      93.11171497      72.05432408      84.96756747
H      92.32558882      69.40303807      87.00658216
C      90.90262491      72.73840500      88.26136044
O      88.80502870      73.93082230      88.25380153
N      92.59204023      72.89147284      89.98479083
H      94.41562613      72.40203372      89.70511133
C      92.13661619      74.09900795      92.43009667
H      90.13539603      73.93649148      92.89118989
C      93.53123421      72.53998375      94.46344219
H      95.54001328      72.40959263      94.01368733
H      92.76400533      70.63513961      94.62217921
C      93.15328895      73.69649624      97.13173574
H      94.12649800      75.49173624      97.40574606
C      90.31869948      73.78720311      98.14273933
H      89.00722942      74.87379574      96.98433710
H      90.07681451      74.59789569     100.02301700
H      89.65540554      71.83700555      98.22210782
C      94.38350078      71.65181237      98.90807849
H      96.35259560      71.52709043      98.31659415
H      93.41785063      69.84712374      98.67375241
H      94.16807198      72.29998851     100.85260686
C      92.86983000      76.86556728      92.62662822
O      95.06947143      77.55153792      92.16742472
N      91.24655510      78.56821068      93.54881466
H      89.47210209      78.03341813      94.00801816
C      91.93063602      81.06264941      94.65052510
H      93.94697400      81.45760221      94.77713676
C      90.88939683      83.01095725      92.81749057
H      91.13695097      84.88934519      93.62629344
H      88.96754517      82.67269624      92.16364526
C      92.21976415      83.02418532      90.28903676
H      91.82859080      81.22705561      89.36118114
H      94.26822747      83.08654629      90.50068612
C      91.48088116      85.30130553      88.65442351
H      93.04935400      86.00428372      87.52058772
H      91.13695097      87.04741264      89.69188325
N      89.42296921      84.65312941      86.74579994
H      88.37039165      83.15268672      87.27681302
C      88.53290811      86.28963239      85.15276065
N      89.43997674      88.61777521      85.28504150
H      88.67463759      89.92546583      84.12285980
H      90.91018382      89.31130477      86.28470670
N      87.01923734      85.54130077      83.39531518
H      86.91719212      86.82064549      81.98368963
H      86.63940235      83.70637652      83.03248773
C      90.57759198      81.27429876      97.20732480
O      88.31558959      80.79430827      97.43598169
N      91.95331274      82.17758793      99.11783811
H      93.73343493      82.73883666      98.72477502
C      91.07270028      82.38167839     101.68786589
H      89.59493430      80.96816309     101.94297893
C      93.08525880      81.73728171     103.68908605
H      92.52967927      82.21727219     105.61282743
H      94.84081455      82.74450583     103.30169215
C      93.90728975      78.90080251     103.78546209
H      94.63861383      78.18648597     101.99778101
C      95.95386334      78.56632095     105.77723363
H      95.26600297      78.67214562     107.71609283
H      97.53934372      79.87023211     105.60148908
H      96.74187922      76.68226382     105.52967949
C      91.67174352      77.23973308     104.64717730
H      92.24433059      75.26496909     104.77567869
H      90.31492003      77.45894133     103.11271952
H      91.14639960      77.57799409     106.61060294
C      89.78201721      84.92902945     102.18486390
O      88.48566496      85.08776647     104.09159776
N      90.31303030      86.82442495     100.53702257
H      91.50355788      86.31608857      99.13484564
C      89.37950550      89.42279862     100.65418560
H      88.37039165      89.87066375     102.39273381
C      91.65095653      91.22559752     100.24789444
H      92.09693194      90.95158722      98.25612290
H      92.88872726      90.51317070     101.73132960
C      90.57192281      93.91845752     100.84693767
H      89.84059872      93.85231710     102.77067906
H      89.13573081      94.45325006      99.46932720
C      92.74321834      96.07463524     100.88662193
H      92.03268125      98.00782526     100.91685756
H      93.82414179      95.91400850      99.14051481
C      94.65940082      95.76849959     102.93130580
H      95.56080027      93.91845752     102.85004756
H      93.75422192      95.93857495     104.77189922
N      96.73054086      97.70546905     102.85193729
H      96.13527707      99.50826795     103.05224828
H      97.62249168      97.57129848     101.16819115
H      97.80957458      97.30106763     104.37127725
C      87.22332778      89.72326510      98.70020858
O      87.24600449      88.58753959      96.69520897
N      85.33549119      91.34087084      99.33893607
H      85.38084462      92.05518738     101.11149936
C      83.36828610      92.10432026      97.55314472
H      82.30059073      90.38088987      97.18086863
C      81.56359747      93.77105887      98.88918122
H      80.96833368      92.83375462     100.62394997
C      82.77302231      96.39210927      99.73955806
H      83.32104294      97.46169435      98.06715027
H      84.37173077      95.91400850     100.94898290
H      81.53903103      97.61476219     100.84504795
C      79.25624164      94.46458843      97.28669331
H      78.31326821      92.73170939      96.69709869
H      79.62095882      95.53606324      95.56515264
C      77.10006392      96.00660509      98.55092020
H      77.48178863      98.01349444      98.81737161
H      76.61818371      95.15811799     100.36505747
H      75.63174657      95.97070030      97.10527957
C      84.28102391      93.15689781      95.03791899
O      86.32570778      94.43246308      94.84894636
N      82.73900724      92.62021554      93.14819267
H      81.44832417      91.21803862      93.27480435
C      82.98089221      93.53673280      90.54792928
H      84.06370538      95.27906047      90.73501218
C      84.51723970      91.83219967      88.85662422
H      86.35027422      92.03440038      89.77314148
H      84.49645271      92.62588472      86.95555956
C      83.78024644      89.12989104      88.67898994
C      82.44609966      88.28329365      86.59084237
H      82.07760303      89.84042813      85.32661547
C      81.96421945      85.76617821      86.01825529
H      81.24423372      85.22760621      84.18711050
C      82.77302231      83.88967997      87.65286857
O      82.43854075      81.38390288      87.18421643
H      81.65997351      81.06264941      85.57794906
C      83.90685810      84.68525476      89.97156274
H      84.38873831      83.12623054      91.19610539
C      84.51723970      87.28551816      90.47989913
H      85.51690492      87.92046620      92.14096856
C      80.48456375      94.30774114      89.43865992
O      78.44554905      93.70680817      90.51202448
N      80.60361650      95.62488038      87.35996098
H      82.38751814      96.14077566      86.91587530
C      78.61751415      96.01983318      85.46267577
H      76.76558236      95.62677010      86.27714780
C      78.33972438      98.77883359      84.79560237
H      76.86006868      98.93757060      83.37074874
H      80.24078905      99.25504463      84.15876460
C      77.74068114     100.51738180      87.01603080
H      79.40553002     100.32840917      88.21411728
H      76.17787748      99.63298989      88.02703437
C      77.22100640     103.24236715      86.12219024
H      76.11551651     102.96835683      84.40820848
H      78.82349432     104.18534058      85.23590860
C      75.91520552     105.16799826      87.92876860
H      77.19832969     105.85396891      89.38574758
H      74.20689293     104.26848854      88.65064405
N      75.06482868     107.58495822      86.71367459
H      75.98323567     109.08729064      87.45255757
H      73.22045580     107.88164525      87.09917875
H      75.35206708     107.59629657      84.82583800
C      78.96333406      94.12821714      83.28193160
O      80.94565697      93.43468758      82.37486297
N      76.82038443      93.52350472      82.12541909
H      75.31616228      94.28695416      83.01925965
C      76.57283028      92.23093192      79.78782764
H      77.85217499      90.61710566      79.74058448
C      73.94422098      90.80985773      79.92388794
H      72.59306666      92.07975382      79.02626795
H      73.67587984      90.16735079      81.86274714
C      73.77414561      88.38155942      78.19667810
O      72.94644548      86.44836940      79.12642343
O      74.35807104      88.46281765      75.93656541
C      76.71833920      93.95058287      77.42755948
O      76.52747685      96.27683597      77.64298829
N      76.86573786      92.92824093      75.17500571
H      76.62007344      91.03851462      75.27705094
C      76.71267003      94.30018223      72.69757451
H      77.75768868      96.07274551      72.80150947
C      77.79737293      92.58242101      70.54139679
H      76.80337689      90.78340156      70.44313102
C      77.63485647      93.89011163      67.89200050
H      75.70166645      94.21892400      67.26650109
H      78.48712303      92.69391487      66.44635987
H      78.46633604      95.77416876      67.96947929
O      80.44676922      92.16479150      70.96847494
H      80.60361650      90.50183234      71.67334285
C      73.96689769      94.95024808      72.05884703
O      73.48123803      96.81540796      70.83619411
N      72.18110633      93.44035676      72.93945948
H      72.62519201      91.82275105      73.85030757
C      69.43722372      94.10365070      73.11142459
H      69.21801547      95.24693512      71.41445035
C      67.83662553      91.59598388      72.85253207
H      68.12575366      90.91946187      74.77627347
H      68.67377429      90.45836864      71.35208938
C      64.99636688      92.06652573      72.32718816
H      64.23669691      93.50838692      73.58952533
H      64.14976950      90.23538093      72.73914849
C      64.52582503      92.78840118      69.53606239
O      62.53972268      91.96448051      68.51372047
O      66.10752596      93.90711916      68.28884303
C      68.75881197      95.86676535      75.40555233
O      66.63286987      96.18612909      76.20679628
N      70.75436296      96.85887166      76.56773401
H      72.43810911      96.45447024      75.76460033
C      70.99246848      98.52183082      78.75981653
H      70.01547997     100.31896054      78.51037265
H      73.01825508      98.86387129      78.88642820
C      70.32161564      97.69602043      81.42244091
O      70.48980128      99.23425764      83.12697404
N      69.54304839      95.38677486      81.80794507
H      69.58273265      94.05073837      80.44734213
C      68.57550852      94.18301920      84.13419816
H      67.18466996      95.57763723      84.74080032
C      67.25458983      91.74338253      83.53137548
H      66.27760133      91.26528177      85.28126203
H      68.59440578      90.20703504      83.22146036
C      65.40832722      91.68858047      81.40732310
C      65.12675800      89.41334999      80.02782289
H      66.22846844      87.81653126      80.65899147
C      63.30884129      89.16768557      78.16077329
H      62.83074053      87.43291681      77.19701287
C      61.83296504      91.22937697      77.67511362
O      59.74859691      90.77773240      76.11608942
H      58.98514748      92.20069630      75.29216874
C      61.98981232      93.50271773      79.07729055
H      60.66889363      94.97103508      78.56139526
C      63.91355371      93.90333972      80.90465589
H      64.01748865      95.73448450      81.80038616
C      70.57483896      93.88822190      86.33761904
O      72.80471601      93.56507870      85.70645046
N      69.94367037      93.79751504      88.79426326
H      68.11441530      93.99404657      89.29504073
C      71.82583778      93.48193074      90.78414506
H      73.68154902      94.27561579      90.37596418
C      70.93766641      94.72726038      93.23700981
H      72.08473029      94.05640754      94.81115184
H      68.99880722      94.10743016      93.54503521
C      71.22490481      97.60531355      92.93843305
C      68.98935858      99.19835285      93.09717007
H      67.09207337      98.45758012      93.01780156
C      69.35029631     101.80617515      92.95544059
H      67.86686115     103.18945481      92.71922481
C      71.71812338     102.94945957      92.94788168
O      72.00347205     105.39287570      92.77213714
H      70.38775606     106.21868609      92.76457823
C      73.92721344     101.40177372      92.98756595
H      75.71489453     102.35230605      92.73245288
C      73.68154902      98.70513427      92.90252825
H      75.29348556      97.45413545      92.83071865
C      72.27181319      90.68135634      91.48523352
O      70.54082389      89.18091365      91.69688288
N      74.68499369      89.90845828      91.63641162
H      76.16275967      91.08197832      91.35106296
C      75.49190683      87.34220996      91.26791499
H      74.06894291      85.93247412      91.74790548
C      76.02291992      86.83954275      88.50702485
H      77.81060101      87.76739837      88.07238781
C      75.97000758      84.01818137      87.87396653
H      76.05693499      83.91613614      85.81794432
H      74.27492308      83.26984975      88.77536599
H      77.56871605      83.10355383      88.79237352
O      74.21445184      87.66913261      86.81760952
H      73.77603534      89.38500409      87.20500343
C      77.96177912      86.92647016      92.87796181
O      79.38096358      88.69147454      93.15008241
N      78.24712779      84.64746023      93.73778728
H      76.83172278      83.41724840      93.37307011
C      80.18787672      84.03140946      95.59916770
H      81.82626943      85.13689935      95.01902172
C      79.55481840      84.75895408      98.33549140
H      78.96333406      86.72237972      98.15974686
C      77.27013929      83.04686204      99.22366278
H      77.61784893      81.04753161      99.58271078
H      75.59206232      82.97505245      98.02935575
H      76.63708097      83.55519843     101.11716854
C      81.83004888      84.75517464     100.11372386
H      83.55158955      85.32776171      99.14051481
H      82.20799414      82.79552845     100.62961916
C      81.38407347      86.45214885     102.48533040
H      79.69843760      85.67169189     103.37350176
H      81.17431385      88.37589024     101.78046248
H      83.04703263      86.37655980     103.70042441
C      80.62251377      81.17981244      95.27980396
O      79.25624164      79.80598141      94.04203322
N      82.64830037      80.25384655      96.49489797
H      83.81048206      81.39146179      97.49267348
C      83.27946896      77.53075094      96.68765006
H      81.76768791      76.48762201      97.61550568
H      84.99156100      77.33610912      97.81770639
C      83.89740947      76.50085010      94.22155722
O      85.04825279      77.70460576      92.58694396
N      82.90152370      74.13491276      93.75479483
H      81.80926189      73.35256605      95.11161831
C      83.11317305      72.71194884      91.35295268
H      84.75723494      73.53209005      90.42320734
C      83.71788547      69.84901347      91.94065757
H      82.07949275      68.99296745      92.84772620
C      84.35283351      68.50730780      89.45944692
H      85.17108500      66.65915546      89.86384835
H      85.83626866      69.57122370      88.50702485
H      82.65019010      68.36179886      88.30860359
C      85.99122622      69.44839149      93.76613319
H      86.09138172      70.81466362      95.30248067
H      87.82426075      69.81121894      92.90063853
C      86.50712151      66.72907534      94.62217921
H      84.78180138      65.80499916      95.26279643
H      87.73922306      66.92749659      96.26246165
H      87.20443052      65.56311419      93.07449335
C      80.81715558      73.29398455      89.66920654
O      79.15230670      71.68015827      89.12874482
N      80.56015280      75.65803216      89.02858932
H      81.84516669      76.93737687      89.62007365
C      78.44176960      76.62746175      87.51113908
H      78.11106750      75.41614719      85.87841556
H      78.98412105      78.45293737      86.72690266
C      75.84906510      76.86178782      88.98701533
O      74.01603058      77.37768311      87.78892885
N      75.93788224      76.60289531      91.54948422
H      77.67643045      76.56132134      92.33750009
C      73.57383462      77.18871047      92.87229264
H      72.30204881      75.86023287      91.94065757
C      73.77414561      76.41581241      95.65585949
H      74.86829714      77.78964344      96.73111377
H      74.63397108      74.54687309      95.65396976
C      71.23813290      75.91692466      96.86906379
N      69.79816145      73.69649624      96.51946442
H      70.32350536      72.19605355      95.46499714
C      67.51537206      74.17648673      97.48133512
H      65.83351564      73.12957835      96.99189599
N      67.38498094      76.58399805      98.22777701
H      66.00359101      77.50807423      99.16886071
C      69.72446212      77.68759821      97.89896462
H      70.30838755      79.60944989      98.25423317
C      72.46456527      79.83243758      92.44521449
O      73.59840106      81.69381800      93.33716530
N      70.11374574      80.18581640      91.46255680
H      69.02148393      78.75340386      90.83705739
C      68.89109282      82.71049075      91.37940885
H      70.33484372      84.12022658      90.96366907
C      66.77081989      82.76907227      89.25157702
H      64.95479291      82.40813454      90.15108674
H      67.16388297      81.20059944      87.97412203
C      66.43066916      85.20115004      87.73979597
H      68.22968861      86.06097551      87.22768013
C      64.77904836      84.79674860      85.39086617
H      62.79105628      84.59832735      85.89731281
H      65.34785598      83.17536343      84.25703037
H      65.08707375      86.39356734      84.12852899
C      64.81495316      87.18158322      89.26291538
H      65.64076356      87.77117782      91.05437592
H      63.04805906      86.25561733      89.77692093
H      64.72046684      88.89178553      88.11774124
C      67.61930701      83.47960937      93.76613319
O      66.44389724      82.09821943      95.05492652
N      68.17299682      85.76806793      94.61462030
H      69.33517850      86.76206398      93.47133587
C      66.97680006      87.00016949      96.92575558
H      66.46657396      85.58098503      98.32793251
C      68.82306267      88.87288827      97.99345095
H      67.90276595      89.75161101      99.61294639
H      69.14053669      90.36766178      96.61206101
C      71.29104523      87.61055108      98.88162231
H      72.26614401      86.74316672      97.28669331
C      73.03148317      89.68169113     100.23088689
H      72.02047959      90.63222346     101.75400630
H      73.71934355      91.05741188      98.86083533
H      74.67554506      88.65556974     100.93386509
C      70.74302460      85.43358637     100.76945889
H      72.28126182      85.01595686     102.07525978
H      70.28004166      83.75928887      99.66396900
H      69.14431614      85.96459947     101.95620702
C      64.47858188      88.17368953      96.16797532
O      62.60964255      86.74883589      96.28513835
N      64.38976474      90.59253922      95.66530812
H      65.92611223      91.69613938      95.41208481
C      62.10130617      91.57708662      94.26691066
H      60.59330458      90.18435832      94.09683528
C      60.84841763      93.93168560      95.48389441