 %block lattice_cart
   137.614   0.000   0.000
   0.000 142.646   0.000
   0.000   0.000   160.855
 %endblock lattice_cart

 %block positions_abs
N      90.34704538      44.28668564      81.09740798
H      90.02957136      44.13739727      82.97390621
H      92.23488197      44.56636513      81.10874634
H      89.79902475      42.63884429      80.30939211
C      88.82203624      46.25767018      80.11475030
H      89.23588631      47.82425330      81.38842583
C      89.62894938      47.14962101      77.43700811
H      89.09037738      45.49988993      76.32962849
H      91.64150790      47.58236833      77.37464714
C      87.93575460      49.44374876      76.92867173
H      85.99122623      49.15273090      77.54661224
H      87.89607035      49.84059127      74.90855431
S      88.90329448      52.48809784      78.25714933
C      91.60182365      53.14194314      76.26915725
H      92.52967927      51.30512918      76.16711203
H      92.90195535      54.56679678      76.98914298
H      91.08970782      53.52744732      74.31140079
C      86.10838926      45.56036117      80.19222908
O      85.41296998      43.74433419      79.02248849
N      84.45676846      46.85671342      81.50558886
H      85.17864391      48.35526640      82.44100339
C      81.74690093      46.59593119      81.74369438
H      80.84361175      46.16507359      79.94278520
C      81.12896042      44.64762337      83.74113509
H      82.57082160      43.17741630      83.70523029
H      79.37718413      43.67441431      83.27437269
C      81.02502548      45.57358926      86.43777454
O      78.92364982      46.05546947      87.46011648
N      83.24545389      46.15562497      87.60751513
H      82.96010522      46.66585107      89.42354212
H      84.94431785      45.68697284      86.87619105
C      80.67731584      49.28501174      82.35218625
O      82.11539756      51.05568530      82.70556507
N      78.12240586      49.60437548      82.41454722
H      77.13785845      48.17574240      81.61519299
C      76.89975294      51.97409228      82.92099387
H      77.39486123      53.33658495      81.45834571
C      74.09728881      51.70008196      82.70367535
H      73.83083740      50.64939413      80.95000933
C      72.91432014      50.16940365      84.88819896
H      72.76881122      51.38449767      86.54359921
H      74.00091277      48.62171781      85.70645046
H      71.19655892      49.16595899      84.35340642
C      72.64597901      54.20018989      82.47690819
H      73.24691197      55.47197569      83.97924061
H      70.65231775      53.91295148      82.90776579
C      72.91809959      55.58157981      79.91632903
H      72.09606865      54.40805977      78.43856306
H      74.90042250      55.98220179      79.53460432
H      71.92977273      57.38815818      79.85585779
C      77.76335786      53.34225414      85.37385863
O      78.22067163      55.53244693      85.39275589
N      78.47767441      51.91929022      87.32027673
H      78.14130312      50.04090226      87.27114384
C      79.49245744      52.82824858      89.73156750
H      78.30192986      54.37215498      90.40431007
C      79.20332931      50.89127910      91.71200068
H      80.48645348      51.49599152      93.20488447
H      79.66253281      48.99966306      91.04681702
C      76.57660974      50.78923389      92.89118990
C      74.70767041      49.43618985      91.61184519
H      74.91176085      48.72376302      89.71078052
C      72.33795362      48.93919182      92.86095428
H      70.85640819      48.02645401      91.79136919
C      71.74835901      50.19585982      95.21177381
H      69.89453749      50.16562421      96.06404038
C      73.60218052      51.70953060      96.37206577
H      73.13163867      52.62037868      98.13707014
C      75.95111033      51.92117994      95.20232518
H      77.27580847      53.06068491      96.25490274
C      82.25523731      53.60681582      89.59739694
O      83.07159907      55.14127358      91.18854649
N      83.71977520      52.90572735      87.65286856
H      83.00356893      51.73787649      86.32439096
C      86.09516117      54.18318234      86.85162460
H      86.92853048      55.00143384      88.54859883
C      88.09260189      52.28589713      85.76314225
H      89.62516993      53.24776782      84.77670511
H      87.03246543      51.42796139      84.21734612
C      89.23210685      50.33758930      87.61507403
H      88.14929368      49.28690146      89.01536123
H      90.61727624      51.32402643      88.77725572
C      90.58326117      48.28534652      86.15431559
O      92.37850117      48.62738699      84.66332153
O      89.43808702      46.14995579      86.13541833
C      85.77390770      56.39038267      85.03937707
O      86.83782362      58.34624942      85.60818469
N      84.27724446      56.01243741      82.93233223
H      83.37017583      54.37593442      82.56005615
C      83.66686286      57.99476031      81.02748811
H      85.30336585      58.22341721      79.79538655
C      81.42753718      57.14060403      79.34563169
H      79.74190131      56.55856832      80.37931198
H      82.12862564      55.38126882      78.54060828
C      80.88707546      58.92072622      77.06662175
H      82.72199971      59.23631050      76.18600929
H      80.29181167      60.81801144      77.60519375
S      78.71766965      58.02121648      74.49092479
C      80.46944594      55.59480790      72.75804576
H      81.09872480      54.16617480      74.09786172
H      82.05870577      56.23542512      71.61287162
H      78.94632653      54.90505780      71.55240037
C      82.94498741      60.50809632      82.23691295
O      84.26212665      62.34113084      81.73991493
N      81.11573234      60.61203126      83.88286457
H      80.17842809      58.96230019      84.09262419
C      80.04614725      63.12725699      84.62930646
H      79.87418215      64.12881194      82.83784591
C      77.43076603      62.55278019      85.54960317
H      76.46511588      64.07589959      86.54170949
H      77.45344275      61.11658818      87.02736915
C      75.59962123      61.35091425      83.63342069
H      76.41220355      59.61992494      82.86808154
C      73.15998456      60.75565047      84.91087568
H      72.38330705      62.54144182      85.57983879
H      73.59462161      59.45740849      86.45100263
H      71.93355219      59.80511812      83.55405219
C      74.98923963      62.79088570      81.34496213
H      74.10484772      64.55211062      81.93833619
H      73.50202503      61.71941089      80.40387842
H      76.62952207      62.96663025      80.10908112
C      81.94721192      64.64092777      86.28281698
O      81.67320160      66.92938632      86.33572932
N      83.92953482      63.43339264      87.20878288
H      84.10716909      61.57390195      86.81005062
C      86.15752214      64.43683732      88.64686460
H      85.38084463      66.04688413      89.67109626
C      87.28190930      62.40349181      90.33250047
H      88.63684307      63.41260565      91.50979997
H      88.13795532      61.16572107      88.92654410
C      85.38840353      61.11091900      92.17876308
H      83.82182042      60.23219627      91.17342868
H      84.70054316      62.55655963      93.47322560
C      86.73199894      59.05678651      93.81526607
H      88.14929368      60.09613597      94.89241007
H      87.57481688      57.58657944      92.64174603
N      84.72510960      58.04767265      95.36673137
H      83.91252728      56.39983132      94.84705663
C      84.09583074      58.92261593      97.55881389
N      84.93297949      61.03344022      98.36761675
H      84.40385612      61.63248348     100.10238551
H      86.04602829      62.27688014      97.44165086
N      82.86372918      57.48075477      99.10272029
H      82.45365857      58.15916651     100.83748905
H      82.55192434      55.66661751      98.59627364
C      88.22866218      65.54610666      86.94233147
O      89.54580142      67.25819870      87.80404667
N      88.26078753      64.78076751      84.58395303
H      87.32915246      63.14426452      84.28159682
C      89.98421793      65.76909437      82.63186575
H      91.11238454      67.32622885      83.36885901
C      91.96654083      63.76976394      81.76448137
H      92.91896289      64.45762430      80.07317632
C      93.77311918      63.25197893      83.98302006
H      94.97687485      61.59468895      83.77326044
H      92.82447658      62.89293093      85.77448061
H      95.16962693      64.75809080      83.84884949
C      90.72499064      61.24697930      80.95189905
H      89.27935001      60.80478335      82.35029653
H      92.02512235      59.68039618      81.26181417
C      89.75178159      61.00887378      78.24770070
H      88.73321911      59.27410504      77.80739447
H      91.30513662      61.28477383      76.92489228
H      88.33826631      62.41294043      77.72235679
C      88.77101363      67.19583773      80.31128183
O      90.02957136      68.81911263      79.06973165
N      86.38428930      66.66860409      79.81239409
H      85.48855903      65.59523954      81.11063606
C      84.91786168      67.91204400      77.87731434
H      85.94209334      68.44683655      76.17467094
C      82.78625040      66.04877387      77.23291767
H      81.66186324      65.67271833      78.91666382
H      83.80859234      64.33668182      76.71702239
C      81.36517621      66.75553150      74.86698033
O      82.61617503      66.52309517      72.89221633
O      79.24868274      67.81566796      75.12776256
C      83.74434164      70.50474851      78.76926516
O      83.36261693      72.09589807      77.15165944
N      83.49489777      71.04521023      81.31472651
H      83.90874783      69.69972510      82.60351985
C      82.36484143      73.33933799      82.47312874
H      82.51601954      74.84544985      81.07473126
C      79.50946497      72.61935225      83.06839252
H      79.51513415      70.72962594      83.89042347
H      78.50224085      72.31321660      81.29771897
C      78.15075176      74.62057242      84.69544688
H      79.27324919      75.39158075      86.24124300
H      76.52180767      73.67570926      85.52881618
C      77.19077079      76.82777275      83.02114937
O      74.88530469      77.19626938      82.73580069
O      78.77058199      78.26963394      82.11030128
C      83.87662248      74.15192029      84.88441951
O      85.09171650      76.14558155      84.73513113
N      84.19976568      72.36045974      86.57572456
H      83.10939360      70.80143554      86.42454646
C      86.17641941      72.50029949      88.52025294
H      88.02646147      72.87068585      87.69066309
H      86.28035435      70.61435263      89.34606334
C      85.61328097      74.31443675      90.63485668
O      84.16386088      76.13424319      90.30415458
N      86.90207431      74.15381002      92.81371112
H      88.41385536      73.00107697      92.65308438
C      86.28413381      75.49551570      95.12295668
H      84.22622185      75.45961090      95.20799436
C      87.49922783      73.87224080      97.20354535
H      89.52690416      74.23317852      97.14874328
H      87.22521751      71.83889528      97.02024189
C      86.78302155      74.65458750      99.93797932
H      87.04380378      76.64446931     100.40096227
C      83.85394577      74.11601549     100.48788968
H      83.53836147      75.01741494     102.31336530
H      83.59694299      72.11479532     100.90173974
H      82.58404969      74.90403136      99.06870522
C      88.15307313      72.96517217     101.90707414
H      90.18641864      73.05020985     101.59337957
H      87.57292715      70.99418762     102.05825224
H      87.97921831      73.69460652     103.82892580
C      87.07214968      78.32254626      95.33082657
O      89.26045275      78.99717856      94.73556278
N      85.32037339      79.68125948      96.53458223
H      83.62150943      78.90836142      96.93709394
C      85.68887002      82.19081603      97.48511457
H      87.68820046      82.55175375      97.82148585
C      84.89140551      84.52273830      95.78058143
H      84.84983153      86.21593307      96.95221175
H      83.00545865      84.08999097      95.07760324
C      86.83782362      85.19170141      93.65841878
H      87.54269153      83.54197034      92.64741521
H      88.53479785      86.02318099      94.47856000
C      85.76067962      87.05686128      91.75357466
H      85.71532619      88.93713896      92.59261314
H      83.81993069      86.54474545      91.28870199
N      87.35371890      87.00961812      89.38196814
H      88.76156500      88.26250667      89.09095028
C      87.04191406      85.45626309      87.49035210
N      85.63406795      83.47582992      87.26925412
H      85.80225360      82.45537771      85.66676621
H      84.84794181      82.71049076      88.83016805
N      88.44976016      85.88334124      85.43810932
H      88.49511359      84.62478352      84.00380705
H      89.70264871      87.32331269      85.50802919
C      84.25267802      82.37034002     100.06081153
O      82.05114687      81.83554748     100.14395949
N      85.55092000      82.98828054     102.11683376
H      87.42363877      83.32654154     101.97321456
C      84.61550547      83.23394495     104.70008963
H      82.97522303      82.02452012     104.99299721
C      86.47310644      82.24939754     106.54635224
H      85.59249398      82.56498184     108.38127649
H      88.32503822      83.15079699     106.49155017
C      86.83782362      79.34488820     106.15706862
H      87.58048606      79.02363472     104.26356285
C      89.00911915      78.40947368     107.85215312
H      89.66674391      76.53297544     107.31358112
H      88.40251700      78.27341338     109.81557876
H      90.60971734      79.70393620     107.87482984
C      84.64574109      77.64602424     107.06791670
H      85.35816791      75.76952601     106.59926457
H      83.03947373      78.13924281     105.87927885
H      83.99000606      78.02207978     108.98598891
C      83.46277242      85.65846381     105.39739864
O      81.69776804      85.82098027     106.97909956
N      84.38684859      87.80708264     104.29190875
H      85.95532143      87.76361892     103.20531612
C      83.17175457      90.32797753     104.57914715
H      82.25901676      90.34687479     106.42729948
C      85.13518021      92.44825045     104.53379371
H      86.32570779      92.63155390     102.86516538
H      86.48822425      92.00038532     106.02100832
C      83.85583549      94.91056384     105.40306782
H      82.80703739      94.41923500     107.10571123
H      82.43665103      95.34520089     103.97443473
C      85.70020838      97.19902240     105.54857674
H      84.57582122      98.92623225     105.47676714
H      86.85861061      97.08185937     103.84971279
C      87.24789423      97.23870666     107.97120588
H      88.82203624      95.91022906     107.92585245
H      86.02524130      96.73037028     109.54912735
N      88.26078753      99.75771183     108.61182310
H      86.84538252     100.98792366     108.96898137
H      89.15273835     100.57596332     107.13783657
H      89.45509456      99.73881457     110.09903771
C      81.13085015      90.67190772     102.55147081
O      81.46533171      89.61744044     100.52190475
N      78.92931900      91.91345791     102.99744622
H      78.74790527      92.38777921     104.83803965
C      77.21155778      92.69202515     101.00000551
H      76.10228843      91.05174271     100.43119789
C      75.27269858      94.64033299     102.04124471
H      76.24779736      96.08030443     103.14484487
C      73.92721345      96.17290103     100.05136290
H      75.16498418      96.71903192      98.49989760
H      72.80093656      97.69413070     100.86583494
H      72.59117694      94.95591727      99.06303604
C      73.26391951      93.51972527     103.79680045
H      74.33350460      92.72037104     105.36338357
H      72.20189332      92.15156342     102.68186193
C      71.24947126      95.34898035     104.73599443
H      72.16787825      97.11776417     105.26322807
H      70.30838756      94.72915011     106.45942483
H      69.90209640      95.73448451     103.22421338
C      78.61562443      93.79940477      98.62650926
O      80.41464388      95.24693512      98.85705587
N      77.73690169      93.21736906      96.26246164
H      76.49724123      91.77550788      96.10372463
C      78.84050186      94.08853290      93.80770716
H      79.81560064      95.88377289      94.07226885
C      80.70566173      92.22337303      92.73812207
H      82.22878114      91.87377365      94.08171748
H      81.78280573      92.96225601      91.14508279
C      79.84583626      89.75161101      91.70255205
C      79.84583626      89.51539521      89.08339138
H      80.52235828      91.08197833      87.95900422
C      78.85939912      87.20614966      87.98168094
H      78.94443681      87.06064073      85.94833543
C      77.71044552      85.22004730      89.52558734
O      76.82983306      82.93536819      88.50702485
H      76.96211390      83.03741341      86.70044650
C      77.71989416      85.61688983      92.21466788
H      76.96022418      84.09754987      93.34472421
C      78.84239159      87.82409017      93.30126051
H      78.80270733      87.91290730      95.33838548
C      76.57472001      94.40222746      91.91609112
O      74.48657243      94.11498906      92.67576110
N      77.04526186      95.35275980      89.67865517
H      78.86695803      95.79495575      89.32527635
C      75.27269858      95.52850435      87.47523429
H      73.39242090      94.90300493      88.03837273
C      75.10262321      98.28750476      86.63997526
H      74.00469222      98.45946985      84.90520650
H      76.88652485      99.16433777      86.10329298
C      73.57383463      99.95613309      88.56560637
H      74.41854229     100.05817831      90.44021487
H      71.62363707      99.36086931      88.86040367
C      73.43777433     102.80395065      87.62263294
H      71.61418844     103.63543024      88.10073370
H      73.40375926     102.62820610      85.57227989
C      75.78481441     104.20045839      88.34639812
H      77.30037491     102.85497326      87.97790149
H      75.62040822     104.91477494      90.27013950
N      75.95866923     106.54182929      87.01036161
H      76.13819323     106.08451553      85.16787846
H      77.49501672     107.55850205      87.50924936
H      74.30515871     107.40732395      87.42043222
C      75.85662401      93.77105887      85.40220452
O      78.02980927      93.39311361      84.55182768
N      73.95933879      92.35943332      84.57828385
H      72.31149745      92.63911281      85.50047029
C      73.70422574      90.70214334      82.30116364
H      75.07805677      89.17524448      82.46179038
C      71.22301509      89.26784107      82.41832667
H      69.59218128      90.52072961      82.30305337
H      71.15876440      88.07542376      84.09640364
C      71.16443358      87.52740314      80.12230920
O      72.29071046      85.46193227      80.39820924
O      69.79627173      88.10376967      78.28171577
C      73.86107302      92.23093194      79.93144685
O      73.18455100      94.45136034      79.92010849
N      74.83806153      91.22748725      77.78660748
H      75.46923012      89.43980616      77.98313902
C      74.80215673      92.47281689      75.26760230
H      76.37251929      93.79751504      75.11831393
C      75.17065336      90.19947614      73.44023696
H      74.40153475      90.86843925      71.64877642
C      78.03169900      89.64200689      73.22858761
H      78.54948401      88.36644162      71.69979903
H      78.89152447      88.76517387      74.88209814
H      79.19010123      91.29740714      72.82796563
O      74.20500321      87.96204020      74.24903982
H      72.83684136      87.31953324      73.24370542
C      72.33984334      93.82964039      74.58352138
O      72.39842486      95.69668998      73.23614652
N      70.10996629      92.84320325      75.45846466
H      69.93044229      91.25772287      76.50348331
C      67.71757278      94.09042262      74.89721595
H      67.59852002      94.80284944      72.96780538
C      65.52737998      92.15912233      75.13343174
H      65.18911897      91.65834485      77.10441628
H      66.18311501      90.39411795      74.29817271
C      62.91388849      93.07374986      73.99581650
H      62.11831372      94.63466380      75.07862967
H      61.56462391      91.51661538      73.97691923
C      63.00459536      93.88633219      71.24437498
O      61.94067944      96.01605373      70.63588311
O      63.80394959      92.37077168      69.65133570
C      67.06939666      96.23715171      76.71324293
O      65.55950533      97.81129373      75.96680104
N      68.32039547      96.39588872      78.92422272
H      69.77548474      95.19024333      79.18689468
C      68.20512217      98.69946511      80.43789350
H      67.68544743     100.35297562      79.32295497
H      70.13831219      99.07363091      81.04260592
C      67.00703569      98.44246232      83.11941514
O      66.85018840     100.24904067      84.46490027
N      66.38342600      96.12754758      83.82617278
H      66.40799245      94.76505491      82.48824655
C      64.96802100      95.84030918      86.19399985
H      64.02504757      97.57696767      86.77414582
C      62.99703645      93.77105887      85.96912242
H      62.02949658      93.42334923      87.75491378
H      63.99481194      91.98904697      85.70834018
C      61.01660328      94.25860826      84.00758650
C      60.98069848      92.74304777      81.84951905
H      62.07107056      91.01961737      81.74369438
C      59.15900231      93.16445672      80.05238933
H      58.91711734      91.86243530      78.49903430
C      57.36376231      95.11843373      80.25459004
O      55.45135928      95.23748649      78.55005691
H      54.51216531      96.78895179      78.59541034
C      57.70769250      96.97225525      82.13297800
H      56.68724029      98.73914935      82.08195539
C      59.55395511      96.48659558      84.04160158
H      59.90544420      97.96058211      85.40598397
C      66.83696032      95.20536114      88.37096456
O      68.80227568      94.06774590      87.90420216
N      66.06028280      95.81196329      90.70666628
H      64.85463742      97.27839091      90.89941837
C      67.68922689      95.07685976      92.94977142
H      69.65643198      95.52472489      92.54159053
C      66.65743632      96.43746271      95.35161356
H      67.26781792      95.33386253      96.97866791
H      64.59952436      96.32974830      95.37429028
C      67.69678579      99.14166106      95.56326291
C      66.09618760     101.20713191      95.77869171
H      64.07418045     100.94445996      95.73522800
C      67.15065489     103.69968092      95.85806021
H      65.91855333     105.32106610      95.98089242
C      69.70934431     104.02471386      95.10594914
O      70.42744031     106.42466626      94.89241007
H      68.97046133     107.50369999      94.96421967
C      71.36096511     101.99514779      94.72044497
H      73.23935307     102.41088757      94.04581268
C      70.37830743      99.54417276      95.12673613
H      71.84095560      98.12309858      95.09461078
C      67.64009400      92.18746822      93.18220775
O      65.63509438      91.00827900      93.16708994
N      69.77359501      91.06119134      93.52235849
H      71.41765690      91.97014969      93.86628868
C      70.32161564      88.38344915      93.38251874
H      68.68322293      87.17969349      93.69810304
C      70.81861366      87.72582440      90.48556830
H      72.51558789      88.60454713      89.71455997
C      71.11719042      84.86855821      90.06037988
H      71.53293021      84.17313893      88.16687412
H      69.41265728      83.89534916      90.68398957
H      72.54204406      84.22227181      91.39830611
O      68.77204006      88.27951421      88.78103517
H      68.26181396      90.01995214      88.72056393
C      72.50802898      87.62944835      95.08705188
O      74.07083265      89.12233215      95.74656636
N      72.26992347      85.33721034      96.23978493
H      70.75814242      84.25061771      95.82404514
C      74.26547446      84.33565539      98.13895987
H      75.93221306      85.52051379      97.88195709
C      73.56816545      85.08209728     101.02646168
H      72.82361328      87.00016949     101.12850690
C      71.48379732      83.10166411     101.70298370
H      69.79627173      83.30008537     100.53513284
H      70.94333560      82.90891202     103.68152715
H      72.18110633      81.19681998     101.34960488
C      75.86607264      85.06508975     102.81414277
H      77.35706670      85.90223850     101.66329944
H      76.41976245      83.14134836     103.29980243
C      75.39553079      86.61088587     105.18574929
H      74.46956490      85.41090966     106.57658786
H      74.29571008      88.30408065     104.77189923
H      77.16242489      87.02662566     106.16084807
C      74.93821702      81.52563236      97.68353583
O      73.55115791      80.22172121      96.34183015
N      76.84684060      80.58265893      99.01201343
H      77.89941816      81.63334676     100.20821018
C      77.39864068      77.82365852      98.90429903
H      75.69977673      76.72194808      99.28602374
H      78.68743403      77.50618450     100.48033077
C      78.48712304      76.92036934      96.44954455
O      80.02724998      78.26963394      95.44609987
N      77.67454072      74.72639709      95.58027044
H      76.62007344      73.67192981      96.76890829
C      77.81060102      73.65114282      93.07260363
H      79.35072796      74.34467238      91.89152468
C      77.99201474      70.62002182      93.24267899
H      76.39897546      69.86791074      94.31226409
C      78.09217024      69.36335381      90.69721765
H      79.84583626      69.53531891      89.63141201
H      76.55393302      70.07956009      89.52747706
H      77.99201474      67.32811857      91.00524304
C      80.49401238      70.09089844      94.78091621
H      80.42220278      71.08111503      96.58560484
H      82.06815440      70.89025267      93.71889002
C      81.07604809      67.20717609      95.17964846
H      81.80737217      66.15270881      93.56960165
H      79.33749988      66.20940060      95.65585950
H      82.25523731      66.98040893      96.85394598
C      75.28214721      74.12357439      91.82160481
O      73.33383938      72.95194408      92.32238228
N      75.10451294      76.30998775      90.41753816
H      76.79392826      77.09989334      90.00746755
C      72.98424002      76.96383305      88.76024818
H      72.78581875      75.17237250      87.76247269
H      73.36785446      78.51718807      87.46200620
C      70.53893417      77.54586876      90.06982851
O      68.71156882      78.04664622      88.66765159
N      70.33673345      77.80287153      92.47545011
H      71.93733164      77.75184892      93.51290986
C      67.84418444      78.07121266      93.64708043
H      66.34752120      76.80698576      93.01024266
C      68.05016461      77.28886597      96.50056716
H      69.46745935      78.28853119      97.61361596
H      68.47346331      75.27063827      96.52513360
C      65.61430739      77.33232967      98.01801739
N      64.10819552      75.28008690      98.40919073
H      64.26504281      73.53586952      97.64952076
C      62.12965207      76.13046375      99.86427999
H      60.72747515      74.89458274     100.68253149
N      62.34319115      78.65702783     100.24222526
H      61.01093410      79.78708415     101.01134387
C      64.50692778      79.42992588      99.17641962
H      65.18533952      81.35366727      99.07437440
C      67.02971240      80.81320554      93.43543108
O      67.71946251      82.35711194      95.06248543
N      65.12486828      81.44248441      91.84050207
H      64.58629628      79.98361569      90.73312245
C      63.79261123      83.78385531      91.76869247
H      65.18533952      85.21815759      91.27169445
C      61.98981233      83.54952924      89.38952704
H      60.87865325      81.86389337      89.79392847
H      63.06884605      82.98828054      87.72656789
C      60.11898328      85.71704533      88.93599273
H      59.28750370      86.29341185      90.72934300
C      61.49470403      88.01306280      87.91176107
H      60.25504357      89.59665345      87.45444730
H      62.66255489      87.40835038      86.32628069
H      62.71357750      88.75005606      89.39897567
C      57.98926172      84.91202192      87.13697328
H      58.77349814      84.38856773      85.30582848
H      57.00282459      86.67891602      86.74768966
H      56.51149574      83.75739914      87.98923984
C      62.33752197      84.37533964      94.16864489
O      60.60464294      83.06575931      94.84894636
N      62.84396862      86.48994339      95.42153343
H      64.12331333      87.74850111      94.77335731
C      61.41533553      87.28173871      97.69676391
H      60.97124984      85.64901518      98.87406341
C      63.18978854      89.04485336      99.12917646
H      61.80083970      90.12577681     100.20065128
H      64.03638592      90.24860902      97.68731528
C      65.16455253      87.72393467     100.69764930
H      66.05461363      86.14790292      99.71499162
C      67.40009876      89.41901917     101.28346446
H      67.09018365      90.94969749     102.62517014
H      68.07851051      90.15412271      99.48255528
H      68.86652638      88.14534364     101.97132483
C      63.90221536      86.99450031     103.13350652
H      63.20112689      88.73304853     103.98955254
H      65.36675325      86.29341185     104.40151287
H      62.48492062      85.52996242     102.84626812
C      58.96247077      88.46281766      96.87473297
O      57.10675953      87.09087635      97.31314947
N      59.09097216      90.62466456      95.58782935
H      60.81440256      91.17457493      94.97366830
C      56.77794716      91.79062570      94.70910661
H      55.40789558      90.36577207      94.13274009
C      55.65167027      93.22870742      97.07315423