 %block lattice_cart
   137.614   0.000   0.000
   0.000 142.646   0.000
   0.000   0.000   160.855
 %endblock lattice_cart

 %block positions_abs
N      86.68664552      40.03007712      82.94745005
H      88.47432661      39.36111401      83.00792129
H      85.62272960      38.66380500      82.14998554
H      85.91752691      40.20582167      84.68788797
C      86.61483592      42.41680146      81.43188954
H      87.41607987      44.06653253      82.37108352
C      87.94520324      42.29585897      78.89587682
H      86.99656063      41.03730125      77.56928895
H      89.81036310      41.42091569      78.94878916
C      88.16441149      44.98116006      77.86786571
H      86.25389818      45.67468962      77.53149443
H      89.13195136      44.96982171      76.04994899
S      89.74044324      47.40756865      79.80105572
C      89.49855827      50.26105538      78.02660273
H      90.09004261      51.95613988      79.03571658
H      87.59749360      50.75616368      77.40488276
H      90.75333654      50.03617795      76.40899699
C      83.85205605      42.89490221      81.00292167
O      82.70121271      41.27162731      79.91443931
N      82.66719765      44.97738061      82.01203552
H      84.07126429      46.09987804      82.64887329
C      79.99701437      45.60854920      82.29738418
H      79.07671765      44.75250318      80.66466066
C      79.09372519      44.29518941      84.70867497
H      79.96488902      42.43191927      84.81827910
H      77.04526187      44.17424693      84.89197842
C      79.75323966      45.61421838      87.14642191
O      78.11106750      46.82931240      88.42765635
N      82.01335234      45.54240878      88.22356591
H      82.16642018      46.62522196      89.79014903
H      83.45143407      44.75628263      87.24846712
C      79.44710400      48.46770511      82.57517395
O      81.18754194      49.90578684      82.48635683
N      77.05660023      49.38233265      83.10996650
H      75.71867399      48.03306806      82.92288360
C      76.23267954      52.02794948      83.42744053
H      76.28937133      53.03517361      81.63031080
C      73.46045105      52.07141319      84.11152144
H      72.37385842      51.03962262      82.69989589
C      72.77259066      50.98860001      86.74391020
H      72.90865096      52.49093243      88.14608713
H      74.16720868      49.61287926      87.38263769
H      70.91121026      50.10798755      86.73824103
C      72.29448992      54.76616291      83.75814263
H      73.30360376      56.09086106      84.96567774
H      70.28382111      54.63955125      84.18333104
C      72.38141733      56.07196379      81.25047581
H      71.23813291      54.92867938      79.97491056
H      74.32783542      56.47069605      80.70434490
H      71.29293497      57.79350447      81.55850120
C      77.83894692      53.53217163      85.38897643
O      78.50413058      55.68645963      84.78426401
N      78.47578469      52.49849134      87.60940486
H      78.09028051      50.65222873      87.89853299
C      79.77024721      53.97814704      89.47645446
H      78.62507307      55.68834935      89.57094076
C      79.89685887      52.64777972      92.03325416
H      81.09116589      53.55862780      93.44110026
H      80.99101040      50.93379795      91.70066232
C      77.49690646      52.06007483      93.53369685
C      76.92998855      49.48626759      93.94943664
H      78.04492709      47.94992010      93.19921529
C      74.77003139      48.88344490      95.28925259
H      74.28437171      46.93135762      95.63318279
C      73.22234554      50.82608355      96.27191028
H      71.39498019      50.43679993      97.08638232
C      73.62863669      53.36965517      95.77113281
H      72.45889611      54.78694990      96.66497334
C      75.86796237      53.94791142      94.36706616
H      76.30826860      55.89999870      93.96833390
C      82.50657090      54.63388207      88.50702485
O      83.37773473      56.81840569      88.63174679
N      83.78402590      52.83108317      87.36374044
H      82.86939836      51.17568292      87.11051711
C      86.25578792      53.21280788      86.18455121
H      87.63339840      53.95736005      87.52247744
C      87.22710724      50.54829378      85.50613946
H      88.95431709      50.91490069      84.44222355
H      86.00823376      49.55051829      84.17955159
C      87.88851145      48.86454764      87.72089870
H      86.37295095      48.88722435      89.11740646
H      89.69886926      49.41067854      88.53915020
C      88.45731907      46.17546709      86.86863214
O      90.74010846      45.52540124      86.55493757
O      86.61861537      44.67313467      86.37919303
C      86.30114134      54.87387731      83.81105497
O      88.30614096      55.58252468      82.91154525
N      84.04102868      55.45402329      82.84540483
H      82.61239559      54.86253895      83.96601252
C      83.43631626      56.93934817      80.62119695
H      85.18242337      56.76738308      79.54027350
C      81.26880017      55.58063495      79.17177686
H      79.47167045      55.61842948      80.17333182
H      81.64296598      53.56618670      78.96201724
C      80.87384737      56.63699196      76.49025522
H      82.43098185      55.95669049      75.32996328
H      80.83794257      58.69301419      76.34852575
S      77.94477159      55.39544177      75.00304063
C      78.86695803      55.36520615      71.69979903
H      79.29781562      57.26060165      71.02138727
H      77.36084615      54.55640329      70.55084543
H      80.60928569      54.27105462      71.60531271
C      83.11506278      59.71913558      81.10307715
O      84.71944043      61.19312210      80.33017910
N      81.20643921      60.33896581      82.62997602
H      80.38818772      58.74025735      83.27626241
C      80.61495487      62.91466277      83.70145084
H      80.02724998      64.21479448      82.21612595
C      78.35106275      62.46868736      85.59495660
H      78.05248599      64.28660408      86.51714305
H      78.95766489      60.96635495      86.86863214
C      75.88308019      61.52949339      84.34395779
H      76.12496515      59.76070956      83.31405695
C      73.62485724      61.47280160      86.28470670
H      73.32250103      63.20190117      87.36185070
H      74.03870729      60.06873495      87.73412680
H      71.91843438      60.90021452      85.28504150
C      74.99868826      63.51370602      82.38431160
H      76.22890010      63.85385675      80.76670588
H      74.58483821      65.32217410      83.27437270
H      73.47367913      62.72191069      81.24669636
C      82.93931824      64.18455886      84.99213392
O      83.50812586      66.42955372      84.61607838
N      84.62495411      62.50459216      86.07872654
H      84.16575062      60.66966791      85.82928266
C      87.05514214      63.15654774      87.23145959
H      86.83026471      64.67399797      88.60529063
C      88.02457175      60.88698644      88.53159129
H      88.84471297      59.54339103      87.20311370
H      86.53357769      59.81551162      89.46511610
C      90.00122547      61.40666118      90.50257584
H      88.95998626      61.98869688      92.18254254
H      91.17285578      63.00914909      89.95455520
C      91.87772370      59.22591701      90.91642591
H      93.38572530      59.76637874      92.20899870
H      92.58637107      58.57396143      89.09661947
N      90.54357692      57.19068177      92.23356515
H      89.34360071      57.69334897      93.62629344
C      91.45064555      54.91734102      92.38474325
N      93.09659716      53.80051277      90.94855126
H      94.14728500      52.28873172      91.44554927
H      93.44619654      54.47892451      89.20055441
N      90.58326117      53.52272300      94.26691066
H      91.29757772      51.75771862      94.39730177
H      89.39651305      54.33341559      95.52168893
C      89.03368560      64.35841368      85.37385862
O      90.68530639      65.82295157      86.03904228
N      88.71810129      63.88220265      82.95122950
H      87.39529287      62.57829149      82.50147463
C      90.47176731      64.79683018      81.00481139
H      92.09882168      65.70956799      81.87408550
C      91.30135717      62.49136408      79.37019814
H      89.78957612      61.15154812      78.96390698
C      92.45031077      63.21134981      76.76426555
H      93.66540478      61.61642080      76.29561341
H      93.41785064      65.01414871      76.99481216
H      90.91963245      63.48158067      75.41311124
C      93.23832663      60.79627958      80.87253054
H      93.99988634      59.18056358      79.84640917
H      92.34448610      59.97235890      82.53737943
C      95.64394824      62.06995511      81.88353413
H      96.44519220      60.78116177      83.27437270
H      95.27167216      63.79338551      82.94745005
H      97.06124297      62.06239621      80.38876061
C      89.29068838      66.79805035      79.34185224
O      90.34326592      68.71612255      78.63698433
N      86.74900648      66.62419553      78.93556108
H      85.84571730      65.15965763      79.76137148
C      85.34493983      68.77659380      77.88298353
H      86.33137697      69.49657952      76.22569355
C      82.73522780      67.90165051      77.24425602
H      81.55981802      69.56083022      76.90788474
H      82.00012426      66.80749898      78.82784667
C      82.56137298      66.14798450      74.92367211
O      83.80292316      66.60151881      73.00182046
O      81.33683032      64.16566159      75.10886529
C      85.15029802      71.13686196      79.62153173
O      85.45832341      73.28170133      78.77115488
N      84.67975617      70.90820508      82.11030128
H      84.54747532      69.13564180      82.80194112
C      84.04291840      73.07572116      83.62775151
H      83.96166017      74.74623922      82.42588557
C      81.33683032      72.51258272      84.62174756
H      81.55036939      70.96489687      85.96534296
H      80.14441301      71.60740381      83.20823228
C      80.06126506      74.69710634      85.96156351
H      81.54092077      75.89330309      86.75335884
H      78.77247171      73.83917059      87.31649727
C      78.54381482      76.38841139      84.28348654
O      77.42131740      75.44732768      82.49958491
O      78.70633130      78.80348161      84.79938183
C      85.92130636      73.55004246      85.82739295
O      86.71877086      75.75913252      86.20722793
N      87.21198943      71.60551409      86.74013075
H      86.32948724      69.95956247      86.35462659
C      89.05447259      71.72267712      88.83961669
H      90.42830362      73.23445817      88.57505500
H      90.04846862      69.92365767      88.96811808
C      87.66174428      72.36518407      91.34917322
O      85.30903503      72.23479295      91.59105819
N      89.07903903      73.07950061      93.40141600
H      90.95175780      72.81871838      93.15386186
C      88.14173478      73.86751648      95.89207529
H      86.09516118      74.06593775      95.73900746
C      88.73888829      71.79448672      97.90274408
H      90.78924134      71.88708331      98.08037835
H      88.20409574      69.97279055      97.10527957
C      87.82426076      72.49179573     100.53891229
H      88.87494858      74.17365215     101.10205072
C      84.88006716      72.76013686     100.88851166
H      84.55314451      74.55537686     101.84093372
H      83.98244716      71.22945855     101.93353031
H      84.12039717      72.79226221      98.97421891
C      88.62739444      70.24491114     102.26234268
H      90.65885023      70.11640975     101.94675839
H      87.92441625      68.50636293     101.41196584
H      88.08315326      70.69466600     104.19553271
C      89.03935477      76.60384019      96.67064253
O      91.31269553      77.28981084      96.74812131
N      87.19498190      78.07026780      97.49834265
H      85.34493983      77.60728486      97.55503444
C      87.52379426      80.65919285      98.49422842
H      89.43997674      80.90107782      99.21232442
C      87.07403941      82.62450822      96.39852193
H      86.86050034      84.59171331      96.97299874
H      85.25234324      82.31648283      95.48389441
C      89.40596168      82.72088426      94.56359768
H      89.93319532      80.76312780      94.20643942
H      90.91963245      83.64307070      95.61428552
C      88.65385061      84.09660502      92.14096856
H      90.33948648      84.64840510      91.09217046
H      87.64473675      85.77468198      92.77402686
N      86.97199418      82.51868355      90.56493681
H      86.96065583      80.63084696      90.82949849
C      85.88162210      83.05158637      88.36340566
N      85.68320084      85.22477163      87.15964999
H      84.77235276      85.30036068      85.48346276
H      86.07437419      86.76111912      88.22167619
N      84.72699933      81.21666212      87.24279796
H      83.81993070      81.60027656      85.61007442
H      84.68353562      79.44787829      87.95900423
C      85.73422346      80.95587988     100.66741368
O      83.43631626      80.74800999     100.41608007
N      86.82081608      81.25823609     102.90295990
H      88.70109376      81.57004094     102.83870921
C      85.26368160      81.41319365     105.25188972
H      83.79536426      79.97511193     105.09315270
C      87.14395928      80.70643601     107.35326538
H      86.32948724      80.98611551     109.22409443
H      88.56692320      82.18798144     107.21720508
C      88.72943965      78.18365138     107.48554621
H      89.76123022      77.85861846     105.73565964
C      90.58137145      77.95688423     109.71164382
H      91.58292639      79.72566805     110.04234591
H      91.98921755      76.50746414     109.31480128
H      89.56469868      77.16697863     111.31791118
C      86.74144757      76.20510793     107.91262436
H      85.55092000      76.76068747     109.50188420
H      87.51812509      74.31538162     108.16017851
H      85.38084463      76.10684217     106.36871797
C      84.05236704      83.92841937     105.99644188
O      82.22500168      83.94542691     107.50633321
N      84.86494935      86.06569983     104.89662116
H      86.54113659      85.89751419     104.00089089
C      83.61961970      88.61683036     105.10827051
H      82.49523254      88.30124606     106.80524475
C      85.71532619      90.44419570     105.70353431
H      87.05892160      90.49899776     104.14451009
H      86.61861537      89.98310248     107.49688457
C      84.76479385      93.22587283     106.26478302
H      83.76890808      93.47909616     108.04868465
H      83.68009094      93.58492083     104.55080126
C      87.24978395      94.83025047     106.28557001
H      87.93764434      94.99087721     104.35237998
H      88.61605607      94.06869077     107.62727569
C      86.94364830      97.66672967     107.16807220
H      86.38050985      97.62515569     109.14850538
H      85.37139600      98.65505653     106.27801110
N      89.30958563      99.00276617     106.78445776
H      90.81380778      97.91428382     107.22665371
H      89.25289385     100.72241712     107.61026815
H      89.61005212      99.29378403     104.92118761
C      81.82060026      89.11193865     102.76312015
O      82.21933251      88.20864947     100.70709794
N      79.82315955      90.61427107     103.13350651
H      79.21844713      91.03945949     104.89284172
C      78.10350859      91.43441229     101.04913839
H      76.96778309      89.81680657     100.47277186
C      76.21567201      93.32791806     102.04502417
H      77.35895644      94.73198471     103.02390239
C      74.53570532      94.42206959     100.01545810
H      73.22045581      95.76188555     100.86016577
H      73.69288739      92.65139604      99.37862033
H      75.53915000      95.60881772      98.66619352
C      74.32216625      91.99566100     103.95553746
H      75.49001710      91.34370543     105.52212058
H      73.40186954      90.31947377     103.19397775
C      72.27748238      93.67184824     105.19708765
H      73.32061130      95.20630601     106.08903846
H      71.50836377      92.73076454     106.86004680
H      70.77892941      94.56757852     104.10104638
C      79.59072320      92.55690972      98.82493053
O      81.42753719      93.86271060      99.16697099
N      78.85561968      91.79912947      96.48355962
H      77.48178864      90.48199023      96.34938905
C      79.79670337      92.64572686      94.03258460
H      80.88896518      94.35214972      94.41241959
C      81.63351736      90.54624092      92.95166115
H      82.89396480      90.18530320      94.54092098
H      82.89963399      91.22843212      91.47578490
C      80.58849869      87.97621314      92.21277815
C      79.95166094      87.46976649      89.61062502
H      80.21622261      88.89462013      88.17632274
C      79.37907386      85.08682160      88.82638861
H      78.86506830      84.73533251      86.88186022
C      79.36962522      83.05914527      90.49312721
O      78.94821627      80.63462641      89.89597370
H      78.67420595      80.52880174      88.10640288
C      79.99323492      83.52968712      93.12740569
H      80.30126030      81.90830195      94.32927162
C      80.61873432      85.93341899      93.99667980
H      81.43698582      86.09404573      95.85806021
C      77.72934279      93.05201801      91.95199593
O      75.56560616      92.16195692      92.06160005
N      78.41153399      94.36159835      89.86762780
H      80.17086919      95.10237106      89.86195862
C      76.83172279      94.73576416      87.55271307
H      74.89286359      94.30112711      88.09128506
C      76.96022418      97.50799266      86.70422595
H      75.74135071      97.63838378      85.04882571
H      78.93309845      97.79523106      86.19022040
C      76.25346654      99.45630049      88.69410776
H      77.13218928      98.93473603      90.47989913
H      74.26358473      99.14638537      89.12118591
C      76.86006869     102.06034335      87.66231720
H      75.89063909     102.35325093      85.86896692
H      78.88207583     102.14349131      87.29193083
C      76.21189255     104.13337311      89.54070515
H      77.40242013     104.22030052      91.21878212
H      74.33161488     103.77243539      90.30226486
N      76.38952683     106.63726048      88.47678924
H      78.06571408     107.00764684      87.63586102
H      76.15898022     107.89959765      89.89030451
H      75.14419720     106.93772696      87.06327395
C      77.24935231      92.86493511      85.52125728
O      79.36962522      92.41518025      84.80883045
N      75.22923488      91.71031233      84.60285029
H      73.58328325      91.95975620      85.53637509
C      75.29348558      90.24577444      82.26336911
H      76.79959744      88.84170779      82.31817118
C      72.81227492      88.86816396      82.21234650
H      71.31372196      90.27223061      82.04983004
H      72.69133243      87.91574190      84.03404267
C      72.43810912      86.91985613      80.12419893
O      72.55527215      87.34126510      77.85085818
O      71.93544192      84.71076607      80.83473603
C      75.74513015      92.00321991      79.83129135
O      75.54481918      94.34648054      79.98246946
N      76.37251929      91.00355469      77.53716360
H      76.11929596      89.11382838      77.46346429
C      76.53692549      92.63060905      75.21846942
H      77.76713732      94.24254559      75.57940715
C      77.78414485      91.04890812      73.07740950
H      77.72556334      92.00321991      71.25382361
C      80.54881445      90.56324846      73.81440277
H      81.62028926      92.32258366      73.83330004
H      81.38029403      89.48610446      72.26671691
H      80.70377200      89.54846543      75.60019414
O      76.69377277      88.71887558      72.92056222
H      77.17943243      87.87038846      71.39366337
C      73.87808057      93.45263999      74.40777683
O      73.63808532      95.15150395      72.77505329
N      71.76536655      92.39817271      75.46035438
H      71.91843438      90.71064711      76.34096686
C      69.22746410      93.45830917      75.16933654
H      68.98368942      94.41262096      73.35897873
C      67.34529670      91.26811637      75.17122627
H      66.78971717      90.64072724      77.05150395
H      68.29960848      89.61649558      74.38887956
C      64.95668263      91.64228218      73.40622189
H      63.74347834      93.13894542      74.13754596
H      63.75481671      89.98499221      73.18134445
C      65.61619712      92.30179667      70.64533174
O      65.58029233      90.61049162      68.98237259
O      65.64832247      94.55435043      69.99526589
C      68.43755850      95.61637662      77.02315805
O      66.22846845      96.50454799      77.08929847
N      70.18177590      96.50643771      78.68233775
H      71.95055973      95.79212117      78.62186651
C      69.73013131      98.50765788      80.62497641
H      68.63031059      99.97219577      79.68200297
H      71.44222335      99.55645598      81.08229017
C      68.64353868      97.40783717      83.09484869
O      68.32606466      98.88560314      84.95433938
N      68.00670091      94.98898748      83.33484394
H      68.18622491      93.82113662      81.83440125
C      66.54027329      93.91562294      85.53070591
H      65.25903885      95.41606563      86.12407998
C      65.02471279      91.60637738      84.59907083
H      63.89654618      90.91473755      86.17888204
H      66.32673422      90.16451621      83.91498992
C      63.20301663      91.81613701      82.36541433
C      62.46413364      89.80546821      80.80639013
H      63.11042004      87.88739600      81.08040045
C      61.00715464      90.32136349      78.55761581
H      60.54417170      88.85871533      77.21213069
C      60.13410109      92.80446387      78.08896369
O      58.52216455      93.22209338      76.17089148
H      58.24437478      94.98709776      75.85152773
C      60.92211697      94.71686690      79.66688516
H      60.28338947      96.62360075      79.31728580
C      62.42255966      94.29356820      81.75314302
H      62.92333713      95.78834171      83.04949526
C      68.45645577      92.92729608      87.47334456
O      70.55405197      92.14494938      86.85540406
N      67.66655017      93.36949203      89.79959766
H      65.91666360      94.10837502      89.96967302
C      69.05738873      92.86304538      92.06537951
H      70.99057876      93.45075027      91.66475752
C      68.02748790      94.36159835      94.22722641
H      68.80416541      93.58681056      95.96955407
H      66.02248828      93.99310172      94.52202371
C      69.05549902      97.09603232      94.30659490
C      67.18089051      98.95363329      94.36517642
H      65.24959022      98.36025923      94.08738665
C      68.05583380     101.48586655      94.41808876
H      66.68578222     102.99953733      94.37084560
C      70.66743555     102.11325568      94.59383331
O      71.43088499     104.55667181      94.50501618
H      70.11941493     105.79633227      94.34060999
C      72.41165295     100.19140402      94.96421967
H      74.44121900     100.37848693      95.04358817
C      71.62930625      97.72720091      94.68454017
H      73.07116742      96.28722946      94.58627441
C      69.18777986      90.10971414      92.70221727
O      67.26970765      88.89462013      92.70599673
N      71.32128087      89.28957292      93.65274960
H      72.81605437      90.44986488      93.41842354
C      71.87119122      86.57781567      93.81337634
H      70.10240738      85.57248127      94.13840927
C      72.92187904      85.46098741      91.27169445
H      74.86262798      86.14884779      91.16586978
C      72.74613451      82.69064864      90.88808001
H      70.79026777      82.06703896      90.72745327
H      73.63619560      81.73444713      92.48111930
H      73.83839631      82.22955542      89.20244414
O      71.43277471      86.48710880      89.14008316
H      71.75780764      88.24644400      88.83961669
C      73.71745383      86.17719369      95.97711297
O      75.06293897      87.90629326      96.74623157
N      73.78548398      83.79991799      96.92764530
H      72.65731737      82.46766093      96.15096779
C      75.80371168      82.99300485      98.73233394
H      77.55359824      84.02101596      98.38840375
C      74.95711428      83.57882001     101.38361996
H      74.29759981      85.52523811     101.23244185
C      72.89353316      81.74011630     102.23777624
H      71.46678979      81.41697310     100.78646643
H      72.01292069      82.65285411     103.86105115
H      73.52470175      79.84850026     102.75367152
C      77.13029955      83.51834876     103.51334150
H      78.93687790      84.30069546     102.91429827
H      77.39864069      81.59649710     104.20498134
C      76.34228368      84.99044556     105.86605077
H      74.47712380      84.40085095     106.50855771
H      76.02858911      86.95009175     105.31236096
H      77.68209964      85.00745310     107.43074416
C      76.50668986      80.15085647      98.31092496
O      75.22356569      78.64852406      96.99000628
N      78.54759429      79.28536182      99.50145255
H      79.57938484      80.42864624     100.62772943
C      79.28836699      76.61895800      99.96821494
H      77.66509210      75.76669143     100.90740891
H      81.01746658      76.50557442     101.07937402
C      79.79103420      75.36795918      97.40385634
O      81.51824404      76.29392507      95.96577462
N      79.09750464      72.91509442      96.89929940
H      78.06382435      71.93432647      98.16919549
C      79.26191083      71.76425110      94.24423394
H      80.94754669      72.61651766      93.42220299
C      79.83071845      68.80871914      94.35572780
H      78.06382435      67.91676832      94.92831487
C      80.70566174      67.82039228      91.74979520
H      81.10817343      65.80027485      91.64963972
H      82.39318733      68.89186710      91.25657663
H      79.00679777      68.21156563      90.65186421
C      81.69398860      68.13219712      96.66497334
H      80.68298502      68.47423759      98.42619827
H      83.24167445      69.48335144      96.79725419
C      83.05081208      65.49791864      96.60639184
H      84.15063280      65.27115149      94.87918199
H      81.58627420      64.05605747      96.47600071
H      84.19598623      65.42043987      98.31659415
C      77.00746734      72.32361009      92.50946519
O      75.26136023      70.71734272      92.45466312
N      76.65219878      74.71600360      91.77814111
H      78.11673669      75.92542844      91.97467263
C      74.51680806      75.65897703      90.24557307
H      74.17098814      74.51002343      88.57127554
H      74.85884852      77.59216705      89.62007365
C      71.94300082      75.66842566      91.41153420
O      70.18366563      75.07883105      90.08872578
N      71.43277471      76.20699766      93.93998801
H      72.85573863      76.48478743      95.17964847
C      68.87408529      76.71344431      95.09083133
H      67.52482070      75.43598932      94.20265997
C      68.65676676      76.10306271      97.91786189
H      69.61863745      77.43720949      99.15752235
H      69.22746410      74.14152680      98.17108522
C      65.91288416      76.20510793      98.82493053
N      64.16677703      74.30215354      98.54147158
H      64.58818601      72.54659779      97.91786189
C      61.97280480      75.22622970      99.56192379
H      60.23803604      74.15097543      99.62239503
N      62.29405827      77.60728486     100.38395474
H      60.95235258      78.79781243     101.03591030
C      64.87920386      78.21199728     100.01356838
H      65.94311977      79.87117698     100.53891229
C      68.05961325      79.48567281      94.57871550
O      68.91565927      81.19776485      95.82593486
N      66.28704996      79.81259546      92.77969605
H      65.33462791      78.24601235      92.24868295
C      65.05305868      82.27868830      92.21277815
H      66.28516024      83.90007348      91.89341440
C      63.35419472      81.70988068      89.84117163
H      61.96335615      80.30581403      90.42131761
H      64.44456680      81.05603538      88.22167619
C      61.70446366      84.03991323      89.03236877
H      60.25315384      84.31203382      90.46856077
C      63.25592896      86.30191562      88.17254329
H      61.94067945      87.78913023      87.62641239
H      64.42566955      85.90318337      86.52470196
H      64.41811064      87.08804177      89.68054489
C      60.31740455      83.45976725      86.62863689
H      58.71302690      82.18609171      86.86485268
H      61.68367667      82.59049314      85.35496137
H      59.27805507      84.99422502      85.72912718
C      63.43734269      83.23488982      94.47667028
O      61.64966160      81.92341976      95.10027995
N      64.22346882      85.30036068      95.56515264
H      65.83351565      86.07136901      94.88863062
C      62.94223439      86.57970539      97.60038787
H      62.10319590      85.29091205      98.97043945
C      64.88487303      88.39573238      98.95910109
H      63.99670168      89.58248050     100.39151363
H      66.03004719      89.57303187      97.71944063
C      66.90499046      86.75733967     100.25167389
H      67.84796389      85.50067167      98.91941683
C      68.97424079      88.53179267     101.14929388
H      68.32039547      89.79224012     102.64217767
H      69.57139430      89.62216476      99.51090118
H      70.50491909      87.31858838     101.80880838
C      65.79950057      85.33059630     102.57603725
H      64.93778538      86.69119924     103.86105115
H      67.36230424      84.41218931     103.55491549
H      64.40299283      83.89062485     102.10549540
C      60.66322446      88.20109057      96.72166513
O      58.53728236      87.92896998      97.60227760
N      61.04683890      89.82814492      94.88107171
H      62.75515149      90.16262648      94.09494556
C      59.03428038      90.96387044      93.35228313
H      57.57352194      89.55035516      93.02536047
C      57.59052948      93.08792281      94.78091621