 %block lattice_cart
   137.614   0.000   0.000
   0.000 142.646   0.000
   0.000   0.000   160.855
 %endblock lattice_cart

 %block positions_abs
N      91.70953806      41.16202318      78.38754045
H      90.52090021      40.30975661      77.15921835
H      91.87205452      40.36077923      80.11286057
H      93.41407118      41.34343691      77.54850197
C      90.75900572      43.81519893      78.68800693
H      91.86827507      44.92446827      80.02404344
C      91.08970783      45.27973682      76.17278121
H      90.00122547      44.56353055      74.57974193
H      93.04557456      44.95470389      75.61720167
C      90.29791250      47.94992010      76.53749839
H      88.32314849      47.68157896      77.06284230
H      90.42263444      49.07430725      74.81595772
S      91.51300652      49.70736557      79.15854878
C      94.86160154      49.99649370      78.16833220
H      94.94663922      50.20247386      76.11986887
H      95.89528184      48.35810098      78.86942066
H      95.70252976      51.75393917      78.83540559
C      88.06614572      43.60732903      79.83885026
O      86.49767289      42.07665072      78.99792205
N      87.33860110      45.34398751      81.50369914
H      88.69542458      46.29451985      82.45045202
C      84.88762607      45.35910532      82.57706368
H      83.64229642      44.11944486      81.50180941
C      85.00478910      44.14401130      85.19433463
H      86.50901124      45.07564638      86.25069164
H      85.66241385      42.20137265      85.00158254
C      82.66908738      44.20070309      86.74957938
O      80.93620834      45.58587248      86.45478208
N      82.75979424      43.01206524      88.86796258
H      81.19888030      43.01017552      89.96967302
H      84.18653760      41.82720684      89.31393799
C      83.94465263      48.18046671      82.48068764
O      85.49800767      49.84153614      82.70934453
N      81.48233925      48.68502363      82.23691295
H      80.17464863      47.31497206      82.45045202
C      80.44110004      51.17946237      82.05738895
H      81.04203302      52.26605500      80.41521678
C      77.52336263      50.93946713      81.62086217
H      77.30415437      49.95114026      79.82751190
C      76.14764186      49.45414224      83.58617754
H      76.55771248      50.41601294      85.36063054
H      76.71644948      47.47559879      83.50680903
H      74.11996554      49.50327513      83.22712954
C      76.38385765      53.45658257      80.86875110
H      76.79959745      54.85120059      82.32761981
H      74.37507858      53.03328388      80.70812436
C      77.37596396      54.49593205      78.35352538
H      77.33250027      53.06540923      76.87386967
H      79.25813138      55.28583765      78.63698432
H      76.15898023      56.03794872      77.72991569
C      81.20454948      52.82163453      84.33072970
O      81.53336186      55.16867461      84.12097008
N      81.53903104      51.68401929      86.62107799
H      81.54281049      49.77917517      86.70989513
C      82.57271133      52.78761946      88.96433862
H      81.51635433      54.42223272      89.63519146
C      82.31759828      50.69191298      91.01847113
H      83.62339916      51.15300620      92.54536999
H      82.77680178      48.77573050      90.41564843
C      79.65875336      50.39900540      92.10128430
C      77.66698183      49.04974081      90.85973411
H      78.01091201      48.13889273      89.06449412
C      75.30293420      48.63211130      91.97845209
H      73.82894768      47.69669677      90.92020536
C      74.74735467      49.74704982      94.32738190
H      72.84440027      49.54295938      95.03791899
C      76.73723648      50.94891576      95.58404990
H      76.32338642      51.74071108      97.41897415
C      79.18821150      51.41567816      94.45399356
H      80.61495487      52.34542350      95.57460127
C      85.33738093      53.60965041      88.91520574
O      86.07815364      55.15922598      90.39486144
N      87.03435516      52.85375988      87.14264246
H      86.48444480      51.60654051      85.80849568
C      89.63839802      53.86098401      86.97634654
H      90.04846862      54.93056910      88.68843858
C      91.64528736      51.73693163      86.91965475
H      91.41852021      50.64466982      85.18677572
H      90.98766260      50.42168212      88.36340566
C      94.30413229      52.63455163      87.42799113
H      94.22665351      53.66256274      89.20811332
H      94.84837346      53.94035251      85.93132789
C      96.08236475      50.55774241      87.65853774
O      95.96142226      48.65100856      86.22612520
O      97.53178483      50.44624856      89.56716132
C      89.72910488      55.55228906      84.67277017
O      90.79491051      57.56862703      84.88630924
N      88.70109377      54.62821289      82.45423147
H      87.90173954      52.89533386      82.39187051
C      88.59904855      56.25148779      80.22813388
H      90.31680977      56.25526724      79.09051864
C      86.64318180      54.89277457      78.49903430
H      84.84983154      54.70947112      79.49492007
H      87.18364354      53.06918868      77.70345952
C      86.08193309      56.20046518      76.01782365
H      87.72788472      56.24392889      74.78005292
H      85.30903504      58.00137436      76.64899224
S      83.61395053      54.51293958      74.58541111
C      82.85239083      56.41400425      71.93223536
H      83.03380455      58.43412168      72.29884227
H      80.91731108      55.87354253      71.47870105
H      83.85583550      55.69968771      70.28250429
C      87.72032581      58.87631764      80.62308668
O      88.87494858      60.70368298      79.81806327
N      85.87028375      59.38654374      82.29171501
H      84.86872880      57.85775516      82.83973564
C      84.76479386      61.82429069      82.80572057
H      84.19976569      62.58585039      80.97835522
C      82.29114211      61.49169886      84.33072970
H      82.07949276      63.15276829      85.52881619
H      82.52168872      59.90621848      85.62708195
C      79.74001159      60.83596383      82.74902878
H      79.91764586      59.32229305      81.36196967
C      77.55737769      60.26904593      84.52348179
H      77.23990368      61.66933313      85.99935804
H      77.88241063      58.48703402      85.50613947
H      75.84906511      59.75315065      83.49169122
C      78.81782515      63.16221692      81.18622512
H      76.83361251      62.94111894      80.68355792
H      79.83071845      63.16410664      79.39287485
H      79.13718890      65.03871515      81.97613072
C      86.64318180      63.65354576      84.23057421
O      86.67719689      65.99680639      83.94144608
N      88.41952455      62.57829149      85.73290663
H      88.47054716      60.67155764      85.73668608
C      90.46042895      63.71401700      87.14453218
H      89.74989187      65.35429944      88.16498439
C      91.59615448      61.98113797      89.27425374
H      92.93786016      63.14331965      90.31927239
H      92.72999026      60.62809393      88.21033782
C      89.71398706      60.52037953      90.92776426
H      88.46865743      59.34308004      89.78636957
H      88.60282799      61.92066673      91.95199592
C      91.13506125      58.76104433      92.77969605
H      92.38606008      59.80039381      94.04203323
H      92.38039090      57.55539895      91.66664725
N      89.37194661      57.06029065      94.14029899
H      88.72566020      55.38221369      93.49968177
C      88.70487322      57.53650168      96.41363975
N      89.32848290      59.68323078      97.61172623
H      88.95998626      59.91566711      99.47121692
H      90.46609814      60.86808917      96.64607609
N      87.06270104      56.02094118      97.42275360
H      86.42208383      56.66344813      99.10272029
H      86.38806876      54.36932038      96.74623158
C      92.50322311      64.60974727      85.24535724
O      93.86382605      66.39175919      85.80849568
N      92.84148412      63.44567586      83.07028225
H      91.91362849      61.83184959      82.65643219
C      94.73498987      64.12975679      81.23913746
H      96.03512158      65.44689603      82.14242663
C      96.39227985      61.78838589      80.49080584
H      97.75288280      62.34207570      79.04705493
C      97.83414104      60.73580833      82.86997126
H      98.75254803      62.32317843      83.80916524
H      99.10592684      59.22591701      82.28226638
H      96.57558331      59.77582737      84.18900023
C      94.82380701      59.72669448      79.19067413
H      93.59170547      60.51093090      77.73936432
H      93.54446231      59.10875398      80.67977847
C      96.33747779      57.40422084      78.14754521
H      98.26877809      58.02405107      77.79605611
H      95.62505098      56.90533310      76.28049561
H      96.44897165      55.73937196      79.35319059
C      93.52934450      65.55838988      78.89020765
O      94.92963169      66.27837561      77.22346904
N      91.01033932      65.51114672      78.90721519
H      90.02390218      64.43400273      80.13553729
C      89.67619253      66.76592500      76.95134845
H      90.81002833      67.07772984      75.25815367
C      87.48788947      64.97257473      76.28238534
H      86.17641941      64.83840416      77.86597599
H      88.23811081      63.09229704      75.90632980
C      86.22933175      65.64531729      73.77849797
O      87.45387439      66.05160845      71.79995452
O      83.96543963      65.79460567      73.90510963
C      88.68219649      69.31705552      77.85463763
O      89.09604657      71.17276676      76.44868125
N      87.42363878      69.55327131      80.03916125
H      87.09104695      67.88086352      80.89898672
C      86.80191882      71.97779017      81.28638061
H      86.74711676      73.46689450      79.86152697
C      84.25078830      71.90598057      82.63942465
H      84.25645748      70.58317215      84.21923585
H      83.02435592      70.84206465      81.37141830
C      83.20387992      74.42498574      83.34807202
H      84.48322463      75.51724755      84.53859960
H      81.71477558      74.03759185      84.71812360
C      82.31381882      76.18432094      81.28827034
O      79.97433765      76.59628128      81.09362853
O      83.80670262      77.19154507      79.90877013
C      88.85038214      72.88863825      83.21201173
O      89.84626791      75.00702145      82.92477333
N      89.49099937      71.27103253      85.12819421
H      88.56314375      69.60240419      85.18677572
C      91.00655986      71.97212099      87.17665753
H      92.51078201      73.20233282      86.48501770
H      91.94764357      70.31294129      87.95144532
C      89.61194185      73.24390680      89.32338662
O      87.55214016      74.21144667      89.00213315
N      90.80057970      73.29303968      91.56271230
H      92.55235599      72.53714916      91.63452190
C      90.00689465      74.51569261      93.85872977
H      87.95087242      74.62718646      93.82660443
C      90.72310092      72.71289370      96.03002531
H      92.71487246      72.25557994      95.76357390
H      89.64217747      70.96111741      96.01490750
C      90.57948172      73.72956646      98.73989284
H      91.77945793      75.40197425      98.81548189
C      87.74489225      74.12640899      99.46554774
H      86.98522227      75.68732292      98.35627840
H      87.63717784      74.53647960     101.47999599
H      86.81136745      72.30282309      99.25200867
C      91.58103666      72.08928402     100.68442122
H      90.32436867      70.52648036     101.15118362
H      91.61316202      72.83950537     102.60060370
H      93.44430680      71.42221063     100.11372387
C      90.85349204      77.31248755      94.15730653
O      93.04557456      77.82838283      93.61306535
N      89.27746029      78.81670969      95.29681150
H      87.40474151      78.44632334      95.26279642
C      89.99177684      81.17697786      96.72355486
H      91.94197439      81.12406552      97.37551044
C      89.11494382      83.35961175      95.13429503
H      88.85605133      85.03768872      96.30025617
H      87.23466615      82.74734043      94.55792851
C      90.87049957      84.24778312      93.11984679
H      91.58292639      82.53569108      92.22411651
H      92.66196011      85.08115242      93.70188249
C      89.65918500      85.91074227      90.98634578
H      91.18041469      87.15796164      90.38163336
H      88.35716358      87.27701440      91.81215618
N      88.66518896      84.59738249      88.90008793
H      88.12472724      82.78135550      89.13630372
C      88.43842181      85.41563398      86.58328347
N      88.96187599      87.73054871      86.09951353
H      88.72566020      88.50722623      84.37230368
H      89.40785141      88.90028930      87.54137471
N      87.74489225      83.98133171      84.80127156
H      87.96599022      84.52746261      82.98713429
H      87.02490653      82.23522460      85.07906132
C      88.37039166      81.09005045      99.12917646
O      86.21799338      80.21132771      99.30681073
N      89.36249797      82.18042253     101.18330896
H      91.10104618      82.88906990     100.83559932
C      88.47054716      82.01790607     103.80435936
H      86.74522703      80.89351891     103.81758744
C      90.46231868      80.85005521     105.59393018
H      89.95965149      81.24311828     107.55168664
H      92.19708745      81.89129441     105.20653628
C      90.89317629      78.01357601     105.23488218
H      90.89695574      77.81515475     103.18452913
C      93.44619653      77.28414165     106.34415152
H      93.71075821      75.35662082     105.66573978
H      93.44619653      76.91564502     108.36993813
H      94.98254403      78.53703020     105.78101308
C      88.63117389      76.66998060     106.49910908
H      88.74833693      77.36162043     108.43607855
H      88.79369036      74.63285564     106.24777548
H      86.85105171      77.31437728     105.68652677
C      87.57481688      84.76556813     104.69064100
O      86.36539203      84.97721748     106.65595637
N      87.93008543      86.67797116     103.04279965
H      88.82392598      85.99389023     101.50078298
C      86.99089145      89.25366812     103.18641885
H      86.04413856      89.40295650     105.01000475
C      89.22265823      91.08103347     103.36216340
H      90.04279944      91.18496841     101.47432681
H      90.74199818      90.31947376     104.52812454
C      88.70298349      93.85326197     104.30891628
H      89.45320484      93.91562294     106.22509877
H      86.66018935      94.10081611     104.32970327
C      90.19397755      95.78267253     102.67241330
H      89.25478358      95.81479788     100.84126850
H      92.14984429      95.14394504     102.59493452
C      90.18263920      98.35836950     103.86483060
H      90.99144206      98.46419417     105.75644664
H      88.20787519      98.91205931     104.04246487
N      91.46765309     100.20463211     102.13195157
H      91.16340715      99.80212040     100.28946842
H      93.36682803     100.12715333     102.30580639
H      90.54168720     101.84680427     102.42674888
C      85.05392198      89.68830517     101.03402058
O      85.16163638      88.53368240      99.00445452
N      83.21710801      91.40606639     101.56125423
H      83.27757924      92.21297953     103.29035380
C      81.10439399      91.97487401      99.90963343
H      80.26157604      90.17963401      99.35594362
C      79.15608615      93.51311123     101.33070762
H      78.79325870      92.48132066     103.07492500
C      80.00835273      96.09258765     101.93542004
H      81.41619883      96.06046230     103.43775245
H      78.36996001      96.95052339     102.84059894
H      80.55070418      97.17162137     100.26490197
C      76.48590288      93.46775780      99.79813958
H      76.01347130      91.52322942      99.30492101
H      76.34795286      94.45041548      97.99345095
C      74.39586558      94.54868125     101.33826652
H      73.96500798      93.49799342     103.05791747
H      72.76125232      94.30490656     100.11183414
H      74.45444708      96.58769594     101.63873300
C      82.07571331      93.08603308      97.40574606
O      83.87095331      94.58836550      97.34527482
N      80.81526586      92.39817271      95.32137794
H      79.32049235      91.21898349      95.17775874
C      81.68076051      93.13516597      92.77969605
H      82.55003462      95.00221557      92.84961592
C      83.63473751      91.12638690      91.92742948
H      85.15218775      91.14717389      93.32015777
H      84.60227739      91.62338492      90.17565319
C      82.77680178      88.55824884      91.30570952
C      82.53113735      87.71543090      88.82071942
H      82.48956338      89.22154277      87.44688839
C      82.23634005      85.08304215      88.11774123
H      82.21933250      84.72210442      86.10896216
C      82.16642017      83.22733091      90.00935727
O      81.75068039      80.72155382      89.45188801
H      81.38407348      80.67809011      87.67554528
C      82.41964350      84.14573790      92.50379601
H      82.34594417      82.58104451      93.81526607
C      82.68609491      86.76489857      93.24267900
H      82.83349356      87.36961099      95.18720737
C      79.30726427      93.16540159      90.98634578
O      77.15108654      92.82903031      91.91609112
N      79.64363555      93.64350235      88.55993719
H      81.46722143      93.60570782      87.99679875
C      77.79737293      93.90050513      86.56816566
H      75.94733088      93.53956740      87.39775551
C      77.51769345      96.70485897      85.59684633
H      76.18543640      96.74265350      84.02837349
H      79.39419168      97.36248373      85.05827433
C      76.74290566      98.40939211      87.84940010
H      78.27736342      98.51143733      89.22134140
H      75.03270335      97.89349682      88.87363176
C      76.13252406     101.10225210      86.93288284
H      75.53159109     102.40994271      88.40875909
H      74.48657243     101.00776579      85.69889155
C      78.36240111     102.21530090      85.52503673
H      79.07482793     100.84335960      84.16443379
H      79.83449791     102.49498040      86.93666229
N      77.58383387     104.40738343      84.02459404
H      78.97089297     104.70407046      82.74524933
H      77.29848519     105.90971584      85.16598873
H      75.93221306     104.00676145      83.15154048
C      78.18854629      92.11660349      84.31939135
O      80.42409251      91.68574589      83.49925013
N      76.07961171      91.35315406      83.12319459
H      74.41854229      91.47598627      84.05293994
C      75.89441853      89.84137300      80.77804423
H      77.29659547      88.34093031      80.63064558
C      73.17510238      88.79068517      80.72324217
H      71.77103573      90.29490732      80.77993396
H      73.05982907      87.64740076      82.43344449
C      72.74613451      87.22221234      78.33462811
O      74.13508334      85.40429562      77.99636710
O      71.44600279      87.87416791      76.55828538
C      76.26102545      91.71976096      78.63131514
O      76.21000283      94.04223460      78.73336036
N      76.66542688      90.69552930      76.29561342
H      76.76747210      88.79824408      76.12931750
C      76.83361251      92.15628774      74.03172130
H      78.11673669      93.74932702      74.27360627
C      77.93721269      90.63883751      71.84530795
H      76.60684536      89.19319688      71.22358800
C      78.91231147      92.49076930      69.77794737
H      77.26824957      93.02934129      68.65733966
H      80.15008220      91.54779587      68.42679305
H      80.18976645      93.90050513      70.56785297
O      80.14441301      89.40673595      72.67678753
H      79.82315955      87.71165145      73.23803625
C      74.46389573      93.55468521      73.19457254
O      74.65097863      95.51055194      71.83585932
N      72.20567277      92.69863919      74.08274391
H      72.23401868      91.31913898      75.39799342
C      69.85674297      93.96664555      73.85597675
H      69.76792583      95.04567927      72.10231073
C      67.76670567      91.90495414      73.78983633
H      67.40198849      90.74466218      75.45090576
H      68.26181397      90.49899776      72.36876214
C      65.25525939      92.81769195      72.76371494
H      64.17244621      93.95341746      74.09597199
H      64.08173935      91.20953486      72.24026075
C      65.49903409      94.23498668      70.23715086
O      65.87508963      92.95186252      68.33608619
O      64.87164495      96.54423224      70.13699537
C      69.50147442      95.81668761      76.08018462
O      67.39253986      97.00721518      76.32017986
N      71.30616305      96.01132942      77.69968007
H      72.93888659      95.06835599      77.41244167
C      71.37041375      97.87648929      79.84262971
H      71.05482946      99.74920806      79.04327548
H      73.28659622      97.89727628      80.59852024
C      69.76981556      97.46830840      82.08951430
O      69.70367513      98.92906684      83.85262895
N      68.59440580      95.30079232      82.18589034
H      68.65865649      94.51466618      80.44545240
C      67.16010352      94.22175860      84.19466941
H      66.03193692      95.78456226      84.92032431
C      65.52926971      92.07313978      83.42177135
H      64.78660727      91.23410130      85.15087092
H      66.88609320      90.67474231      82.75469796
C      63.58474134      92.40573161      81.33551350
C      62.93467548      90.21931827      79.73113586
H      64.14976950      88.58659473      79.87475506
C      61.05061835      90.44986488      77.87164517
H      60.78983611      88.93997355      76.52427030
C      59.82040652      92.79879468      77.53338416
O      58.19713162      93.28634407      75.61153250
H      57.63966235      95.00977447      75.51893591
C      60.42700867      94.93229569      79.00170150
H      59.43490236      96.71619733      78.90532546
C      62.40933157      94.76977923      80.79883122
H      62.98002892      96.49131990      81.73235602
C      69.09896271      93.40539683      86.21289711
O      71.16254386      92.51533574      85.55527235
N      68.53771400      93.60381809      88.52403239
H      66.71979728      93.66239961      89.10228864
C      70.34051290      92.95375224      90.68209984
H      72.27937211      93.48854479      90.23801416
C      69.45045182      94.47876138      92.83449811
H      70.12130466      93.65106125      94.59761276
H      67.39253986      94.57135797      92.84961592
C      70.28382112      97.34736592      92.65686384
C      68.52448591      99.02733261      91.85373016
H      66.63664934      98.45285581      91.33972460
C      69.10841135     101.59736040      91.70444178
H      67.71946251     102.88237429      90.94099235
C      71.47434870     102.51009821      92.32427201
O      71.90331656     104.97808077      91.72711849
H      70.44255813     105.72641239      90.95611016
C      73.37352363     100.75643219      93.22000228
H      75.29159585     101.35358570      93.58282973
C      72.72534752      98.15427906      93.31259887
H      74.05571484      96.69352062      93.82093525
C      70.40854306      90.15128812      91.35862186
O      68.48858112      88.90973793      91.33972460
N      72.59117695      89.28390374      92.15230691
H      73.87241139      90.68986012      92.31104392
C      73.52659147      86.61938964      92.30537474
H      71.90709602      85.35327301      92.41875832
C      75.15553556      85.97310324      89.92998877
H      76.95455501      86.97276846      90.04715180
C      75.45600203      83.22166173      89.78070039
H      73.64942368      82.23900405      89.64652982
H      76.43677000      82.46577121      91.42854174
H      76.72022894      82.64718493      88.26136043
O      73.81760933      86.73088349      87.74168570
H      72.39086596      85.65562922      87.42610140
C      75.18577117      86.23199575      94.71477579
O      76.51613850      87.96109532      95.64641087
N      75.18955063      83.90574266      95.89018556
H      74.01981004      82.58671369      95.16075120
C      77.06226941      82.93253360      97.68164610
H      78.60428608      84.27801874      97.43976114
C      75.94544115      83.04213773     100.36127802
H      75.07049787      84.88840034     100.63339861
C      73.73068192      81.05225592     100.74111301
H      72.98046057      81.24500801     102.64973658
H      74.57161013      79.17197824     100.64473696
H      72.37196870      81.50767996      99.26145730
C      77.90319761      82.85694455     102.50989683
H      78.64774978      80.93698262     102.56658862
H      76.90731185      83.07615280     104.30135738
C      80.02913971      84.69942771     102.27935022
H      81.06470974      84.17219407     103.98010391
H      79.37907387      86.64584581     102.46454340
H      81.09116590      84.17786324     100.59182463
C      78.11673669      80.40219007      97.04480834
O      76.91865021      78.77891517      95.79191979
N      80.38440825      79.58393858      98.16541604
H      81.49934679      80.70832573      99.22933196
C      81.23478510      76.92320393      98.03124547
H      79.51513415      75.91031063      98.54336130
H      82.61239559      76.38652166      99.46554774
C      81.93587357      76.14085724      95.37618000
O      83.02246620      77.48256292      93.91731129
N      81.24423374      73.76358153      94.78847512
H      80.49212266      72.66943000      96.16041642
C      81.34438923      72.62596629      92.24490350
H      82.83160384      73.61618288      91.22067184
C      81.99445508      69.67610352      92.10128430
H      80.31070894      68.48935539      92.03514388
C      83.23411554      69.33595278      89.39897567
H      83.83315879      67.40843194      88.98512561
H      84.92353087      70.45656049      89.02858932
H      81.75068039      69.91420903      88.09128507
C      83.71410603      68.82572668      94.28013874
H      82.57271133      68.34006702      95.92231091
H      84.82337537      70.51325228      94.68265045
C      85.47533095      66.59962908      93.73778729
H      84.52857807      64.86675005      93.15386186
H      86.68097633      66.13475641      95.34216493
H      86.70554277      66.93033119      92.11829184
C      78.85372994      73.20989172      90.80871150
O      77.11140228      71.61496272      90.76713753
N      78.55137373      75.60795442      90.05093125
H      80.05181642      76.78147446      90.16620456
C      76.51424877      76.17109286      88.25002208
H      76.45377753      74.90875568      86.62296772
H      76.90731185      77.99278902      87.37318907
C      73.94989016      76.57360456      89.44621883
O      72.05827412      76.60572991      88.23868372
N      73.70044628      76.70210595      91.93876784
H      75.28214722      76.33927850      92.94599196
C      71.24191235      76.85328406      93.18598721
H      69.91910394      75.41898178      92.52458300
C      71.53293020      76.21077711      96.06781983
H      72.48535227      77.63185130      97.21866316
H      72.64219956      74.47600835      96.16797533
C      68.97802024      75.66653593      97.16764055
N      67.82339746      73.43287943      97.27157549
H      68.66810512      71.78314836      96.81237200
C      65.42155532      73.86940621      98.24478455
H      63.92111263      72.48801627      98.34494004
N      65.25903885      76.29959425      98.80225381
H      63.67355847      76.93265256      99.65829983
C      67.49080563      77.52602662      98.20699002
H      67.92544267      79.49323171      98.52446404
C      69.84540462      79.50834953      92.97055841
O      70.45767593      81.27146418      94.36139697
N      67.90843514      79.75023449      91.36807049
H      67.48513645      78.18743083      90.35517719
C      66.41744107      82.00656771      90.97500742
H      67.74213923      83.34827339      90.14730729
C      64.20079211      81.44531900      89.10417837
H      63.19923716      79.88818451      90.00179837
H      64.83196071      80.88784973      87.22390069
C      62.39421375      83.60527617      88.96055917
H      61.85375203      84.36872560      90.79926287
C      63.45812967      85.78979979      87.33728427
H      63.96079687      84.99044556      85.50613947
H      65.14187582      86.48143962      88.29915496
H      61.96902533      87.19764589      87.11996574
C      60.02449696      82.66797192      87.62452267
H      58.94357351      81.56815121      88.99268452
H      60.56117923      81.64185053      85.92187926
H      59.03239065      84.19865023      86.67021088
C      65.22691350      83.04969664      93.54314548
O      64.04961400      81.58893820      94.86784362
N      65.62375603      85.45720796      94.13462982
H      67.00136652      86.31892316      93.13307487
C      64.52204559      86.88395133      96.33994042
H      63.89276673      85.63484223      97.85739065
C      66.76137126      88.62438926      97.30181112
H      65.97713484      89.70720244      98.87028396
H      67.40576795      90.02845591      95.94120817
C      69.02715312      87.28268358      98.36761676
H      69.90209641      86.20176013      96.84827680
C      71.15687467      89.03823932      99.37484088
H      71.92410356      90.00199974      97.72322008
H      72.50235980      87.73810762     100.23466635
H      70.30649784      90.34970938     100.71654656
C      68.26559341      85.57626072     100.49922804
H      67.39820904      83.83582278      99.82081629
H      67.05049940      86.48143962     101.89573578
H      69.94933956      84.90918733     101.47999599
C      62.07485001      88.44864471      95.65019032
O      60.04150449      87.92896998      96.50812606
N      62.43011856      90.16640593      93.80014826
H      64.16299758      90.35726829      93.02913992
C      60.41189085      91.65739999      92.84583647
H      58.70546800      90.50466694      92.90630771
C      59.81095788      93.80979826      94.72800388