 %block lattice_cart
   137.614   0.000   0.000
   0.000 142.646   0.000
   0.000   0.000   160.855
 %endblock lattice_cart

 %block positions_abs
N      85.88918101      38.92836668      77.38504063
H      85.08793705      37.38446029      78.17305651
H      87.42930796      38.48050155      76.35136034
H      84.67786644      39.58221199      76.06223221
C      86.32570779      40.93714575      79.20484708
H      87.88662172      40.27952100      80.37836712
C      87.18175381      43.40701805      77.80267015
H      85.51690493      44.30085859      76.98063920
H      88.58582046      42.89112276      76.38726514
C      88.27590534      45.18336078      79.81900813
H      89.47210210      44.17613665      81.15882408
H      86.74711676      45.92602322      80.97930009
S      89.81981174      47.89889749      78.44328737
C      91.59048530      48.98737985      81.23252342
H      93.06825127      50.21003277      80.48230206
H      92.37094226      47.31875151      82.15093039
H      90.24877962      50.01350124      82.41171263
C      83.85205605      41.36989308      80.62970071
O      81.76012902      41.39634925      79.56389508
N      83.97866771      41.75728697      83.11469081
H      85.68887002      41.78563287      83.96128820
C      81.55414885      42.30530760      84.50363966
H      80.12740548      40.89746150      84.03309780
C      82.10027975      41.39445952      87.34200859
H      83.88229167      42.30719733      87.83333742
H      82.12862565      39.34410647      87.52153258
C      80.02158081      42.16357813      89.07488760
O      78.03736818      42.80041590      88.30765873
N      80.47511512      42.33932268      91.49184757
H      79.13907862      42.81175426      92.77119228
H      82.23634005      41.85366302      92.03986819
C      80.69999256      45.20225804      84.31088758
O      82.32515718      46.77451033      84.67560475
N      78.29248123      45.68980743      83.91404504
H      76.98857008      44.29707914      83.93861150
C      77.20966806      48.10865711      83.24508194
H      78.34917302      48.77006132      81.66338101
C      74.48468271      47.76850638      82.33990303
H      74.50924915      46.76506170      80.54277330
C      72.86896671      46.20192326      84.21262180
H      73.24124280      44.19881337      84.51308829
H      70.90932053      46.04318625      83.60601966
H      72.90865097      47.13355833      86.04943578
C      73.06171880      50.18924578      81.80888993
H      72.79715711      51.24560279      83.55688678
H      71.04538082      49.91712519      81.47818783
C      74.29571008      51.51583365      79.56011563
H      74.61696355      50.07397248      78.12770307
H      76.08150145      52.29440090      80.22529929
H      73.10707223      52.85564961      78.53777368
C      77.44399412      49.99460397      85.40314939
O      78.18287711      52.15645087      85.07244728
N      77.14352763      49.35776620      87.84845523
H      76.65975770      47.55118785      88.23017995
C      77.50257563      50.96970275      90.07455282
H      76.22512065      52.56274203      89.79865279
C      76.77881046      49.28028743      92.43293127
H      76.99045980      50.62388283      93.97872739
H      78.15075176      47.77228583      92.72961829
C      74.02358949      48.47904347      92.54820457
C      73.13163867      46.51183838      91.02319543
H      74.53192587      45.44036356      89.99707405
C      70.47279375      45.95247939      91.06854888
H      69.73391076      44.41613190      89.94227198
C      68.82117295      47.20536793      92.68237515
H      66.78971717      47.03907202      92.54253539
C      69.81705872      48.93446751      94.40013636
H      68.49425030      49.92846355      95.59633311
C      72.38141733      49.54673884      94.32265759
H      73.04471126      50.91301096      95.68703998
C      80.22378152      52.02794949      90.42793165
O      80.52991719      54.01405184      91.48428866
N      82.05681605      50.63333147      89.31110340
H      81.60517146      49.22926482      88.09789911
C      84.77046303      51.38544254      89.37724381
H      84.84227263      52.75171466      90.91548103
C      86.44098109      49.06296890      90.19927476
H      88.35905330      49.78295463      90.00085351
H      86.42019410      47.43024537      88.94260676
C      86.22555229      48.03873724      92.87323749
H      87.93386488      46.95970351      93.27385947
H      84.59471849      46.81797404      93.18882179
C      86.25389819      50.16278961      94.92170082
O      84.66652809      50.05507521      96.62245451
O      88.20220602      51.54228982      95.04075357
C      85.64162686      52.75927357      86.93382769
O      87.21198943      54.36176148      87.07933662
N      84.53424724      52.19046595      84.75497326
H      83.32482240      50.72403833      84.59434652
C      84.86305962      53.51327437      82.33045440
H      86.89073596      53.69468809      82.02620846
C      83.64229642      52.02605976      80.29899861
H      81.60328173      52.08275155      80.60135482
H      84.44165066      50.13444372      80.44261782
C      84.38495887      53.04273252      77.78188316
H      86.36917149      52.62888245      77.42283517
H      84.31692872      55.09875474      77.84991332
S      82.68987436      51.75204944      74.98319850
C      79.71922460      53.45658258      75.12303825
H      80.15575138      55.44268493      74.79422586
H      79.02569504      53.16178527      77.03922073
H      78.57027100      52.69691260      73.59424965
C      83.94276291      56.26093643      82.49486058
O      85.17864392      57.95980038      81.73141115
N      81.74690093      56.70691184      83.53798951
H      80.59227816      55.24426367      83.95561903
C      80.57716035      59.25993208      84.00853137
H      80.80959668      60.09519112      82.13959205
C      77.67076128      58.94812724      84.63969995
H      76.80526662      60.81517684      84.55655200
H      77.37596397      57.93334421      86.40659405
C      76.01536103      57.61398047      82.66115651
H      76.76936182      55.69968771      82.55722155
C      73.32061130      57.36831605      83.55310732
H      73.05415989      56.49715222      85.39936994
H      72.20000360      56.33652548      82.16604821
H      72.54204406      59.27504990      83.55877650
C      76.15709050      58.74403680      79.93806088
H      75.01002663      57.45146400      78.81556345
H      78.10917778      58.78372105      79.27665667
H      75.28025749      60.59974804      80.08923899
C      81.80548245      60.76604396      86.13447346
O      81.56359748      63.07528951      85.98707481
N      83.17364430      59.64354653      87.91648538
H      83.30214569      57.74248186      87.81066071
C      84.98589183      60.95690631      89.53220137
H      83.98811634      62.35341406      90.66981662
C      86.23689065      58.95946560      91.12713038
H      87.26490177      57.68390034      89.87802129
H      84.59660821      58.11286821      92.04175792
C      88.17574985      59.92889520      92.96016490
H      87.37450589      61.42555844      94.12612605
H      89.79146585      60.55817406      91.84900583
C      89.65351583      57.98247710      94.55320420
H      90.87994820      59.03694438      95.83065917
H      90.60782761      56.70124266      93.25118277
N      87.86772446      56.53494674      96.07443387
H      87.78268678      54.65466906      95.76451875
C      86.90963322      57.25304274      98.28163420
N      86.60916674      59.58685474      99.14145967
H      85.87784265      59.78905545     100.89323598
H      87.41041069      61.05895153      98.22872187
N      86.05358720      55.50882535      99.83498923
H      84.89329524      56.02094118     101.25984288
H      85.93831390      53.70035727      99.23216654
C      87.05325242      62.35152433      87.88436003
O      88.11527861      64.17322050      88.84056154
N      87.61639086      61.40099200      85.57889393
H      86.81325718      59.77393764      84.98551986
C      89.56658842      62.52915861      84.03309780
H      90.33759675      64.12030816      85.09134454
C      91.85504698      60.68100627      83.60790938
H      93.28368007      61.74870164      82.57989828
C      93.19675266      60.29550210      86.15903990
H      92.31802993      58.82340531      87.30232433
H      93.47643216      62.00192497      87.27586815
H      95.15072967      59.72480476      85.85290424
C      91.33348252      58.16200110      82.15093039
H      89.60249322      57.29839617      82.85390858
H      93.00211085      56.98470160      82.42872016
C      90.79491052      58.55506417      79.34846627
H      92.34637582      59.70212804      78.62659082
H      88.99967052      59.39599238      78.79477646
H      90.83459477      56.57841045      78.77776893
C      88.57259238      63.94078416      81.59913031
O      89.89351107      65.35429944      80.39159520
N      86.18397832      63.59874370      80.93394665
H      85.49611794      62.02082223      81.76164678
C      84.68731508      64.79494046      78.93272648
H      86.14996324      65.19556243      77.53810846
C      82.75034561      62.98836210      78.12014418
H      81.10250426      63.06962033      79.35413546
H      83.66497314      61.14587895      78.25242502
C      82.00390371      63.43055806      75.33846704
O      82.38940788      61.74681191      73.81345791
O      81.03447411      65.39587342      74.65438611
C      83.82559988      67.46890319      79.65082248
O      83.87851221      69.14886988      78.12014418
N      83.19254156      68.00936491      82.04132627
H      83.25679226      66.62419553      83.35090661
C      82.52735790      70.53592899      83.09768328
H      82.38562843      71.94377510      81.60102004
C      80.03858835      70.17121182      84.62458215
H      80.26535550      68.48557595      85.78487409
H      78.58538881      69.54760213      83.30177373
C      78.93498818      72.41242722      85.91337548
H      80.35039319      73.60295480      86.82611329
H      77.58572359      71.57527847      87.22673528
C      77.47800919      73.92798773      83.80255120
O      75.17821227      73.40453354      83.25642029
O      78.76680254      75.35284137      82.43627907
C      84.63062329      71.59795518      84.90804109
O      85.30525558      73.77869935      84.85134930
N      85.76067962      70.02192344      86.57666943
H      85.43564670      68.17755056      86.20817279
C      87.73544362      70.74190916      88.36435051
H      89.12061301      71.88330386      87.35523667
H      88.66707869      69.00336095      88.96528348
C      86.70176333      72.42565531      90.47328508
O      84.38306914      72.70911425      90.62824263
N      88.33259713      73.32894449      92.29876069
H      90.12972686      72.70533480      92.15892095
C      87.67686210      74.27758709      94.85367067
H      85.64351659      74.16420352      95.17870361
C      88.78235200      72.58439232      97.01740731
H      90.79680025      72.38030188      96.64513121
H      87.73544362      70.85718247      96.60733669
C      88.52723894      73.27036297      99.79908443
H      89.53257334      74.93899130     100.46426809
C      85.77768716      73.61240343     100.62678457
H      84.82337537      71.83417097     100.20915504
H      84.90085415      75.24701669      99.72916456
H      85.86650430      73.78436853     102.67713761
C      89.51934526      70.94977906     101.31275522
H      88.82203625      69.07139110     100.84032364
H      89.04691368      70.98379413     103.31586511
H      91.54135241      71.34095240     101.27307096
C      88.46109852      77.06115395      95.27885910
O      90.60215844      77.88318490      94.83288368
N      86.57326194      78.52191239      96.20104553
H      84.74778632      77.98334039      96.07632359
C      86.87561815      81.02202031      97.18181350
H      88.85227187      81.35083268      97.66369370
C      86.08193309      83.11772679      95.21460841
H      85.46777204      84.75234005      96.30498048
H      84.45298901      82.54136026      94.09589042
C      88.35905330      84.02479542      93.50818555
H      88.97699381      82.37128489      92.44426963
H      89.91618778      84.71076607      94.67225694
C      87.64662648      85.97688270      91.48806812
H      89.39084387      86.67419171      90.63958099
H      86.49767288      87.55102472      92.15325178
N      85.97043924      84.81281129      89.57377536
H      85.38462409      83.01379184      89.81188087
C      85.15974665      86.01278750      87.52342230
N      85.73044400      88.40707074      86.99240922
H      84.61361575      89.47287638      85.87180151
H      86.98144282      89.00422425      88.30387927
N      83.83315878      84.75800923      85.97006727
H      83.26624089      85.61027579      84.35813074
H      83.54781011      82.87395209      86.09289949
C      85.36383710      81.32059706      99.58554537
O      82.90908262      81.47933407      99.45893369
N      86.65074072      81.37917858     101.79274570
H      88.54802593      81.22233129     101.64912649
C      85.50934602      81.40752447     104.29474333
H      83.87473276      80.15463593     104.37978101
C      87.46521276      80.46266132     106.31486076
H      86.97766337      81.11650662     108.20647680
H      89.32659317      81.22611075     105.86888536
C      87.79024568      77.49768073     106.43202379
H      88.42708345      76.86651214     104.57820229
C      89.89918025      76.89485804     108.28962476
H      89.27935002      77.11217656     110.24360176
H      91.68119216      77.74523488     107.70947878
H      90.35838374      74.88796869     108.25371996
C      85.36761655      76.05770928     107.19169378
H      85.77957688      74.09995282     107.68491234
H      84.12039718      76.34872713     105.57975723
H      84.51534998      76.97611627     108.82441730
C      84.56448287      84.08148721     104.96370644
O      82.89585453      84.21943723     106.58509162
N      85.49611794      86.01656695     103.62578021
H      86.87183869      85.81814569     102.31619989
C      84.57771095      88.62816872     103.88845217
H      83.21143883      88.88139204     105.40590241
C      86.81703663      90.47632105     104.22860292
H      88.28913343      90.16829566     102.82075682
H      87.61450113      90.17018539     106.10510114
C      86.17075023      93.19941667     104.43269335
H      85.20132063      93.48854479     106.22793336
H      84.89707470      93.93263048     102.98705272
C      88.56692320      94.90017035     104.22860292
H      87.95465187      96.79745557     104.74449820
H      89.39084387      95.11181970     102.35210469
C      90.75522627      94.21230997     105.97471003
H      91.62639010      92.50210766     105.22826814
H      90.00311519      93.80034963     107.84742880
N      92.45786967      96.31557536     106.39989844
H      93.71831713      95.92818146     107.77939865
H      91.40718184      97.65917077     107.25594446
H      93.26478281      96.89383161     104.76906464
C      83.12262169      89.14028455     101.39779290
O      83.89929920      88.40896046      99.33988095
N      81.03825357      90.51222585     101.75306144
H      81.13273988      91.16985061     103.54263227
C      79.20710877      91.59503903     100.03530022
H      78.03547845      90.01144838      99.43058780
C      77.43832494      93.39972766     101.53763265
H      76.74101593      92.17329528     103.03807534
C      78.76869226      95.73731910     102.65257116
H      77.56871605      96.57446786     104.10199126
H      79.04837176      97.19618782     101.22582780
H      80.43354115      95.47842660     103.83742957
C      75.28592667      94.22742778      99.93514473
H      74.38830667      92.64761658      98.96382540
H      75.99835349      95.40661700      98.40257669
C      73.16376402      95.59369991     101.33354220
H      72.12252482      94.27089149     102.52218006
H      71.69733640      96.28156028     100.06364611
H      73.86296276      97.11115013     102.53918759
C      80.32015757      92.83469949      97.56731766
O      82.07193386      94.36159835      97.66558342
N      79.17309369      92.14683911      95.39413240
H      77.55926742      91.15095334      95.60011256
C      79.74568077      92.84981730      92.79197927
H      81.04581247      94.44285658      92.92048066
C      81.38407348      90.96009099      91.53153181
H      83.19443129      90.94308345      92.51607922
H      81.74312148      91.70653288      89.64558496
C      80.20866371      88.41462964      91.28019821
C      78.97467243      87.72298981      89.02008555
H      78.71766965      89.17807907      87.61034971
C      78.05248599      85.25311752      88.72528825
H      77.13029955      84.67675099      86.99618867
C      78.37184974      83.53535630      90.74540568
O      77.71800443      81.12028607      90.37312958
H      77.44777357      80.81415041      88.60812522
C      79.64363555      84.12306119      92.92048066
H      80.08016232      82.68686919      94.30376032
C      80.51668910      86.58915402      93.16803480
H      81.44076527      87.03323971      94.93492890
C      77.35706671      93.63216399      91.30476465
O      75.22545543      93.10115090      91.99451476
N      77.64808456      94.85859637      89.13157939
H      79.42442729      95.17607039      88.50607998
C      75.60340069      95.36882247      87.25886062
H      73.75902781      95.11181970      88.13758336
C      75.96433842      97.84436394      86.00030290
H      74.52058751      97.95396807      84.53198556
H      77.82382911      97.98231396      85.13102879
C      75.36529517      99.87393000      87.76530727
H      76.90353239      99.80212040      89.13157939
H      73.50580448      99.56212516      88.59489712
C      75.07427732     102.35136120      86.31021802
H      73.62863669     102.05278444      84.87591574
H      76.64275016     102.98630924      85.13858769
C      74.12563471     104.58879715      87.88058058
H      75.58261370     105.13303833      89.22795544
H      72.40220432     104.05967379      88.87457663
N      73.50391476     106.58434814      86.09478921
H      75.08561568     107.20039892      85.22173566
H      72.71778861     108.22652031      86.66359683
H      72.27748238     105.83223707      84.84001094
C      75.50513492      93.32602833      85.12724934
O      77.51580372      93.03123102      84.01797999
N      73.34328802      92.27723023      84.40726362
H      71.75024874      92.69863919      85.36913431
C      73.05227017      90.53679229      82.16226875
H      74.43554983      89.00989343      82.09423860
C      70.44822731      89.22154278      82.30021877
H      68.90054146      90.58214572      82.29265987
H      70.29893893      88.35037895      84.16159920
C      70.20823207      87.26000686      80.29710889
O      68.76259144      87.52645827      78.48297163
O      71.69733640      85.47421550      80.48608151
C      73.41509762      92.03534526      79.71318346
O      73.70233602      94.35214972      79.80955950
N      73.72879219      90.75222109      77.57401326
H      73.83083741      88.84737697      77.62503588
C      73.77036617      92.01833772      75.03044166
H      75.43143559      93.23343174      74.95107315
C      73.97067715      89.86782918      73.17662014
H      72.09984810      89.24610922      72.57568717
C      75.47111985      90.77867726      70.85981567
H      77.52714208      90.77111835      70.99398625
H      75.04404170      92.78745633      70.69729921
H      74.91176086      89.87916753      69.09292157
O      75.04971088      87.52645827      74.12715248
H      73.91020591      86.23766493      73.54511676
C      71.36663430      93.58303111      74.65249639
O      71.28537606      95.63716361      73.56779349
N      69.16888259      92.70241865      75.66916914
H      69.22746411      91.03568004      76.59324531
C      66.89932129      94.39750315      75.70507395
H      67.05616858      95.51811085      73.98353327
C      64.63164972      92.66273439      75.62570544
H      64.21779965      91.74432741      77.42283517
H      65.14565527      90.88072248      74.72997516
C      62.27327128      93.67562770      74.28966894
H      61.96902534      95.59369991      74.97941904
H      60.73503406      92.52478437      75.03233137
C      62.26382265      93.71153250      71.38704932
O      63.24459060      95.64283279      70.37037656
O      61.47202732      91.92763086      70.02266693
C      66.95790281      96.45352538      77.70062494
O      65.06439704      97.46452895      78.59068602
N      69.21612575      96.92406723      78.80800455
H      70.64286912      96.00566024      77.93873045
C      69.86619160      98.54356268      80.85457815
H      68.90810036     100.33691295      80.51631714
H      71.89197821      98.81568327      81.11158092
C      68.72479691      97.79145161      83.32822989
O      69.32950933      99.05945796      85.18394113
N      67.26025902      95.68818622      83.57389431
H      66.57806782      94.96253132      81.94683996
C      66.07729035      95.13827586      86.04754605
H      65.15699363      96.93729531      86.44438858
C      63.99103250      93.23154201      85.36913431
H      62.95546248      92.73076454      87.07744690
H      65.06250732      91.62338492      84.65292804
C      61.99926096      93.87215923      83.32634017
C      61.11486905      92.00699936      81.63881456
H      62.05406303      90.21931827      81.93172215
C      59.27238589      92.50777684      79.74341907
H      58.85286665      91.25866774      78.18250514
C      58.02327680      94.85292719      79.73397044
O      56.30173613      95.33669713      77.84424413
H      56.15055802      97.12248849      77.56078518
C      58.96436050      96.83902955      81.31189191
H      58.16311655      98.71552777      81.36858370
C      60.85030736      96.40817195      83.13925726
H      61.29250332      97.88404820      84.47529377
C      67.62686592      94.19341271      88.20750323
O      69.51470251      92.74021317      87.96939771
N      66.92010828      95.01922311      90.49407207
H      65.42722449      96.20597123      90.57344058
C      68.48858112      94.40317233      92.67481624
H      70.38586634      94.93796487      92.08144218
C      67.80450020      96.19085342      94.72138983
H      68.56228045      95.43496289      96.48072504
H      65.75225742      96.37604660      94.72516928
C      68.80605514      98.87993396      94.58532953
C      67.19978778     100.90383084      94.28675279
H      65.16077308     100.82824179      94.24328908
C      68.26937287     103.31512162      94.16770002
H      67.02215350     104.92705816      94.14313358
C      70.90365135     103.81400937      94.34533429
O      71.73891038     106.32167618      94.19982537
H      70.33484373     107.46307088      94.06943426
C      72.54393379     101.67294945      94.50785075
H      74.56405122     101.73531042      94.80453779
C      71.44222335      99.25409977      94.58721926
H      72.54015434      97.57035363      94.94248781
C      68.60763388      91.54968560      93.24551358
O      66.66877468      90.37427583      93.42314785
N      70.89798217      90.43663680      93.61401022
H      72.42677076      91.51567052      93.22850604
C      71.24380209      87.68141583      93.50062664
H      69.63186554      86.70064788      94.32643703
C      71.66332133      86.86883352      90.86823788
H      73.29226541      87.63606240      89.86857266
C      71.96378781      84.01345706      90.57344058
H      72.40031459      83.61283508      88.60245603
H      70.19500398      83.03646856      90.98162146
H      73.36596473      83.35961175      91.93404352
O      69.36919358      87.33748564      89.46795069
H      69.03093257      89.11571810      89.59645208
C      73.49068667      86.89906914      95.20327004
O      75.26513968      88.48265979      95.42625774
N      73.45100242      84.60872085      96.26340651
H      72.10929674      83.27457407      96.01585235
C      75.48245821      83.73377756      98.00006498
H      77.20399888      84.58982358      97.25929228
C      75.14230747      84.55958796     100.75339622
H      74.86640743      86.58537457     100.51340099
C      72.74046533      83.21977201     101.76251007
H      73.17510238      81.28847172     102.33320742
H      71.26269935      82.82292948     100.38300986
H      71.84473505      84.13628927     103.37255690
C      77.35706671      84.09849474     102.58643075
H      79.22411630      84.61250030     101.88723201
H      77.48745782      82.12373075     103.15901783
C      76.90920157      85.67074704     105.02039823
H      75.15931501      85.23799971     106.01817374
H      76.95266528      87.67574665     104.54985638
H      78.57027100      85.48744358     106.22037445
C      75.72623290      80.88973946      97.64668617
O      73.81005042      79.60283584      97.22716693
N      77.96555858      79.96755302      98.18147871
H      79.30159508      81.14863197      98.85800073
C      78.70444157      77.37295880      98.63879248
H      77.05093105      76.37896275      99.36255765
H      80.13685411      77.17075808     100.10522009
C      79.55481841      76.12384970      96.11411813
O      80.53180691      77.36162044      94.53052747
N      78.70444157      73.71633838      95.82310028
H      77.94666132      72.83194646      97.33299160
C      78.56271210      72.31794091      93.44393485
H      80.05937534      73.01524992      92.20994357
C      79.26758001      69.48902062      93.87857189
H      77.68587909      68.51959102      94.77808162
C      79.68520953      68.21534508      91.38035371
H      80.42787197      66.34262631      91.81121132
H      80.89463437      69.34351169      90.15203160
H      77.91453597      68.23991152      90.32588642
C      81.84138725      69.35485005      95.22027757
H      81.99445508      70.82694685      96.65457986
H      83.43820598      69.54382268      93.93337396
C      82.28547293      66.91521338      96.80386824
H      82.59349832      65.22012888      95.67381190
H      80.58093980      66.45978934      97.86589441
H      84.05992594      67.19111342      97.81487180
C      75.99457404      73.02469855      92.23639973
O      74.31838680      71.50535859      92.16459013
N      75.66576166      75.37929753      91.38224343
H      76.87896595      76.74179021      91.94916133
C      73.52092229      75.93676680      89.67771031
H      73.63808532      74.58750221      88.12624500
H      73.54926819      77.60917458      88.47584437
C      70.95656369      75.84605993      90.85500980
O      69.04038120      75.02402899      89.66826167
N      70.59184651      77.25201631      93.00551834
H      72.11874537      77.80759585      94.00707328
C      68.03882626      77.62051294      94.16581029
H      66.63475961      76.59250183      93.06409985
C      68.06150297      76.22211547      96.69048466
H      69.49013607      77.09327930      97.89424031
H      69.03282230      74.44010356      96.32954692
C      65.48580601      75.88385446      97.83565880
N      64.13276197      73.70311030      97.58054574
H      64.82251207      72.05148950      96.91725181
C      61.89154656      73.99601787      98.82587538
H      60.43645730      72.60517931      99.16413639
N      61.81784724      76.39597029      99.80475362
H      60.64243747      77.11406629     101.12567230
C      64.08362909      77.53358553      99.17169530
H      64.59574492      79.37417896      99.88790158
C      67.29616382      80.43998460      94.23950962
O      68.49614003      81.96499374      95.45082418
N      65.46501902      81.21477239      92.65024980
H      64.61086273      79.82582355      91.66003320
C      64.32173460      83.67897550      92.56521211
H      65.89587662      84.80714211      91.86601337
C      62.29216854      83.73755702      90.55454331
H      60.44779566      83.07993226      91.19138108
H      63.20112690      82.67742056      89.03898280
C      61.94256917      86.45309373      89.34511847
H      63.39009953      87.64362131      90.20116450
C      61.94256917      86.40396084      86.50108037
H      61.23770126      84.62950784      85.72818230
H      63.84363384      86.81592118      85.82077889
H      60.68401145      87.90818299      85.87369123
C      59.44246126      87.51323019      90.20872339
H      59.16845095      89.28768320      89.19583009
H      59.40277701      87.79290968      92.24962781
H      57.88910623      86.31325398      89.59267261
C      63.43734269      84.53124207      95.18248306
O      62.67389326      83.01757129      96.78875042
N      63.53182900      86.87261297      95.93270440
H      64.36708803      88.16896522      94.80831724
C      62.34508088      87.88739600      98.12100747
H      61.77249380      86.19420122      99.14523913
C      64.45401544      89.20264551      99.77640772
H      63.59230024      90.13239086     101.39968262
H      65.32328955      90.63127861      98.57454179
C      66.72357674      87.61338569     100.72127087
H      67.51348234      86.54380059      99.14901858
C      68.56605990      89.48610446     101.83809912
H      67.72135224      90.90717865     103.06642124
H      69.44289291      90.49143886     100.26773657
H      70.00603135      88.39951183     102.83020544
C      65.70123481      85.95231626     102.84154380
H      65.01337443      87.13528493     104.37978101
H      67.29427409      84.84871609     103.53885281
H      64.25181473      84.72966333     102.04029984
C      60.02260724      89.50500172      97.68070123
O      58.09319667      89.04957768      98.93547951
N      60.28338947      91.23410130      95.85900507
H      61.93312054      91.41929448      94.91414191
C      58.23114669      92.90650909      94.89146521
H      56.57196699      91.68763562      94.78375080
C      57.76249457      95.23087245      96.60544696