 %block lattice_cart
   137.614   0.000   0.000
   0.000 142.646   0.000
   0.000   0.000   160.855
 %endblock lattice_cart

 %block positions_abs
N      87.38111993      39.80330997      80.76576101
H      85.75973476      39.17214138      79.97963487
H      87.79874945      38.90757969      82.39848455
H      88.88723181      39.55197637      79.62247659
C      86.99561577      42.53774394      81.18716998
H      88.18992280      43.32387009      82.66871541
C      87.59276928      43.93047223      78.73430523
H      86.31342457      43.13678718      77.32645912
H      89.55619492      43.56386533      78.22785857
C      87.19970621      46.80096650      78.94595457
H      85.21927303      47.33953850      79.10091213
H      87.91213303      47.26394945      77.06945634
S      89.12911677      48.27873248      81.36858371
C      88.91179825      51.47048022      80.17994586
H      90.19303269      51.89755837      78.62281137
H      89.55619492      52.92934894      81.48385701
H      87.08254318      51.84653576      79.31067175
C      84.28763796      42.96860154      82.01298038
O      82.61145072      41.87445000      80.94717474
N      83.85678036      44.69014221      83.75152859
H      85.29675181      45.64067455      84.56600063
C      81.47383548      45.17769160      85.21039730
H      79.89024483      44.16101884      84.36946909
C      81.88579582      44.18369556      87.92404429
H      83.45048920      45.34020806      88.60245603
H      82.67570141      42.28452061      88.02608951
C      79.69371329      44.44069834      89.84589595
O      77.81532534      45.72193278      89.38669245
N      79.93748799      43.49583518      92.04553737
H      78.57877477      43.45804066      93.38724306
H      81.71761017      43.06875703      92.58032992
C      80.63290727      47.91212557      84.99118905
O      82.20515956      49.63366625      84.89859246
N      78.14980689      48.47715374      84.83434176
H      76.88746972      47.04474120      84.82678286
C      77.05187591      50.93190822      84.32789511
H      77.88902466      51.55551791      82.55155238
C      74.04721107      50.93379795      84.11813549
H      73.63525073      49.70169639      82.51942703
C      72.78109444      49.52028267      86.39714543
H      73.02864859      50.49538144      88.19238542
H      73.40470412      47.55685703      86.46328585
H      70.76097701      49.51839294      85.99841317
C      72.62046770      53.44713395      83.80255120
H      72.86424240      54.50160123      85.55432749
H      70.65515234      52.94635647      83.44161347
C      73.49352126      54.97970199      81.45929057
H      72.56566564      53.93090388      79.94939925
H      75.50230033      55.05529104      81.01142543
H      72.80566088      56.92045091      81.48385701
C      77.69627258      52.77250165      86.48785229
O      77.87957603      55.09308556      86.15526046
N      78.19893978      51.73126245      88.78764921
H      77.55265338      49.93980191      88.91993005
C      79.04364744      53.02950443      91.10445367
H      77.82477397      54.66600742      91.38980234
C      78.55987750      51.01505618      93.18315262
H      79.85056058      51.47236995      94.72327956
H      78.98884538      49.10832233      92.53308676
C      75.91992985      50.93190822      94.24328908
C      74.33255974      49.03840246      93.45905266
H      74.58956252      47.58898238      92.04553737
C      71.90426143      49.00060793      94.44360007
H      70.73641057      47.46803989      93.77463695
C      71.16537844      50.44813829      96.55064490
H      69.40793297      50.24404785      97.56920739
C      72.80944033      52.28306254      97.25362309
H      72.33511903      53.58886342      98.75028633
C      75.16781877      52.65722835      96.09711059
H      76.32244155      54.11231761      96.94181825
C      81.78753005      53.90066826      91.08933586
O      82.41302946      55.65433428      92.51796895
N      83.35978234      52.95769483      89.34889793
H      82.65302470      51.68968847      88.10923746
C      85.93736903      53.81941003      88.90481224
H      86.56286844      55.06662940      90.42037275
C      87.67024806      51.44402405      88.66481700
H      89.63178397      52.05818511      88.54954370
H      87.30931033      50.57852940      86.82989275
C      87.49639324      49.59209227      90.79642828
H      88.81920166      48.08787012      90.31832752
H      85.69359434      48.60376541      90.89847350
C      88.09921593      50.73726641      93.50062664
O      87.19403703      49.68090940      95.39980158
O      89.70170385      52.40589475      93.78408558
C      86.10555467      55.32741163      86.51052900
O      87.50773160      57.17745369      86.52186736
N      84.56731745      54.77372182      84.51875747
H      83.72638924      53.06729896      84.35246155
C      84.43692634      56.37809946      82.24730644
H      86.30586566      56.36109192      81.38559124
C      82.52641304      55.09119584      80.50686851
H      80.59322302      55.32174245      81.17961107
H      82.74751101      53.08430649      80.91315966
C      82.65302470      55.74504114      77.69495575
H      84.55786882      55.41811849      76.98441866
H      82.39035274      57.78594556      77.58346190
S      80.50440588      53.97247786      75.92806165
C      80.45527300      55.53717125      73.11992835
H      80.05843047      57.53839141      73.41283593
H      78.79609329      54.89466430      72.07868915
H      82.18059312      55.20079996      72.04467408
C      83.86055981      59.17111495      82.64792842
O      85.06242575      60.85108164      81.64637347
N      81.98028213      59.59063419      84.14459166
H      80.95794020      58.16578055      84.89481301
C      81.34533409      62.17577979      84.98174042
H      81.04864706      63.28315940      83.27153810
C      78.79420357      62.29672227      86.43493995
H      78.49184736      64.24691982      87.01697566
H      78.77908576      61.30461596      88.23962858
C      76.58322378      61.41233035      84.76820134
H      76.95927932      59.67945133      83.71940324
C      74.36090564      61.18745292      86.52753654
H      74.98451532      60.00259453      88.09222993
H      72.75274854      60.34652471      85.55243776
H      73.89414324      63.14142993      86.97729140
C      76.00496753      63.35496900      82.74619419
H      74.18705082      62.94867785      81.86747145
H      77.42415199      63.31528475      81.25331040
H      75.76875174      65.23713641      83.54932787
C      83.53741661      63.69134029      86.25163650
O      83.23317068      65.97979885      86.55588244
N      85.46682718      62.41199557      87.12846951
H      85.56509295      60.50904118      87.03209347
C      87.70615286      63.95023279      88.25096694
H      87.08065345      65.66421456      89.20716845
C      88.92313661      62.49325381      90.39202685
H      90.24594502      63.70267865      91.40869961
H      90.13445117      61.00603920      89.64180550
C      86.98238768      61.41799953      92.26096617
H      85.89768478      59.97613836      91.26885986
H      85.57832103      62.82206618      92.81087653
C      88.18047416      59.93456438      94.46249733
H      89.32564831      61.23469608      95.57554613
H      89.61855589      58.66655802      93.71038626
N      86.44192596      58.71002173      96.16703046
H      85.64257173      57.09808518      95.53019270
C      85.18147851      59.54339103      98.14179446
N      85.49895253      61.73547355      99.19815147
H      84.76762844      61.86775440     100.95748667
H      86.74050271      62.96190593      98.42525341
N      83.58654950      57.99192573      99.13768023
H      82.82498979      58.55128472     100.79685993
H      83.56954196      56.20235491      98.47627602
C      89.71871138      65.06517132      86.46517557
O      91.19836709      66.79805035      87.06043936
N      89.79430044      63.95212252      84.13892248
H      88.93069551      62.25892774      83.95939848
C      91.37222191      64.62486509      82.06778244
H      92.58353647      66.12719751      82.79154762
C      93.10888039      62.41955448      81.28543575
H      94.31452578      63.11119431      79.76609579
C      94.99482725      61.63342833      83.25831002
H      96.00772055      63.22268816      84.08978960
H      96.27228224      60.32006855      82.31911604
H      94.08208944      60.64132202      84.81544450
C      91.45159041      60.43912130      80.00609103
H      90.26673201      61.50303722      78.69651070
H      90.15145871      59.73803284      81.43661385
C      92.86132624      58.36987099      78.69651070
H      94.50349841      57.63854691      79.70373482
H      93.82886611      59.06340055      77.01654401
H      91.63111441      56.91100228      77.92172291
C      90.10988473      66.00247557      79.80955950
O      91.44781096      66.67332841      78.02187841
N      87.58898983      66.22357355      80.05522392
H      86.83120958      65.49224946      81.64637347
C      85.98650191      67.41410113      78.27888118
H      86.91624726      67.55016142      76.44584666
C      83.74339678      65.69822963      77.78377289
H      82.24673354      65.51303645      79.18783954
H      84.63723733      63.84818757      77.64204342
C      82.49239796      66.50136332      75.26476772
O      83.64513101      66.24625026      73.13693589
O      80.21905721      67.20056205      75.27043689
C      85.11533808      69.96523165      79.57523344
O      84.79786406      71.84550933      78.21085104
N      84.76006954      70.10129194      82.09423861
H      84.90179901      68.40053826      82.95217436
C      83.68859472      72.29715392      83.36980387
H      83.69993308      73.83161168      81.99597284
C      80.86534361      71.85495796      84.03687726
H      80.86534361      70.20711662      85.27086854
H      79.79386879      71.42599009      82.32856467
C      79.49340230      73.99601787      85.42015692
H      80.52330314      74.65931181      87.07744690
H      77.86823767      72.97745539      86.17226799
C      78.72428369      76.08227572      83.68916762
O      80.23417502      77.42776086      82.43627907
O      76.44905321      76.47533880      83.32445044
C      85.26651619      72.96422731      85.72440286
O      86.39090335      74.88985842      85.91148576
N      85.59343884      71.09906744      87.44405380
H      84.51251539      69.52870487      87.33255995
C      87.25072882      71.37685720      89.71361510
H      89.08943252      72.04582032      89.06732871
H      87.67969669      69.59862474      90.66414744
C      86.19815126      73.02847800      91.79987295
O      84.16102630      74.08861446      91.49373729
N      87.38111993      72.74123960      93.97872739
H      88.92124688      71.61118327      93.99384520
C      86.39279307      73.96956170      96.20482499
H      84.34810920      74.21333640      96.15758183
C      87.05419728      72.31605118      98.54619589
H      89.04029964      71.84739906      98.82398566
H      86.06398069      70.53403927      98.25895749
C      86.30775539      73.36484928     101.11433395
H      87.41891446      75.01835981     101.64345732
C      83.34655426      73.97901034     101.34488056
H      82.29397670      72.48423682     100.39623795
H      82.73239320      75.52102701     100.12600709
H      82.67003224      74.18121105     103.27996031
C      86.85577602      71.20867156     103.06264178
H      87.00128494      71.71889767     105.05252359
H      88.53574271      70.15798373     102.50139306
H      85.36667168      69.78381792     103.02862671
C      87.62300490      76.57171484      96.66969766
O      89.93980936      76.73423130      96.60733669
N      86.05264234      78.38396237      97.28385871
H      84.23661535      77.92286915      96.92292099
C      86.49294857      80.85950384      98.43659177
H      88.54141189      81.01068195      98.57832124
C      85.53674705      83.20465420      96.84733194
H      85.76540394      84.87139280      98.03785951
H      83.49584263      83.06481445      96.61300587
C      86.88790137      83.84716114      94.40958499
H      88.93258524      83.81125634      94.66280832
H      86.25862250      85.74066691      93.89935889
C      85.94303821      82.22010679      92.11167780
H      83.90402352      82.44876367      91.93782297
H      86.16413619      80.18298182      92.31387851
N      87.10521989      82.89284935      89.59645207
H      88.72282562      83.90574266      89.57566508
C      86.06398069      82.24089378      87.40814900
N      83.91914133      81.00501277      87.34200858
H      83.47883510      80.17542292      85.67904943
H      82.77018773      80.75556889      88.84434100
N      87.28474389      82.59805205      85.30488362
H      86.59499379      81.81570536      83.70617516
H      88.80030439      83.75456455      85.30110416
C      85.19848604      80.77068671     101.05386271
O      82.95160146      80.47588940     101.58487580
N      86.75184107      81.11272717     102.95303765
H      88.50361736      81.72310877     102.50895197
C      85.95059711      81.11650662     105.60432367
H      84.33110166      79.89196397     105.95770249
C      88.21637896      80.06392906     107.15767870
H      89.48627505      81.63240190     107.57152876
H      89.42391408      78.71277475     106.17502102
C      87.84032343      78.86962203     109.75227293
H      86.60633215      79.85794890     111.07130189
C      86.30964511      76.44510317     109.27984135
H      84.39913181      76.83249707     108.61843714
H      86.24350469      75.28670095     110.98248476
H      87.27151581      75.29048040     107.87010552
C      90.13445117      78.03436300     111.20547246
H      89.30486132      77.21611151     112.90622614
H      90.88845197      79.76535231     112.03317259
H      91.59709934      77.19910397     110.02439352
C      85.11533808      83.68653441     106.61721697
O      84.14401876      83.87739676     108.75071798
N      85.33265661      85.59515798     105.00905988
H      86.02429644      85.22099217     103.27051167
C      84.70337775      88.20864947     105.42479967
H      83.63568238      88.69997831     107.11610472
C      87.14679387      89.94341823     105.32842363
H      86.24728415      91.78968084     105.49094009
H      87.96126591      89.40484623     103.51617609
C      88.81920166      89.50878118     107.65467672
H      89.45037025      87.54724526     107.65278699
H      87.72505012      89.95853604     109.33842286
C      91.16435201      91.07725402     107.23326775
H      90.56530877      93.01422349     106.87044030
H      92.25661382      90.51600530     105.57786750
C      92.70069950      91.27378555     109.72770649
H      93.78351268      89.56925242     110.12832846
H      91.34765546      91.40606639     111.27539234
N      94.47137306      93.43185300     109.69936059
H      95.46536910      93.61704618     111.31885604
H      93.65690102      95.10048134     109.26283381
H      95.66945954      93.22776256     108.22726379
C      82.90057885      89.05524686     103.30074729
O      82.99128571      88.02534602     101.29763740
N      81.27919367      90.85048686     103.76939942
H      81.09022104      91.27945473     105.62133121
C      79.36301119      91.77078357     102.00817450
H      78.31988226      90.15695730     101.26740178
C      77.47328487      93.36760231     103.41791033
H      77.00463275      91.99188155     104.87866877
C      78.50696517      95.82991569     104.51773104
H      79.84867085      95.37449165     106.01250455
H      77.03675810      96.72942542     105.64589765
H      79.19482555      97.29067413     103.23838633
C      74.88624955      93.87404896     101.99305669
H      74.29476522      92.07691924     101.17858465
H      75.01286122      95.13071696     100.36789206
C      72.57133482      94.70552854     103.72593572
H      71.94772514      93.35248450     105.14889963
H      71.02931815      94.84536828     102.36722250
H      72.80944033      96.57824731     104.54607694
C      80.58755384      93.08603309      99.68759058
O      82.49050824      94.40128260      99.93514473
N      79.53308656      92.65895494      97.38212448
H      77.94760618      91.60070821      97.29141762
C      80.52708260      93.72098113      94.94437754
H      81.10533885      95.68818622      95.12579126
C      82.54908975      91.81802673      93.90502807
H      83.83032419      91.40039722      95.46405227
H      83.52985771      92.90839881      92.46127716
C      81.77619169      89.23666059      92.81276626
C      82.06154036      88.82470025      90.17659805
H      82.97805762      90.31758404      89.13157940
C      80.95416074      86.63639718      89.06732871
H      81.12045666      86.25089301      87.06988799
C      79.91859072      84.72588388      90.53375632
O      79.07766251      82.58104451      89.58511372
H      79.04364744      82.29191639      87.79365317
C      79.73906672      85.10571887      93.21149851
H      78.97372757      83.62795289      94.39068773
C      80.63290727      87.36772126      94.38879800
H      80.33810997      87.70220282      96.38245926
C      78.27641856      93.71342222      93.14346836
O      76.05599014      93.79279073      93.88424108
N      78.87168235      93.91751266      90.69249333
H      80.74818058      94.00255035      90.35990150
C      76.97628685      93.83436471      88.66292727
H      75.12057562      93.31657970      89.39614108
C      76.56810597      96.50265826      87.44972298
H      75.50985924      96.27400138      85.69416724
H      78.34444871      97.35114538      86.84879001
C      74.90892627      98.16561742      89.20905818
H      75.34356332      98.33947224      91.21405780
H      72.96250817      97.53822828      88.95583485
C      75.01664067     100.77343973      87.95805936
H      74.41003852     100.66005615      85.99274399
H      76.86857245     101.67294945      87.95994909
C      73.29510000     102.52710575      89.51330412
H      73.31588699     102.01687964      91.50885510
H      71.31466682     102.22852899      89.03520336
N      73.87524597     105.21429656      88.94827595
H      72.50519440     106.44828785      89.43960479
H      74.20972753     105.56200621      87.10201334
H      75.59300719     105.68105896      89.63424660
C      77.53942530      92.07691924      86.45194749
O      79.71827973      91.74621713      85.62424736
N      75.51552841      91.32669789      85.14614661
H      73.85445899      91.88416715      85.90581658
C      75.35868113      89.84515246      82.85579831
H      76.71361490      88.32014333      83.14492644
C      72.65826223      88.91918657      82.36635920
H      71.60946413      90.38939364      81.37425289
H      71.87213608      88.49021869      84.22207044
C      72.53731975      86.41340948      80.90938021
O      70.85924278      86.21876767      79.30122312
O      74.46484058      84.93753323      80.90371103
C      76.15047646      91.52322943      80.55222194
O      76.11646138      93.93829965      80.73363566
N      76.52275254      90.47443132      78.30344763
H      76.57944433      88.56958720      78.19951268
C      76.90447725      92.05235279      75.90916439
H      78.62412820      93.15784269      76.16049799
C      77.53186639      90.48954913      73.53188869
H      77.52430749      91.58936985      71.78956103
C      80.17748323      89.35004417      74.00432026
H      80.79920319      88.21620838      72.40183235
H      80.29842571      88.20675975      75.71452258
H      81.57966015      90.84481768      74.21596961
O      75.88591477      88.45431389      73.32401879
H      76.69660736      87.40362606      72.08813778
C      74.70105637      93.66428934      75.24398073
O      74.95805915      95.57102319      73.93251066
N      72.40125945      93.07469473      76.12459319
H      72.27653751      91.39283831      77.01843373
C      70.09957280      94.52978399      75.75987601
H      69.77453988      95.34425603      73.89660586
C      67.78654779      92.63438850      75.98286371
H      67.69206148      92.26967132      78.00865032
H      68.07945537      90.88828139      74.93028616
C      65.06156245      93.56980302      75.41027664
H      64.67416856      95.09292243      76.74064397
H      63.70284923      92.11093431      75.92995138
C      64.67983774      94.54868125      72.60970225
O      64.05433833      96.81068365      72.30734604
O      65.10880561      93.03312075      70.75210128
C      70.16382350      96.70485898      77.79322152
O      68.31378144      98.09569754      77.82345714
N      71.97985048      96.95808230      79.48641630
H      73.30832808      95.58803073      79.57712316
C      71.83623128      98.95363329      81.45551112
H      71.29199010     100.81123425      80.75442265
H      73.72973705      99.05945796      82.26053453
C      69.89359263      98.42828937      83.56255596
O      69.65170767     100.00810057      85.28220690
N      68.78432329      96.14172054      83.74774913
H      68.77109520      95.10615052      82.14337149
C      67.20829154      95.18929847      85.83211726
H      65.98752834      96.76721994      86.35557145
C      65.40171319      92.97264951      85.09323427
H      64.54944662      92.22998707      86.81666467
H      66.46373938      91.40795612      84.27876223
C      63.28521972      93.44697081      83.21106686
C      62.30634149      91.24166021      81.89959680
H      63.22285875      89.49555309      82.42116126
C      60.55267547      91.53078833      79.91349445
H      59.86670482      89.89050589      78.90627032
C      59.53789244      93.99310172      79.54688754
O      57.68974010      94.33703191      77.83290577
H      57.43084760      96.06802121      77.35858447
C      60.54322684      95.96030681      80.90182131
H      59.76276987      97.82357695      80.61080345
C      62.43295315      95.86393077      82.61958253
H      63.06412174      97.60058925      83.48885663
C      68.89014796      94.38616479      87.99774361
O      70.96128800      93.29579271      87.56310656
N      68.08701428      94.75466142      90.31643780
H      66.51854144      95.83936433      90.35423232
C      69.66115630      94.32380382      92.57844019
H      71.65670728      94.69985936      92.23639973
C      68.52165133      95.75432664      94.90469329
H      69.21140143      94.64316757      96.49395312
H      66.46940855      95.81668761      95.07854811
C      69.63658985      98.42450992      95.24106457
C      68.03788139     100.56745956      95.09366592
H      66.08957357     100.42195063      94.50218158
C      69.09612813     102.99386815      95.56987695
H      67.94528480     104.66627593      95.78341602
C      71.66048674     103.36047505      96.24828869
O      72.59968071     105.72452267      96.76229425
H      71.30521819     106.99441875      96.70182301
C      73.16848833     101.07768566      96.48828394
H      75.17159823     101.28933501      96.81520659
C      72.11969023      98.60781337      96.20104554
H      73.35935069      96.99209738      96.34277501
C      69.53076518      91.53267806      93.07354849
O      67.65804641      90.23632581      92.94315737
N      71.65481756      90.44230598      93.71416571
H      73.14014244      91.61960547      93.93904314
C      72.21984572      87.78724051      93.92959451
H      70.34523722      87.03701916      94.33777539
C      73.50863907      86.77812665      91.50507565
H      74.64814404      85.12083668      91.93971270
C      71.64347920      86.28490809      89.32433148
H      70.73641057      84.49533727      89.79676306
H      72.80755061      86.15451697      87.63113671
H      70.35846531      87.87227819      89.05599035
O      75.09978863      88.62627899      90.85689952
H      76.83644711      88.45053444      91.35200782
C      73.98485010      87.30913975      96.15002293
O      75.31143797      89.06469549      97.07598882
N      73.99996791      84.96587912      97.15913678
H      72.97951570      83.66763714      96.20293526
C      75.87835587      83.85472005      98.82776511
H      77.65091915      84.87328253      98.58021096
C      75.07900164      84.47077083     101.53007374
H      74.30610357      86.37750468     101.64912650
C      72.91526501      82.74356098     102.45792936
H      71.36568943      83.25378708     101.19937163
H      72.19338956      83.37850902     104.27962552
H      73.47084454      80.76690725     102.30675125
C      77.23517936      84.73722224     103.37444662
H      78.50129599      86.21309849     102.68469652
H      78.41814803      83.07804253     103.67113365
C      76.56621624      85.35894219     106.26005870
H      75.74229557      83.63551180     107.02917731
H      75.41348319      87.06536505     106.33564775
H      78.31799254      86.08081764     107.06697184
C      76.31299292      81.10516826      98.02841088
O      75.65914761      80.39085172      95.98561674
N      77.69627258      79.66519681      99.68759058
H      79.10222896      80.37951336     100.76662431
C      77.64902942      76.85706351      99.64412688
H      75.74985448      76.06337846      99.64223715
H      78.84711590      76.11251134     101.14267985
C      78.94916113      75.73834553      97.25551282
O      80.56865658      76.97800600      96.08388251
N      77.85689932      73.71444865      96.34655446
H      76.49818610      73.00391156      97.48416970
C      78.12524045      72.92454305      93.69148899
H      79.79575851      73.73523564      92.79764845
C      78.34444871      69.91420904      93.38724306
H      76.61345940      69.03548630      94.07699316
C      78.70160698      69.40209321      90.59800702
H      80.48172917      70.28459539      90.05943502
H      77.22951018      70.08239468      89.33000066
H      78.98128647      67.37819633      90.32966588
C      80.78786483      69.06950138      95.04453303
H      80.71416550      69.64775763      97.01929703
H      82.30153560      70.24680087      94.28864251
C      81.40580533      66.22924273      95.11067345
H      81.58532933      65.30894601      93.27574920
H      80.09433527      65.14642955      96.27096541
H      83.20671451      65.97601940      96.07821333
C      75.89347368      74.04326103      92.33466550
O      73.79209802      72.99635265      92.24773809
N      76.35078744      76.17487231      91.13090984
H      78.04587195      76.83060734      91.70349691
C      74.69916665      77.62618212      89.43015616
H      74.33822892      76.34494768      87.85790386
H      75.89347368      79.17764742      88.79331839
C      72.21039709      78.39719046      90.40147548
O      70.43972354      78.71844393      88.91993005
N      71.91748951      78.50490486      92.91859093
H      73.37257878      78.16286439      94.10344933
C      69.24730623      78.57104528      93.92959451
H      67.96040262      77.43343004      92.79386899
C      69.54399327      77.17831698      96.45426886
H      70.94617019      78.19498974      97.56920739
H      70.34145777      75.33772356      95.99128592
C      67.11002577      77.05359505      98.05675678
N      65.46218443      74.91442486      98.38178970
H      65.63981870      73.30437804      97.37645530
C      63.16805669      75.61173387      99.37767547
H      61.75832086      74.25868983      99.96349063
N      63.40616220      77.97011231      99.94459336
H      62.00020582      79.06993302     100.62300511
C      65.64926733      79.01135151      99.06965008
H      66.04044068      81.01635113      98.99973021
C      68.17583141      81.15808060      94.01274247
O      69.21707061      82.71899453      95.38090432
N      66.11791946      81.53791559      92.58977855
H      65.45273580      80.03936262      91.61279005
C      64.49842401      83.72621866      92.45371826
H      65.60391390      85.37972918      91.92648462
C      62.09091269      83.30669942      90.71328032
H      61.05723239      81.72877795      91.54098045
H      62.90160528      82.62261849      88.94638622
C      60.61692616      85.72554910      90.20305422
H      59.83268974      86.31136426      92.01530175
C      62.16461201      87.97810286      89.05599035
H      63.32112452      88.86816396      90.51107961
H      60.89849538      89.47854556      88.43804984
H      63.23986629      87.49244320      87.36846475
C      58.60814709      85.15485175      88.23017995
H      57.45919349      83.48811314      88.60623548
H      59.46986229      85.09438051      86.35935090
H      57.37037636      86.79513419      88.34923271
C      63.46663344      84.34793862      95.11823236
O      62.35925382      82.70009727      96.35789282
N      63.94473420      86.67419171      96.09333114
H      65.19951247      87.85905011      95.27507964
C      62.71830182      87.69086446      98.29864174
H      61.86603526      86.13372998      99.34177067
C      64.62503567      89.11004892      99.94270364
H      63.46852317      89.78657094     101.50739702
H      65.52076595      90.68230122      98.96004595
C      66.60168940      87.43386168     101.04819353
H      67.41616144      86.48521908      99.40980082
C      68.67471916      88.96265027     102.30486153
H      69.86146729      87.68897474     103.40468224
H      67.94906426      90.33459158     103.65790557
H      69.85768783      89.68830518     100.78174212
C      65.59824472      85.61027579     103.11933357
H      66.95317849      84.27045984     103.89790081
H      64.02032325      84.59171331     102.27273618
H      64.86503091      86.77812665     104.65001188
C      60.45629943      89.33681608      97.81298208
O      58.58736010      89.17618935      99.03752473
N      60.50732204      90.82969987      95.72672423
H      61.97185993      90.77678753      94.50407131
C      58.29823198      92.41329052      94.94815699
H      56.47464608      91.46275818      95.08043783
C      58.11870798      94.82836075      96.74906617