 %block lattice_cart
   137.614   0.000   0.000
   0.000 142.646   0.000
   0.000   0.000   160.855
 %endblock lattice_cart

 %block positions_abs
N      91.64434249      40.93809062      82.82083839
H      93.50005373      40.81714813      82.39187050
H      90.76750948      39.65307672      81.71534848
H      91.34765546      40.54502754      84.66332153
C      90.63144919      43.42119098      81.92132865
H      91.66701921      44.81013983      83.03626718
C      91.46859795      44.01078560      79.17933577
H      90.38956422      42.91285462      77.81117392
H      93.45092085      43.51567730      78.92044327
C      91.12277803      46.78112437      78.63509459
H      89.09132224      47.11371620      78.60485897
H      91.96370624      47.10048812      76.78127308
S      92.60054401      48.95241990      80.79694149
C      92.71959677      51.66984634      78.83162613
H      94.11610451      51.17473805      77.40110332
H      93.47359756      53.37815894      79.70090024
H      90.88845197      51.93440802      77.92833695
C      87.78930081      43.62339170      82.31628145
O      86.41735951      42.07948530      81.22024020
N      86.91435753      45.46776458      83.78081934
H      88.36755707      46.24066265      84.74646949
C      84.26685097      46.19908866      84.37041396
H      83.02152133      45.26934333      83.01736991
C      83.45993783      45.08415014      86.90453694
H      83.63190293      43.03190736      86.85351433
H      81.46438685      45.36382964      87.32405618
C      84.90557846      46.13861742      89.17787770
O      85.69170461      48.29668487      89.21189277
N      84.90179901      44.93297204      91.25279718
H      85.53107787      45.94208589      92.74379124
H      84.19315164      43.16040875      91.26602528
C      83.59032895      49.10548773      84.15687489
O      85.24006002      50.55868727      83.58428781
N      81.17336899      49.86893716      84.60474002
H      79.93937771      48.41951708      84.73513113
C      80.47794971      52.47298002      84.64442428
H      80.75573948      53.34225413      82.79816166
C      77.56588146      52.31991220      85.11496612
H      76.80243203      50.86860238      83.87152621
C      76.98384576      51.38827713      87.81349529
H      77.99295961      49.62705220      88.16498440
H      75.00152285      50.86860238      88.01002683
H      77.54698420      52.72242390      89.27803320
C      76.20905797      54.79167422      84.77103593
H      76.84022656      56.16739498      86.16943341
H      74.22862479      54.23987414      84.88630925
C      76.71928407      56.02566549      82.25392048
H      78.48239872      57.08580196      82.35218625
H      75.21128248      57.26532596      81.59818545
H      76.86290327      54.64994474      80.72891136
C      81.77241223      54.02066587      86.68910815
O      82.36011712      56.19196142      86.09384435
N      82.36011712      53.09658972      88.82449887
H      81.91603143      51.29568053      89.27803320
C      83.61111594      54.68584954      90.70477655
H      82.40169110      56.34880869      90.84083685
C      83.59788785      53.22698082      93.12551597
H      84.30842495      54.63860638      94.44454493
H      84.88290175      51.61693400      93.14252350
C      81.11289775      52.39361152      94.28958737
C      80.53653123      49.78767893      94.60517167
H      81.83855266      48.45164243      93.77747154
C      78.36145624      49.03367813      95.92609036
H      78.01563632      47.03056824      96.09805546
C      76.70038681      50.64750442      97.06370560
H      75.25096673      50.10137350      98.39407292
C      77.21628209      53.31390823      96.74623159
H      75.91992984      54.70096735      97.49645292
C      79.37623927      54.15672617      95.32137794
H      79.68048521      56.16550524      95.50279166
C      86.28696840      55.35103321      89.97912166
O      86.91813698      57.42973214      90.16431483
N      87.74016793      53.45563772      88.95489000
H      87.03907947      51.68118470      88.99268452
C      90.22515803      53.82791380      87.73412679
H      91.56497399      54.44585429      89.17220851
C      91.00561500      51.18985586      86.71178485
H      92.64211799      51.47520453      85.49480112
H      89.51651066      50.23743381      85.65542784
C      91.84465348      49.44185902      88.83961668
H      90.19870186      49.23965830      90.06226961
H      93.12021874      50.43396533      90.11707168
C      92.91801803      46.88883877      87.99679875
O      91.37222190      45.14462139      87.45444729
O      95.28017592      46.68285860      87.77003160
C      90.06075184      55.64960996      85.57227989
O      91.96748569      56.86092453      85.00158254
N      87.90079467      55.72330928      84.34962696
H      86.57987597      54.52900226      85.03370789
C      87.36222267      57.25965677      82.02148414
H      88.97982839      57.15761155      80.74780861
C      85.23817029      56.16361551      80.48513665
H      83.44482002      56.29400663      81.49425050
H      85.71816078      54.17751317      80.21679552
C      84.57298663      57.40516571      77.92266778
H      85.87500806      56.52833269      76.58852099
H      84.99817505      59.41016533      77.73180541
S      81.40769506      56.55667860      76.85497241
C      81.95571569      56.64738545      73.50259793
H      83.20293505      55.03355919      73.21724925
H      82.91758638      58.37270557      72.91867250
H      80.25874146      56.23353539      72.41033612
C      86.75373080      60.07723872      82.51470271
O      87.62489463      61.61169647      81.06339291
N      85.24383947      60.65738469      84.47623863
H      84.60511198      59.29111256      85.64786894
C      84.47472086      63.27465564      84.94111130
H      84.26685097      64.10991466      83.07217198
C      82.02941501      63.21040493      86.42832591
H      82.06720954      64.68439147      87.87018708
H      82.07854790      61.36603205      87.34295345
C      79.69371329      63.43339264      84.75969757
H      79.67103657      62.10302532      83.18744528
C      77.36557047      62.40160207      86.17321286
H      76.94983068      63.67716734      87.73790625
H      77.60367599      60.46085315      86.82516843
H      75.70450104      62.43750687      84.95622911
C      78.99073510      66.12247318      84.03026322
H      80.56298739      67.02198291      83.04760554
H      78.73940150      67.13914594      85.80282650
H      77.25029717      66.33601226      82.94933976
C      86.54586090      64.67872228      86.45667180
O      86.76884861      66.90670961      86.49824578
N      88.29952692      63.28032482      87.71333981
H      88.19937142      61.38114986      87.57350005
C      90.60499302      64.45762430      88.76402763
H      90.11933336      66.12436292      89.87518671
C      92.10165626      62.73797337      90.52336284
H      94.00461066      63.51843032      90.66131286
H      92.37377685      60.98619706      89.47267500
C      90.76750948      62.14837875      93.07827280
H      89.01195374      61.13359572      92.72300426
H      90.23271694      63.96818519      93.88329622
C      92.53818304      60.88415184      94.99256557
H      92.04118502      61.33579643      96.93898366
H      94.47893196      61.52854852      94.74879086
N      92.57597757      58.14782814      94.71855525
H      91.00561500      57.24642869      95.31948822
C      94.44680662      56.95163139      93.87195786
N      96.67479394      57.75287534      93.25779680
H      97.81618863      56.64927519      92.19955007
H      97.34942623      59.48386465      93.69243385
N      94.08208944      54.65939338      93.49968177
H      95.71103352      53.77500146      93.04992691
H      92.77250910      53.55768293      94.34249972
C      92.31708506      65.27587579      86.54548894
O      93.53973799      67.33756720      86.59840127
N      92.39834329      63.98897219      84.39687012
H      91.39300889      62.36947673      84.30049408
C      94.05563327      64.57478733      82.08762458
H      95.82819655      65.48374569      82.61107875
C      94.55263129      62.42616852      80.23758251
H      92.81219335      61.53043824      79.60074474
C      95.72237188      63.29166317      77.78282802
H      95.95669794      61.71185198      76.48080660
H      97.59131120      64.13637084      77.94345476
H      94.40334291      64.46896266      76.72647102
C      96.04551508      60.32668259      81.46779434
H      94.98159916      59.64071193      83.09484869
H      97.81618863      61.14115462      82.12919854
C      96.69936038      58.00798839      79.97680027
H      94.96648135      57.27855404      79.13398234
H      97.31352143      56.52077379      81.26559363
H      98.13366265      58.33680078      78.53682882
C      92.83298034      66.88781235      80.70434490
O      94.34098194      68.27109200      79.48736116
N      90.25350393      67.28276514      80.99158331
H      89.20848528      65.79177108      81.56606010
C      88.98549757      69.45595041      80.07695577
H      89.79430043      70.06633200      78.28360550
C      86.32854237      68.66037563      79.33240360
H      85.63312309      70.47262316      78.64643295
H      85.45548882      67.77976316      80.97835523
C      86.31153484      66.98418838      76.90599502
O      87.43025282      67.75330700      74.94067965
O      85.41580457      64.74297298      76.99481216
C      88.90045989      71.73685006      81.80794507
O      89.95492717      73.68137843      81.14843060
N      87.80252890      71.46472947      84.16821325
H      87.28663362      69.76208607      84.85607361
C      87.46993707      73.64547364      85.76503197
H      87.49261378      75.36323486      84.62741673
C      84.91502709      73.76074694      87.07650204
H      84.98494697      74.79442724      88.85662422
H      84.12512149      71.90125625      87.46956511
C      82.86278432      75.07410673      85.46645521
H      81.00518335      74.42026143      86.07494709
H      83.09900011      74.45238678      83.51814738
C      83.05931585      77.94082155      85.49858056
O      81.41336423      79.15591556      86.79115336
O      84.66558322      79.05764981      84.34017833
C      89.69792439      74.08389014      87.52625689
O      90.30074708      76.20416306      87.98923984
N      90.82042182      71.86535145      88.34450839
H      90.28751900      70.20239230      87.57538978
C      92.51172687      71.85590282      90.45911213
H      94.30507714      72.70250021      89.90353260
H      92.64778717      69.83389567      90.83516768
C      91.45536986      73.05776876      92.95544059
O      89.14612431      72.69494130      93.42220299
N      93.03707079      74.19916345      94.46722164
H      94.86821558      74.40514361      93.96644417
C      92.14511997      75.29331498      96.81048227
H      90.08720801      75.29331498      96.73867268
C      92.72904540      73.50752361      99.03657988
H      94.74538337      73.10123247      98.93075519
H      91.89945555      71.63669456      98.80792299
C      92.34165150      74.49774020     101.69353506
H      92.90856940      76.45738639     101.98644264
C      89.46737778      74.58655734     102.22454816
H      88.84376810      76.06810277     100.93575481
H      89.09888115      75.38969102     104.08403885
H      88.37322625      72.84989887     102.06392142
C      93.65879074      73.00296669     103.67018880
H      93.33186809      73.63791474     105.60337881
H      95.67890817      72.92548791     103.27334626
H      93.11643929      71.01686434     103.67018880
C      93.09187285      77.98806470      97.47944539
O      95.31419099      78.46616546      97.17708918
N      91.29474313      79.61322933      98.24289483
H      89.53729765      78.87245663      98.17297494
C      91.54040755      82.32498659      98.90996820
H      93.55863525      82.73127776      98.97610864
C      90.29318818      83.82731902      96.66497334
H      89.82264633      85.68303026      97.42464333
H      88.55275025      82.96938327      95.97144379
C      92.35487959      84.22605126      94.61084084
H      93.23360232      82.37789893      94.37651478
H      93.74382843      85.66602271      95.10594914
C      91.21348489      85.25217266      92.09561512
H      92.83675980      86.04207826      91.10350881
H      89.84721277      86.68080574      92.67387138
N      90.08909774      83.22638604      90.60273133
H      89.81319770      81.66169265      91.66097808
C      89.21415445      83.39835114      88.29726523
N      89.46737778      85.34476925      86.96122873
H      88.80975302      85.38067405      85.16976818
H      90.53129370      86.71293109      87.75680350
N      88.02740633      81.57854470      87.22579042
H      87.50017269      81.68436937      85.39275589
H      87.88189740      79.80409170      87.91176107
C      90.13445117      82.61789418     101.42330420
O      87.84977206      82.44214962     101.56881313
N      91.69347538      83.10166412     103.37539148
H      93.59265032      83.27740865     103.27901544
C      90.73538414      83.45126347     105.95864735
H      89.55241546      81.83743720     106.44619674
C      92.89912077      83.51362445     107.93908053
H      92.17346586      84.06164508     109.78723286
H      94.24649563      84.89501438     107.21720508
C      94.22003946      81.01918571     108.01466959
H      95.29907318      80.65257880     106.29879809
C      95.86410135      81.08343640     110.32391513
H      97.05273920      82.76340311     110.39761447
H      97.00360632      79.37701355     110.14817059
H      94.56207992      81.17036382     111.91695443
C      92.45314536      78.70049152     108.32080525
H      91.09632186      79.15591556     109.80235067
H      93.36021399      76.96194331     108.95575328
H      91.27206641      78.36978942     106.66540499
C      89.08943252      85.80586246     106.32903371
O      87.36789185      85.82475973     107.96364697
N      89.80185934      87.89023059     105.02890201
H      91.26639723      87.66913260     103.82514635
C      88.34865980      90.23916039     105.22165409
H      86.97860823      90.14089462     106.75422213
C      90.23649639      92.41801484     105.70164457
H      91.78796169      92.30463126     104.35049026
H      91.13411639      92.07408464     107.52334074
C      88.98171812      94.97103509     106.26667274
H      88.41857968      94.83119533     108.24332646
H      87.27718498      95.22803787     105.14228558
C      90.85254717      97.17634569     105.78290280
H      91.05096843      97.27839091     103.73443948
H      92.68936114      96.72281137     106.59926458
C      90.17980460      99.72369675     107.10004204
H      88.25606321      99.58196728     107.81435859
H      90.13634090     101.33752304     105.82069734
N      91.55552536     100.34730644     109.31858074
H      93.42446468     100.68745717     109.12015947
H      91.66890894      99.04906446     110.71130903
H      90.94703348     101.98569915     110.08769935
C      86.67058284      90.49616317     102.86138593
O      87.38111993      89.69491921     100.77890754
N      84.28196878      91.26717150     103.23366201
H      83.69426389      91.28039960     105.04968899
C      82.47728015      91.62621950     101.23811102
H      81.60044714      89.80074389     100.86394522
C      80.35322777      93.46492321     102.11305430
H      79.00963236      93.93546506     100.62394997
C      78.68270971      92.20258603     104.06325186
H      78.01374660      93.58397597     105.43708290
H      79.58788862      90.62277484     105.02134310
H      77.00841220      91.35031947     103.22043392
C      81.54564508      95.98770784     103.05224828
H      82.84010760      96.83052578     101.68975561
H      82.36767602      95.80062494     104.93252596
C      79.34222420      98.01727389     103.40562711
H      78.45783228      97.80940401     105.25377944
H      78.04587195      98.09097322     101.80691864
H      80.44204491      99.75771184     103.37350176
C      83.47505564      92.60887719      98.73233393
O      85.24572920      94.25104935      98.65674488
N      82.38657329      91.75661063      96.64418635
H      81.03352925      90.41301522      96.73489323
C      83.12734600      92.50494224      93.97211336
H      84.15913657      94.28695415      93.93998801
C      85.34777442      90.71915087      93.24456872
H      86.75184107      90.72482006      94.75257032
H      86.29263757      91.52039483      91.60050684
C      84.53141265      87.94881211      92.71166590
C      83.95693585      87.14756815      90.20966827
H      83.60166731      88.53840672      88.76024818
C      83.38434878      84.58887871      89.57283050
H      83.05931585      84.31297868      87.57538978
C      83.30498027      82.84844079      91.50979996
O      82.80609253      80.35211233      91.05248620
H      82.35633767      80.00251295      89.32905580
C      83.76796322      83.61189021      94.02124624
H      83.97016394      82.17002903      95.44987932
C      84.52385375      86.12900566      94.59572303
H      85.11344836      86.55230435      96.50245688
C      81.02219089      92.66745871      92.07293841
O      78.88302070      92.36321277      92.88363100
N      81.53619645      92.97548409      89.55393323
H      83.37112070      92.94146903      89.02669959
C      79.38190845      93.47248211      87.71900898
H      77.74540546      92.58053129      88.59773171
C      78.87168234      96.33730721      87.54326443
H      77.81721506      96.61887642      85.79526759
H      80.61212028      97.40689230      87.28437193
C      77.22573073      97.36909778      89.75613394
H      78.15547607      97.07430046      91.57027120
H      75.36435031      96.53194902      89.48023391
C      76.30354428     100.15077490      89.74857504
H      75.04876601     100.48336674      91.34728351
H      75.30954824     100.63265512      88.01002683
C      78.65247409     101.67200458      90.28147786
H      79.95449552     101.63043060      88.68654885
H      79.45749750     101.19390383      92.11829184
N      77.85500959     104.34407759      90.19832990
H      76.75707860     104.73903039      88.68843859
H      79.51229956     105.28327157      90.07549769
H      76.85534437     104.93178248      91.71389041
C      79.84111194      92.28006482      85.14142229
O      81.90469308      92.07219492      84.13230845
N      77.67170614      91.90022982      83.89987210
H      76.18260180      92.38588949      84.99024418
C      77.60934517      91.49204893      81.22590937
H      78.92081523      90.03318022      80.59285105
C      75.08656054      90.39600767      80.48891610
H      73.86012816      92.00983394      80.86686137
H      74.59523170      88.89178553      81.80794507
C      75.01286121      89.42846780      77.76959994
O      74.14358711      90.74371731      76.09152298
O      76.09378466      87.44236545      77.19701287
C      78.09689456      94.05262809      79.92010848
O      77.36557047      96.05951744      80.85174356
N      78.86601316      94.06585617      77.43700811
H      79.28364268      92.36132305      76.68489704
C      79.10600841      96.35998392      75.66066538
H      80.52141342      97.65822589      76.40332782
C      79.99984895      95.63243930      73.00371018
H      79.68426466      97.31996488      71.86609494
C      82.77585691      94.85576177      73.06607116
H      83.67914608      94.47592678      71.25571335
H      82.82876924      93.23248688      74.33218779
H      83.82465501      96.39588872      73.94479388
O      79.05498580      93.41012115      71.93790454
H      78.43704529      92.18368878      73.12465266
C      76.50196555      97.65633618      75.60964276
O      76.43204567      99.92211803      75.15043927
N      74.35901591      96.30707158      75.70979826
H      74.53098100      94.41167609      75.85341747
C      71.78142922      97.19713268      75.55484071
H      71.77009086      98.91111445      74.40966656
C      69.95973305      95.16945634      74.51927068
H      68.95439865      94.08286372      75.95357295
H      70.87814004      93.74460271      73.35141982
C      67.90560055      96.11431950      72.83363481
H      66.93428122      97.76216085      73.59708424
H      66.58846131      94.56285419      72.50860189
C      68.77109520      97.04595457      70.20313579
O      70.14681596      98.94135006      69.86676450
O      68.22307457      95.76849959      68.23026151
C      70.91971402      98.38199108      78.19289864
O      68.81644863      99.57629811      78.34785619
N      72.66393141      98.34986573      80.01837425
H      74.33633919      97.56751904      79.53838377
C      72.43716425      99.44590700      82.59218150
H      71.19183461     101.08618943      82.50903353
H      74.30988302      99.98447899      83.25736516
C      70.98963389      97.79428620      84.51970234
O      70.01642484      98.73348018      86.38297248
N      70.69672631      95.30551664      84.17577214
H      71.71150934      94.56285419      82.73580069
C      69.29265966      93.53106364      85.91054091
H      67.62781078      94.44569116      86.70422595
C      68.25708964      91.19158246      84.61229893
H      67.15159975      90.35821315      86.13541833
H      69.87091592      89.95570144      84.27214818
C      66.67349899      91.42212907      82.15754444
C      66.63570447      89.43791644      80.51537228
H      67.51442720      87.72960385      81.20701210
C      65.54533238      89.80830280      78.04927943
H      65.69084131      88.55730397      76.44301207
C      64.18283971      92.04384902      77.52393552
O      63.17183614      92.48793470      75.19579271
H      62.25909833      94.04506918      74.99737144
C      64.16205272      94.07719453      79.26248373
H      63.03955529      95.72125643      78.81650833
C      65.45651525      93.80885339      81.59251627
H      65.46785361      95.21103032      83.07406170
C      71.09923802      92.76005530      88.08183643
O      73.24218766      91.74338253      87.69066308
N      70.35090640      93.39500334      90.44021487
H      68.57078421      94.07341508      90.51391420
C      71.72095798      92.99627108      92.72111453
H      73.50485961      94.00538493      92.49623711
C      70.45862080      94.26427745      94.96044022
H      71.52064699      93.82208149      96.66875280
H      68.57267394      93.48004102      95.22500189
C      70.38303175      97.20847104      94.88674088
C      68.18528004      98.39143971      94.22155722
H      66.48830581      97.27461145      94.01935651
C      68.04166084     101.02193873      94.03447432
H      66.39948868     101.96680190      93.27480435
C      70.13547760     102.55828622      94.60328194
O      69.89359263     105.07729141      94.55603878
H      68.22496430     105.65932710      94.14596818
C      72.29732450     101.37153810      95.36673138
H      73.84312062     102.59986020      95.88640610
C      72.51653275      98.67678839      95.26657588
H      74.24752206      97.71869714      95.75979444
C      72.32378067      90.18057888      93.13874404
O      70.65893179      88.56297316      92.87607209
N      74.67082075      89.42468836      93.76235374
H      76.12213056      90.61521594      94.09494556
C      75.43427018      86.71293109      93.81526607
H      73.82611309      85.45626309      94.08171748
C      76.41125868      86.16680018      91.18665676
H      78.27452883      86.99072086      90.89752864
C      76.72117380      83.19992988      91.02791975
H      74.82010913      82.42136264      90.86162384
H      77.63958079      82.49695168      92.73245289
H      77.79453835      82.63301198      89.36307088
O      74.72373309      86.62033450      89.18921606
H      74.61223923      88.42313340      89.03803794
C      77.36746020      86.33876528      95.94309789
O      78.65058437      88.11321829      96.68009115
N      77.33722458      84.16558002      97.18086863
H      75.81599490      83.03552368      96.97110901
C      79.17970773      83.43992513      99.19153743
H      80.87668196      84.57376091      98.91374766
C      78.21027813      84.06920399     101.82203645
H      76.99707384      85.71326587     101.56125422
C      76.30543401      82.13034479     102.78390715
H      75.58544829      82.85788941     104.57158824
H      77.23706908      80.29164109     102.77634824
H      74.62735704      82.03774820     101.59148984
C      80.36456613      84.67202668     103.74199839
H      81.27352449      86.26695568     102.80658386
H      81.54942453      82.99205998     103.88183813
C      79.65969822      85.22193703     106.52556526
H      78.93593304      83.55708816     107.49877430
H      78.25185211      86.71671055     106.64839746
H      81.34344436      85.95137139     107.46097977
C      80.29464626      80.67336579      99.11594837
O      79.04742689      79.07843679      97.86305984
N      82.44893425      80.24250819     100.33104239
H      83.48639400      81.69381800     101.00378496
C      83.33143644      77.67625986     100.76567944
H      82.00295884      76.58021860     101.89762551
H      84.98872642      77.83688660     101.97888374
C      84.10622423      76.24951649      98.35438867
O      85.65202035      77.15469541      96.85394598
N      82.84955623      74.05176479      97.91597216
H      81.76485333      73.27508729      99.28224429
C      83.13868436      72.48140223      95.62562388
H      84.64290650      73.15981397      94.39352232
C      83.76040432      69.63925385      96.23222602
H      82.06909927      68.85879689      97.10905904
C      84.50495648      68.27865091      93.69054413
H      85.21549358      66.37002734      93.99667980
H      85.90524368      69.37658189      92.65119466
H      82.89490966      68.42982901      92.41686859
C      85.72382995      69.42382506      98.33171196
H      85.03219012      70.28742998     100.07026017
H      87.24694936      70.63324990      97.64574131
C      86.76128970      66.83867946      98.85705587
H      87.74205766      66.04121496      97.23000151
H      85.28919290      65.49130460      99.36350253
H      88.17480498      66.93127605     100.35371911
C      80.66692234      72.96328245      93.99856952
O      79.09089060      71.33622808      93.99667980
N      80.29086680      75.23095402      92.91197689
H      81.66091838      76.55187270      93.07071390
C      78.20082950      75.75629793      91.13563415
H      78.26885965      74.33144430      89.64841954
H      78.35011788      77.71405440      90.51013474
C      75.52686677      75.86023288      92.19577061
O      73.76375212      75.41803692      90.59706216
N      75.19616467      76.51974737      94.64863537
H      76.72873270      77.10556252      95.62184443
C      72.60534989      76.94493579      95.55192455
H      71.38269697      75.44827255      94.84138745
C      72.67149031      76.68604328      98.43186746
H      73.93004804      78.06743321      99.30303129
H      73.52186715      74.90214163      99.00823397
C      70.27720707      76.74273507      99.98333275
N      68.87314042      74.65080804     100.68064176
H      69.48352202      72.84611940     100.57292736
C      66.56578459      75.41425746     101.60093847
H      65.08234944      74.10467714     102.10360567
N      66.70184489      77.94082155     101.67085836
H      65.27510152      79.16914365     101.97699402
C      68.97329592      78.75718331     100.78079725
H      69.37580762      80.74517539     100.56347873
C      71.71717852      79.54330946      94.86028472
O      72.47306905      81.47272003      95.96577461
N      69.71973781      79.88723966      93.19165638
H      69.16226855      78.40758394      92.12396101
C      68.28165609      82.12467560      92.67009192
H      69.50430901      83.58354432      91.88207605
C      66.36736333      81.38012344      90.52903201
H      65.22218919      79.77385607      91.12051634
H      67.57867790      80.96816311      88.91709546
C      64.53243908      83.57598541      89.88841479
H      63.57245811      84.29408141      91.56082258
C      65.94595436      85.73027341      88.45033306
H      67.04199562      84.98005206      86.87430133
H      67.25175525      86.68836465      89.72211888
H      64.72141171      87.21181885      87.71333981
C      62.65216140      82.36845031      88.04971108
H      61.36336805      81.15713573      89.10228864
H      63.58946565      81.64468512      86.36218550
H      61.58257631      83.95771013      87.29760002
C      67.05144426      82.91080175      95.19665600
O      66.00642560      81.40091043      96.69331924
N      67.01931891      85.32209252      95.53302729
H      68.27787663      86.28396323      94.46911137
C      66.01587424      86.56931189      97.89518517
H      65.35635975      85.09154592      99.16886071
C      68.14181634      88.02440115      99.31625937
H      67.20640181      89.14500885     100.76945890
H      69.00731099      89.24516435      97.90085436
C      70.04666046      86.57498108     100.73355410
H      71.18238598      85.50161653      99.39184841
C      72.04977035      88.33809572     101.75022685
H      73.10801709      89.32075341     100.28001979
H      73.18171642      87.11922226     102.96343115
H      71.15970926      89.61366098     103.09760171
C      68.70684451      85.17658360     102.94264416
H      67.30088813      83.77440667     102.39840298
H      67.84323958      86.61655505     104.13695119
H      70.10335225      84.32053759     104.18986352
C      63.84646843      88.30786011      97.31692892
O      61.82824073      88.06786486      98.52257431
N      63.91260885      89.94247337      95.34027520
H      65.39982346      90.06719530      94.14974763
C      61.74320304      91.05363243      94.14029899
H      60.49787340      89.47571096      93.69054413
C      60.41472544      92.89800532      96.00734859