 %block lattice_cart
   137.614   0.000   0.000
   0.000 142.646   0.000
   0.000   0.000   160.855
 %endblock lattice_cart

 %block positions_abs
N      93.13439170      39.73622468      84.37608313
H      94.11893911      40.62628577      85.74991417
H      94.40995695      39.07293074      83.12319458
H      92.17252099      38.32648885      85.22834969
C      91.56780857      41.38784548      82.83406647
H      92.26889704      43.32292522      82.74335959
C      91.37883594      40.46943849      80.18467018
H      90.57003309      38.57971218      80.27537703
H      93.15139923      40.14440556      79.18500495
C      89.72154596      42.14562573      78.57840280
H      87.83559911      42.00389625      79.40043375
H      89.90295969      41.25367491      76.73025047
S      90.49633375      45.34115292      78.28549523
C      93.60304382      45.22021044      76.99670188
H      93.44430680      46.83403671      75.72491607
H      93.82603152      43.53646429      75.82885101
H      94.85404263      45.41485225      78.62186650
C      88.98455270      41.66563524      84.18333104
O      87.51812509      39.85716716      84.38364204
N      88.39684783      43.83882050      85.16787845
H      89.83115009      45.08603987      84.98457500
C      86.22177283      44.43597402      86.65509306
H      84.87061852      42.94309023      86.22045601
C      87.08537777      44.57581377      89.44810856
H      88.44598070      46.05169002      89.90920177
H      87.94142378      42.79002240      90.01124699
C      84.96321511      45.06336316      91.41153420
O      84.55692396      47.10237785      92.43387613
N      83.50434641      43.13206286      92.04270278
H      82.08894140      43.28324097      93.31448860
H      83.94276290      41.41808110      91.32838623
C      84.91030277      46.95875865      86.13163887
O      86.26712627      48.65006370      85.44944767
N      82.40452569      47.25733540      86.65887251
H      81.66375297      45.82492286      87.68121446
C      80.85306038      49.44374875      86.03526283
H      81.46344199      49.93318786      84.13230843
C      78.08272160      48.57825410      86.06171900
H      78.00713255      46.82269835      84.98646473
C      77.21344751      47.76189233      88.67143104
H      77.47611946      49.32091654      89.99234974
H      78.10161887      46.05546947      89.40842430
H      75.23490405      47.30079911      88.32750085
C      76.48779261      50.64939414      84.71245441
H      76.93565774      52.56368689      85.32661547
H      74.52247723      50.29412559      85.21134216
C      76.68054469      50.92529418      81.90621085
H      78.67420594      51.32969561      81.58684709
H      75.48245821      52.48809784      81.30149843
H      76.10606788      49.09036993      81.16354841
C      81.38596320      51.77945047      87.57350005
O      80.95699533      53.96775354      86.84784515
N      82.58782913      51.32969561      89.74101613
H      82.48578391      49.57413986      90.47800939
C      83.33616076      53.47831443      91.32838623
H      82.15508181      55.16584002      91.39263693
C      83.27757924      52.59770197      94.17431407
H      83.52324366      54.26066112      95.36673136
H      84.92920004      51.40339494      94.47667028
C      80.83227339      51.42040247      95.15319229
C      80.75290488      48.95053018      96.25679246
H      82.56515243      48.13794787      96.72166513
C      78.40397508      48.11149170      97.28480357
H      78.39452644      46.39750993      98.39407292
C      76.13441377      49.61571384      96.85394597
H      74.46011626      48.66140206      97.52668854
C      76.22890010      51.93629776      95.68987456
H      74.43366009      52.84336639      95.35161356
C      78.53436619      52.88305064      94.83571828
H      78.68743402      54.72553379      93.97022362
C      85.86650429      54.44396457      90.41942789
O      85.99500568      56.67762108      89.57849967
N      87.77512787      52.75454925      90.19077100
H      87.61261140      50.97253734      90.85973412
C      90.13917549      53.48398361      89.21756194
H      90.78924133      55.14883249      90.24179360
C      92.00622508      51.25599628      89.57660995
H      93.69186096      51.59992647      88.44466388
H      91.31647498      49.42485149      88.93032354
C      92.94541906      50.76088799      92.28269803
H      94.39483914      49.29823982      92.22033705
H      91.48466063      50.21475708      93.62818316
C      94.20964596      53.14005342      93.36929065
O      93.09281771      54.22853577      95.17586901
O      96.07291610      54.02255561      92.41308914
C      89.85949600      54.42317758      86.37352384
O      91.49977843      55.89338466      85.71778882
N      87.98110804      53.73909666      84.86741197
H      86.63184344      52.48242866      85.35118191
C      87.66741347      54.75576941      82.23880267
H      89.57792678      54.82002011      81.47157379
C      86.09516117      52.89438900      80.54182844
H      84.04669785      53.05123628      80.67410928
H      86.61294618      51.01600104      81.20890184
C      86.83404416      53.33658495      77.83385064
H      88.87494858      53.06068491      77.81495337
H      86.49578315      55.28867224      77.26504302
S      85.33171175      51.29379081      75.63042975
C      82.13618454      52.04212243      75.80050513
H      81.76201873      54.02633506      75.39421397
H      81.15919604      51.39772576      77.49558963
H      81.49556732      51.14639216      74.06006719
C      86.36161258      57.36926091      82.29549446
O      87.07592913      59.13804473      80.87253054
N      84.51346025      57.83791303      83.89420293
H      83.64796560      56.57368613      85.03370788
C      83.25868198      60.25298326      83.68255357
H      83.07348880      60.80667307      81.70589985
C      80.52046856      60.11314351      84.74835921
H      79.80993145      62.04633353      84.82016881
H      80.45054867      59.34591463      86.66076225
C      78.61184497      58.69962823      82.99847266
H      79.17687315      56.76454849      82.57328423
C      75.96622813      58.42750764      84.31183243
H      76.09472952      57.13115539      85.90865117
H      74.56027177      57.60736642      83.04760554
H      75.45600203      60.34369012      84.87119143
C      78.08083189      59.74086743      80.29049484
H      77.25313175      61.60224785      80.59474078
H      76.56716110      58.66750288      79.39287484
H      79.81182118      59.61992494      79.17744604
C      84.91408222      62.29388768      84.97512638
O      84.82904454      64.53699281      84.17577214
N      86.36728177      61.67405745      86.98012600
H      86.03468993      59.92984006      87.67932472
C      88.30803069      63.14615424      88.28592688
H      87.46710247      64.65037639      89.41409348
C      89.79335556      61.48697454      90.18699154
H      90.88750710      60.07156953      89.16653933
H      88.46865743      60.45518397      91.37562940
C      91.43741747      63.07812410      91.97845208
H      90.21854400      64.51620582      92.80804194
H      93.01344921      63.88692696      90.92776425
C      92.75266697      61.51154098      94.24801339
H      93.40651228      62.86269530      95.65774923
H      94.39672887      60.58368536      93.42220299
N      91.10671536      59.39126806      95.18153820
H      91.74166339      57.61681505      94.87540252
C      89.51367608      59.55756398      96.97110900
N      88.97510407      61.77988212      97.97077422
H      88.20787519      62.11058422      99.68664573
H      89.51556580      63.41449538      97.14874328
N      88.20409574      57.62248423      97.80447831
H      86.68286606      57.93995825      98.91185794
H      88.69353485      55.83102369      97.35661318
C      90.07492479      64.30833593      86.27903753
O      90.90640436      66.47585201      86.70422595
N      90.65129132      62.91371791      84.17766187
H      90.21665426      61.07879366      83.88286457
C      92.57503270      64.01920780      82.32006090
H      93.55391094      65.41193609      83.47846313
C      94.68963644      62.23719589      81.47346351
H      95.95764281      63.17638987      80.15065509
C      96.22598393      61.12792654      83.60696452
H      98.01177530      60.42683808      82.86241236
H      95.19419337      59.62937358      84.57072494
H      96.65873127      62.57923635      85.00347226
C      93.69375067      59.94684760      79.95601328
H      92.51456146      60.74242237      78.46312950
H      92.56747379      58.60136246      81.03504702
C      95.40206327      58.27632954      78.28927468
H      96.67006962      59.45740848      77.17433615
H      94.27011720      57.03666907      77.09496764
H      96.53211960      56.89682933      79.32106524
C      91.34860033      65.46673816      80.14309619
O      92.56558408      67.09001306      78.91855355
N      88.92219173      64.92816616      79.48925088
H      88.00945394      63.55811458      80.45301130
C      87.68064155      66.04121496      77.22535876
H      89.05258285      66.09223757      75.68901127
C      85.69264947      64.17038591      76.43734290
H      84.33771570      64.08156877      77.98502874
H      86.61483591      62.36191782      76.08396407
C      84.17141978      64.94139424      74.05250828
O      85.35816791      64.74675243      72.07585456
O      81.92831466      65.58012174      74.28494463
C      86.77924211      68.73029550      77.73369514
O      86.82270580      70.39325465      76.01404419
N      86.08004336      69.26319832      80.08073522
H      85.97799814      67.74952754      81.23913745
C      85.47722067      71.81621857      80.94622988
H      85.18620282      72.90092147      79.22090976
C      83.04892236      71.65559183      82.30683282
H      83.26813061      70.21373066      83.75814263
H      81.64485570      71.00741571      80.94622988
C      82.17964825      74.08955932      83.77137071
H      83.88796085      74.83411149      84.65009344
H      81.05904055      73.50563389      85.39464562
C      80.68487475      75.93771166      81.94400537
O      78.33216548      75.66937052      81.54716285
O      81.80170299      77.67248041      80.73835998
C      87.46143330      73.00863587      82.57139451
O      88.04157928      75.25929991      82.23124376
N      88.33448685      71.63669457      84.54615850
H      87.74678198      69.83956485      84.80316128
C      89.97476929      72.40770290      86.66076225
H      91.63205927      73.33177907      85.85951829
H      90.75333653      70.66348552      87.43366030
C      88.88439722      73.73240105      88.93410299
O      86.73388866      74.48640185      88.79426326
N      90.41318580      74.29176004      90.79548342
H      92.22543333      73.70405516      90.67454093
C      89.67241308      75.21016703      93.29559133
H      87.63528812      75.13079852      93.59794754
C      90.81569751      73.32422017      95.38562863
H      92.80935876      73.33744825      94.86406417
H      90.11649876      71.38914042      95.30437040
C      90.33570703      74.07255179      98.13707014
H      90.46042895      76.12479456      98.25045372
C      87.60316277      73.54720787      98.95910108
H      87.41796959      71.51197263      99.21610387
H      86.36539203      73.93649149      97.35850290
H      87.15718736      74.77930943     100.55025065
C      91.93630520      72.68927213     100.03246563
H      93.80524453      73.51697225     100.27813005
H      92.07236550      70.64269853      99.86050055
H      91.13884071      72.98028998     101.90896387
C      90.45287006      78.04664622      93.80392771
O      92.74132861      78.59655658      93.38062901
N      88.85983078      79.63401633      94.90374843
H      87.02112707      79.13134913      94.99445528
C      89.37572606      82.01129203      96.11695271
H      91.36938731      82.49506196      96.30592534
C      88.25889781      84.14668276      94.43131684
H      86.66963798      85.16524524      95.25523752
H      87.80914294      83.24339358      92.63418712
C      90.30925085      86.16302074      93.99856951
H      91.72654558      85.09532537      92.95166115
H      90.90262491      86.67513657      95.90341365
C      89.33604181      88.62911358      93.06315499
H      90.05413781      90.35254397      93.93053937
H      87.34993944      88.73682798      93.59983726
N      89.33226235      88.75005606      90.30037512
H      87.83181966      88.17179981      89.27425374
C      91.19364276      89.81208225      88.95677971
N      93.14006087      90.93457968      89.94699630
H      94.57814260      91.29929686      88.74890982
H      93.50855750      91.10087559      91.81215617
N      91.18041468      89.81019252      86.46423071
H      92.76400534      90.55474469      85.70267100
H      89.90673914      88.80485812      85.45889630
C      88.25700807      82.09632971      98.78713599
O      86.14240434      81.29886521      99.15563262
N      89.73855350      82.80686680     100.69009039
H      91.50922707      83.46638129     100.41608007
C      88.86738967      82.96938327     103.30925106
H      87.53135317      81.49539674     103.84215388
C      91.24466537      82.59143801     105.00622530
H      90.60782761      83.03363396     106.91484886
H      92.55991489      84.14290331     104.69064099
C      92.53156899      79.99873350     104.83803965
H      93.60115409      79.78141498     106.58414676
C      90.68908584      77.77452563     104.67552319
H      89.51556580      77.87468113     106.36493852
H      91.40340238      75.84322534     104.75111223
H      89.60249322      78.00885170     102.94075444
C      94.24933021      79.70771565     102.47399204
H      95.69686057      78.28097229     102.80280441
H      95.10537623      81.41413851     101.70109397
H      93.17407594      78.79497784     100.97165961
C      87.35182918      85.42602747     103.88183814
O      85.69831865      85.63767682     105.58826099
N      87.85071693      87.32520242     102.35682901
H      89.12439245      86.97182360     100.97921851
C      86.48255506      89.73460347     102.40974134
H      85.31470420      89.84798705     104.10482584
C      88.25700807      92.08353328     102.46076394
H      87.49733810      93.98648767     102.26234268
H      89.71209734      91.61110170     101.07937401
C      89.84059873      92.22904220     104.92118761
H      90.56058445      90.40734604     105.55802537
H      88.61794581      92.88477723     106.44052756
C      92.31614020      93.72192599     104.90418007
H      92.01945316      95.60598312     104.12939228
H      93.75611165      92.74115803     103.80624908
C      93.17029650      93.81830203     107.70475447
H      93.62005135      91.94747298     108.43607854
H      91.64339763      94.56096447     108.87260532
N      95.49088040      95.44157693     107.83703531
H      95.80835443      95.62677011     109.70975408
H      95.12049404      97.11209499     106.99232764
H      97.09714776      94.63088435     107.20019755
C      84.49078353      89.92735555     100.25167389
O      84.63818219      88.81430675      98.21076946
N      82.49334282      91.33709138     100.79213562
H      82.38751815      92.03251067     102.56658863
C      80.39196716      91.82275104      99.01957233
H      79.52647251      90.05774667      98.40541128
C      78.27358397      93.15878755     100.44064651
H      77.96177912      92.03817984     102.13951048
C      79.11451217      95.97070030     101.34771514
H      77.82949828      96.79084152     102.73288453
H      79.43009646      97.14044089      99.68097654
H      80.86628846      95.79117630     102.41541051
C      75.75835824      93.25894304      98.87028395
H      75.08372594      91.43724688      98.17864413
H      75.87174182      94.37199184      97.13929465
C      73.62296750      94.50238296     100.44631569
H      74.07272237      96.41289626     101.06992539
H      73.20911745      93.30618620     102.07148032
H      71.96378781      94.53450830      99.22555250
C      81.29336661      93.28728894      96.67442198
O      83.07726826      94.80473917      96.85394597
N      80.04803698      93.05674233      94.52202371
H      78.82160459      91.60543252      94.32738190
C      80.71322063      94.29262334      92.10506376
H      81.37651457      96.20502636      92.47922956
C      83.09427579      92.87910805      91.08083210
H      84.51157052      92.72037104      92.56804669
H      83.77079782      94.05262809      89.52747706
C      82.60105723      90.21270423      90.20777853
C      82.32515718      89.86121513      87.61885348
H      82.26846539      91.56196881      86.49635606
C      81.55603858      87.58409492      86.59084237
H      81.18376248      87.42913737      84.59151193
C      81.41052964      85.48649872      88.25380153
O      80.35417263      83.15457645      87.50924936
H      80.58471925      83.01095725      85.71400936
C      81.78469545      85.82853918      90.87674164
H      81.36139676      84.33754512      92.20521924
C      82.33082635      88.23416078      91.96900346
H      82.49712228      88.64234166      93.96077500
C      78.49090250      94.41167609      90.30226486
O      76.74101592      92.93579984      90.43643542
N      78.68365457      96.05951744      88.33505976
H      80.20866372      97.17256624      88.05349054
C      76.80337689      96.07085580      86.40186974
H      74.96467319      95.51527626      87.14075272
C      76.42732136      98.85253293      85.68566347
H      75.55615753      99.01315967      83.82617278
H      78.25846616      99.78794745      85.57039016
C      74.73790604     100.07518585      87.68688363
H      75.69221783      99.95802282      89.50857980
H      72.89731260      99.15677887      87.61885348
C      74.25035664     102.88709861      87.08028149
H      73.67587984     102.85119381      85.10362776
H      75.87741100     104.11542071      87.37507880
C      72.20567277     103.79038778      88.75268927
H      72.50991871     102.97213629      90.61595941
H      70.53137527     102.89465751      87.95522476
N      71.92410355     106.61363890      89.10984755
H      73.64375449     107.39031641      89.38574758
H      70.55972116     107.17299788      90.32116211
H      71.50080486     107.50181026      87.47145484
C      77.30226465      94.58364119      84.01136596
O      79.48111908      94.73481929      82.94933976
N      75.49946574      93.20225125      83.02870827
H      73.87997028      93.22681769      84.03971184
C      75.48812738      92.05329765      80.50025446
H      76.96778309      90.63789265      80.28482566
C      72.81794411      90.73804814      80.03538180
H      71.54426857      92.22904220      79.40232348
H      72.09039946      89.98782679      81.80983480
C      72.75936258      88.54407589      78.18533973
O      72.61574339      86.31041939      79.06217274
O      73.02959344      89.20359037      75.91577842
C      76.02103020      94.01483357      78.31195139
O      75.76780687      96.20880582      78.61997679
N      76.78636936      93.13233138      76.07829489
H      77.12085092      91.25961260      75.95168322
C      76.86573786      94.64033298      73.89377128
H      78.02225036      96.30707159      74.24526037
C      77.90319761      93.13611083      71.62232024
H      76.35929121      92.07408464      70.77194341
C      79.02002586      94.75182683      69.60220281
H      79.90819723      93.54807117      68.18679780
H      80.44676922      95.86865508      70.57919132
H      77.58950304      96.04628935      68.87843763
O      79.94221230      91.55440991      72.31962925
H      79.28836699      89.96137063      72.88654715
C      74.16909842      95.60976258      73.18512390
O      73.83461686      97.66389508      72.16845115
N      72.23779812      94.20191647      74.09408226
H      72.74802422      92.59942856      74.99359198
C      69.64131416      95.07308030      73.97125005
H      69.44478263      96.23715171      72.28372445
C      67.97646528      92.63911281      73.94668361
H      67.75158785      92.17235041      75.93845515
H      68.98746886      91.08197833      73.05851225
C      65.36864298      93.10398548      72.62576491
H      64.32362432      94.60820763      73.56873834
H      64.47669215      91.26528178      72.90166496
C      65.58974095      93.88444245      69.90077958
O      65.89587661      92.34242578      68.14711356
O      65.58596151      96.20502636      69.40378155
C      68.93455653      96.75871617      76.25214972
O      66.68767195      97.22925803      76.78316280
N      70.90176161      97.64310809      77.66188554
H      72.68755298      97.47681217      77.00992996
C      70.52759581      99.46858371      79.67822351
H      69.75469774     101.23169836      78.94500970
H      72.45889611      99.79928581      80.31128183
C      69.16510313      98.64655276      82.12163964
O      68.35063109     100.21313587      83.64664877
N      69.11030107      96.14833457      82.48824654
H      69.55816621      95.12032346      80.94434014
C      67.69678579      94.99938098      84.66332153
H      66.41177189      96.35998392      85.52503673
C      66.10941568      92.84131353      83.66554604
H      64.84140933      92.43124292      85.23590860
H      67.10341173      91.06308107      83.35185147
C      64.59007573      93.18524372      81.35063131
C      64.18378458      91.18969273      79.59885501
H      65.34974571      89.51539522      79.63664954
C      62.39043430      91.48637976      77.62031157
H      61.89343628      89.76294936      76.64710252
C      60.85975599      93.66145475      77.63920882
O      58.82830020      93.93924451      76.08018462
H      58.17445490      95.62488039      76.21246547
C      61.27171632      95.66645436      79.36452895
H      59.92245174      97.18957377      79.52704542
C      63.22380360      95.46236392      81.01992920
H      63.51293173      96.86643057      82.47123901
C      69.34462713      94.10554043      86.78737390
O      71.41954663      93.20414098      86.18077177
N      68.60196469      94.68757613      89.12307563
H      66.78215825      95.22803786      89.31771744
C      70.05516424      94.06207673      91.40208556
H      71.93733163      94.88977685      91.26980473
C      68.86652638      95.23559677      93.83227360
H      69.98713409      94.36254321      95.32137793
H      66.97491034      94.49104460      94.16108598
C      68.97613050      98.08719377      94.05337159
C      66.83696031      99.50070905      93.70755166
H      65.03416141      98.70702400      93.16520021
C      66.83507059     102.15577452      94.11384283
H      65.01526415     103.07607124      93.99667980
C      69.14431615     103.33496374      94.83382854
O      69.07817572     105.92577852      95.27035532
H      67.51915152     106.59663136      94.63540728
C      71.34017812     101.84774913      95.13807449
H      73.09384414     102.75292804      95.66152867
C      71.34395757      99.23803710      94.70154770
H      72.93888659      98.10042186      95.27035532
C      70.40287387      91.05552216      91.65908834
O      68.52637565      89.68925004      91.61373492
N      72.77259066      90.06908503      92.10695347
H      74.16531896      91.32764275      91.77814111
C      73.62107778      87.40835038      92.25624185
H      72.07528165      86.19136663      92.86851318
C      74.55271286      86.58065025      89.56527159
H      76.49346177      87.26284145      89.44621883
C      74.47145463      83.70826626      89.13630371
H      75.18388144      83.23772440      87.26169522
H      72.51936735      83.05442095      89.09095028
H      75.43332531      82.66891678      90.63107722
O      73.06171879      87.52740313      87.57350005
H      73.27714760      89.30752532      87.86073845
C      75.67143083      87.17213459      94.37462505
O      76.96400363      88.96359513      94.81115184
N      75.82260894      84.94225754      95.61239578
H      74.63964026      83.55897788      95.03791899
C      77.97689693      84.16558002      97.17897891
H      79.67954034      85.19359114      96.64040690
C      77.39675095      84.88178630      99.90774369
H      76.42354191      86.69781328      99.92286150
C      75.43521505      82.98261135     101.18708842
H      75.06293897      83.17158398     103.20531611
H      76.24023845      81.10422340     100.92441645
H      73.68910794      83.21693741     100.12317250
C      79.68898898      85.03674385     101.76723440
H      80.98534122      86.31041939     100.80158424
H      80.58093980      83.23583468     102.22454816
C      78.86884775      86.44647968     104.20687107
H      78.01658119      88.23605050     103.64751208
H      80.66219803      86.90568318     105.11016023
H      77.62540784      85.22382676     105.30102260
C      78.62885252      81.39902070      96.54970005
O      77.21722696      80.18959586      95.05681626
N      80.49401238      80.24817738      97.84416257
H      81.67320161      81.28563712      98.93075519
C      81.03636384      77.47027970      97.74589679
H      79.22033684      76.58777751      98.15407769
H      82.51601953      76.87123646      99.04980796
C      81.85083588      76.50273982      95.21933272
O      83.54025121      77.49862559      94.01935650
N      80.59794733      74.45805595      94.48611890
H      79.45466292      73.62279692      95.76735335
C      80.82849394      73.24107221      92.03325416
H      82.49901200      73.92137368      91.03547865
C      81.65052489      70.43671836      92.17876308
H      80.00268354      69.32744901      92.72489398
C      82.45932774      69.32177984      89.61629419
H      84.23567048      70.21184093      89.07205303
H      80.93809806      69.68649701      88.27647824
H      82.68609491      67.28654460      89.81660518
C      83.95977045      69.94161007      93.97778253
H      83.26057170      70.26097381      95.88829584
H      85.35249873      71.45150139      93.82282498
C      85.30903502      67.37914119      93.81904551
H      86.52034959      67.21851445      92.15797609
H      84.14307389      65.68405668      93.69432359
H      86.26523654      67.04088018      95.61050606
C      78.58349908      73.88735861      90.21155798
O      76.99423925      72.37746728      89.58038939
N      78.57216073      76.31565692      89.52180788
H      79.83449791      77.59878109      90.15486619
C      76.82038443      77.14524677      87.58483842
H      76.72022893      75.73929039      86.08439571
H      77.68965854      78.87245662      86.87619104
C      74.16342923      77.50996395      88.58072418
O      72.59684612      78.07688184      87.00469243
N      73.71934355      77.46461052      90.98634577
H      75.36151571      77.15847486      91.90664248
C      71.22301509      77.67248041      92.15608636
H      69.96445736      76.48384256      91.04114784
C      71.33828840      76.62746176      94.89807924
H      72.74424477      77.66492151      95.99034105
H      71.84473504      74.63191077      94.91508678
C      68.67566403      76.66147684      96.10372463
N      67.09396309      74.56388063      96.16797532
H      67.66088099      72.86879612      95.49901221
C      65.01148470      75.21961566      97.42086388
H      63.51482146      73.92137368      97.90652353
N      65.15321417      77.66681123      98.01423793
H      63.74536807      78.70427098      98.78146681
C      67.44923164      78.60978466      97.10527957
H      68.18055573      80.50706988      97.28291386
C      70.30082866      80.31620752      92.29025694
O      71.05293972      81.80153241      93.98912089
N      68.25047560      80.80753637      90.82004986
H      67.62119673      79.49228685      89.58983803
C      66.82184251      83.14323809      90.67454093
H      68.17488654      84.69281367      90.61595941
C      65.37053270      83.27362920      88.11018232
H      64.13654141      81.65035430      87.81916448
H      66.84262949      83.10733329      86.67965950
C      63.93812015      85.72082478      87.36374043
H      65.08707376      87.29307707      88.03648301
C      63.48080638      86.03073989      84.54615850
H      62.59074529      87.85999497      84.21356667
H      62.56617885      84.34321430      83.79971660
H      65.35352516      85.86633371      83.69956111
C      61.27171632      85.73405286      88.50324541
H      60.23614630      87.36110722      87.78136994
H      61.48714512      85.88145152      90.54603954
H      60.32685317      83.93503341      88.16120494
C      65.17400116      83.59488268      92.98000703
O      63.55072626      82.09632971      93.65652905
N      65.70690398      85.76806794      94.20265997
H      66.90310074      87.00205922      93.37307010
C      64.51448668      86.65812903      96.50434660
H      63.89087699      85.00272878      97.55692416
C      66.42311025      88.41746423      97.92164134
H      65.31573063      89.44925480      99.31625937
H      67.35663505      89.71381648      96.61961991
C      68.47724275      86.96237497      99.27468538
H      69.30116344      85.82287000      97.76857351
C      70.44255813      89.00705884     100.28379924
H      72.32283580      88.18691762     100.47277186
H      69.80194091      89.70814730     102.11116458
H      70.69578146      90.53584743      98.92886547
C      67.60040975      85.44303501     101.75778575
H      69.15754423      84.22038209     102.32470366
H      65.93178141      84.39990609     101.15307333
H      67.19789804      86.89623455     103.16185241
C      62.09941645      88.06030596      95.73522800
O      60.13221136      87.30630516      96.78213637
N      62.27894045      90.04073913      93.99479006
H      63.92300234      90.48104536      93.12740568
C      59.90355447      91.22370780      93.03102964
H      58.45980357      89.84798705      92.52080355
C      58.59964332      92.70903269      95.19098682