 %block lattice_cart
   137.614   0.000   0.000
   0.000 142.646   0.000
   0.000   0.000   160.855
 %endblock lattice_cart

 %block positions_abs
N      88.77762768      39.37528696      82.09045916
H      90.64089782      39.43764793      82.50241949
H      88.40913105      38.29436351      80.55978084
H      88.08787757      38.63262452      83.70806488
C      87.78741109      41.92074830      81.85802282
H      88.83054001      43.16229849      83.12791891
C      88.22204814      43.01678956      79.20295735
H      87.15624250      41.99633735      77.76487563
H      90.15901761      42.56703470      78.67383399
C      87.48694460      45.77767971      78.77587920
H      85.46682718      45.85893794      79.17650118
H      87.40757610      46.44664282      76.82757137
S      89.20659555      48.05668964      80.76954046
C      88.09543648      50.87427157      79.20295735
H      89.28218460      52.39928071      79.91538417
H      86.04130397      50.94986062      79.31634093
H      88.58109614      50.74765991      77.20551663
C      85.00573396      41.74689348      82.53076538
O      83.48072482      40.51857138      81.12669873
N      84.06653998      43.35505057      84.26175469
H      85.32887715      44.39062059      85.25008155
C      81.50974028      43.86716640      84.93260754
H      80.23417502      42.93742106      83.60979912
C      80.99951417      42.78813268      87.58200383
H      81.80453758      40.90407554      87.79176345
H      78.99829401      42.42530523      87.91837510
C      82.27507943      44.42085621      89.67771030
O      82.62467880      46.66963053      89.37724382
N      82.84766651      43.38150674      91.90191817
H      83.76040432      44.46620964      93.18315261
H      82.30909451      41.56736948      92.12679560
C      80.63290727      46.71309423      84.52253692
O      82.19382120      48.42329654      83.89892724
N      78.23295485      47.35560118      85.06866782
H      77.17848757      45.77578998      85.26330963
C      77.01408138      49.93318787      84.96095342
H      77.24840744      50.65128387      83.04666067
C      74.13791793      49.77634058      85.48818706
H      73.40659385      48.46298080      84.07656151
C      73.58044867      48.74832947      88.12624501
H      71.57355932      48.64817398      88.57222042
H      74.45350222      50.01255637      89.49629658
H      74.70861528      47.05891415      88.47395464
C      72.60346016      52.31424302      85.21984593
H      73.10990682      53.47642470      86.84123110
H      70.59279137      51.88905460      85.35968567
C      73.02108968      53.66350761      82.65737705
H      74.72562281      54.81813039      82.63659006
H      71.57544905      55.10536879      82.38147702
H      73.27053355      52.28022795      81.14937545
C      78.48428845      51.90795187      86.55777217
O      79.10222895      53.93940765      85.63747544
N      79.23828925      51.20308395      88.88969443
H      79.05687552      49.37004943      89.39425135
C      80.45905245      52.83769721      90.69816251
H      79.15514129      54.43451595      90.63769127
C      80.63479699      51.69819224      93.37023552
H      81.27163476      53.27800344      94.52863775
H      82.13901914      50.29601532      93.49117800
C      78.11957127      50.60593044      94.41336444
C      77.77942053      47.94708551      94.19604591
H      79.18537691      46.62994627      93.51574444
C      75.57222020      46.87183124      94.96138507
H      75.56844075      44.83281655      95.02185631
C      73.64469936      48.27211844      96.07254414
H      71.94583541      47.37449844      96.75851479
C      74.00941654      50.98387570      96.16514073
H      72.51842248      52.21408753      96.81709632
C      76.03331342      52.16117519      95.19382142
H      76.17504289      54.16428508      94.83099397
C      82.95727063      53.96019464      89.80243224
O      83.36167206      56.25432239      89.81943977
N      84.43125716      52.29723549      88.67993481
H      83.72827897      50.54734892      88.38513751
C      86.68192119      52.56746635      87.35712639
H      87.97071454      53.80712681      88.37946833
C      88.00095016      50.09192488      86.77320097
H      89.59209972      50.11460159      85.46551035
H      86.67814174      48.83147743      85.82455835
C      89.07620443      48.82580825      89.17315337
H      87.54552612      48.22298555      90.41470356
H      89.97193471      50.24121326      90.37123986
C      90.78073757      46.61293874      88.55710260
O      90.00783951      44.89139806      87.12091060
O      92.99360708      46.45420173      89.53031165
C      86.31342456      54.03956315      84.84190066
O      87.90268439      55.45307843      84.07278206
N      84.20071055      53.88838504      83.51720253
H      82.94026310      52.58258416      84.11057659
C      83.67347690      55.34347430      81.21173642
H      85.28352372      55.29434142      79.92861226
C      81.35667244      54.33436045      79.89837663
H      79.62568314      54.89371944      80.86591651
H      81.49651219      52.28022795      79.95128897
C      81.02408061      55.20930373      77.04677962
H      82.36767602      54.18129262      75.87325958
H      81.59288823      57.18595746      76.94095495
S      77.50729995      54.84458656      76.26632267
C      78.29531582      53.97342273      73.02355230
H      78.90380769      52.01944572      72.79300569
H      79.87134756      55.06190508      72.26388233
H      76.66826146      54.43073649      71.84625281
C      83.25773712      58.16861514      82.05644408
O      84.53519210      60.00353939      81.43472413
N      81.43037177      58.53522204      83.82333818
H      80.53086205      56.93651358      84.34868210
C      80.87101278      60.94840255      84.95717398
H      80.42881683      62.34302057      83.50586416
C      78.61845902      60.78021690      86.89981262
H      78.41058912      62.52443429      87.97506689
H      79.08900087      59.40638588      88.36057107
C      76.24685249      59.77299278      85.43338500
H      76.66637174      58.17428432      84.20506290
C      74.23429397      59.26087695      87.36279557
H      74.92404408      58.14215897      88.94827594
H      72.58645263      58.39916175      86.47273447
H      73.48029317      61.03155050      88.09978883
C      75.14514205      61.72130061      83.62680665
H      75.07522218      63.50520225      84.65481777
H      73.21195204      61.38681905      82.99374833
H      76.40747923      61.86303008      82.00542147
C      83.07443366      62.14837876      86.33667418
O      83.26151657      64.44250650      86.48407283
N      84.76573871      60.76131964      87.61034971
H      84.55030991      58.86592415      87.66515178
C      87.05797673      61.71185198      88.81032593
H      86.28507867      63.22741248      89.97250761
C      88.21259951      59.74842634      90.68493442
H      89.15179349      58.24609392      89.63235687
H      86.71593627      59.02466116      91.90191817
C      90.20059159      60.93517446      92.40836482
H      89.31619968      62.32979248      93.64046638
H      91.73504936      61.81011775      91.34633863
C      91.70481373      59.00198444      93.88991026
H      93.24116123      60.00164966      94.83288368
H      92.44936590      57.65083013      92.52552785
N      90.08531828      57.65649931      95.76829822
H      89.52217984      58.52766314      97.36889639
C      89.18202911      55.42851199      95.50184680
N      89.66390932      53.82791380      93.70471708
H      88.95337222      52.06101970      93.61967939
H      91.10010131      54.34569881      92.55765320
N      87.52284940      54.66695228      97.14023952
H      86.70270818      52.98131641      96.78497096
H      87.06931509      55.57969009      98.75217605
C      88.87967290      62.77765762      86.88469482
O      90.39145395      64.40471197      87.56310656
N      88.61511121      62.12948149      84.41104307
H      87.29230279      60.83501897      83.94239094
C      90.29885736      63.38614949      82.38525646
H      91.88055828      64.31589484      83.32256071
C      91.19458763      61.40760604      80.54655277
H      89.79807989      60.37392575      79.44295259
C      92.60054401      62.80600351      78.40927231
H      94.04996409      64.12503248      79.04044088
H      91.31364039      63.75464612      77.11292004
H      93.58698114      61.34713480      77.33968721
C      92.66479470      59.27032558      81.66905019
H      93.70603390      58.11948226      80.31411642
H      91.48182603      58.10058499      82.88414420
C      94.94380464      60.08290790      83.23563330
H      94.22948809      60.76887855      85.04221166
H      95.97181575      61.57579168      82.25675508
H      96.25905415      58.53333232      83.57578403
C      88.86644481      65.49508406      80.89615213
O      89.85666140      67.61157753      80.34057259
N      86.43814650      65.07367509      80.35569041
H      85.53863678      63.55244541      81.08134530
C      84.82620996      67.03143155      79.17272173
H      85.95059711      67.81377824      77.63448451
C      82.24862326      66.08278894      78.20707158
H      80.89746895      67.63425424      78.11636472
H      81.52674781      64.61825105      79.46184985
C      82.34499931      64.88092300      75.54444720
O      83.56198305      65.94105947      73.80589901
O      81.22439160      62.87592339      75.19673756
C      84.35566810      69.38603053      80.88670349
O      83.70749198      71.48929592      79.98908350
N      84.19693109      68.96462157      83.40759839
H      84.35755783      67.13536650      83.92349368
C      83.20671451      70.79009718      85.37858294
H      83.01585215      72.57399882      84.36191018
C      80.61589973      69.82255731      86.27242349
H      80.74440112      68.36179887      87.71995384
H      79.40269544      69.12335858      84.76442189
C      79.10222895      71.96172750      87.52720177
H      80.23606474      73.15036535      88.77064167
H      77.70005203      71.06977668      88.74040605
C      77.82477397      73.78720312      85.69983641
O      75.51174896      73.87035107      85.83967617
O      79.01530154      75.16481360      84.23340880
C      85.02463122      71.39103015      87.57633465
O      85.85611080      73.54531815      87.54987847
N      85.72194023      69.55421618      89.13157940
H      85.01329286      67.81755769      88.78009031
C      87.64757134      69.83578540      91.04965160
H      89.09699142      70.95828283      90.10856791
H      88.53952216      68.03676595      91.51641401
C      86.72538490      71.39480960      93.30220537
O      84.45393387      71.87668981      93.59700267
N      88.29763719      71.97495558      95.17114469
H      90.10988473      71.48929592      94.82721451
C      87.37167130      72.69494131      97.75629029
H      85.36100250      72.28109125      97.89801977
C      88.61700094      70.89214241      99.57420700
H      90.65412590      71.19260889      99.60444263
H      88.02551660      68.97595992      99.11122405
C      87.78363164      71.23229314     102.35588413
H      88.22960705      73.17493179     102.87933832
C      84.99250587      70.68616224     102.75839584
H      84.70904692      70.77497937     104.79552080
H      84.46716196      68.80588456     102.09699163
H      83.62623375      71.96550695     101.89668065
C      89.30108186      69.52776001     104.09443235
H      88.76817904      69.81310868     106.06352716
H      91.30797121      69.89436691     103.80152476
H      89.32375858      67.54354738     103.53885281
C      88.17291526      75.45583145      98.35344380
O      90.43869711      75.98873427      98.35911298
N      86.29263757      77.06209882      98.84288292
H      84.47472086      76.49140147      98.75406578
C      86.37200608      79.73039237      99.30397614
H      88.29007829      80.45982673      99.47972069
C      85.26840591      80.87934597      96.88323673
H      84.56353800      82.71049077      97.51062588
H      83.62434402      79.80598142      96.25206814
C      87.37356103      81.52563237      94.83855286
H      88.29763719      79.85133486      94.07510344
H      88.76817904      82.76718256      95.70971669
C      86.38145471      82.66324761      92.46127716
H      87.98583235      83.29252647      91.33122083
H      85.27218537      84.31675813      92.99417999
N      84.92447572      80.79052883      91.01941598
H      84.10811396      79.46016151      92.11734698
C      84.65802431      80.54297469      88.59111767
N      85.11344836      82.37222976      87.02264483
H      84.77518735      82.03774820      85.17449251
H      85.27974427      84.16369030      87.66137233
N      83.74717623      78.52096753      87.61601889
H      83.70182280      78.40569423      85.71117478
H      83.32387754      76.98650976      88.67048617
C      85.14935316      80.48628290     101.77762789
O      82.85144596      80.41069384     101.75873062
N      86.66113421      81.14579738     103.65790556
H      88.54897079      81.08532614     103.38389525
C      85.76729366      81.48594812     106.30730185
H      84.00417901      80.46171645     106.59265054
C      87.94992755      80.69793224     108.23293297
H      87.25450827      81.07398778     110.13588737
H      89.48627504      82.03585847     107.91545895
C      89.01762292      78.15247090     107.79829592
H      90.04563403      78.06554349     106.01439428
C      91.12277803      77.60634000     109.85242842
H      92.61755154      79.01796555     109.70502976
H      91.77662333      75.68259861     109.52361604
H      90.43869711      77.56854547     111.79506707
C      87.14112469      76.08700004     108.34631656
H      85.68036625      75.93393221     106.90256564
H      86.26051223      75.95849865     110.20580725
H      88.27118102      74.42971006     107.87766442
C      85.07754356      84.22038209     107.23704720
O      83.49395290      84.57754036     108.98882349
N      85.94303821      86.14034403     105.84431892
H      86.99183631      85.58854394     104.34765567
C      84.76762844      88.79918895     105.90101071
H      84.00228928      89.01272802     107.80018564
C      87.12411715      90.56041387     105.63455930
H      87.76473437      90.30530082     103.69570009
H      88.65668519      90.02940078     106.90634510
C      86.41735951      93.28539921     106.28084569
H      85.91091286      93.35909854     108.27450695
H      84.82809968      93.57830679     105.00339071
C      88.49227900      95.05229332     105.50227845
H      89.31242022      94.66867888     103.65034667
H      89.96626553      94.75560629     106.90823482
C      87.35844322      97.67712317     105.47960174
H      86.86711437      98.40088834     107.34476161
H      85.70682242      97.62988001     104.24938991
N      89.30675104      99.35331041     104.30230224
H      89.76973399      98.93568089     102.49761361
H      90.96026157      99.08118982     105.21692977
H      88.78518658     101.15610931     104.63489407
C      82.55475893      89.10532461     103.95081314
O      82.57932537      87.92991484     101.90046009
N      80.75384975      90.68324608     104.62355571
H      80.82187990      91.23882562     106.44714160
C      78.69593780      91.31063522     102.70359378
H      77.68304449      89.64578634     102.03274093
C      76.93471287      93.27784031     103.70703846
H      78.11957127      94.80662890     104.41946527
C      75.02797902      94.51372132     101.81164297
H      74.28342686      96.31840995     102.47304716
H      73.74485486      93.08697795     101.06331135
H      76.31677237      95.14677963     100.33765643
C      75.45127772      92.31030044     105.98226893
H      76.51897308      91.26906124     107.40145340
H      73.99051928      90.98749202     105.38133596
C      74.27397822      94.57608229     107.39956367
H      75.74418530      95.99715647     107.65656644
H      73.71083978      93.83908902     109.23826737
H      72.59023208      95.32819336     106.47926695
C      79.95827497      92.36132305     100.25639820
O      81.84233211      93.68035201     100.42647358
N      78.98506592      91.48637976      98.01896225
H      77.49596159      90.29963164      98.13990474
C      79.52741737      92.43502237      95.47917008
H      80.30976407      94.33608704      95.60767148
C      81.46060739      90.62088511      94.22628154
H      83.03285968      90.40734604      95.53964132
H      82.29208697      91.30874549      92.47072579
C      80.43448600      88.03384979      93.49117800
C      80.19260104      87.33843051      90.88524541
H      80.81810045      88.57998070      89.39047190
C      79.30820912      84.93469864      90.32588644
H      79.08144196      84.49250268      88.34545325
C      78.97750702      83.12434083      92.16647985
O      78.39925077      80.62423292      91.68459964
H      78.34822815      80.39557603      89.88558020
C      79.33655502      83.71960462      94.73083846
H      79.05498580      82.31931742      96.18781746
C      80.05087156      86.15924129      95.34122007
H      80.40802984      86.60521670      97.30086626
C      77.00085329      92.55407513      94.02030138
O      75.00152285      93.01138890      95.19571113
N      77.16525948      92.63911282      91.42192769
H      78.94160222      92.55407513      90.72650841
C      75.27175372      93.23815606      89.54920891
H      73.38769658      92.73737858      90.21061312
C      75.43238045      96.07085580      88.74418551
H      74.84656530      96.32029967      86.78453932
H      77.37123965      96.76060590      88.66670672
C      74.00941654      97.82641154      90.62068374
H      75.24529755      97.81507319      92.26852507
H      72.07811625      97.20469159      90.97028310
C      73.59367675     100.26982767      89.15803556
H      72.10079296      99.91644885      87.78231481
H      75.16970850     100.73281061      87.91648539
C      72.97384652     102.52427116      90.97217283
H      74.79365296     102.79828147      91.89813872
H      71.52064699     101.89499230      92.28742234
N      72.34267793     104.75225848      89.34511847
H      73.48407263     105.06784278      87.84845524
H      72.25386080     106.37175393      90.35045288
H      70.63814480     104.59919065      88.49852108
C      75.54198458      91.72448528      87.22862500
O      77.71328011      91.61110170      86.24785705
N      73.47840345      90.94591804      86.09100976
H      71.90615115      90.98371257      87.17382294
C      73.30454863      90.08609257      83.42460594
H      74.83144749      88.72359989      83.17327233
C      70.77231537      88.76139442      83.22240521
H      69.48163229      90.36577206      83.13925726
H      70.28665570      87.66724289      84.90048219
C      70.72696193      87.26662091      80.79221718
O      70.03910156      88.10376966      78.73619496
O      71.33923326      85.00461851      81.01142543
C      73.83178227      92.21203467      81.41960631
O      73.56155140      94.51372132      81.80700022
N      74.57822416      91.27284069      79.20862653
H      74.83900639      89.38689383      79.08579432
C      74.63113650      92.81296764      76.82190219
H      75.96906273      94.34742540      77.14126595
C      75.53631540      91.10087560      74.71674708
H      75.76308256      92.26872646      73.03300094
C      78.22539594      90.32041863      75.38759993
H      79.11356731      89.92924528      73.57157293
H      78.13846853      88.69147455      76.64426792
H      79.44237969      91.85865585      76.01687879
O      74.37602344      88.77840196      74.39360389
H      75.32277633      87.90723813      73.11236944
C      72.22740463      94.05073837      75.89971576
O      72.31811149      96.07652498      74.66761420
N      70.11469061      93.17012591      76.68584191
H      70.05043991      91.42779825      77.46440915
C      67.48419158      94.25482881      76.48553091
H      67.36891828      95.55873997      74.89438135
C      65.49808923      92.26494701      75.65027188
H      64.72708089      91.39378318      77.34913583
H      66.37303251      90.90056461      74.37848607
C      63.38726493      93.45169513      74.10636548
H      62.45374014      94.96347618      75.15138414
H      61.97374965      91.95314216      74.08557849
C      64.08835340      93.96381096      71.35114452
O      64.65527129      92.17990932      69.72975934
O      63.38537521      96.05006881      70.56690810
C      66.59413049      95.73448452      78.76076140
O      64.74030897      97.19902241      78.65115726
N      68.06244783      95.62299066      80.78654801
H      69.64603848      94.55907475      80.80544527
C      68.03221221      97.54673205      82.90493120
H      66.59035104      98.97914460      82.56289073
H      69.79910631      98.59553015      83.03721205
C      67.54088337      96.40155790      85.51086378
O      68.20039785      97.61098275      87.47050997
N      66.24642085      94.19813702      85.63747544
H      66.15760371      93.17012591      84.03309780
C      65.24297617      93.24004578      88.05821486
H      64.24520068      94.83119534      88.90103279
C      63.47608207      90.83253446      87.71428466
H      61.76776948      91.12733177      88.82544373
H      64.42472468      89.13367050      88.39458613
C      62.48019630      90.39789741      85.06110892
C      62.60869769      87.99227581      83.99152383
H      63.35513959      86.36333173      84.96662260
C      61.86225580      87.61999973      81.36480425
H      62.00020582      85.71704533      80.64292880
C      60.90227483      89.67413223      79.87569991
O      60.10292060      89.18658284      77.56267492
H      59.20341088      90.60009812      76.86914536
C      60.67550768      92.06841547      80.93016721
H      59.88560208      93.64255749      79.89837663
C      61.52777424      92.37644086      83.47751827
H      61.42194957      94.31152060      84.11813550
C      67.47096350      92.61832583      89.96683843
O      69.35880008      91.37677564      89.31110340
N      66.96262712      93.36476772      92.31954769
H      65.13904123      93.77483833      92.71261076
C      68.61424792      92.73548886      94.38690827
H      70.53420985      93.11343412      93.74440133
C      67.58434708      94.13388633      96.63568258
H      68.08134510      93.01894780      98.29297256
H      65.54155293      94.40033774      96.59410861
C      68.43661364      96.75682645      96.86433947
C      66.63948392      98.76560552      96.73394835
H      64.61747676      98.49159521      96.66780793
C      67.53521419     101.36208948      97.03819429
H      66.36169415     102.96835684      97.48605942
C      70.09201389     101.79294708      97.16480595
O      70.87247086     104.27982690      97.38023476
H      69.43627886     105.38531680      97.44637518
C      71.87402581      99.79928582      97.50117724
H      73.79398774     100.41155714      97.83943826
C      71.01042088      97.33697243      97.39535256
H      72.30110395      95.77227904      97.61645054
C      68.69928560      89.87255349      94.77619189
O      66.76609558      88.69147455      94.53241721
N      71.05010513      88.87855745      95.41491939
H      72.57322454      90.01617269      95.24673375
C      71.44127848      86.22349198      95.78719548
H      69.71406863      85.32020281      96.45237914
C      72.14992585      85.14067881      93.17748343
H      74.05854942      85.67169190      92.61623472
C      72.15748475      82.21349275      92.82599434
H      70.27342762      81.39146180      92.90725258
H      73.62580210      81.20815835      93.86345409
H      72.68849785      81.85444475      90.87012760
O      70.54365848      85.82475973      91.22917560
H      70.91593457      87.57653602      90.93437830
C      73.57855894      85.49783708      97.59377382
O      75.18671603      87.13245034      97.95660129
N      73.50863907      83.22638605      98.64446166
H      72.28409642      81.93003380      97.96604991
C      75.57599965      82.32687633     100.26584684
H      77.42604171      82.94859628      99.60066317
C      74.80310159      83.41157923     102.97382464
H      74.13980766      85.34098979     102.70359378
C      72.56566564      81.98483586     104.23805155
H      71.16915789      81.72972281     102.74705748
H      71.65670728      83.07142849     105.73282505
H      73.13825271      80.19715477     105.08653866
C      77.25218689      83.51173472     104.67268859
H      78.64869464      84.56809173     103.58609596
H      77.76619245      81.59555224     105.22637840
C      76.83644710      85.22760622     106.97626497
H      76.81188066      87.23449556     106.51517175
H      78.50129599      85.33343089     108.18191036
H      75.23395919      84.51706912     108.06285761
C      75.83867161      79.38457246     100.44348111
O      74.54987827      78.05987431      99.13390078
N      77.78131026      78.36034079     101.75684089
H      78.86790289      79.60000126     102.72060131
C      78.50885489      75.71850341     101.73605390
H      77.01975056      74.65836695     102.68091707
H      80.10378390      75.67314998     103.04185479
C      79.11545704      74.51663747      99.19626175
O      80.76329838      75.33110951      97.78085674
N      77.97973152      72.29242960      98.73705825
H      76.84778546      71.67826855     100.14301462
C      77.91737056      71.05654859      96.20482499
H      79.51418929      71.69338636      95.06720974
C      78.16681443      68.07645020      96.19159690
H      76.53976007      67.29410351      97.18370321
C      78.28775691      67.30922132      93.30220537
H      78.66759190      65.31178060      92.96772381
H      79.94315716      68.39392422      92.72772858
H      76.65314365      67.97629470      92.24206892
C      80.77274701      67.50197340      97.44826491
H      81.15069228      68.77186948      99.02240692
H      82.24106436      67.67015904      96.01396263
C      80.94660184      64.78454696      98.19281707
H      79.88457565      64.48597020      99.93325500
H      82.90057884      64.28376949      98.60855686
H      80.36078668      63.47496663      96.71505109
C      75.59489692      72.28298097      94.92925972
O      73.76753157      70.98095954      94.69304393
N      75.72717776      74.58088817      93.99762465
H      77.21439237      75.70338560      94.40580553
C      73.96406311      75.59000202      92.00585313
H      73.72595759      74.08955933      90.61123510
H      74.61412896      77.28319680      91.03075434
C      71.28632092      76.11534593      92.94882655
O      69.54399326      76.07377196      91.41247905
N      70.81766880      76.33266446      95.46783172
H      72.18772037      76.11912539      96.77930179
C      68.31945061      76.43470968      96.59032915
H      67.38025663      75.00229714      95.45082419
C      68.42527529      75.56354585      99.34932957
H      69.57044943      76.81076522     100.52473935
H      69.16415827      73.63980446      99.33610149
C      65.90249066      75.42559583     100.65513045
N      64.25842876      73.43949348     100.51907017
H      64.60046923      71.76708569      99.66680360
C      62.12114830      74.13680248     101.73983336
H      60.36748229      73.09556329     101.72471556
N      62.39515862      76.49896038     102.71682187
H      61.02132759      77.56098656     103.51239664
C      64.80644940      77.24351254     102.15179369
H      65.58690636      79.10111351     102.47871634
C      67.17049701      79.12379022      96.40702570
O      68.25708964      80.83966172      97.57676629
N      65.19573302      79.52630193      95.02185631
H      64.63259457      77.95971882      94.08455206
C      63.87859378      81.83554748      94.70816174
H      65.10313643      83.34543881      94.02786027
C      61.64682700      81.33665974      92.82599434
H      60.44685079      79.83054787      93.55353897
H      62.42161479      80.55053359      91.08555640
C      59.79111576      83.44559430      92.12490587
H      58.96719509      84.20148483      93.85400545
C      61.05723239      85.56586723      90.67359607
H      61.44462628      84.87422740      88.77253140
H      62.58035180      86.28207350      91.86223392
H      59.73442397      87.12300171      90.41659329
C      57.74076271      82.31931742      90.49407207
H      56.74865640      80.91336104      91.62790786
H      58.36437239      81.37067481      88.77442113
H      56.37071113      83.74606079      89.91770555
C      62.90538472      82.92025039      97.21582856
O      61.83768936      81.54452963      98.72005071
N      63.02632721      85.45248365      97.50873615
H      63.92205748      86.55608381      96.23506061
C      61.89438115      86.78852015      99.72727484
H      61.31612490      85.48082954     101.21071000
C      64.12047874      88.19258680     100.99528120
H      63.45340536      89.62877880     102.31053070
H      64.94250969      89.29429724      99.45893370
C      66.08390438      86.32931666     101.99683613
H      66.96073739      85.27295965     100.46048864
C      68.32889924      87.61811000     103.24783496
H      67.78843752      88.70659236     104.91079412
H      69.01298017      89.05997118     101.94392380
H      69.92571798      86.35199337     103.55397062
C      64.81400830      84.43959034     103.71270764
H      63.30978616      85.43358638     104.71237285
H      66.14815508      83.79330394     105.14323045
H      64.00898489      82.81820517     102.73193967
C      59.71741643      88.54596562      99.04319392
O      57.56123871      88.18313817      99.82176116
N      60.24842953      90.20703505      97.17236486
H      62.07012569      90.37711042      96.62434423
C      58.34925458      91.82653050      96.06498525
H      56.79023038      90.71159198      95.31287418
C      57.00565918      93.71247736      97.90368894