 %block lattice_cart
   142.669   0.000   0.000
   0.000 146.65   0.000
   0.000   0.000   162.396
 %endblock lattice_cart

 %block positions_abs
N      96.29589487      42.21065626      80.19455533
H      95.89716262      41.55870068      81.94444190
H      98.20073899      42.33726792      80.17187861
H      95.76299205      41.13162253      78.71489963
C      95.38693651      44.82414775      79.94133200
H      96.68706821      45.84837941      81.16965411
C      95.68740299      45.93719655      77.25225146
H      93.91861917      45.91829928      76.19400473
H      97.31634708      45.07737108      76.32817529
C      96.56801546      48.68863806      76.93099799
H      97.01021141      49.17051827      74.98080043
H      98.32546093      48.87950042      77.98735500
S      94.60647954      51.28890147      78.01003171
C      97.03099840      53.72664841      77.93444266
H      98.27632804      52.88760992      79.34417849
H      96.45085243      55.61826446      78.50136055
H      98.02499444      53.97420255      76.14676157
C      92.80557037      45.16051904      81.07516779
O      91.17284683      43.53913386      81.00902737
N      92.68840734      47.15040085      82.59450775
H      94.19073975      48.32014143      82.73056804
C      90.54356797      47.64172969      84.39163747
H      89.11304515      46.16585344      84.26124636
C      91.80023597      47.45086732      87.03914404
H      93.24776632      48.90973605      87.16386597
H      92.68651761      45.60838417      87.27724955
C      89.99365761      48.02912357      89.24256492
O      87.74866275      48.00455713      88.97611351
N      90.95741803      48.31636197      91.44220635
H      89.96531172      48.01022631      93.04469426
H      92.85281353      48.15951469      91.59716390
C      89.32469450      50.28734652      84.07416345
O      90.61348784      52.14494749      83.65464421
N      86.89828591      50.47442942      84.10061962
H      85.84759808      48.91351549      84.42187309
C      85.50744735      52.86115376      83.85306547
H      86.31436048      53.82491418      82.22034194
C      82.67852706      52.41895780      83.56582707
H      82.48388525      50.94497128      82.13719398
C      81.42752824      50.96386854      85.96955894
H      79.68709030      50.10782252      85.27980884
H      81.00045009      52.31313314      87.46622218
H      82.67096815      49.42374160      86.54025629
C      81.54469127      54.88505064      82.54537486
H      82.52356950      55.82235489      80.99390956
H      81.57114744      56.14738782      84.17053949
C      78.82537510      54.57513553      81.66854185
H      77.51768450      54.71497528      83.25591196
H      78.84805182      52.78745444      80.64619992
H      78.27735447      55.85070079      80.14542245
C      85.86082617      54.60915060      86.17931856
O      86.30680158      56.88438109      85.76735823
N      86.49199476      53.51121962      88.37329081
H      86.37483172      51.60637549      88.38084972
C      87.21575993      55.04756710      90.41419523
H      85.90995905      56.64060638      90.47088702
C      86.73387972      53.62271346      93.08437851
H      87.59181547      54.91528626      94.44120200
H      87.87149496      51.90873170      93.17886483
C      83.98621766      53.08414147      93.66830394
C      82.75033666      51.06024458      92.61950584
H      83.75189160      49.82814303      91.33638167
C      80.09338146      50.74843974      92.92564150
H      79.24678407      49.26878404      91.80503380
C      78.76868331      52.40195026      94.54891640
H      76.75801452      52.26966942      94.87205960
C      80.04802803      54.31435329      95.61850150
H      79.09371624      55.65605898      96.82414688
C      82.65018116      54.86993284      95.14418019
H      83.63283884      56.44218513      95.99644676
C      89.78767745      56.24943304      90.14774382
O      90.33569808      58.18451279      91.24000563
N      91.36748864      55.19118631      88.53391755
H      90.86671117      53.65672853      87.51346534
C      93.94885479      56.16439535      87.85172635
H      94.70852476      57.42295308      89.29169780
C      95.75165369      53.92695940      87.67598180
H      95.48898173      52.82713869      85.95444113
H      95.41906186      52.62682770      89.23878546
C      98.61647878      54.38616289      87.75912976
H      99.10402817      55.67495624      89.28980807
H      99.14560215      55.40094593      86.04892745
C     100.37959343      52.09392487      88.01991199
O      99.59346728      49.98876977      87.31882353
O     102.43372593      52.68918866      88.88729637
C      93.80334586      57.63460242      85.30437528
O      94.82757752      59.73786782      85.22689650
N      92.15361479      57.02989000      83.54315036
H      91.24276671      55.35370277      83.62440859
C      91.80401542      58.60781147      81.27169933
H      93.57279925      58.57001695      80.21723205
C      89.84058978      57.39838664      79.62196826
H      88.06424705      57.71397093      80.61407457
H      90.29790355      55.41228428      79.33095041
C      89.89350212      58.50954572      77.05571992
H      91.87771475      58.53222243      76.50391984
H      89.53445412      60.53722205      77.07650691
S      88.05290869      56.76343859      74.76915109
C      84.78935135      56.67651119      75.89542797
H      83.47032238      56.20974879      74.38364692
H      84.17141084      58.56056832      76.45667668
H      84.74777737      55.36126168      77.48090834
C      91.08780915      61.40271670      81.83294804
O      92.27266755      63.11102929      80.79170885
N      89.11682460      61.70696263      83.32016265
H      88.53289917      60.10825417      84.18376758
C      88.12660802      64.21840890      83.99668467
H      87.92062785      65.64704199      82.52647760
C      85.64728709      64.13148150      85.62562875
H      84.81391779      65.97207493      86.02436101
H      85.87783370      63.13748545      87.41330985
C      83.65740529      62.66127443      84.02692029
H      84.54557665      60.86225497      83.55259899
C      81.26690150      62.07167981      85.62751848
H      80.09716091      63.75731569      85.44610475
H      81.64484676      61.65971948      87.60984138
H      80.21243422      60.39549257      85.05682113
C      82.87316887      63.91983215      81.66476240
H      81.12328230      63.08457311      80.97123284
H      84.53423830      63.86880953      80.44966838
H      82.22877219      65.84546325      82.00680286
C      90.09381311      65.78688175      85.66342328
O      90.25066039      68.12069374      85.38752324
N      91.82480241      64.52832402      87.03725431
H      91.70763938      62.62159017      87.07504884
C      93.89027327      65.76042557      88.50557165
H      93.03989643      67.37992103      89.45610399
C      95.21308169      63.98597256      90.42364386
H      96.84958468      65.05366793      91.06804054
H      96.00676674      62.26065244      89.62617936
C      93.42729032      63.45118001      92.76879422
H      91.62071197      62.68206140      92.14707426
H      93.24587660      65.12736725      93.95176289
C      94.73309121      61.22508242      94.12183826
H      96.48675723      61.53310782      95.15929800
H      94.98253508      59.70385274      92.75556613
N      92.93974094      60.02321648      95.94542415
H      91.91172982      58.61348065      95.17252609
C      92.43329428      60.91894676      98.09971215
N      93.51988691      62.87481349      99.19386368
H      93.08336014      63.13370599     101.03445711
H      95.05434468      63.71574170      98.43230398
N      90.67206936      59.60558698      99.45464591
H      90.43396384      60.20274048     101.25177564
H      90.66262073      57.74420655      99.02756777
C      95.95196468      66.79032642      86.73111865
O      97.42406148      68.41171159      87.50968589
N      95.96141331      66.13270166      84.18376758
H      94.95229946      64.57178773      83.75857916
C      97.53177588      67.40637720      82.25246729
H      98.55033836      69.02020347      83.02725507
C      99.53110632      65.67727762      80.82950337
H     100.32101191      66.77709834      79.27803807
C     101.98019162      65.39381866      82.32238716
H     101.50776004      64.74564255      84.21967238
H     102.95151094      67.19472785      82.56049267
H     103.16505002      64.00675956      81.36618564
C      98.35758627      63.10536011      79.93377310
H      96.71730384      63.47007729      78.74135580
H      97.62059301      61.85625101      81.39642127
C     100.11692147      61.45562904      78.28971121
H     100.73108252      62.34191068      76.53415546
H      99.14938160      59.70007329      77.81538990
H     101.66271760      60.70351796      79.42165727
C      95.89905234      68.91059934      80.38541769
O      96.76832645      70.72284687      79.20811819
N      93.45941567      68.20195198      80.13408409
H      92.98320464      66.48041129      80.80871638
C      91.85314831      69.41326653      78.25002695
H      92.84714435      69.49641450      76.44722805
C      89.40406300      67.92794165      77.65287344
H      88.08503404      68.10368621      79.22512573
H      89.85192814      65.97963383      77.15398569
C      88.20408680      68.88603289      75.16977306
O      89.70641921      69.39814872      73.39720978
O      85.86082617      68.89548153      74.69923121
C      91.20686191      72.11368544      79.07205790
O      91.05001462      73.92215351      77.50736451
N      90.60403921      72.40092383      81.61751924
H      90.95174885      70.81355373      82.61907419
C      90.17129189      74.77630981      82.96300438
H      90.54734742      76.40714363      81.76302817
C      87.50677779      74.97473107      84.07605318
H      87.30457707      73.40625823      85.39508214
H      86.22176389      74.72528721      82.48679335
C      87.16662705      77.64113491      85.30059583
H      88.45542039      77.99073427      86.86906867
H      85.32414389      78.02474935      86.13774458
C      87.43118873      79.77652564      83.32583183
O      87.27245172      79.47416943      81.03359381
O      87.80535454      82.00451297      84.23667991
C      92.24243193      75.27897702      85.01335743
O      93.28178140      77.32177115      85.24012459
N      93.06068342      73.29287465      86.38529873
H      92.15172506      71.67526893      85.94121305
C      94.58380283      73.34200755      88.72855936
H      96.53211066      73.89191790      88.34683464
H      94.54600830      71.38992027      89.38240466
C      93.73531571      75.00874615      90.82993502
O      91.64338868      76.14636139      90.68064664
N      95.13938236      74.85567832      92.97288466
H      96.84391550      73.99963229      92.91808260
C      94.34947677      75.83644627      95.48055148
H      92.29156481      75.84400518      95.54480217
C      94.97686590      73.76908568      97.58570659
H      96.91761482      73.24185205      97.13406200
H      93.83925066      72.07778064      97.29279901
C      94.87482068      74.08844944     100.50344402
H      95.76299205      72.37068822     101.21209138
C      96.53400038      76.28053195     101.53145513
H      98.38026299      76.31454704     100.61682759
H      96.81745933      75.87802025     103.53078557
H      95.45496666      78.00018291     101.18752494
C      92.30479289      74.16025903     101.69586132
H      91.08402970      72.55399167     101.28201126
H      91.24843589      75.82321820     101.09303863
H      92.68273816      74.49285087     103.69330203
C      95.44740775      78.56521108      96.05313855
O      97.68484371      79.05276045      95.51834600
N      93.80523559      80.14313254      96.98288390
H      91.98353942      79.57999410      96.89973594
C      94.45152199      82.62245347      98.23955189
H      96.41683735      82.45048837      98.83292596
C      94.21908565      84.72949830      96.25533926
H      92.22353466      84.78241064      95.74889261
H      95.32835500      84.18903657      94.60749792
C      95.10158784      87.29574664      97.43074903
H      96.59069217      87.12189181      98.84426431
H      93.49721020      87.87400289      98.58537181
C      95.53055571      89.45192435      95.64306794
H      94.03578220      89.58609492      94.23144238
H      97.25398611      89.01917704      94.60182874
N      95.73464615      91.98793707      96.69375577
H      96.06156880      92.26383712      98.55513619
C      96.37715310      94.00805450      95.33504255
N      96.27510788      94.01939286      92.83682436
H      96.54344901      95.65967529      91.89952011
H      95.61937285      92.56997277      91.78235708
N      97.31823680      96.10565070      96.44053244
H      97.57334986      97.57018860      95.24244596
H      97.57523958      96.26816718      98.32458958
C      92.81690873      83.24039397     100.71509336
O      90.61159812      82.77552130     100.90406599
N      94.13782742      83.87912146     102.85804300
H      96.02566400      84.07187354     102.64450393
C      93.04178616      84.15880096     105.33925365
H      91.67173458      82.66024799     105.68318384
C      94.98253508      84.04919684     107.52566700
H      93.92050889      84.37611949     109.26043575
H      96.34691748      85.53263198     107.10047857
C      96.39982981      81.43948479     107.81290539
H      97.63760055      81.33554985     106.16884350
C      98.06278897      81.41869780     110.18262219
H      96.87226139      81.19571010     111.84747107
H      98.90938636      83.28574740     110.38104345
H      99.41394328      79.86723251     110.09002560
C      94.62159735      79.26063035     107.86014855
H      95.69685163      77.56932531     108.33069040
H      93.44429786      78.99039949     106.19152022
H      93.27233277      79.37590366     109.41350358
C      91.42040098      86.53229720     105.90995100
O      89.93129665      86.46048760     107.75054443
N      91.53000511      88.50706121     104.31880144
H      92.50510388      88.22738170     102.70308544
C      90.01444460      90.74071771     104.56446586
H      88.97131568      90.80307867     106.33891887
C      91.81724351      93.04807353     105.10492759
H      90.57380359      94.66378954     105.40350435
H      93.08524986      93.31074549     103.50054995
C      93.41784169      92.67768717     107.53322590
H      94.04712055      90.73693826     107.81857457
H      92.06101820      92.97626393     109.05634531
C      95.73275643      94.33875660     107.86392801
H      95.33213445      96.33808705     107.56535125
H      97.16705870      93.85687640     106.46364081
C      96.56423600      93.80018460     110.54733937
H      96.57179491      91.78951581     110.99331478
H      95.13182346      94.59197994     111.79644846
N      98.98875486      94.92646149     111.33157579
H     100.22085642      94.04017985     110.17506329
H      99.35536177      94.73559914     113.19295621
H      99.29111107      96.77083437     110.94985107
C      88.26644776      91.13189106     102.34214772
O      88.56313479      89.90545868     100.36171454
N      86.42018516      92.93468996     102.58970187
H      86.36727282      93.72081611     104.32636035
C      84.70809312      93.77750790     100.58281252
H      83.51945527      92.29029328      99.79668638
C      82.87316887      95.89589108     101.37460785
H      84.09960124      97.46814338     101.89428258
C      80.95887611      96.84642343      99.39606440
H      79.30536559      95.67668284      99.02000886
H      81.80169405      97.40389268      97.59893467
H      80.15952188      98.66622986      99.93274667
C      81.40107207      95.08897795     103.74621437
H      82.68797569      94.27450591     105.13705294
H      79.98755679      93.70758801     103.16606839
C      79.91007801      97.26783239     104.97264675
H      81.03257544      98.99504225     104.98776456
H      79.87984239      96.54217748     106.90016759
H      78.01279279      97.51727626     104.21297677
C      86.41262625      94.50505252      98.32647930
O      88.34203682      95.74660270      98.69308621
N      85.56224941      93.90034010      95.98888785
H      83.89929025      92.96681531      95.91518853
C      86.62994478      94.63544364      93.55869982
H      87.90739976      96.24171101      93.72310601
C      88.44030258      92.45658919      92.57037295
H      89.66673496      92.02573159      94.16908141
H      89.71586785      93.43357771      91.28535906
C      87.31024625      90.08498267      91.68787077
C      87.36693804      89.52184424      89.04981283
H      87.99999635      90.96748486      87.75535031
C      86.77167425      87.11433292      88.24478942
H      87.06269210      86.47371570      86.32860694
C      86.50333311      85.11122302      89.98711708
O      86.22176389      82.74339595      89.26713136
H      86.72632082      82.73016786      87.52480370
C      86.60915779      85.72160461      92.62517502
H      86.29168377      84.19281603      93.94042453
C      86.90773454      88.23872006      93.50389775
H      87.15339897      88.57131190      95.50322819
C      84.56447392      95.15133891      91.70298858
O      82.30625097      94.43135319      92.11494891
N      85.16729661      96.24360072      89.52224441
H      87.00789004      96.72737066      89.34838959
C      83.40418196      97.08452894      87.56448795
H      81.47099194      96.72926040      88.18053873
C      83.94842314      99.91344922      86.92387073
H      85.63027956      99.94179512      85.73712261
H      84.67029859     100.80540004      88.63596277
C      81.78846596     101.31940560      85.69743835
H      80.60738702     101.79183718      87.31504408
H      80.51856988     100.16478283      84.55982311
C      82.41963455     103.66833542      84.35006349
H      83.53835253     104.91555478      85.55003970
H      80.59793839     104.50548417      83.88141137
C      83.92007724     102.75559760      81.93310354
H      82.59915855     101.44601726      81.05249108
H      85.60949257     101.71435841      82.48679335
N      84.46053897     105.00248218      80.38163824
H      82.81836680     105.73380628      79.74480047
H      85.56980831     104.63587528      78.87174691
H      85.46209391     106.24214266      81.43043634
C      83.66307447      95.78628696      85.09083621
O      85.71720697      95.09086767      84.28392307
N      81.38784398      95.61621160      83.77369697
H      79.91763691      96.49871379      84.61462518
C      80.86438980      94.16490179      81.40020072
H      82.27979480      92.71170224      81.03926299
C      78.39451750      92.75705569      81.63263705
H      76.91297207      94.17435041      81.82916859
H      78.36050243      91.63266852      83.35795718
C      77.84649687      91.01850748      79.34039904
O      75.56181776      90.88622663      78.58261879
O      79.54158138      89.60877164      78.51080919
C      81.17052546      95.84864792      79.09284489
O      80.66218908      98.13521676      79.26480998
N      81.35949809      94.76205530      76.79304797
H      81.21209944      92.86099062      76.87619592
C      81.33871110      95.98659796      74.34585239
H      82.65962979      97.56262969      74.43466953
C      82.19286739      94.26316755      72.11597534
H      82.01712285      95.34220128      70.36986823
C      84.91407328      93.42223935      72.57328911
H      84.95375754      91.84620760      73.89987698
H      86.09704196      94.98504300      73.20256797
H      85.88161316      92.72304060      70.89521214
O      80.53179796      91.97281926      72.07251164
H      81.32170356      91.24527463      70.60986347
C      78.82348538      97.16767689      73.53704953
O      78.62506411      98.38088118      71.62842595
N      76.93753852      96.88421794      75.09607374
H      77.18131321      95.59542461      76.48502258
C      74.35806210      97.81396330      74.78804835
H      74.21066345      98.76449564      72.96635218
C      72.71400021      95.43668759      74.68600313
H      70.79781773      96.15478359      74.92032919
H      73.18643179      94.10821000      76.18833555
C      72.92375983      93.76427981      72.27471235
H      71.55370825      92.24682957      72.52226650
H      74.84183204      93.11421395      71.89487736
C      72.10550833      95.16645673      69.87098048
O      69.92476417      94.65623063      69.17178175
O      73.64941473      96.44769117      68.56517960
C      73.66075309      99.77927866      76.92532881
O      71.54992880     100.62398633      77.22768502
N      75.56181776     100.56162535      78.51269891
H      77.33060159      99.93801568      78.14987146
C      75.08560673     102.26048930      80.62163348
H      73.74390105     103.74203474      80.12652518
H      76.86383919     103.19779357      81.06949861
C      74.02358054     100.96224734      83.03481398
O      73.69854762     102.42489549      84.92265057
N      73.58138459      98.47347777      82.90631259
H      74.24089907      97.50215846      81.40398017
C      72.60250636      97.04106523      85.07949785
H      71.08883558      98.20891610      85.84672673
C      71.52914181      94.47670662      84.17998812
H      70.46900535      93.81530241      85.81838084
H      73.13540918      93.19736191      83.99857440
C      69.66965112      94.35387442      81.81594051
C      68.91942977      92.02951106      80.82383419
H      69.68098948      90.31930873      81.63830623
C      67.03348291      91.91801720      78.95111542
H      66.47979310      90.13789501      78.12530502
C      65.79571218      94.08553327      78.09884885
O      63.71890296      93.81719215      76.47935340
H      62.75325281      95.33275264      76.22801980
C      66.66498628      96.60642818      78.91899007
H      65.88452931      98.29773324      78.08373104
C      68.50557971      96.62910490      80.92209996
H      68.98368047      98.47536751      81.64964459
C      74.75112517      96.54406722      86.96166526
O      76.91486180      96.58753092      86.16986993
N      74.06704425      96.29273362      89.42964782
H      72.20377410      96.48737543      89.78869582
C      75.75268012      95.60298350      91.50645704
H      77.65752424      96.09431235      90.89607544
C      75.24056429      97.22058924      93.89129165
H      76.04936715      96.14533496      95.45031586
H      73.20154960      97.39066461      94.12561771
C      76.29503157      99.88321361      93.71554710
C      74.64152105     102.00726599      93.67019367
H      72.62140362     101.73514539      93.58893544
C      75.73189313     104.54516842      93.65696558
H      74.52624774     106.18545087      93.80247451
C      78.47388601     104.80028147      93.42452925
O      79.43764643     107.10763730      92.82926546
H      78.09594075     108.31895187      92.97855384
C      80.04424858     102.59308115      93.42452925
H      82.08326327     102.69134690      93.45476487
C      78.96899430     100.17990063      93.48500049
H      80.18030887      98.54528737      93.30169704
C      75.69220888      92.74193787      91.98833725
O      73.87807162      91.37944519      91.43842689
N      77.99389553      91.88400212      92.57415241
H      79.26757106      93.28617905      92.81414765
C      78.73277851      89.25350310      92.71966133
H      77.06415018      88.05163716      92.59304967
C      80.44298083      88.36722145      90.45954866
H      82.38184002      88.07998305      91.09638643
C      79.69275948      85.70459708      89.50523687
H      77.67075233      85.31153400      89.53358277
H      80.39384794      84.22305166      90.75245624
H      80.49211371      85.63656693      87.60984138
O      80.15196298      89.89412032      88.22589216
H      81.47477139      91.13567051      88.14841338
C      80.27101573      88.88122702      95.19520280
O      81.03824462      90.57064234      96.46320916
N      80.44487055      86.47182596      95.83959948
H      79.79858415      85.16413536      94.60749792
C      81.90562899      85.47971964      98.08081488
H      83.63472857      86.57576091      98.30947177
C      80.23889039      85.63278748     100.42407551
H      79.45276424      87.52629325     100.62438650
C      77.95799073      83.95282079     100.61304814
H      76.77691178      84.33076605      98.97087598
H      76.87328782      84.26273590     102.33647854
H      78.48333464      81.96293898     100.51100292
C      81.51445565      85.03941342     102.96575740
H      81.86972419      83.02496516     103.19819374
H      80.25022874      85.36444635     104.55879668
C      83.97109985      86.59843763     103.33803349
H      85.53957269      86.03529918     102.12671892
H      84.82147669      86.35277321     105.19941390
H      83.39662305      88.54863518     103.01489029
C      82.68419623      82.73772676      97.69531072
O      81.49177893      81.24862243      96.34415640
N      84.77045408      81.98183625      98.88583829
H      85.71342751      83.19693026     100.01967408
C      85.74933231      79.48172833      98.86505130
H      84.39439855      78.28175212      99.84392953
H      87.39150448      79.31921186     100.10093231
C      86.59026052      78.39891515      96.38384065
O      88.33258818      79.43259545      95.28779939
N      85.21453977      76.46194568      95.51645628
H      83.88984162      75.74384968      96.68619686
C      85.57547749      75.23929276      92.99934083
H      87.26111336      75.95360930      92.05258794
C      86.09704196      72.37824713      93.28468950
H      84.44920061      71.54865728      94.20120676
C      86.49010503      71.26708805      90.68064664
H      87.09481745      69.32066994      90.97733367
H      88.04912924      72.09289845      89.61673073
H      84.79313080      71.22929353      89.51090605
C      88.44597176      72.00408132      95.06670141
H      88.28723475      73.17193217      96.75422701
H      89.99743707      72.81099445      93.97443960
C      89.03745610      69.33389804      96.25533926
H      90.18451997      69.69483575      97.92963678
H      89.84436923      67.94494919      94.97032537
H      87.23843665      68.81044385      97.10949556
C      83.10749493      75.71739351      91.54047211
O      81.16863573      74.45505633      91.70676803
N      83.13395110      77.97939591      90.53135826
H      84.69864448      79.04331182      90.78269186
C      81.06470078      79.02819401      88.87973746
H      81.07414942      77.87168152      87.17520433
H      81.60705224      80.94815596      88.36573191
C      78.40018668      79.43259545      89.91152803
O      76.69376382      79.87290168      88.36195246
N      77.94665237      79.48928724      92.44187156
H      79.42630807      79.11890088      93.58704571
C      75.43331637      79.76896673      93.51145666
H      74.28058332      78.48206311      92.38706950
C      75.35961705      78.90914126      96.28935434
H      76.80147822      79.91258594      97.36271888
H      76.03613907      76.96272315      96.29313379
C      72.87651667      79.02063512      97.59893467
N      71.37418425      76.96839234      97.88428335
H      71.95999941      75.24874139      97.29846819
C      69.15564556      77.58822256      99.18819450
H      67.62118779      76.32210593      99.64172882
N      69.20666817      80.11856610      99.51511715
H      68.00291251      81.27318887     100.44108305
C      71.60473086      80.95949430      98.59482044
H      72.05070627      82.95126584      98.52679029
C      74.37317991      82.43537055      93.09760660
O      75.62228900      84.28541262      93.85160739
N      72.15275149      82.70560142      91.94865300
H      71.35150754      80.97461212      91.86172559
C      70.90553213      85.25295249      91.62550980
H      72.12251587      86.72504929      90.84883228
C      68.74557495      84.74083666      89.70365814
H      67.76102754      83.03441380      90.30459110
H      69.49201684      83.97927695      87.94054349
C      66.95222468      86.94425754      88.96666488
H      65.99035399      87.29574664      90.75245624
C      68.12007554      89.29129762      87.89519006
H      69.26147023      90.12655666      89.39185330
H      66.84073083      90.75583552      87.21677831
H      69.30493394      88.62611397      86.34561448
C      64.82628258      86.15624167      87.15441734
H      65.41965664      85.55152925      85.27602939
H      63.39953921      87.63967683      87.06937966
H      63.95322902      84.48383388      87.98022774
C      69.80193196      86.28663278      94.02924167
O      68.49802080      84.95059628      95.27268158
N      70.62018345      88.55997354      94.90418495
H      71.65575347      89.48971889      93.59649434
C      69.40508943      89.85254633      97.11327501
H      68.63030165      88.44847968      98.40395808
C      71.49701646      91.39078356      98.47576768
H      70.72600813      93.06886052      99.38661577
H      72.81793515      92.01439325      97.02067842
C      72.88785503      89.92813539     100.51289265
H      73.14863726      88.05163716      99.70597951
C      75.40874993      91.41912945     101.14784069
H      75.27268964      93.43168797     101.56169075
H      76.57093161      91.10732462      99.47543290
H      76.45754803      90.76339443     102.79379231
C      71.42331714      89.54452094     102.89394780
H      70.77325128      91.34731985     103.64416915
H      72.64408033      88.70737220     104.32825007
H      69.71122510      88.51273038     102.40261896
C      67.13363841      91.44936508      96.22888310
O      64.93777643      91.05819173      97.10571611
N      67.62307752      93.33531193      94.60938765
H      69.32005175      93.46381332      93.74578272
C      65.51225323      95.06819097      93.56436899
H      63.76614612      93.97403943      93.55492036
C      65.26091963      97.34720089      95.35393981