 %block lattice_cart
   142.669   0.000   0.000
   0.000 146.65   0.000
   0.000   0.000   162.396
 %endblock lattice_cart

 %block positions_abs
N      93.05028993      46.21120686      77.96751287
H      94.90222171      46.20364796      77.50641965
H      92.15833911      47.70975983      77.19461481
H      92.11676513      44.72021280      77.22485043
C      92.56085081      46.17341234      80.72273384
H      92.74604399      44.20242779      81.28965173
C      94.61309359      47.76456189      82.08522651
H      96.50848908      47.29590977      81.42949148
H      94.64899839      47.46031596      84.12235147
C      94.22003052      50.64639452      81.77342167
H      95.63732525      51.86337827      82.64269577
H      92.43045970      51.17551789      82.64458550
S      94.35231136      51.61960357      78.50419514
C      97.81051051      52.09959405      78.26419990
H      98.83663190      50.39884037      78.81033081
H      98.38687704      53.82113473      79.23929868
H      98.25648592      52.52667220      76.29888454
C      89.94735932      46.85371381      81.60334630
O      88.78139819      48.49021680      80.41848790
N      89.11021057      45.83893078      83.72172949
H      90.40467309      44.84493474      84.71005636
C      86.73104514      46.43041512      84.88580090
H      85.13044695      45.32492522      84.20549943
C      87.08631368      45.71042939      87.67314722
H      88.82486189      46.34537743      88.57832612
H      87.52850964      43.70165032      87.54275610
C      84.81108320      45.96743217      89.35500363
O      83.54685630      47.80424615      89.13390566
N      84.38211533      44.43486413      91.26740666
H      82.57742670      43.89062295      91.57354233
H      85.70114430      43.05725365      91.34488544
C      86.09231764      49.26122513      84.97461804
O      87.65890076      50.79190345      85.62090444
N      83.83220497      49.94908551      84.01085762
H      82.51506573      48.56958530      83.90881240
C      82.77773769      52.59659207      84.12046175
H      83.39756792      53.63027237      82.44994369
C      79.92236123      52.39061191      83.65180962
H      79.38945841      51.24921721      82.02286554
C      78.26507125      51.33425490      85.93081955
H      78.83387887      52.30935368      87.65424995
H      78.76017955      49.34248336      86.11223328
H      76.23550519      51.39472614      85.57744073
C      78.80364325      55.12693561      83.18882667
H      79.59354885      56.34013990      84.65336457
H      76.80431281      55.02489039      83.67259661
C      79.49339336      56.37226525      80.76430781
H      78.38034456      58.10325455      80.70383657
H      78.87923231      55.35559249      79.08245140
H      81.48327517      56.87871190      80.59801190
C      83.60354809      54.24632315      86.43915593
O      84.53329343      56.33258100      86.05176204
N      83.49961314      53.14272298      88.60100283
H      83.09710144      51.28134256      88.71060696
C      84.15345845      54.29167658      91.16914089
H      83.15946241      56.09447548      91.24472995
C      83.51473095      52.56824618      93.41035630
H      84.54085234      53.18618668      95.08465381
H      84.26306257      50.70119658      92.96816034
C      80.83509904      52.25833106      94.23994615
C      79.30442073      50.19097048      93.28563436
H      80.06220098      48.75477848      92.04975336
C      76.82887926      49.75255397      94.38167563
H      75.70260237      48.14061743      93.83743445
C      76.02952503      51.20386378      96.40746223
H      74.33255080      50.73332193      97.43547335
C      77.36556153      53.36949014      97.04430000
H      76.70415732      54.58080470      98.54663242
C      79.77118313      53.77578129      96.03518615
H      80.74817163      55.33102605      96.92335752
C      86.84442872      54.98898559      91.48094574
O      87.42457469      56.75776942      92.98138843
N      88.58675638      53.90806214      90.13168115
H      87.96692615      52.54367974      88.94871248
C      91.27205747      54.58080470      90.12979142
H      91.45914037      55.64661034      91.88156771
C      92.81596386      52.03534336      89.97105441
H      92.03550690      50.85993359      88.46872199
H      92.59297616      51.05646513      91.77007386
C      95.68834786      52.38305300      89.46838721
H      96.74092542      53.31468807      90.97638881
H      95.64110470      53.52633742      87.75440545
C      97.09808369      49.99254922      88.89013096
O      98.38309758      49.73176698      86.84544709
O      96.90722133      48.15195579      90.39624283
C      91.63866437      56.29100702      87.76952326
O      93.30729271      57.86514904      87.79597943
N      90.40467309      56.11337274      85.56988183
H      89.00060644      54.84158693      85.34500440
C      90.90734029      57.64972024      83.21528284
H      92.85186866      57.71208120      82.53687110
C      89.05918795      56.78044613      81.01186196
H      87.31119112      55.92817956      81.68649426
H      89.96436686      55.10047944      80.23896390
C      88.79462627      58.63615737      78.88780959
H      90.62577107      58.79300466      77.95995397
H      88.32786387      60.49564806      79.64370011
S      86.38144577      57.99176070      76.82800790
C      87.80818914      55.32157742      75.29921932
H      89.68279764      55.77511173      74.56978496
H      86.56474922      54.96630887      73.69862113
H      87.77228434      53.59436757      76.41793729
C      90.34609157      60.45974326      83.72172949
O      91.48181709      62.26443189      82.62190878
N      88.33542278      60.80934263      85.25807699
H      87.50016375      59.35614310      86.16892507
C      87.24694042      63.33023753      85.66436814
H      87.02206299      64.20140136      83.81243636
C      84.53707289      63.16394162      86.76229913
H      84.02306733      65.04232957      87.43315197
H      84.42368931      62.04711337      88.48761926
C      82.43758695      62.14915859      84.93682351
H      82.87978291      60.32179324      84.09778503
C      80.03952426      61.54444617      86.50907581
H      80.58187571      59.78700070      87.43504170
H      78.42758772      61.43484204      85.23351054
H      79.72393997      63.12047791      87.79786915
C      81.94058893      63.98597256      82.80143278
H      83.38811929      63.62503484      81.38035859
H      81.78374165      65.94183930      83.42882192
H      80.20582018      63.46251837      81.82633400
C      89.03462151      65.08390355      87.26307661
O      88.86454614      67.36102376      87.11378823
N      90.71458820      63.91605269      88.77674738
H      90.42734981      62.03388528      88.90902822
C      92.74037481      65.13681589      90.18837294
H      92.05629389      66.63536885      91.42425395
C      93.67389961      63.05433749      91.91180334
H      95.24426218      63.92172187      92.92091719
H      94.28428121      61.53688726      90.65702506
C      91.63866437      61.81278730      93.69192552
H      90.14578058      60.98886663      92.53730274
H      90.75049300      63.39637795      94.66324485
C      92.83486113      60.08179800      95.67613815
H      94.16711818      61.19106735      96.78729722
H      93.64933317      58.49253817      94.64812704
N      90.84686905      59.02922044      97.44681171
H      90.02672783      57.42106335      96.82509175
C      90.27806143      60.02510621      99.62566614
N      91.32119035      62.03955446     100.56674985
H      91.37977187      62.44584562     102.43190972
H      92.16400829      63.22819231      99.33464829
N      88.85509751      58.82324028     101.15634446
H      88.35054059      59.53755682     102.85331869
H      88.28251044      57.00532356     101.07130677
C      94.84741965      66.23096742      88.48195008
O      96.48581236      67.75408683      89.22839197
N      94.61687304      65.96073656      86.01963669
H      93.15422487      64.97996860      85.28264343
C      96.20991232      67.18527921      84.16203573
H      96.93934668      68.83123083      85.16737012
C      98.64387981      65.56200431      83.35701232
H      99.68133956      66.78654696      82.06443952
C     100.40510474      65.29177345      85.57177156
H     102.19845501      64.42627879      85.04453791
H      99.40543952      64.11258423      86.93426423
H     100.68289451      67.20417647      86.28041892
C      97.64988377      63.07890393      82.08900596
H      96.53683498      63.55889442      80.42415708
H      96.29495001      62.09813598      83.29087190
C      99.72858272      61.38381943      81.12713527
H     100.58462874      62.29655724      79.49252201
H      99.20323880      59.56968217      80.30321459
H     101.22524596      61.17594954      82.52742246
C      94.77561005      68.34368144      81.95672512
O      95.76771637      70.19183378      81.00052360
N      92.58352753      67.48574570      81.32177708
H      91.88432879      66.01175917      82.31388339
C      90.90167111      68.66304519      79.48685283
H      92.17156719      69.04476990      77.91082108
C      88.96470164      66.67694283      78.65159380
H      87.59276034      66.61458186      80.18794129
H      89.57130379      64.71351719      78.77253628
C      87.86677065      67.24575045      76.16282424
O      89.04595987      66.55600035      74.25609039
O      85.82964569      68.26053348      76.01920504
C      89.68657709      71.18960927      80.17660293
O      89.14233591      72.79398691      78.57600474
N      89.56185515      71.73196072      82.56332726
H      90.10420661      70.34112215      83.75385484
C      88.99682699      74.11490560      83.90881240
H      89.27839621      75.68337844      82.60301152
C      86.09042792      74.36245975      84.49273783
H      85.39878809      72.66737525      85.43571126
H      85.11532914      74.45316661      82.68049030
C      85.35721411      76.61501351      86.12168191
H      86.40223276      76.78130943      87.89046574
H      83.41835491      76.23895798      86.69993816
C      85.87499912      79.02819401      84.70627690
O      86.45514510      79.13212896      82.36490600
O      85.56319428      81.04075254      85.89302503
C      90.70702930      74.58166800      86.23695522
O      91.97314593      76.53375528      86.36356688
N      90.74104437      72.73918485      87.89991437
H      89.49760446      71.29165449      87.85267121
C      92.61565288      72.66170607      90.01829757
H      94.45057713      73.41192741      89.45137968
H      93.00115704      70.70017015      90.51907504
C      91.74259932      74.21884055      92.38801437
O      89.99271275      75.75140859      92.10266569
N      93.01249540      73.81065966      94.58009689
H      94.60364496      72.77319992      94.38923453
C      92.25849460      74.88213448      97.07075617
H      90.26672307      75.37535305      97.22571373
C      92.90667073      72.82233280      99.11732977
H      94.95702378      72.68060333      98.99449756
H      92.12810349      71.01197500      98.52017625
C      92.07519115      73.41381714     101.78184387
H      91.78984248      75.43393457     102.06719254
C      89.46169966      72.02864775     102.01805966
H      88.85320779      72.41226219     103.94747022
H      89.62232640      69.99719197     101.71759317
H      88.20881111      72.79776636     100.57619848
C      93.87799005      72.30454779     103.85298391
H      95.60897936      73.40436851     103.66401128
H      94.15011064      70.30143790     103.45992083
H      93.22792420      72.44438754     105.80129174
C      93.45280163      77.44271364      97.67735832
O      95.72992184      77.64302463      97.49027541
N      91.97503566      79.22472555      98.79229684
H      90.08152989      78.96961250      98.77150985
C      92.71580837      81.64168551      99.95825798
H      94.64899839      81.46783068     100.65367726
C      92.30006858      83.92258517      98.18758442
H      91.90889523      85.44759430      99.51606202
H      90.84119987      83.35188782      96.85154792
C      94.88521418      84.34399413      96.91201916
H      95.47480879      82.63757127      95.92180257
H      96.25526575      84.83910243      98.36521869
C      94.61120386      86.64946024      95.25094973
H      96.37809796      87.65668436      94.92213735
H      93.51327287      87.85132617      96.51139718
N      93.12020980      86.29230196      92.95304253
H      92.24526652      84.59910719      92.86989458
C      93.52083178      87.61700011      90.95938127
N      94.63199085      89.77128810      90.87056414
H      94.61876277      90.75394579      89.23595088
H      95.07040736      90.59142932      92.53919247
N      92.71958782      86.78552053      88.81076246
H      93.13721734      87.90234878      87.32354785
H      91.97125620      85.05831068      88.48761926
C      91.17190197      82.01774104     102.32608505
O      88.85320779      81.96104925     102.12199460
N      92.40778298      82.10655818     104.49360113
H      94.31451683      82.04608694     104.43879906
C      91.24182185      82.22561094     106.94457616
H      89.68468736      80.87823608     106.93701725
C      93.14099679      81.25429161     109.13854840
H      92.23203843      81.36767519     110.98103156
H      94.76994087      82.51473906     109.20468883
C      94.01971953      78.50851928     108.76627232
H      94.73970525      77.98128564     106.91056108
C      95.89054858      77.83766644     110.82607400
H      94.82663266      77.25374101     112.49092288
H      96.91289051      79.57054547     111.26638023
H      96.92989805      76.18604564     110.16844925
C      91.75393768      76.71894846     109.01193674
H      90.53317448      76.76808134     107.35464676
H      90.72592656      77.37279376     110.67300617
H      92.44935696      74.79898653     109.28027788
C      89.92468261      84.85044079     107.36787485
O      88.59053583      85.14145864     109.15366621
N      90.69191149      86.66835750     105.95058011
H      91.78984248      86.37733965     104.41801207
C      89.76216614      89.32153324     105.99971300
H      88.31652551      89.51050587     107.45480226
C      91.77472467      91.16023694     106.77261106
H      92.74037481      90.65568002     108.52060790
H      90.68057313      92.89500570     106.96536314
C      93.95546883      91.44747534     104.96225325
H      93.12020980      92.39044877     103.33141944
H      94.87954500      89.71459631     104.33486412
C      95.88298967      93.36554755     106.25482605
H      96.64076992      92.43769193     107.93290302
H      94.83419157      95.01338890     106.90867136
C      98.07318247      94.16490178     104.48982167
H      99.39032171      95.42912869     105.44224374
H      97.32485085      95.15700810     102.84764951
N      99.65677312      91.88967130     103.96258803
H      99.77393615      90.67835673     105.43279510
H     101.36508570      92.48493509     103.35787561
H      98.98969973      90.95803623     102.43568917
C      88.32408442      90.03584979     103.56574551
O      88.84753861      89.01728731     101.51161301
N      86.77828829      92.02762132     103.78873321
H      86.78206775      92.77784267     105.54617868
C      85.00005583      92.68902553     101.78940277
H      83.87566868      90.98071294     101.54751781
C      83.41079601      94.93213067     102.76072210
H      84.72415579      96.36454321     103.43724412
C      81.84043344      96.21525483     100.59320602
H      80.52896338      97.65711601     101.25649995
H      80.56675790      94.95858683      99.57275381
H      83.01584321      97.13744127      99.17591128
C      81.43414228      94.00049559     104.74115527
H      82.33554173      93.11988313     106.37198908
H      80.37400582      92.61721593     103.64511401
C      79.76929340      96.19068839     105.92223422
H      78.45593361      96.88799740     104.49738058
H      81.15068333      97.59475504     106.53072609
H      78.51262540      95.44424650     107.37165430
C      86.58742594      93.49593867      99.35165583
O      88.26739263      95.10976494      99.33086884
N      85.54807647      92.56808305      97.22571373
H      84.15723790      91.26039244      97.29563360
C      86.22081903      93.37121673      94.66324485
H      87.11276985      95.22692797      94.67269348
C      88.17857549      91.51739522      93.75617622
H      89.83019629      91.20559038      94.94670379
H      89.06674686      92.18635833      92.02140746
C      87.16757192      88.81886604      93.18169942
C      86.40223276      88.42013379      90.68348123
H      86.49104990      89.80719290      89.19059744
C      85.65768059      85.94648205      89.85767083
H      84.80163457      85.51751417      88.05487193
C      85.73704910      83.86778310      91.59810877
O      85.35721411      81.42814643      90.80253399
H      84.95281268      81.36956492      89.03375016
C      86.38522522      84.28919207      94.07931942
H      86.40412248      82.78119047      95.45126072
C      87.04851916      86.81197670      94.93914489
H      87.46236922      86.88189657      96.93658560
C      83.96070636      93.71892637      92.91713773
O      81.79319028      93.22759753      93.66357963
N      84.30841600      94.60709774      90.58143601
H      86.07908956      95.21747934      90.20349075
C      82.32987255      95.36487799      88.73895286
H      80.44770515      95.53873281      89.55720435
C      82.92513634      97.93301605      87.56543282
H      81.77996220      98.14844485      85.86467913
H      84.92068733      98.01805373      87.05709644
C      82.30530611     100.07596569      89.46271803
H      83.28796379      99.90211087      91.26551694
H      80.27574005     100.02683280      89.80286877
C      82.82876030     102.61386813      88.48195008
H      81.87066906     103.94990463      89.72161054
H      81.91413277     102.90299625      86.66025391
C      85.64445251     103.28850042      88.36478705
H      86.63655882     102.06584750      87.03441972
H      86.24160602     103.02393874      90.31687433
N      86.23404712     106.01348576      87.90747328
H      88.11999398     106.30261389      87.82054587
H      85.78618198     107.12842429      89.39090843
H      85.36666274     106.82039890      86.40892031
C      82.13901020      93.37499618      86.54687033
O      83.97393445      92.24116040      85.66058869
N      79.80330847      93.05752216      85.56421265
H      78.25562262      93.44491606      86.61301075
C      79.24205976      91.68369113      83.19449585
H      80.07542906      89.80152373      83.27008491
C      76.45282372      91.25850271      83.42882192
H      75.48150440      93.07452970      83.42126301
H      75.75740444      90.19458680      85.05020709
C      75.34166465      89.74294221      81.31043872
O      76.05976065      87.51495489      80.88525030
O      74.05287130      90.89378553      79.79676794
C      80.16046675      93.00460983      80.80777152
O      80.78596616      95.14755946      80.96461880
N      79.97149412      91.81030280      78.57033557
H      79.18347824      90.07931349      78.41726773
C      80.54786064      93.23893589      76.23463384
H      82.30152666      94.26316755      76.58234348
C      80.93525453      91.69691922      73.73830538
H      81.62689437      92.71926115      72.08857431
C      83.16702131      89.94325320      73.92916774
H      84.64856674      91.23204654      74.54899797
H      83.64701179      89.04185375      72.14148665
H      82.86844455      88.41257489      75.27654260
O      78.92458574      90.13222583      73.12414433
H      79.59543858      89.21759829      71.70684960
C      78.61089117      95.48959993      75.92282900
O      79.43481184      97.65333656      75.44283852
N      76.29786616      95.12110330      76.74674967
H      75.60244688      93.41090098      77.23240934
C      74.50829534      97.27350157      77.06989287
H      74.73884195      98.36198392      75.33701384
C      71.80220726      96.17935003      76.84690517
H      70.52097282      97.78750712      76.97351683
H      71.60000655      94.79607037      78.35868622
C      71.50363051      94.62032582      74.42616576
H      72.60156149      92.87988789      74.52632126
H      72.31243337      95.56140953      72.78021414
C      68.74085064      94.07986410      73.94239582
O      67.80921556      92.23738094      74.90804597
O      67.40670386      95.55574035      72.59880042
C      74.91269678      99.02905731      79.33378500
O      73.30264996     100.61831714      79.83267274
N      77.00462380      98.91567373      80.73596192
H      78.32365277      97.67412355      80.14069813
C      77.46193757     100.48414657      83.03386912
H      76.62289909     102.34363726      82.74852044
H      79.44992965     100.54650754      83.56110276
C      76.08243736      99.64321836      85.45838798
O      76.49061825     100.86209184      87.35756292
N      74.53475151      97.64766738      85.36579139
H      74.31743299      96.69902477      83.72361922
C      73.13635404      96.84642342      87.56165336
H      72.51841354      98.50938258      88.60667201
C      70.79498314      95.23637660      86.80387311
H      69.64036036      95.11732384      88.50462679
H      71.51685859      93.37310646      86.30120591
C      69.04509657      96.03951028      84.68548991
C      68.00952655      94.17812987      83.12835543
H      68.30054441      92.15612271      83.13213488
C      66.39381056      94.97181492      81.17059897
H      65.61902277      93.43168797      80.07833716
C      65.67193510      97.47192283      80.88336057
O      64.08645473      97.92734687      78.82166916
H      63.71984782      99.69235125      78.61757872
C      66.56010647      99.33708270      82.63702659
H      65.79854677     101.22113983      82.44994369
C      68.31377249      98.57174354      84.39636179
H      68.98273561      99.97014102      85.72483939
C      74.53664124      95.61432186      89.72161054
O      75.97094351      93.81341269      89.30776048
N      74.03397404      96.26438772      92.06676089
H      72.78675467      97.66278519      92.43147807
C      75.57977016      95.21181016      94.16057765
H      77.60366705      95.31196565      93.77318375
C      75.08277214      96.57052338      96.62100131
H      76.16747505      95.69746982      98.13845154
H      73.16658966      96.49493433      97.36933293
C      75.59110852      99.45991491      96.53029444
C      73.53319657     101.05484392      96.65123693
H      71.65291889     100.35375546      97.02540274
C      73.90736238     103.61542307      96.11455466
H      72.33322036     104.90421642      95.95959710
C      76.30731479     104.59052185      95.71204295
O      76.62100936     107.06039414      95.38889975
H      75.05631598     107.98069086      95.36622304
C      78.31798359     102.88787844      95.60810800
H      80.22093799     103.58140800      95.37378194
C      78.00428902     100.38588080      96.00684026
H      79.67480708      99.25204502      95.71015322
C      75.09788995      92.37911042      94.41758043
O      73.02108074      91.44747534      93.98672283
N      77.16147109      91.06764035      94.82387158
H      78.77151791      92.09376174      94.78229760
C      77.45059921      88.33887556      94.96371133
H      75.64591058      87.49983708      95.49661415
C      78.27640961      87.43180693      92.31053559
H      79.93180986      88.42769270      91.59621904
C      78.82065079      84.67847569      92.32187395
H      80.67069285      84.53485649      93.21571449
H      78.99828506      83.96604887      90.39624283
H      77.35422317      83.56164744      93.24217066
O      76.29219698      87.78329602      90.50773668
H      76.17125450      89.58987438      90.40569146
C      79.27418511      87.66802272      97.12366851
O      81.07509428      89.05697156      97.52240076
N      78.93214464      85.66869228      98.33120362
H      77.78130132      84.32320714      97.61499735
C      80.53652228      84.53674622     100.30974707
H      82.34688009      85.51373472     100.23604774
C      79.54063652      85.22838605     103.01772488
H      78.45971306      86.98016234     103.06874749
C      77.59988759      83.30086521     104.12132504
H      76.26007164      82.96071447     102.59820564
H      76.90068886      83.96415914     105.94113148
H      78.54097130      81.53586083     104.61643334
C      82.02751634      85.75184024     104.66367650
H      83.52795904      86.74205682     103.65456264
H      82.85710620      83.91691599     105.10209300
C      81.73271904      87.04630276     107.22803510
H      83.66968851      87.50928571     107.75526874
H      80.64423668      85.86144436     108.51493872
H      80.62722915      88.71682082     106.75560352
C      81.15257306      81.76073826     100.00550113
O      79.55386460      80.33399490      99.05685852
N      83.40323710      80.82910319     100.93146703
H      84.96226131      81.92703418     101.04107115
C      83.71126249      77.93971166     100.97682046
H      81.88200742      76.99484850     101.00894581
H      84.54652152      77.40491911     102.78150909
C      85.06619626      76.86823684      98.59576530
O      86.89167187      77.90947604      97.70192476
N      84.07408994      74.76119200      97.48271651
H      82.63600822      73.94105078      98.42946939
C      84.17046598      74.16592821      94.81064350
H      85.76728472      75.17693179      93.99050228
C      84.70525853      71.37480245      94.51017702
H      82.97237950      70.26553310      94.61978114
C      85.71815183      70.91370923      91.83810401
H      85.45925933      68.93138632      91.34110599
H      87.75527680      71.21228598      91.88345744
H      84.79596539      72.12313407      90.44726544
C      86.61577183      70.11813445      96.43769785
H      85.75405663      69.97262552      98.30285773
H      88.27117208      71.34267710      96.47927183
C      87.41512606      67.34779567      95.81597790
H      88.42235019      67.77487382      94.06987078
H      85.80885870      66.06278178      95.89156695
H      88.74549339      66.75442161      97.27106716
C      81.78941083      74.98417971      93.27429601
O      79.85433108      73.54042880      93.05886721
N      81.77996220      77.30098416      92.40502190
H      83.30308161      78.43104050      92.61667125
C      79.75228586      78.46316585      90.85355660
H      79.58598995      77.59011229      88.99595563
H      80.27007087      80.39446614      90.35466885
C      77.10288957      78.78441932      91.96471567
O      75.49284275      79.52708176      90.48505997
N      76.80053336      78.64080012      94.45726468
H      78.30853496      78.39324597      95.60054910
C      74.34766861      78.87323646      95.51929087
H      73.15714103      77.62412736      94.39301398
C      74.34577888      77.76585684      98.19892278
H      75.43237151      79.00740703      99.43102433
H      75.03930844      75.83077709      98.06097276
C      71.77575110      77.70538560      99.39889899
N      70.26397005      75.54731815      99.46692913
H      70.52097282      73.92215352      98.49938926
C      68.00574710      76.25029633     100.56486012
H      66.48073797      74.91237011     100.78028892
N      68.11724095      78.65402820     101.29240475
H      66.83600651      79.46850025     102.45269671
C      70.42837623      79.57999410     100.47037381
H      71.08789072      81.50562521     100.64422863
C      73.27241434      81.62467797      95.33787714
O      74.24940284      83.32732138      96.58131705
N      71.26741472      81.93648281      93.75617622
H      70.48884748      80.38123805      92.97005007
C      70.09011522      84.34021468      93.38578986
H      71.62646272      85.60444158      92.84721786
C      68.16448411      84.35344276      91.01796279
H      66.51475304      83.16669464      91.35811353
H      69.07533219      83.41991797      89.42303378
C      67.45394702      87.15590689      90.28474898
H      67.09489902      88.30486049      91.95337731
C      69.35501169      88.37478036      88.46116309
H      69.63280146      87.31086444      86.71883543
H      71.23339964      88.16691046      89.27941458
H      69.03942739      90.31930874      87.85645067
C      64.96517746      86.83087396      88.79942410
H      64.50219452      88.56564272      87.79031025
H      63.47040395      86.05041699      89.98428250
H      65.45461658      85.59121350      87.22906153
C      68.91470546      85.53830116      95.72905049
O      67.27442302      84.40635510      96.94414451
N      69.67248571      87.94392276      96.16935672
H      70.99907358      88.68847493      95.01473394
C      68.52920129      89.22137775      98.48805090
H      67.86401763      87.69447889      99.70314492
C      70.70994546      90.69347455      99.85243330
H      69.88224533      91.84431787     101.34531709
H      71.64535998      91.95014254      98.51261735
C      72.70927589      89.13067088     101.22437461
H      73.87334730      88.14234402      99.84109494
C      74.32121244      90.90890334     102.80040635
H      73.38012874      91.85943568     104.36887919
H      75.02041118      92.47926591     101.66657056
H      75.87078802      89.85632579     103.66023182
C      71.51685859      87.13700962     102.79473717
H      73.06832389      86.26962525     103.83408664
H      70.67970983      85.80475257     101.46436985
H      70.03153371      88.00439400     103.92857296
C      66.24641190      90.74827661      97.73593983
O      64.10157254      90.21348406      98.47482282
N      66.66782087      92.83831391      96.30352729
H      68.35156702      93.13878039      95.45504017
C      64.75163839      94.72804022      95.63645390
H      62.98474429      93.71136747      95.34543605
C      64.29054517      96.63666380      97.70003503