 %block lattice_cart
   142.669   0.000   0.000
   0.000 146.65   0.000
   0.000   0.000   162.396
 %endblock lattice_cart

 %block positions_abs
N      94.58569256      44.51801209      81.20744863
H      93.36681908      43.46165508      82.22601112
H      96.38471201      44.47454838      81.84239668
H      94.59136173      43.71865786      79.47267988
C      93.86948628      47.14095221      80.89186434
H      94.12459934      48.18975031      82.64553036
C      95.18851525      48.53745996      78.66576674
H      94.89749740      47.78723861      76.77037125
H      97.18784569      48.10660236      78.90765171
C      94.62537681      51.22654050      78.74135580
H      95.18473580      51.96353376      80.58194923
H      92.60525938      51.41362340      78.37285917
S      96.17117293      52.63060715      76.14298212
C      94.99009399      55.84881106      76.28849104
H      96.16172430      56.92406533      77.59429192
H      93.06257315      55.90361312      77.01792540
H      95.14883100      56.82390984      74.48002296
C      91.00844065      47.42441116      80.48368346
O      89.82358225      45.82570270      79.26480999
N      89.80846444      49.41240324      81.45500278
H      90.73820978      50.72576303      82.48490362
C      87.02678730      49.74310534      81.53437129
H      86.12538785      48.97965591      79.84873542
C      85.90240015      48.40517911      83.87952164
H      86.23310225      49.45964640      85.61429040
H      86.78868179      46.54568842      83.88708055
C      83.26245249      47.53401528      83.72078463
O      81.77712761      47.84393040      82.00491314
N      82.27223590      46.18664042      85.70688699
H      80.51101098      45.45909579      85.61240067
H      83.26812167      45.68019377      87.25646256
C      86.26711733      52.59281262      81.39642127
O      87.68630179      54.38238344      81.24524316
N      83.78968613      53.07280311      81.67043158
H      82.46687771      51.69897208      81.76113844
C      82.64451198      55.45952744      81.20366918
H      83.09993603      56.02644533      79.27803807
C      79.75889990      55.10047944      81.22634590
H      79.13340049      54.04790188      79.56905592
C      78.67419700      54.38805262      83.76991752
H      76.62006450      54.27655877      83.62251886
H      79.24678407      55.69385350      85.25713212
H      79.24300462      52.46998041      84.25368745
C      78.21310378      57.64027161      80.95422531
H      78.50601136      58.87426289      82.57750021
H      76.20054526      57.46263733      80.55171360
C      79.16174639      58.95741085      78.65253866
H      79.34127039      57.85192095      76.92343908
H      80.97966310      59.71330137      79.25914081
H      77.81248180      60.46919190      78.29727011
C      83.51945527      57.40594554      83.33150101
O      83.88039299      59.64905068      82.98946055
N      83.88795190      56.37037552      85.59539313
H      83.54402171      54.49387729      85.55003970
C      85.10304592      57.61003598      87.76479894
H      83.97298958      59.30512049      88.07849351
C      85.20320141      55.75054529      90.05514723
H      86.40884680      56.52911253      91.53102348
H      86.14617484      54.06679915      89.34083069
C      82.71821131      54.86993283      91.00378984
C      81.19131245      56.34580908      92.77446340
H      81.97176942      58.13160045      93.38484500
C      78.92931005      55.36882058      93.74578272
H      77.87106332      56.40250087      95.15362882
C      77.91452702      53.17295860      92.62706474
H      76.08149250      52.55879755      93.27902032
C      79.31292449      51.69519262      91.04347409
H      78.42853258      50.00199785      90.32915755
C      81.72232554      52.54367974      90.13262601
H      82.74655721      51.47220492      88.72666963
C      87.80346482      58.59836285      87.24323448
O      88.70297454      60.39738230      88.41864425
N      89.06769172      57.45318870      85.39130269
H      88.19085871      56.20785906      84.23856964
C      91.71708801      58.06357030      84.81871562
H      92.47297854      59.12181703      86.41931381
C      93.20430262      55.48409388      84.80926699
H      95.03922687      55.82613434      83.93621343
H      92.19518877      54.28411767      83.47323048
C      93.18729508      54.12538066      87.35850778
H      91.21064136      53.98932037      87.91786677
H      94.16050414      55.44440963      88.60761688
C      93.96775205      51.34559326      87.45677355
O      93.05690397      49.94152661      85.84105755
O      95.30189883      50.41584791      89.18776285
C      92.11959972      59.41850407      82.28459263
O      93.92050889      60.80934263      82.09939945
N      90.42451521      59.04055880      80.37218960
H      89.06202254      57.73664765      80.66509718
C      90.61726730      60.75643030      78.17254818
H      92.62793610      60.97941800      77.78326456
C      89.23776709      59.68684520      75.83117727
H      89.44752671      57.63838188      75.90298687
H      90.19963778      60.22352748      74.09073934
C      86.37483173      60.38415421      75.43244502
H      85.91373851      62.37403602      75.71023479
H      85.27879046      59.29945131      76.79682742
S      84.84604314      59.71708082      72.42211101
C      86.91529345      61.45562903      70.30183808
H      87.73732440      62.99575598      71.39598962
H      85.78523712      62.15104831      68.72769606
H      88.39872861      60.20840966      69.60263935
C      89.86704595      63.46629783      78.85284965
O      90.99710229      65.19728713      77.94200157
N      88.05857787      63.82723555      80.60651567
H      87.14206061      62.27954970      81.24146371
C      86.97009551      66.30844620      81.28681714
H      86.57514272      67.24575045      79.49346687
C      84.31125059      66.11569412      82.47356526
H      83.65551556      67.80888890      83.44866404
H      84.25644853      64.58690553      83.85306547
C      82.25900782      65.56578376      80.50824990
H      82.72010104      63.97274448      79.28559697
C      79.74000264      64.74375282      81.88775011
H      79.93842390      62.84079842      82.65308926
H      78.24333940      64.39982263      80.51202935
H      79.13151077      65.93428039      83.45433322
C      81.75823034      67.91849302      78.79237841
H      79.78724580      68.27754102      78.31427765
H      82.83348462      67.66526970      77.05571993
H      82.64073253      69.62491588      79.53693057
C      88.90328553      67.72763066      82.78159065
O      88.97509513      70.10112691      82.66631735
N      90.63616456      66.56166953      84.12140661
H      90.46419947      64.66816376      84.29904088
C      92.93974094      67.66526970      85.29114720
H      92.34825660      69.34901584      86.32104804
C      94.09814317      65.79633037      87.09016665
H      96.05778935      66.31978456      87.44732492
H      94.26065963      63.97463421      86.14152404
C      92.63171555      65.44484128      89.59594374
H      90.60214949      65.24642002      89.29736698
H      93.03233753      67.09646208      90.75812542
C      93.71263900      63.25275875      91.21354946
H      95.71574889      63.58157113      91.57070774
H      93.38004717      61.43106259      90.31592946
N      92.18196069      63.06189640      93.49633885
H      90.67584881      61.89215581      93.50011830
C      92.74698885      63.89904515      95.81881249
N      94.73876039      65.08579328      96.39139956
H      95.17717689      65.65460090      98.16207312
H      96.07857634      65.39759812      95.06859114
N      90.91584406      63.51354099      97.44208739
H      91.38827563      63.86125063      99.25811438
H      89.35493012      62.55356002      96.90351539
C      95.07702140      68.66871437      83.42220787
O      96.63793533      70.12380363      84.14219360
N      95.04111660      67.75597656      81.08650615
H      93.81090477      66.38025580      80.59706704
C      96.41305790      68.88792262      78.96623323
H      98.11948076      69.81766797      79.65787306
C      97.43728956      66.97174014      77.00280759
H      95.80267630      66.00797972      76.19967391
C      99.02465967      68.03754578      74.78237917
H      97.84169099      69.18649938      73.54649816
H      99.68228442      66.55222090      73.51437281
H     100.49864619      69.26775761      75.52882106
C      98.93962198      64.82312132      78.27081394
H      97.57334986      63.51165126      79.08150653
H     100.04322215      65.53554814      79.85818405
C     100.37392425      62.88804158      76.88375483
H     101.82901351      63.78755130      75.73858069
H      99.00765213      61.78633114      75.80472111
H     101.09957916      61.63704276      78.35207218
C      95.01466043      71.06866679      77.83239744
O      96.04834072      73.17760135      77.24280283
N      92.60714911      70.46962354      77.18233159
H      92.33880797      68.57989723      77.17855214
C      90.85537281      71.93227171      75.65732245
H      92.04212094      72.46139508      74.05861399
C      88.59526014      70.34301188      74.98646961
H      86.79813042      70.54899205      75.97101702
H      89.07714035      68.39092460      75.43433475
C      88.05668814      70.20884131      72.23691783
O      89.84247951      69.87435976      70.68545252
O      85.81358301      70.71717769      71.53582936
C      89.82169252      74.45316661      76.66265685
O      89.41351164      76.25596551      75.27181829
N      89.50799795      74.57410910      79.20622847
H      89.64027879      72.90548076      80.12085600
C      88.37416217      76.66036695      80.64808965
H      88.43085395      78.38568707      79.52181276
C      85.52067543      76.08400042      81.08650615
H      85.43374802      74.45694606      82.34695360
H      84.60037872      75.49251608      79.34228876
C      83.98999712      78.23639869      82.18254741
H      84.87627876      78.77686042      83.96077987
H      82.08137354      77.54286913      82.52080842
C      83.52701417      80.33210517      80.15487108
O      81.39729262      80.47383465      79.13630860
O      85.17107606      81.80231224      79.45189289
C      89.94830418      77.02319440      83.03481398
O      90.27900629      79.21149747      83.91164699
N      91.28056123      75.04087150      83.87385246
H      90.84214473      73.25319040      83.36551608
C      93.23831769      75.38480168      85.75224042
H      94.44585281      76.99484850      85.30815473
H      94.32302060      73.63491512      85.78814522
C      92.28967509      75.98384493      88.38084972
O      89.88594322      76.32210594      88.67186757
N      94.08869454      76.11990522      90.20065616
H      95.95385441      75.98384493      89.81515199
C      93.67484447      76.37312855      92.93697986
H      91.63016060      76.32777511      93.17697510
C      94.88993849      74.11679533      94.21443485
H      96.89871756      74.04120628      93.76090053
H      93.93562670      72.38391630      93.63617860
C      94.81434944      74.25852480      97.06792158
H      95.83102220      75.95360930      97.64995728
C      92.00243669      73.81632884      98.04679981
H      90.84592418      75.52086198      97.99766693
H      92.26888810      73.51397263     100.06691724
H      91.09158860      72.11179571      97.33248326
C      96.40549900      72.10423681      98.02223337
H      96.05023045      71.82266758     100.03290216
H      98.40671916      72.55399167      97.84459909
H      95.80645575      70.29954818      97.22665859
C      94.68773778      78.87134673      93.85916630
O      96.90816619      79.35322694      93.65129641
N      93.04367588      80.57399014      94.69064588
H      91.21820027      80.03352841      94.55836504
C      93.47453348      82.97772201      95.94164470
H      95.47953310      82.75662403      96.36494339
C      92.79612174      85.25106276      94.19175813
H      92.22731412      86.86488904      95.33693228
H      91.15017012      84.83532298      93.02579700
C      95.08269058      86.01262247      92.47966609
H      95.97842085      84.26462563      91.86550504
H      96.41494763      87.02551577      93.67964230
C      94.15483496      87.49416790      90.13451574
H      95.74031533      87.96848920      88.90619363
H      93.32713483      89.26862091      90.77135350
N      92.32369016      86.07498344      88.54903536
H      91.68118321      84.59343801      89.56759784
C      91.05001462      86.80441779      86.46844669
N      91.16528793      89.09287636      85.38941297
H      90.03145214      89.61633055      83.94566206
H      92.14983534      90.32875737      86.45899806
N      89.57224865      85.12445110      85.37240543
H      88.84848347      85.60066213      83.67354147
H      89.44374726      83.33865974      86.03191991
C      91.89850174      83.16102546      98.35482520
O      89.62894044      82.90024323      98.29813341
N      93.12115466      83.79030432     100.43163442
H      94.99765289      83.98494613     100.15006520
C      92.17251205      83.86211392     103.13205332
H      90.56624469      82.57521031     103.09803824
C      94.16806304      82.77363157     104.96697757
H      93.44618759      83.24417342     106.83780662
H      95.82724274      83.99061531     104.85548372
C      94.79356245      79.75195919     104.76477685
H      95.68929272      79.16992349     106.52600178
C      92.47297854      78.01719044     104.50966380
H      91.30701740      78.03230825     106.20852776
H      93.05312452      76.09155933     104.05990894
H      91.30890713      78.67481520     102.94497041
C      96.35447639      79.05653991     102.48009774
H      95.21308169      79.22850501     100.77556461
H      96.87037167      77.11390126     102.92607315
H      98.00609718      80.28108256     102.37994225
C      90.95174886      86.38678828     104.07502675
O      89.82736170      86.49450268     106.11026199
N      91.30701740      88.33698583     102.61993749
H      92.45597100      87.95904057     101.14595096
C      90.59648031      91.00149994     103.20953210
H      89.53634385      91.14322941     104.96886729
C      93.03233753      92.64178237     103.59125681
H      93.84303012      92.50572208     101.70342023
H      94.34002814      91.89534048     104.99721319
C      92.61281829      95.33086292     104.49832544
H      91.58480717      95.57463761     106.26710927
H      91.39394481      96.44958090     103.27189307
C      95.17906662      96.58186174     104.75343849
H      96.43573462      96.32107951     103.14339168
H      96.12581950      95.88455273     106.44663327
C      94.75198847      99.34464161     105.39027626
H      93.81657395      99.27661146     107.22331079
H      93.43862868     100.23281297     104.07502675
N      97.16516897     100.80540005     105.61704342
H      98.46719040     100.47658767     106.97197719
H      96.82879769     102.65922156     105.92506881
H      98.12137049     100.85264320     103.96731235
C      88.93163143      92.08242339     101.11949479
O      89.50043905      91.50794659      98.91040474
N      86.93230099      93.62821951     101.65428734
H      86.40695707      93.88333256     103.47031433
C      85.08603838      94.52394978      99.87605488
H      84.08448343      92.90634406      99.08236983
C      83.07725931      96.41745555     100.92485298
H      84.07881426      97.96325167     101.84514970
C      81.28201931      97.35664953      98.78379307
H      79.95543144      95.85431711      98.30380259
H      82.26467700      97.82341192      97.03390651
H      80.40140685      99.14055117      99.31291644
C      81.42374879      95.13244166     103.13205332
H      82.57270238      94.49749361     104.71942342
H      80.48644453      93.45436469     102.39317033
C      79.52268412      96.97681454     104.43785420
H      80.65651990      98.60008944     105.01233100
H      78.64963056      96.20202675     106.13482843
H      78.09027157      97.66278519     103.12638414
C      86.38994954      95.66534448      97.53090453
O      87.98298882      97.59286531      97.64617783
N      85.80791383      94.57308267      95.30858638
H      84.82525615      92.93657968      95.38228571
C      86.63372423      95.50849719      92.83115519
H      87.78078810      97.21869950      92.81981683
C      88.23621214      93.44113661      91.71054748
H      89.81035416      92.97815366      92.95587712
H      89.17351640      94.11387917      90.00601435
C      86.93041126      90.93913897      90.85828092
C      85.67563299      90.72937935      88.45643877
H      85.75311177      92.33186726      87.19410159
C      84.95564726      88.33131665      87.36606669
H      84.12227796      88.11399813      85.51602463
C      85.13706099      86.25261771      89.08760736
O      84.38683964      83.99628449      88.16920037
H      83.77267859      84.05297628      86.46277751
C      86.22554335      86.53985611      91.52535430
H      86.35593446      84.98839081      92.84627300
C      87.21764966      88.81697632      92.45698938
H      88.01700389      89.02295649      94.32403897
C      84.28290470      96.20580620      91.18142411
O      82.07192491      95.81274313      91.78613654
N      84.73265956      96.96736591      88.77958197
H      86.56191463      97.43412830      88.50368193
C      82.82781544      97.68735163      86.82938442
H      80.97210420      97.84230919      87.70999688
C      83.15473809     100.48036712      85.89774934
H      81.87728310     100.91311445      84.34250459
H      85.02178769     100.62965550      85.04170332
C      82.83159489     102.44757221      87.96888938
H      84.11471906     102.00915571      89.52035469
H      80.91730213     102.59497087      88.71344155
C      83.56480870     105.05728425      86.93898854
H      82.56514348     105.42389116      85.17587389
H      85.60571312     105.31806648      86.85773031
C      83.00922916     106.96401810      89.02524639
H      84.58526091     106.58796256      90.29892193
H      81.26312205     106.44623309      89.99089654
N      82.98844217     109.60585549      88.07093460
H      81.43508714     110.02348500      87.04292349
H      84.42463417     110.19545010      86.96355498
H      82.76356474     110.82472896      89.52413414
C      82.92797093      95.82219176      84.80170808
O      84.77801299      95.36109854      83.61873941
N      80.80580828      94.47670662      84.53336695
H      79.38095464      94.95669711      85.70688699
C      80.24644929      92.61910566      82.53970569
H      81.73744335      91.20748010      82.69277352
C      77.61217081      91.44369589      82.70789133
H      76.34794391      93.00083037      82.23923920
H      77.16619540      90.88244718      84.63919162
C      77.19643102      89.19492158      81.01469655
O      78.47010656      87.22393704      80.95611504
O      75.68087052      89.62199973      79.35929630
C      80.66974799      93.77183871      79.83361761
O      80.61116647      96.05462810      79.55582784
N      80.71699114      92.32997753      77.85885361
H      80.82659527      90.44403067      78.13853310
C      80.46943700      93.19547218      75.17544224
H      82.26278727      94.00805450      74.56695037
C      79.69275948      90.84843210      73.61641804
H      77.84649688      90.35899299      74.38931610
C      79.23355599      90.84087320      70.81584364
H      77.70665713      92.09943092      70.24703602
H      78.72899906      88.94925716      70.17522642
H      81.05714188      91.34543012      70.00515105
O      81.49555839      88.90768318      74.00570166
H      80.76990348      87.24850348      73.92633315
C      78.34916407      95.13622111      74.58584763
O      78.42286340      96.61965626      72.78304873
N      76.23267060      94.84331353      75.88219988
H      76.12117675      93.24838452      76.92532881
C      74.02736000      96.38155075      75.75180877
H      73.83649764      97.45869475      74.00759138
C      71.68220964      94.60520801      75.80850056
H      70.08539091      95.89589109      75.95023003
H      71.71433499      93.51483593      77.55460767
C      71.48189865      92.97059475      73.50681391
H      73.17698316      91.84809732      73.17989126
H      71.35717672      93.98915724      71.71913282
C      69.12729967      91.27739998      73.77137559
O      66.96923222      92.15801244      73.25925976
O      69.30493394      89.02862566      74.57828873
C      73.97822711      98.26182843      77.94389129
O      71.99212476      99.43534847      78.43333041
N      76.00401372      98.54150792      79.47079015
H      77.57437629      97.65522628      78.84718047
C      76.31581856     100.86587129      80.98635066
H      75.50512597     102.42111604      79.90731693
H      78.30192092     101.25137546      81.36996510
C      74.94009781     100.81862813      83.62062914
O      75.13851907     102.66489074      84.99446017
N      73.63618665      98.79851070      84.26691554
H      74.04814699      97.27539129      83.19544072
C      72.50424059      98.36387365      86.67631658
H      71.82582884     100.14777529      87.45110437
C      70.33294505      96.49871378      86.27758433
H      69.00257773      96.59508982      87.84605717
H      71.24946232      94.66756898      86.05837608
C      68.89297360      96.94846864      83.82094013
C      68.24857693      94.94157930      82.12207617
H      69.04604144      93.07452970      82.32805634
C      66.95789386      95.66156502      79.82416897
H      66.50246982      94.28962372      78.38230780
C      65.94878001      98.05017908      79.45189289
O      64.49180102      98.53961820      77.44500355
H      63.53937896     100.08163487      77.40531929
C      66.37018898      99.94935403      81.20366918
H      65.56327584     101.75026320      80.67454581
C      67.82149879      99.37109778      83.33339074
H      68.28448173     100.86209184      84.64675052
C      74.18798673      97.36231870      88.83816349
O      75.74134176      95.57841707      88.34305519
N      74.04814699      98.37143256      91.13796041
H      72.71400021      99.63376973      91.65952487
C      75.67331162      97.59475504      93.18264428
H      77.60839136      98.13143731      92.72344079
C      74.92120054      98.91945319      95.66952411
H      76.15141237      98.16734211      97.13973118
H      72.95777490      98.48859559      96.11738924
C      75.39174239     101.59908510      95.47488230
C      73.45099347     103.37164838      95.42574941
H      71.51402400     102.73103116      95.47488230
C      73.95555040     105.88687410      95.14418019
H      72.56471183     107.35897090      94.88717741
C      76.42353296     106.72780231      94.92875139
O      76.69943300     109.34318353      94.75111712
H      75.14229852     110.10663296      94.22577321
C      78.41341477     105.11397604      95.28590967
H      80.33904588     105.78482888      95.36338845
C      77.89185031     102.48158729      95.38228571
H      79.42252862     101.16255832      95.68464192
C      75.51457461      94.78095256      93.73444436
O      73.40564004      93.86632503      93.63239914
N      77.62917835      93.45247496      93.93097590
H      79.23922517      94.39922785      93.54169228
C      77.89940921      90.73693825      93.65507586
H      76.25534732      89.90734840      94.58104175
C      78.36239216      90.06986486      90.82615557
H      79.84204786      91.27551025      90.04947805
C      79.15040803      87.32598226      90.14018492
H      77.79547427      86.20348483      91.21354946
H      81.08548778      87.18047333      90.83371447
H      79.36394710      87.02929523      88.11250858
O      76.03613907      90.52717863      89.52413414
H      76.01346235      92.33186726      89.35594850
C      80.08582256      89.69947851      95.32559392
O      81.92074681      91.07708899      95.90951935
N      79.97621843      87.25417266      95.93219607
H      78.41341477      86.29041224      95.41063160
C      81.82626049      85.95971013      97.51767644
H      83.66496419      86.80063834      97.11894419
C      80.89273569      86.45292870     100.34470701
H      79.90818828      88.26139678     100.33525838
C      78.78191140      84.60666609     101.23476810
H      77.49689751      84.27218453      99.66062608
H      77.77468728      85.23405523     102.91851424
H      79.70409784      82.97016310     102.07947576
C      83.23221687      86.73827737     102.01144561
H      84.64195270      88.06675497     101.30657770
H      84.22432318      84.97705245     102.39694978
C      82.33648660      87.78329602     104.57769395
H      81.33115220      86.32064786     105.62082287
H      80.97399392      89.32531270     104.46620010
H      84.05802727      88.28029404     105.59247698
C      82.25333864      83.18370218      96.92241265
O      80.95698639      82.18970614      95.27457131
N      84.19030811      82.11033763      98.01845392
H      85.40540213      83.41235906      98.70631429
C      84.85738150      79.44771326      97.48366137
H      83.34182099      78.22128088      98.14884503
H      86.53356874      79.13023924      98.63639442
C      85.21265004      78.93559743      94.64529245
O      87.02489758      79.70660576      93.47177241
N      83.54780116      77.31421225      93.71365737
H      82.21743384      76.48651212      94.80591918
C      83.53457308      76.43171006      91.09260698
H      85.02745686      77.42570610      90.07593422
C      84.21109510      73.42515550      91.02268710
H      82.55758457      72.53131495      91.86172559
C      84.56636364      72.76564101      88.15975174
H      84.87060958      70.76631058      87.75724004
H      86.23121253      73.83333638      87.59283385
H      82.84671270      73.42326577      87.23567557
C      86.51467147      72.94705474      92.77257367
H      85.63405901      73.00374653      94.63395409
H      87.67496343      74.64024952      92.58171131
C      88.23432242      70.56410986      92.33415717
H      89.05068419      70.66426535      90.44632058
H      87.27056200      68.76698014      92.62139557
H      89.85759732      70.25230502      93.56625872
C      81.01178845      77.21972593      89.85105679
O      79.17686420      75.82510792      89.56003894
N      80.78880074      79.66881124      89.18398340
H      81.90751872      80.89524361      90.12884656
C      78.64585111      80.77430113      87.79692429
H      78.19042706      79.22850501      86.51191040
H      79.25812243      82.42592193      86.72922892
C      76.26857540      81.49428685      89.20288067
O      74.39396690      82.37300959      88.10683940
N      76.24589869      81.07476761      91.74834201
H      77.95421128      80.46816547      92.34549552
C      74.27113469      81.35822656      93.64562723
H      72.68565431      80.29809010      92.86894971
C      74.87773684      79.97683662      96.12494815
H      76.22700143      81.07854707      97.22476886
H      75.65252463      78.13246374      95.62983986
C      72.55337347      79.63290644      97.74633333
N      70.93765748      77.60145065      97.47421274
H      71.18143217      75.80243120      96.88083867
C      69.07438733      78.11923566      99.13906162
H      67.81205015      76.63580050      99.74755349
N      69.38052299      80.33021545     100.34659673
H      68.03503786      81.08232652     101.47476334
C      71.60284114      81.27507860      99.41118221
H      72.35684194      83.04953161     100.08014532
C      73.40186059      84.03974820      93.74011354
O      74.57160118      85.52507308      95.11394457
N      71.32127192      84.66902706      92.50801199
H      70.47467453      83.18748163      91.65763515
C      70.15531078      87.11811236      92.46265856
H      71.55937743      88.48060503      91.81826188
C      68.13708308      86.97071371      90.36695207
H      67.09395415      85.30586483      90.98867203
H      68.76636194      87.01984659      88.40541616
C      66.17743689      89.16846541      90.30459111
H      65.43666418      89.42168874      92.20754550
C      67.08639525      91.71959593      89.15941696
H      65.52359159      93.02917627      88.88351692
H      68.07850156      91.56274865      87.36228724
H      68.37518859      92.62477484      90.48789456
C      63.88141942      88.36533173      88.76635389
H      62.42633016      89.82231072      88.81548677
H      63.19355904      86.70615203      89.77924719
H      64.24613660      87.95526112      86.78214126
C      69.12163049      87.83620836      95.14040074
O      68.11818582      86.16946975      96.43675299
N      69.49579630      90.11332857      95.96810087
H      70.52947659      91.21692873      94.80213973
C      68.33361462      91.01850747      98.40962726
H      67.53992956      89.57286684      99.64172882
C      70.40097520      92.44147139      99.87794461
H      69.54870864      93.36176810     101.51066814
H      71.36851507      93.78506679      98.65340196
C      72.47589469      90.68402591     100.82469749
H      72.53636594      89.24783392      99.34882124
C      75.06104029      91.85565623     101.02500848
H      76.59360833      90.71426154     101.79223736
H      75.01001768      93.52050511     102.23443332
H      75.63551709      92.48682482      99.14851025
C      71.70488636      89.43869627     103.26055471
H      72.87651667      87.75683986     103.46086570
H      69.74901962      88.81319686     103.09236907
H      71.76724733      90.82764511     104.77989466
C      66.16420881      92.90256461      98.00711556
O      64.22723934      92.80051939      99.37149796
N      66.32672527      94.60142856      96.23644200
H      67.88385975      95.17212591      95.29346857
C      64.07417151      96.03762056      95.18764390
H      62.43577879      94.86410052      94.76434520
C      63.13497753      98.09364279      97.04146541