 %block lattice_cart
   142.669   0.000   0.000
   0.000 146.65   0.000
   0.000   0.000   162.396
 %endblock lattice_cart

 %block positions_abs
N      89.37288252      41.20059754      78.41254342
H      90.93379646      40.61856184      77.48090835
H      87.80818913      41.23650234      77.32217134
H      88.90234067      39.83432542      79.65787306
C      89.74515861      43.71015408      79.58795319
H      91.36465406      43.52496091      80.84651091
C      90.50104913      45.83609619      77.87775087
H      88.84375915      46.36144010      76.77415071
H      91.88621852      45.13689745      76.52470683
C      91.48559654      48.08864995      79.42165727
H      92.74982344      47.26661900      80.82383419
H      89.98893330      49.11477134      80.39486632
S      92.81596386      50.24860713      77.35996586
C      94.31829628      52.35187251      79.65031415
H      92.73092618      52.91312123      80.83895200
H      95.14977586      54.06963373      78.87174691
H      95.70346567      51.24260317      80.69155335
C      87.19591781      44.13912196      81.06004998
O      85.12855722      43.71015408      80.02636969
N      87.19780754      45.04052141      83.32394211
H      88.84564888      45.69058726      84.03069975
C      85.08509352      45.80964002      84.90942248
H      83.46181861      44.57942819      84.59383819
C      85.93736008      44.98760907      87.62117974
H      87.85165284      45.63578520      88.00668391
H      85.83909432      42.92969712      87.64385646
C      84.26117285      46.16490856      89.59405401
O      84.39912287      48.43635959      90.15341300
N      82.52073491      44.69470149      90.57860142
H      81.49461352      45.44114339      92.00156534
H      82.44514586      42.84654916      90.11183902
C      84.25739339      48.57619934      84.59761764
O      85.81074842      50.12199546      83.96833878
N      81.75539575      49.07508709      84.90564303
H      80.69147984      47.69747660      85.68987945
C      80.63478805      51.62621761      84.40864501
H      81.27918472      52.28195264      82.56238240
C      77.70760199      51.42968607      84.59572792
H      77.09344094      49.97081736      83.27669895
C      76.61345046      50.60387567      87.19599132
H      74.73884195      49.83286734      86.82938442
H      76.60967100      52.14967180      88.55848399
H      77.94192805      49.19602957      87.90652842
C      76.28841753      53.78995424      83.92676480
H      76.65502444      55.21291815      85.37240543
H      74.30420490      53.26083087      83.76424834
C      77.10477930      55.01449689      81.47012059
H      79.05119740      55.67779082      81.57783499
H      75.94826679      56.68312522      81.11863150
H      76.67014225      53.81263095      79.85629432
C      81.62878409      53.70680628      86.29270214
O      82.19948144      55.84030729      85.30626501
N      81.87822796      53.17768291      88.67564702
H      81.85366152      51.36921483      89.28602862
C      82.97993840      54.83497289      90.56915279
H      81.86499988      56.54895465      90.82615557
C      83.02718156      53.58964325      93.25634361
H      83.91535293      55.04662224      94.40718693
H      84.20070160      51.89644847      93.22799771
C      80.44392569      52.64666982      94.15963279
C      79.18536797      50.54340443      93.19398264
H      80.20015100      49.73082212      91.62173035
C      77.02163134      49.51350359      94.28435472
H      76.27518945      47.84298553      93.37917582
C      75.62890305      50.96292367      96.03235156
H      73.82610414      50.29585028      96.71265303
C      76.81943062      53.16823428      96.81280853
H      75.94070789      54.30962897      98.25655943
C      79.08521247      54.03750838      95.82259194
H      80.01495782      55.63432712      96.69375577
C      85.68791621      55.67968055      89.55248003
O      86.41924029      57.83774800      89.73767321
N      87.25071987      53.85042548      88.62651414
H      86.51183688      52.10242864      88.41486479
C      90.03995591      54.05451592      88.37518054
H      90.64844778      55.32630173      89.87562323
C      91.21536568      51.42779635      88.69643401
H      93.15989405      51.54684910      88.02369145
H      90.33853267      50.08231121      87.40575094
C      91.14922526      50.41112359      91.38740428
H      89.34075717      49.45681180      91.63873788
H      91.21347595      52.01550123      92.67808736
C      93.42634546      48.59509660      91.81826188
O      95.03450256      49.33964877      93.34327102
O      93.56996466      46.65812713      90.54269662
C      90.80718479      55.42645722      85.83349865
O      93.00871595      56.25037790      85.54248080
N      88.92501739      55.45102367      84.03825865
H      87.35465482      54.42112283      84.38596829
C      88.69636050      57.09508556      81.81783024
H      90.63144025      57.30862463      81.14886712
C      87.01261436      55.86487373      79.86952241
H      85.27784560      55.15244691      80.71611979
H      88.07653027      54.25671664      79.14386750
C      86.45514509      57.42767739      77.43366519
H      88.29951798      58.06451516      76.77604043
H      85.20225655      59.01315777      77.82483854
S      84.79218594      55.87054291      74.94300591
C      81.73838822      55.01260716      76.20912254
H      80.78974561      56.77005263      76.71367946
H      82.01239853      53.89955836      77.91932485
H      80.65746477      53.89766864      74.85796822
C      88.03873574      59.73881267      82.49624198
O      89.43524349      61.50759650      81.94255217
N      85.84098404      60.21691343      83.61495996
H      84.66179482      58.72213991      83.75668943
C      84.89423116      62.63765283      84.43132173
H      84.51061672      63.77337835      82.75702421
C      82.29774721      62.29372265      85.71633562
H      81.74783685      63.91888728      86.85962004
H      82.36010817      60.71013200      87.03347486
C      80.08865715      61.91577738      84.00802303
H      80.40991062      60.47769566      82.56994131
C      77.77185269      61.16933549      85.55192943
H      78.23105618      59.34574960      86.39096791
H      76.05787092      60.95012724      84.43321145
H      77.52807799      62.58096105      87.03158513
C      79.15891180      64.36297296      82.65497899
H      78.72049530      65.88609238      83.96833878
H      77.39957660      64.06817566      81.62318842
H      80.61967024      65.11319430      81.41153908
C      86.73104514      64.14565443      86.19632610
O      87.02584244      66.32450887      85.83727810
N      88.23715701      62.90221452      87.69298934
H      87.96881587      61.01248821      87.72133524
C      90.53695393      63.83007014      89.10461490
H      89.97948467      65.39098408      90.32915755
C      91.67078972      61.67200269      90.67497746
H      93.63421536      61.98191780      91.21354946
H      91.48559654      59.86731406      89.69987869
C      90.22325936      61.35830812      93.19020319
H      88.39589402      60.42478332      92.99367165
H      89.96814631      63.20079128      94.07837455
C      91.87865961      59.52527360      94.79836028
H      93.47736807      60.66099911      95.42574941
H      92.63077069      57.92467541      93.74578272
N      90.26861279      58.40655562      96.81469825
H      89.42957431      56.74926564      96.37439202
C      89.62421612      59.30606534      98.99355269
N      90.64655806      61.41311018      99.89684187
H      90.36687856      61.80806298     101.74310448
H      91.88054934      62.47135692      98.89717665
N      88.20314193      57.92845486     100.43352414
H      87.23371234      58.82796459     101.80924490
H      87.77795351      56.13510459      99.93841585
C      92.66100631      64.89965523      87.34150025
O      94.33908327      66.14120542      88.29959149
N      92.61376315      64.52359970      84.84706151
H      91.47614791      63.18945292      84.09495044
C      94.39766479      65.52704438      82.80993655
H      95.77905472      66.66088016      83.83794766
C      96.14377190      63.41433035      81.84428640
H      97.53838992      64.35541405      80.65375883
C      97.61586870      62.37876033      84.16676004
H      96.26471439      61.15610741      85.12674101
H      98.53049623      63.91321810      85.19288143
H      99.25804087      61.26571153      83.61307023
C      94.82474293      61.18634303      80.57250059
H      93.47169889      61.97057945      79.23268464
H      93.80618045      60.08085313      81.98223642
C      96.54817333      59.46291263      79.05882982
H      97.47791868      60.66855802      77.66988098
H      95.64299443      58.01349255      77.90609677
H      98.02027013      58.68434539      80.27014438
C      92.90478100      67.18622407      80.99013011
O      93.88743868      69.19689288      80.30415946
N      90.60120463      66.43600272      80.30604918
H      89.91712370      64.89209633      81.19422055
C      88.96659136      67.51881590      78.37285917
H      90.12121414      68.08006463      76.76281235
C      87.19591781      65.41932997      77.38831176
H      85.69547512      65.11697376      78.76592224
H      88.22392892      63.65054614      77.15587542
C      85.99405187      66.25080955      74.92977782
O      87.29418358      66.33773697      72.90966040
O      83.68291659      66.40954656      74.94300591
C      87.45481031      70.01325464      78.97568186
O      87.16379246      71.46645417      77.19744940
N      86.74238349      70.36663345      81.35673701
H      87.44347196      68.95500791      82.43388101
C      86.14900943      72.89319754      82.43955019
H      85.95247790      74.20844705      80.86918763
C      83.45803916      72.67965846      83.66976202
H      83.41646518      71.21512057      85.11540265
H      82.08987731      72.00502617      82.28459263
C      82.43758695      75.09094924      84.99257044
H      84.11755365      76.13785762      85.55948833
H      81.33209706      74.63552520      86.67064741
C      81.16391142      76.93532212      83.19355099
O      78.73939256      76.92209403      83.26914004
O      82.34121091      78.17309285      81.67610076
C      88.05007410      73.65475724      84.49557242
O      89.01572425      75.74290482      84.54092585
N      88.64533789      71.92943712      86.23223090
H      87.89511655      70.19844782      85.94310278
C      90.55963065      72.04471043      88.27502505
H      92.29817885      73.01980921      87.74968113
H      91.00749578      70.05104916      88.52824837
C      89.82641684      73.17665648      90.91875216
O      87.94991861      74.50891354      91.00567957
N      90.95080399      72.54359817      93.07115043
H      92.39455490      71.29637880      93.02579700
C      90.37821692      73.65097779      95.48622066
H      88.32975360      73.60184491      95.67330356
C      91.43079448      71.80093573      97.54602234
H      93.48114753      71.76881038      97.35515998
H      90.73537519      69.90176078      97.15862844
C      90.78072862      72.46989884     100.30502276
H      91.95991784      74.11396074     100.69808583
C      88.00094122      72.87807972     101.03256739
H      86.86521570      71.16409796     100.94186052
H      87.24694042      74.56749505     100.12360903
H      87.99716177      73.45822570     103.00922111
C      91.96180757      70.34017729     101.69397160
H      91.00371633      68.58651127     101.19886330
H      91.64244382      70.68977666     103.69897121
H      94.00649144      70.30238277     101.44641745
C      91.23993212      76.35328641      96.00211594
O      93.45847081      76.95799883      96.19864748
N      89.44280240      78.10506272      96.63328453
H      87.64756240      77.60617497      96.21943447
C      89.94924905      80.68642886      97.70286962
H      91.99393292      80.78658434      97.95231350
C      89.28595511      82.57426545      95.61472205
H      89.06485713      84.49233764      96.33470777
H      87.62299596      81.82215436      94.66041026
C      91.42134585      82.58560379      93.55869982
H      91.70291507      80.65997268      92.88406752
H      93.14288652      83.56637176      94.11994853
C      90.39900391      84.25423213      91.39496319
H      91.97125620      84.30714448      90.06648559
H      89.66012092      86.10238447      91.92219683
N      88.33542278      83.08260182      90.00223490
H      87.42268497      81.64452009      90.86206037
C      87.84598366      83.33771487      87.60795166
N      88.59809473      85.18208775      86.12829595
H      87.52284046      85.58082000      84.60139709
H      89.82452711      86.44631466      86.86906867
N      86.51750606      81.63318173      86.45899806
H      86.68758143      81.55948241      84.56171284
H      85.75216691      80.13651849      87.36795642
C      88.61699200      81.29681045     100.23321316
O      86.45514509      80.60139118     100.77934406
N      90.11554496      82.45521268     102.04168124
H      91.96180757      82.49111748     101.55413185
C      89.32185991      82.59883189     104.69674671
H      87.80440968      81.25334674     105.05390498
C      91.56307532      81.58971804     106.30301407
H      91.00560606      81.98467084     108.24565272
H      93.36776395      82.50434556     105.91939963
C      92.01849936      78.70221623     106.10270308
H      92.43045970      78.20521820     104.14494662
C      94.61120386      78.10695243     107.21764161
H      94.92489843      76.09061446     106.94741075
H      94.77938950      78.73056213     109.17161862
H      96.07763148      79.07260258     106.14049761
C      89.97948467      76.99201392     107.10425803
H      88.86832560      77.78569896     108.64816443
H      90.75049300      75.24212735     107.86959719
H      88.60376391      76.78792347     105.58680780
C      88.39211457      85.21610283     105.61137424
O      87.29418358      85.33893503     107.63716085
N      88.84186943      87.29102231     104.10715210
H      89.59775995      86.97732776     102.38372170
C      87.50961238      89.67585693     104.26399938
H      86.42679920      89.51145073     106.01010649
C      89.39555924      91.97754357     104.84036591
H      89.88688808      91.90762370     106.83969635
H      88.31085633      93.69341506     104.49076654
C      91.71992260      92.22509772     103.16039921
H      91.03017250      92.06258125     101.22720920
H      92.88021456      90.58670500     103.61960271
C      93.10887144      94.73087481     103.67062532
H      93.01060567      94.99543650     105.70964001
H      91.98259456      96.22375861     102.80702039
C      95.70346567      94.52111519     102.55757652
H      96.22503013      96.43918740     102.01711479
H      95.52394167      93.27389582     100.92674271
N      97.55917691      93.56113422     104.40572885
H      98.03916739      94.95008307     105.62271260
H      99.19001072      93.12838690     103.51755749
H      97.05084053      92.09659633     105.52066738
C      85.79185116      90.06703028     102.06057850
O      86.01483886      88.91618694     100.00833572
N      83.89078649      91.58448050     102.62749639
H      83.83220497      92.31769431     104.38872132
C      82.00106017      92.32714294     100.61493787
H      81.02029222      90.63583790      99.96865147
C      80.12267222      94.23387679     101.55980103
H      81.10344018      95.96675583     102.08892439
C      77.99295066      94.85748648      99.59259594
H      77.02163134      93.15673279      98.95008899
H      78.92080628      95.42629410      97.84459910
H      76.75140048      96.40895177     100.12927821
C      78.72805420      93.29846226     103.99376852
H      80.16424620      92.94508344     105.42996052
H      77.80586776      91.49188391     103.63472052
C      76.84588679      94.96709061     105.44129887
H      77.90035408      96.59225523     106.14049761
H      76.15802641      93.71231234     106.92284430
H      75.22828107      95.28267489     104.20919732
C      83.52417958      93.42696366      98.38317109
O      84.98493802      95.20330639      98.69119648
N      82.69270001      92.70886766      96.22888310
H      81.34532514      91.36149280      96.10416116
C      83.44481108      93.54601641      93.71554710
H      84.59187495      95.22220365      94.04246975
C      85.09643188      91.58259077      92.41163595
H      86.72159650      91.44464075      93.66830394
H      85.83153541      92.43296761      90.68631582
C      84.11755365      88.99555545      91.74267283
C      83.01962266      88.66674307      89.34461014
H      83.05363773      90.24844400      88.05581679
C      82.02751634      86.34048999      88.71911073
H      81.37745049      86.08915638      86.80103852
C      81.86877933      84.37517461      90.40852605
O      80.89368056      81.99789892      89.91719721
H      80.23794552      81.85050026      88.23345107
C      83.02340211      84.69642809      92.81225792
H      82.79096577      83.20543403      94.18797868
C      83.91157348      87.11338804      93.57381763
H      84.70525853      87.46109768      95.42196996
C      81.23761074      94.27167131      91.96377081
O      79.18158852      93.22665266      92.19998660
N      81.73460876      95.83447498      90.04758833
H      83.49583369      96.50532782      89.74334239
C      79.79197011      96.72831552      88.31659903
H      78.10822397      97.01366419      89.46744235
C      80.50628666      99.33991729      87.43787629
H      79.29308237     100.02777767      85.92420551
H      82.43191777      99.22653371      86.71411111
C      80.23227635     101.38649089      89.51468551
H      81.72516013     101.30334293      90.93009052
H      78.35766784     101.41105733      90.36506235
C      80.80108397     103.80345084      88.10305995
H      79.53496734     103.92439332      86.48545423
H      82.78340687     103.89793715      87.55314959
C      80.09999550     106.16938819      89.77168829
H      81.12611689     106.16182928      91.55747965
H      78.05531163     106.16938819      90.01357325
N      80.81620178     108.29722001      88.31281957
H      82.20704034     107.66605143      87.16953515
H      81.60610738     109.56711609      89.49956770
H      79.52362898     109.09468451      87.15819680
C      79.30820018      94.91606799      86.18498774
O      81.11666826      94.02033771      85.08516703
N      76.91580667      94.33781174      85.50468627
H      75.56654208      94.94063443      86.71411111
C      76.32243260      93.07736428      83.08205714
H      77.62256431      91.52400926      82.71545023
C      73.65224932      91.85093191      83.35228800
H      72.19338061      93.15862252      83.98345659
H      73.76563290      90.26923099      84.66753752
C      72.79431358      90.67741187      80.82194447
O      74.22861585      88.92185613      79.96778817
O      70.87435164      91.31802909      79.78826417
C      76.10889353      95.18629885      80.98446093
O      75.68370511      97.44641153      81.40020072
N      76.29786616      94.59670424      78.58072906
H      76.45849290      92.71831629      78.27270367
C      76.17692368      96.26911204      76.34140338
H      77.62256431      97.71475266      76.58517807
C      76.80431281      94.90095018      73.76003724
H      76.13157025      95.93085103      72.11030617
C      79.69937353      94.61560151      73.34051799
H      80.53085310      96.41462096      73.90176671
H      79.90346397      93.87482879      71.43000469
H      80.34565992      93.16429170      74.65387778
O      75.72527909      92.49721831      73.62397694
H      77.07643340      91.50322227      72.93422684
C      73.51807876      97.57869236      76.04282662
O      73.38201846      99.52133101      74.63120107
N      71.56977093      96.85492719      77.43366519
H      71.79653808      95.53022904      78.78859896
C      69.27942264      98.36292879      77.41098847
H      69.30398908      99.65361186      75.80661083
C      67.07789148      96.57146825      77.17288296
H      65.36957889      97.61270744      77.66610153
H      67.28765110      94.93307552      78.40120506
C      66.98529489      95.63038453      74.25514553
H      68.68982803      94.50221792      74.01137084
H      66.93049283      97.25554916      72.98713917
C      64.79510209      93.93718976      73.57484406
O      64.66471098      91.77345313      74.60474490
O      63.50630875      94.35481927      71.64543349
C      68.85990339     100.31879552      79.71834430
O      67.03253805     101.82679712      79.80338199
N      70.82332903     100.49642979      81.32272194
H      72.35778680      99.41172689      80.99768902
C      70.89324891     102.25009582      83.47134076
H      69.85578916     104.02832828      83.44866404
H      72.91525606     102.63937943      83.52614282
C      70.29987484     101.08413468      85.92609524
O      70.48695775     102.38804583      87.79314484
N      70.06932823      98.57268841      85.87318290
H      70.29609539      97.74687800      84.16864977
C      69.15470070      97.15350394      88.11817776
H      67.86968681      98.36481851      89.18209368
C      67.53331552      94.90661936      87.20166050
H      66.45239207      94.15450828      88.78336142
H      68.63313624      93.39672803      86.33238640
C      65.62469195      95.64361263      85.25713212
C      65.05966378      93.85782126      83.34094964
H      66.11602079      92.13628059      83.04804206
C      63.16237856      94.31891447      81.60051171
H      62.51042298      92.83925877      80.35518207
C      61.98129961      96.70941826      81.58728362
O      60.00275617      96.90783952      80.08117175
H      59.24308619      98.53489389      80.33061563
C      62.68238808      98.57079868      83.27291950
H      61.94728454     100.46997362      83.40520034
C      64.30377325      97.88293830      85.28547802
H      64.60990892      99.15094465      86.85395086
C      71.29765034      96.27667093      89.75279102
O      73.52185821      96.18974352      89.07626900
N      70.62301804      95.51133179      92.03558041
H      68.87313148      94.84425839      92.40785649
C      72.57888478      94.83858921      93.88940192
H      74.43081656      95.41684546      93.20343127
C      72.10456347      96.36170863      96.30258242
H      73.29509105      95.73242975      97.86160663
H      70.21105771      96.02911679      97.03957569
C      72.42014777      99.10370151      96.05124882
C      70.45483240     100.73642503      95.96243169
H      68.54620883     100.01265986      95.97943922
C      70.93860234     103.34991652      95.76778988
H      69.38902676     104.65949686      95.55425080
C      73.44248970     104.29288995      95.61283232
O      73.73728701     106.86669720      95.36527817
H      72.11968128     107.62258772      95.04213497
C      75.59299825     102.63559998      95.51645628
H      77.46382730     103.45007202      95.56936861
C      75.06387488      99.93896054      96.05691800
H      76.50384633      98.49331990      96.00211594
C      72.56754642      92.07769907      94.55458558
O      70.51908310      91.15173318      95.18764390
N      74.84655635      90.91740712      94.52057051
H      76.14479833      91.85282163      93.47933131
C      75.19048654      88.16218614      94.31081089
H      73.55587328      87.18330792      95.09504731
C      75.85000103      87.38550864      91.66330433
H      77.90602325      87.29669150      91.54425157
C      75.30387012      84.59438288      91.24378508
H      73.32721640      84.30714448      91.75212146
H      76.46794153      83.34716350      92.40029759
H      75.46260713      84.01990607      89.27280054
O      74.65569400      89.02390134      89.83971843
H      75.93503871      89.80057887      88.81548677
C      77.22383206      87.51212029      96.04368992
O      78.92269601      88.96720955      96.48777560
N      77.13501492      85.26712543      97.29090929
H      75.46827631      84.36194653      97.06414213
C      79.02285151      84.07848759      98.92363282
H      80.84454767      85.02335074      98.75355745
C      78.10822397      84.60005204     101.69019214
H      77.34666427      86.51056535     101.81869353
C      76.14290860      82.78213533     102.67662928
H      75.51362974      83.34527378     104.55501723
H      76.89501968      80.89429874     103.01300056
H      74.52341315      82.99000523     101.41807155
C      80.34188047      84.85705483     103.51188831
H      81.78374165      86.02679542     102.62182721
H      80.97871824      82.90874700     103.71597875
C      79.98472220      86.00600843     106.06868801
H      81.65901971      86.27434956     107.24031832
H      78.53152266      84.87028291     106.98520527
H      79.03796932      87.81069705     105.78333934
C      79.36300224      81.32326663      98.48521632
O      77.69626363      80.20832809      97.39106478
N      81.32831761      80.20076919      99.46031509
H      82.69270001      81.24956729     100.28990494
C      81.83476426      77.39074616      99.41874111
H      79.99606056      76.51958233      99.73810486
H      83.21993365      76.99012418     100.89083791
C      82.81931167      76.17754188      96.92052293
O      84.41424068      77.29814957      95.61850150
N      81.54941559      74.07805594      96.17975021
H      80.62722915      72.96878659      97.42696958
C      81.54563613      73.21823047      93.55681009
H      83.12166788      74.09317375      92.55525515
C      82.00483963      70.27970604      93.12028331
H      80.36266746      69.16287779      93.66830394
C      82.24294514      69.78837720      90.22900205
H      83.80574880      70.78804242      89.33516151
H      80.49305858      70.07372588      89.18209368
H      82.39223352      67.75692143      89.90774858
C      84.29329819      69.27059220      94.62828491
H      83.78496181      69.61830184      96.59171055
H      85.81641760      70.59906979      94.23522184
C      85.19469764      66.57395274      94.17664032
H      83.64701179      65.21523953      94.21254512
H      86.43813756      65.93333552      95.68842137
H      86.17357587      66.34529586      92.37951060
C      79.13434536      74.19521897      92.37951060
O      77.25028822      72.88752837      92.47399691
N      79.01907205      76.51580288      91.30803578
H      80.60644216      77.52869619      90.99434121
C      76.81565117      77.37562836      89.73767321
H      76.23739492      76.09817337      88.22967162
H      77.31453892      79.14819163      88.81359705
C      74.35144806      78.11262161      91.01512820
O      72.43526558      78.39419083      89.74334239
N      74.26641038      78.36773467      93.66830394
H      75.78386061      78.65497307      94.78891165
C      71.85889905      78.52458196      94.91363358
H      70.36034609      77.50412975      93.93664508
C      72.07621758      77.43798932      97.49688945
H      73.64846987      78.20143875      98.58726154
H      72.63557657      75.47456368      97.22854832
C      69.65169872      77.21122217      99.01433968
N      68.22495535      75.02291909      99.17874587
H      68.76163763      73.37696747      98.37372246
C      66.02153447      75.60117535     100.24644124
H      64.46439999      74.28592584     100.14439602
N      66.06499818      78.04270174     100.93430162
H      64.36235477      78.76646693     101.40862292
C      68.31377249      79.14252246     100.02912271
H      68.75218899      81.13618371     100.00644600
C      71.06332428      81.35539198      95.06859114
O      72.26330048      82.76134834      96.46698861
N      69.10556781      82.13962839      93.60405325
H      68.20416836      81.02846931      92.34171607
C      68.15881493      84.71910481      93.58326626
H      69.65358845      86.10427419      93.29791759
C      66.59412154      84.84760619      91.28724879
H      64.83100689      83.80636699      91.51401595
H      67.72417788      83.97644236      89.80192391
C      66.04799064      87.61605524      90.33104728
H      67.73362651      88.72154513      90.75245624
C      65.30721793      87.64818059      87.60228248
H      64.82533772      89.57003226      87.04103376
H      63.56866972      86.55024961      87.50401671
H      66.72640239      86.73166334      86.42120353
C      63.75953208      88.82925954      91.78613654
H      63.99952732      88.67997116      93.82704095
H      62.35546542      87.43086206      91.22110837
H      63.19072446      90.62449953      90.95276723
C      66.77553527      85.16885966      96.13061733
O      65.42816041      83.62873272      96.95075855
N      67.41993194      87.23999971      97.35704971
H      68.67471022      88.53824169      96.73532975
C      66.18027148      87.95431626      99.80424528
H      65.25619532      86.41229958     100.81146941
C      68.31377249      89.28090413     101.35004141
H      67.39536550      90.18230357     102.95819850
H      69.23784866      90.83992833     100.37305290
C      70.40947897      87.39306755     102.35726553
H      71.17859758      86.09482557     100.95508861
C      72.43148613      89.02957052     103.40984309
H      71.70583122      90.14072959     104.98587483
H      73.49540204      89.89695491     101.87538532
H      73.93948772      87.88061692     104.21864595
C      69.35690141      85.83971252     104.43596448
H      68.73518146      87.05291680     105.97987087
H      70.78742423      84.59627259     105.24098788
H      67.69394226      84.87406236     103.69708149
C      64.19605885      89.86671928      99.33181370
O      62.11735991      89.76089461     100.35415564
N      64.54187877      91.76778395      97.72554634
H      66.26341944      91.98699221      96.92808183
C      62.48774627      93.61971575      97.04146541
H      60.66605010      92.79012589      96.55769548
C      62.00208660      95.54345713      99.22976848