 %block lattice_cart
   142.669   0.000   0.000
   0.000 146.65   0.000
   0.000   0.000   162.396
 %endblock lattice_cart

 %block positions_abs
N      91.85409317      46.52112197      77.09729391
H      91.37599242      48.22376538      76.37730817
H      90.78639781      45.11705532      76.37163900
H      93.68145852      46.02412395      76.86107811
C      91.08119511      46.79135285      79.66921142
H      91.45158147      44.93375187      80.47801427
C      92.39266517      48.82658808      81.14130822
H      94.37687780      48.38439213      80.81438557
H      91.76716576      48.62627710      83.09339550
C      91.71803288      51.60259604      80.44777866
H      92.80462551      52.65895305      81.84428640
H      89.69224627      51.95786458      80.52714717
S      92.83486113      52.34336875      77.26358981
C      96.15888971      51.78589949      77.58484330
H      97.05461999      52.78556470      76.02203963
H      96.46313565      49.77523068      77.26547955
H      96.75604323      52.45486261      79.44055453
C      88.27306181      47.15040084      79.84873541
O      87.11654931      48.62627710      78.40876396
N      87.14111575      45.71987802      81.67610075
H      88.18235495      44.41218742      82.59639748
C      84.38778451      45.64239924      82.18821658
H      83.31064051      45.39484509      80.45155811
C      83.63567344      43.18575503      83.77558670
H      84.53707289      43.34260231      85.61995957
H      84.36510779      41.48500135      82.86662834
C      80.73305382      42.80969950      84.24423881
O      79.20426523      44.49155592      83.70755654
N      79.81842628      40.64029369      85.00957798
H      77.93058970      40.52691012      85.24957321
H      80.94470317      39.18709415      85.52169381
C      83.83598443      48.30502361      83.46567158
O      85.43469289      49.56547106      84.58438956
N      81.40768611      49.14595182      83.26536058
H      80.12078249      47.89117355      82.61907419
C      80.64990586      51.77267140      83.94566206
H      81.22816211      52.88383047      82.31104881
C      77.70382254      51.96353376      83.84928601
H      77.33721564      51.08292130      82.02381041
C      76.70415732      50.51789313      86.07538361
H      76.93281420      51.55157343      87.84227771
H      77.20304507      48.52045241      86.05459663
H      74.66703236      50.24199309      85.95822058
C      76.81943063      54.77922596      84.04392782
H      77.48461429      55.71086103      85.75601987
H      74.76907758      54.58080471      84.10439908
C      77.33532591      56.41761867      81.64397541
H      76.29030726      58.19396142      81.64019595
H      76.66447307      55.49354252      79.92999364
H      79.26284675      57.08091262      81.34350893
C      81.70815260      52.94052226      86.44954943
O      82.19948144      55.35370276      86.56671246
N      82.06909032      51.31913708      88.36384219
H      81.71193205      49.48610256      87.96888939
C      82.89868018      51.85581935      90.97733368
H      81.80452864      53.52255797      91.49322896
C      82.11444376      49.80924577      92.98044357
H      81.78941083      50.85804386      94.72277123
H      83.70370358      48.52990105      93.25256416
C      79.53685706      48.43541473      92.74233804
C      79.20048578      46.30947264      91.21165974
H      80.75762026      45.46665470      90.19687670
C      76.89124023      44.94131078      91.05103300
H      76.74573130      43.25000574      89.91908693
C      74.79553374      45.77090064      92.48533527
H      72.97572731      44.89973681      92.16597153
C      75.01663172      47.88739410      93.93097589
H      73.33477530      48.76800656      94.68119724
C      77.43737113      49.17051826      94.19553759
H      77.42036359      50.89394866      95.28779940
C      85.74460800      52.55690782      91.15496795
O      86.58742594      53.82302445      92.98611275
N      87.18457945      51.89739334      89.17642449
H      86.52884442      50.60293081      87.93676404
C      89.58831132      53.13516408      88.76257444
H      89.95302850      54.44474440      90.30837056
C      91.63677465      51.01678087      88.70021346
H      91.32874926      49.65995738      87.17898379
H      91.68779726      49.93207797      90.45010003
C      94.37120862      51.97865158      88.43943124
H      94.60364496      53.44696891      89.86239514
H      94.73781553      52.77233662      86.57238163
C      96.28928083      49.91696017      89.01768749
O      97.17178302      49.60137586      91.09260697
O      96.99792820      48.53179078      87.10150501
C      89.56941406      54.98709587      86.47789532
O      91.15489444      56.72186462      86.53836656
N      87.83842476      54.80190269      84.62785325
H      86.56096977      53.41106412      84.36140184
C      87.82897613      56.73320297      82.70789132
H      89.68846682      56.59336323      81.83105832
C      85.91657310      56.27966865      80.61029512
H      84.10054611      56.50832555      81.55515827
H      85.97893407      54.37671427      79.82227925
C      86.09231764      58.14482852      78.39742560
H      87.93102135      58.42639775      77.51303369
H      85.60665798      59.95140688      79.25536135
S      83.89834539      57.51365995      75.83684645
C      85.77295390      55.22898082      73.96223794
H      84.30463655      54.07435806      73.09674330
H      87.20725617      54.21230807      75.03371276
H      86.82742118      56.39116252      72.62620144
C      87.58898088      59.40716570      83.77369696
O      88.87021532      61.05122760      82.77970093
N      85.91279364      60.04589320      85.53681162
H      84.84131882      58.73631287      86.42120353
C      85.19847710      62.71796620      86.08861169
H      84.87344417      63.94250885      84.46344708
C      82.65112603      62.71607649      87.41330985
H      82.39223352      64.72485556      87.79314483
H      82.70781782      61.51610027      89.08571764
C      80.55164009      61.63704275      85.52169381
H      80.86155521      59.80211850      84.63919162
C      78.15357740      61.45184957      87.18465296
H      78.35388839      60.00620894      88.63974222
H      76.42825728      61.14004474      86.10561924
H      77.65846911      63.08646284      88.33738601
C      79.72393997      63.34535535      83.42787706
H      78.15546713      62.66127441      82.28270291
H      81.40579639      63.24897931      82.23923920
H      79.44992965      65.32200907      83.93054426
C      87.25071987      64.13526094      87.47378109
O      87.07686505      66.50119829      87.45110437
N      89.02517288      62.78032717      88.61895524
H      88.99871671      60.93595430      88.13140584
C      91.31930063      63.54188688      89.89452049
H      90.93379646      65.07823437      91.21165974
C      92.24148707      61.37059134      91.54803101
H      94.13877228      61.53877698      92.33415716
H      92.51360766      59.68873493      90.38962879
C      90.53506421      60.88115224      93.75523136
H      88.59809474      60.71485632      93.07492988
H      90.21570046      62.63292852      94.78702191
C      91.28906500      58.57190667      95.28213021
H      92.99359814      58.81946082      96.40840710
H      91.58764176      56.96752903      94.02924167
N      89.59587023      57.84058260      97.37594696
H      88.27684126      56.51210500      96.99989143
C      89.32941882      59.08402250      99.51511716
N      90.80151562      60.62603918     100.57336388
H      90.37443747      61.44995986     102.24199222
H      92.36053982      61.30256119      99.70597951
N      87.26961714      58.42639775     100.85682284
H      87.04284998      59.48653422     102.42907512
H      86.33042316      56.85603518     100.32014057
C      93.22603448      64.51131648      88.02936063
O      95.08174571      65.61302692      88.90997308
N      92.83486113      64.22218836      85.66531301
H      91.44024311      63.03732996      85.11729238
C      94.63199085      64.83445968      83.68676956
H      95.93779173      66.26498249      84.38974774
C      96.27794247      62.62159017      82.91765094
H      97.63854542      63.31323000      81.53437128
C      97.84452558      61.54066672      85.18154306
H      99.27126895      60.11392335      84.75824438
H      96.60864458      60.42572818      86.39096790
H      98.71379969      63.04677858      86.28514323
C      94.79639704      60.44084600      81.65153431
H      93.46413999      61.07201459      80.21156286
H      93.70224551      59.46007805      83.09528522
C      96.78060967      58.72308478      80.30793891
H      95.54094921      57.27744415      79.52181276
H      98.18656605      57.88404630      81.55704801
H      97.51571321      59.72841917      78.66576675
C      93.27138791      66.05522287      81.40398017
O      94.70569018      67.40448747      80.15865053
N      90.89600193      65.70184405      80.87863626
H      90.00216139      64.17116574      81.58917335
C      89.41634623      66.96985041      78.93410787
H      90.69758067      67.26275798      77.35051723
C      87.26583768      65.04610903      78.01948035
H      85.72193129      65.00642477      79.38008329
H      88.08030973      63.15638272      78.01570090
C      86.23404712      65.85869134      75.54204914
O      87.78740215      65.78499202      73.80539067
O      84.06464131      66.85268738      75.33228952
C      88.49982897      69.60790834      79.75235937
O      88.62266118      71.47495794      78.27837285
N      87.95747751      70.14081117      82.10506864
H      88.19180358      68.65926573      83.28425785
C      87.23938152      72.55210193      83.29370649
H      87.75716653      74.11301588      82.05215630
C      84.35565916      72.73540540      83.79637368
H      83.64134262      71.01953389      84.68643478
H      83.57520220      72.91303966      81.89908847
C      83.43914190      74.94638518      85.35728761
H      84.09109748      74.72528719      87.29614682
H      81.40201694      74.80087625      85.11162319
C      84.13456118      77.48428761      84.18565731
O      84.63344893      77.64680407      81.84995557
O      84.26684203      79.30787351      85.62184931
C      88.93068657      73.09445340      85.65208492
O      90.12121414      75.05787903      85.95066167
N      89.44469212      71.23874215      87.18276324
H      88.42046046      69.64570287      86.96166526
C      91.44780202      71.45606068      89.11217380
H      92.89533237      72.73540540      88.39785725
H      92.05818361      69.55688573      89.62239991
C      90.46325461      72.81477390      91.56503856
O      88.36943785      73.62357676      91.77479818
N      91.78417330      72.68060332      93.71743682
H      93.27894681      71.49952439      93.61728134
C      91.02450332      73.62357676      96.19297829
H      88.97792972      73.78798294      96.34037695
C      91.51205271      71.34645656      98.06380735
H      93.52839069      70.95339347      97.92018814
H      90.63710943      69.65515150      97.27579148
C      90.94135536      71.59967987     100.82091804
H      91.99771237      73.27586711     101.38027702
C      88.25416455      72.09100872     101.48232225
H      87.93102135      73.94105077     100.63572486
H      87.97070560      72.10801625     103.52133693
H      86.99560682      70.65670644     100.70375501
C      91.73126096      69.28098569     102.32702990
H      93.78539346      69.21295554     102.44608267
H      91.04906976      67.55377584     101.43696882
H      90.96970126      69.42649461     104.23565349
C      91.93913086      76.16903810      96.99611197
O      94.23325860      76.56399090      96.67485851
N      90.31207650      77.78475410      98.03546145
H      88.48849061      77.25563073      98.23388271
C      91.19835814      80.10155856      99.43196919
H      93.18446050      79.78030508      99.87416516
C      91.10387183      82.37867876      97.69153127
H      90.46325461      84.23250029      98.32647930
H      89.68846682      81.91569583      96.26856735
C      93.63232563      82.77930075      96.42730435
H      94.14066201      81.00295801      95.52023572
H      95.03261283      83.22149670      97.87105526
C      93.69846605      84.85610997      94.46387871
H      95.66756087      84.97894218      93.86672520
H      92.96525224      86.63056297      95.20654117
N      92.29628913      84.24761809      92.16597153
H      91.00749578      82.83977198      92.14140509
C      92.24148707      85.53452171      90.08727258
N      93.38855094      87.62077955      89.81326226
H      93.53217014      88.49950229      88.12573667
H      94.05940378      88.56753244      91.32693303
N      91.03395195      84.66902706      88.13518530
H      91.02450332      85.64790528      86.49679259
H      90.31018677      82.91347131      87.95188185
C      89.58831132      80.36989970     101.84137025
O      87.31119112      80.24517776     101.86026750
N      90.99048825      80.62312302     103.97109180
H      92.86131730      80.98028129     103.85959794
C      89.69035654      80.85744908     106.45419218
H      87.96125697      79.74062084     106.49765589
C      91.45914037      80.09777911     108.59525208
H      90.69191149      80.49273190     110.46419142
H      93.26382900      81.08610597     108.50076577
C      92.25660488      77.40491911     108.54233976
H      92.94257553      76.92681835     106.66017235
C      94.28617094      76.89091355     110.61914896
H      93.53217014      77.23106429     112.50509583
H      95.86787186      78.17025827     110.28844686
H      95.12709915      75.02197424     110.42639689
C      90.02105865      75.45472155     109.23964876
H      88.73037558      75.37913251     107.63338140
H      89.11210029      76.09155932     110.97441751
H      90.85253823      73.59523086     109.55523306
C      88.70580913      83.51440428     106.76221757
O      87.39244935      83.98494614     108.60281099
N      89.77917368      85.37578469     105.32791529
H      91.09064374      84.96193463     104.00321715
C      88.92690711      88.00439400     105.32602557
H      88.00661040      88.36533172     107.13449364
C      91.11143073      89.84309770     105.32224612
H      92.27928159      89.38578393     106.95685937
H      90.38766555      91.76872882     105.42618107
C      93.13532761      89.51617505     103.27378279
H      92.24904597      89.54452095     101.41429210
H      93.98759418      87.65857408     103.51566776
C      95.18757039      91.50416714     103.32858486
H      96.09085957      91.36054793     105.17484746
H      94.52049700      93.42412907     102.99410330
C      97.00737683      90.92969033     101.14973041
H      96.18723561      90.97693349      99.26000411
H      97.74059064      89.02106675     101.39350511
N      99.15788537      92.73437896     101.00044203
H     100.09707935      92.86288036     102.65962174
H      98.25270647      94.33119770     100.48076729
H     100.44289926      92.34320562      99.64172881
C      87.27339659      88.59965778     103.02055946
O      87.29040413      87.12000208     101.21209139
N      85.89956556      90.76339441     103.11882524
H      85.91846282      91.85943568     104.68162889
C      84.12889200      91.65156579     101.06847218
H      82.91190826      90.08120322     100.52423100
C      82.19948144      93.64522704     101.87160586
H      83.26906653      95.36298826     102.25144085
C      80.39479281      94.03262093      99.69842060
H      78.90001930      95.29873756     100.33336865
H      79.46504746      92.26005765      99.20709177
H      81.45681900      94.83008544      98.12427859
C      80.46093323      92.80240910     104.11093154
H      81.71571150      91.95392200     105.50743930
H      79.09655083      91.30952532     103.72353766
C      79.04741795      95.12299302     105.11059676
H      80.45526405      96.62532545     105.14839130
H      78.28774797      94.80551900     106.99843336
H      77.55264444      95.94124451     103.95597399
C      85.75216691      92.40745631      98.75166773
O      87.28095549      94.15545315      98.86316157
N      85.37989082      91.06008144      96.62950507
H      84.02117760      89.72782439      96.80147017
C      86.31530535      91.77250826      94.15963279
H      87.75149735      93.24838451      94.19553759
C      87.83275558      89.59365383      92.92564151
H      89.28406539      89.06642018      94.29002389
H      88.78517764      90.34009572      91.25890290
C      86.31341562      87.23527540      92.25100921
C      85.42902371      86.65323969      89.83026979
H      85.41390590      87.93636385      88.24289970
C      84.33865163      84.17013932      89.41075055
H      83.72260085      83.59377278      87.55125986
C      84.18747352      82.42970137      91.26079262
O      83.66212961      80.11667637      90.58616033
H      83.51284123      79.76896672      88.81170732
C      84.99060720      83.07220832      93.73633409
H      85.00005584      81.61144988      95.16307746
C      86.01672859      85.52129362      94.21065540
H      86.55908004      86.01262246      96.11549952
C      84.10054611      92.84398308      92.53068870
O      82.25995268      93.83797912      93.48689021
N      84.24227558      92.67012827      89.93987393
H      85.82775596      91.95959117      89.14807860
C      82.40357188      93.72837500      88.06715515
H      80.47227159      93.84931749      88.77202307
C      82.98938704      96.51194186      87.27158038
H      82.23727597      96.87854876      85.38941296
H      85.03407091      96.74437819      87.22244749
C      81.91035331      98.49048532      89.37295604
H      83.02907129      98.49237503      91.10205561
H      79.91291260      98.10876059      89.70743759
C      82.38089517     101.05484391      88.29770175
H      81.42658338     101.17578640      86.47600560
H      84.39345369     101.43089946      88.07849351
C      81.08265319     103.14677095      89.94932256
H      81.40579639     102.67433936      91.92597628
H      79.10788919     103.51526757      89.49578824
N      82.52829382     105.58451789      89.74145266
H      82.71348700     106.23269401      87.95566129
H      84.33865163     105.43333979      90.33104728
H      81.98972182     107.02448934      90.87150899
C      82.25239378      92.16557134      85.56893697
O      84.15912763      91.00716911      84.84517178
N      79.95826603      92.18446860      84.49746215
H      78.54475075      92.59075977      85.71444589
C      79.46315774      91.02039720      81.89152956
H      80.88801138      89.61633054      81.39642127
C      76.82509981      89.82609016      81.94822135
H      75.50229139      91.38700411      82.19388577
H      76.55297922      88.27084541      83.26725032
C      76.05220174      88.62422423      79.37252438
O      77.01596216      86.61166570      78.57694961
O      74.69159880      89.92435593      77.92499402
C      79.62378447      93.17657492      79.83550733
O      79.49717281      95.43290813      80.41187386
N      79.66724818      92.51706043      77.39965012
H      79.28741319      90.70292317      76.94422607
C      80.25306334      94.02884149      75.12819909
H      82.08798759      94.87543888      75.52693134
C      80.41935925      92.42635357      72.70368022
H      81.33776624      93.60365307      71.28449577
C      82.25617323      90.28340393      72.93044739
H      82.99883567      89.77884701      71.07662587
H      81.34721487      88.56753244      73.61830776
H      84.00228034      90.95236705      73.79405231
O      78.19137193      91.54763083      71.74558899
H      78.75073092      90.37033134      70.48325181
C      78.48427951      96.35131512      74.95623399
O      79.34977416      98.34875583      74.23057909
N      76.10511408      96.09809180      75.59685122
H      75.63646195      94.31796961      76.09762868
C      74.17759324      98.04450990      75.60252038
H      74.71805497      99.16889706      73.96223794
C      71.57166065      96.80673916      75.26992856
H      70.17137346      98.30529214      75.07150730
H      71.11623661      95.71825681      76.95934389
C      71.56032230      95.26661223      72.90966040
H      72.80754166      93.63577841      73.06461795
H      72.35589707      96.21525483      71.26181905
C      68.82399860      94.38033058      72.28794043
O      67.98118066      92.50194262      73.52193171
O      67.38969632      95.56896844      70.86119706
C      74.25696175     100.02683280      77.79838237
O      72.92659442     101.93356665      77.72090359
N      75.98228187      99.55629095      79.69188813
H      76.89879913      97.88388317      79.60685044
C      76.74195185     101.32507478      81.66476241
H      76.16936477     103.25448534      81.22445618
H      78.79608435     101.43278918      81.76491789
C      75.86511884     100.32918901      84.25179772
O      76.28463808     101.52160631      86.19443638
N      74.61789947      98.16734211      84.45210872
H      74.34766861      97.22247895      82.81560573
C      73.08722116      97.41523103      86.61395562
H      72.29920529      99.01204977      87.64574619
C      71.01608112      95.78439724      85.48578901
H      69.50996925      95.17212591      86.75190564
H      71.78142028      93.96648052      84.89619440
C      69.50241034      97.05618304      83.38630308
C      68.45172251      95.41212115      81.54381992
H      68.37802319      93.39011399      81.82349942
C      66.98340517      96.41934527      79.65031415
H      65.85712828      95.15322864      78.51080918
C      66.54120921      99.08952856      79.35362713
O      65.25997477      99.88699305      77.44689328
H      65.09556858     101.69168168      77.54515904
C      67.80921557     100.81106922      80.94288694
H      67.69583199     102.83307637      80.68021500
C      69.19816441      99.70179987      82.97434273
H      69.78397956     101.00004185      84.43510117
C      74.60089193      96.00171575      88.71344154
O      76.28652781      94.56363403      87.92164622
N      74.20404941      96.48737542      91.08315835
H      72.59778204      97.47570228      91.38929401
C      75.54764482      95.48015129      93.31492513
H      77.53185745      95.77116915      92.84060382
C      75.03741871      97.00516043      95.73188508
H      76.38290385      96.12454796      97.01878870
H      73.05320608      96.59886927      96.10605089
C      75.90669282      99.74148413      95.74889261
C      74.09633501     101.58963646      95.93975496
H      72.12346074     101.07563090      95.97188031
C      74.70104743     104.14643616      95.99266730
H      73.22328145     105.51081856      96.33092831
C      77.25973686     104.91366505      95.95676251
O      77.84555201     107.34007363      96.11738924
H      76.35833741     108.32651078      95.79046659
C      79.19103715     102.91622433      95.85849673
H      81.16769087     103.34708193      96.11360980
C      78.48050006     100.37454245      95.73188508
H      80.02062700      99.04795457      95.53913299
C      74.99962419      92.67201799      93.90263000
O      72.91903552      91.75361100      94.31836979
N      77.09722039      91.26984108      93.91585808
H      78.79419462      92.14289462      93.97632934
C      77.08210258      88.46926668      93.90829919
H      75.21127353      87.80030355      94.45254037
C      77.69248418      87.65479464      91.20032138
H      79.58787967      88.32564747      90.75812541
C      77.43926086      84.82965379      90.81481720
H      78.77340763      84.06620436      92.18486878
H      78.21782810      84.31753796      88.97800323
H      75.47772494      84.23816945      91.05670217
O      75.94637707      88.77540233      89.44476564
H      76.32999151      90.52528890      89.16319642
C      79.02474123      87.33543088      95.84148921
O      80.87856275      88.52406874      96.41218654
N      78.72238502      85.08476684      96.92052293
H      77.24083959      83.95282079      96.51234204
C      80.59699353      83.84321665      98.66285059
H      82.56797807      84.42147291      98.52679030
C      79.89968452      84.54619485     101.37271811
H      79.59732831      86.57954036     101.24988591
C      77.15769164      83.41235906     102.14750591
H      75.71772019      84.23627973     100.93052217
H      76.81754090      83.95848996     104.10526237
H      77.29942111      81.36011628     102.08325522
C      81.88011769      83.91502626     103.50054994
H      83.70937276      84.10966808     102.57458406
H      81.61744573      81.93648281     104.00888632
C      81.76673411      85.50239636     105.84381057
H      80.11511332      85.32287236     107.05890460
H      81.84043344      87.48660899     105.29390022
H      83.37489121      84.99405998     107.02299980
C      80.73116409      80.94626623      98.42663480
O      79.39512759      79.66314205      96.97343527
N      82.29018830      79.66692150      99.85526789
H      83.64134262      80.56643123     100.85871256
C      82.40357188      77.02886358     100.32014057
H      80.52518393      76.42037170     100.90784544
H      83.84354333      76.70949982     101.76011202
C      83.36922203      75.59078186      98.01656418
O      85.40256754      76.13502302      97.18319489
N      81.93491976      74.11301588      96.75611674
H      80.13779003      73.93727132      97.37216752
C      82.19570199      73.22295478      94.10672045
H      83.82086662      74.23962753      93.35460937
C      82.67569247      70.33356324      93.92908618
H      81.26028746      69.51153231      95.17819526
C      82.29207803      69.29232405      91.36283783
H      82.29963693      67.23063265      91.37039674
H      83.87188923      69.85168303      90.16664109
H      80.61967024      69.99152279      90.38584933
C      85.11154969      69.39247955      95.19709253
H      85.35532438      70.34868106      97.00367088
H      86.74427322      69.57956244      93.95365262
C      85.31186068      66.61269214      96.03613101
H      84.33298245      66.73363462      97.84459910
H      87.15812328      65.90593449      96.61249753
H      84.68636127      65.36736249      94.52057050
C      79.72960915      74.20372273      92.80469902
O      77.86255955      72.89981158      92.77446339
N      80.01306810      76.34100319      91.58204610
H      81.60043820      77.38602185      91.76157009
C      78.15735686      77.39547048      89.75657047
H      77.56398279      76.00652163      88.35628328
H      79.07765357      78.93559742      88.74934634
C      75.80086814      78.44993777      90.90552407
O      74.18137269      79.06598854      89.28413890
N      75.42103315      78.55765216      93.42452925
H      76.87045324      78.05309524      94.56403421
C      73.00407320      79.09055498      94.62261573
H      71.59433737      78.23072951      93.39240390
C      72.99462457      77.72617259      97.31169628
H      74.50262617      78.43293022      98.52112111
H      73.55965274      75.78164420      96.92997156
C      70.49640638      77.73940066      98.77245472
N      68.94305135      75.67581954      99.27323219
H      69.12068563      73.87113091      98.67229922
C      66.85301405      76.34667237     100.40706797
H      65.32611519      75.06732766     100.85682284
N      67.04387641      78.89024399     100.90595573
H      65.99318858      79.86345304     102.16451345
C      69.38146786      79.64991397     100.08392478
H      70.18838099      81.52263274     100.12360903
C      72.32188200      81.82120950      94.76245547
O      73.55209383      83.34621863      95.98510841
N      70.53609064      82.50718016      93.14296003
H      69.99373918      81.23539435      91.82960024
C      69.48351308      85.11311274      92.80469902
H      71.11056743      86.24883825      92.24534002
C      67.39914496      85.39468196      90.66930828
H      65.96106323      83.97171805      91.05481245
H      68.16637384      84.63123253      88.91753199
C      65.95350433      87.83431864      90.28002467
H      64.64581372      88.05730633      91.85605641
C      67.69394226      90.06041622      90.24411987
H      67.06844285      91.40779109      88.81737649
H      69.66303708      89.62010999      89.83026979
H      67.54276416      91.13000132      91.99778589
C      64.63069591      87.49416789      87.75535031
H      63.49497039      85.77829640      87.86117498
H      66.00074748      87.55085968      86.21711308
H      63.18883473      88.93602907      87.47000163
C      68.31566222      86.08632180      95.28213021
O      66.50530441      84.81642571      96.09849198
N      69.24162811      88.22549197      96.27990571
H      70.64569476      89.03240512      95.27079185
C      68.07944643      89.63333808      98.36049438
H      66.78876336      88.31997829      99.28457055
C      70.12224057      90.58009096     100.13494739
H      69.11879590      91.85754595     101.40106402
H      71.34111404      91.87833294      99.09748763
C      71.77386137      88.48816394     101.65995652
H      72.33888954      87.05953084     100.28612549
C      74.11334255      89.99049635     102.59915050
H      75.19048654      90.74827661     101.01555985
H      75.36623109      88.57509134     103.41551226
H      73.66736714      91.45692397     103.97487126
C      70.07310769      87.51495488     103.73298629
H      71.04442701      86.38111910     105.15028101
H      68.48006841      86.42458281     103.01300055
H      69.31910689      89.16279624     104.70808507
C      66.21239683      91.71203703      97.58192714
O      64.00708622      91.29440752      98.08648407
N      66.94750037      93.83986885      96.31203106
H      68.78242462      93.88711201      95.78479742
C      65.12580420      95.71825681      95.22732815
H      63.37213818      94.74126830      94.76245547
C      64.59479111      97.77049958      97.12272365