 %block lattice_cart
   142.669   0.000   0.000
   0.000 146.65   0.000
   0.000   0.000   162.396
 %endblock lattice_cart

 %block positions_abs
N      94.37687780      43.22827388      79.88180562
H      93.82885717      43.08276495      78.05821973
H      94.01971952      41.67680858      80.93438318
H      96.25148631      43.51173283      80.09345497
C      93.34130778      45.42602558      81.04776676
H      93.94413047      45.50161463      83.01497185
C      94.34097300      47.75416840      79.70417135
H      96.39699523      47.86377252      79.71739943
H      93.83263662      49.45492208      80.75107973
C      93.62665646      47.99794309      76.79588255
H      91.64433356      48.33053492      76.34612769
H      94.01782980      46.19514419      75.88125502
S      95.19890874      50.63411130      74.94017131
C      93.89121814      53.49137748      76.16849342
H      93.62665646      54.85387016      74.64537401
H      95.01560530      54.20947348      77.73696626
H      92.08086033      53.14933702      77.08879013
C      90.41601146      45.50350436      81.23862912
O      89.11210029      44.13345278      79.91204124
N      89.48437637      47.17969160      82.88269101
H      90.62199161      47.95447939      84.20738915
C      86.72537596      47.45937109      83.19071640
H      85.77295390      46.78284907      81.49563189
C      85.98082379      45.73972015      85.35445303
H      86.99749655      43.97093632      85.08233244
H      83.95692691      45.35988516      85.33177631
C      86.59120540      46.67324495      88.05298220
O      87.02962189      48.90690145      88.72194532
N      86.61199238      44.98571935      89.84633247
H      87.04473970      45.57720369      91.61133685
H      86.44758619      43.11678003      89.49673310
C      85.94113954      50.30718865      83.45716781
O      87.54173773      51.93424300      83.42126301
N      83.61866591      50.81930448      84.10345421
H      82.27129104      49.48704743      84.32266246
C      82.79474522      53.45358296      84.20360970
H      83.26528708      54.43246119      82.45561286
C      79.95826603      53.36098637      84.14691791
H      79.47827555      52.26305538      82.47073067
C      78.72427475      51.87566149      86.35600797
H      79.00584397      52.79028902      88.17959386
H      79.11733782      49.85932351      86.49962717
H      76.71360595      51.88511012      85.90625311
C      79.01340287      56.13699432      83.64991989
H      79.47827555      57.25004312      85.31854823
H      76.96682929      55.96691895      83.80487745
C      79.61433584      57.59775276      81.22540103
H      81.51351078      58.31584876      81.56555177
H      78.29530687      59.16433588      80.99107497
H      79.41969403      56.33730531      79.60779531
C      83.88511732      54.89733386      86.52986279
O      84.65423592      57.05351158      86.26908056
N      84.27818038      53.61987887      88.71060696
H      83.97204473      51.73582174      88.72950422
C      85.27784560      55.02583525      90.90457921
H      84.05330295      56.66233824      91.16158199
C      84.80352430      53.56696654      93.45948918
H      85.16635175      54.97292291      94.91835790
H      86.24160602      52.14967180      93.86767007
C      82.26184240      52.44446911      93.72783032
C      81.57587175      50.07286258      92.68092194
H      82.88167264      49.25272136      91.34488544
C      79.25717758      48.97493160      93.33098779
H      78.68459049      47.23071421      92.43525752
C      77.39768688      50.19758452      94.81820240
H      75.57977016      49.33586932      95.16213259
C      77.98539177      52.63722119      95.70826349
H      76.56431758      53.70869601      96.70603899
C      80.43636679      53.72381382      95.18669903
H      80.74061272      55.62676822      95.85755187
C      87.97070560      56.04250801      90.61545108
O      89.06296742      57.55239933      92.04597390
N      89.34642635      55.26960994      88.66714325
H      88.66423516      53.72381382      87.78086161
C      91.99960210      56.18045803      88.10967399
H      92.67423439      57.60720139      89.43248241
C      93.87232087      53.93924262      88.48572953
H      93.68334824      53.45925214      90.47750106
H      95.85086433      54.45324818      88.22683702
C      93.10887144      51.61298953      86.90402860
H      93.18446049      52.04384713      84.88958035
H      91.25693965      50.81174557      87.31787866
C      95.05906900      49.39823029      87.10811904
O      94.51671754      47.55952659      88.61234119
O      97.10186314      49.70436595      85.77208254
C      92.03361718      57.52405344      85.60200717
O      93.59831056      59.19268177      85.18815711
N      90.27617170      56.94768691      83.89747404
H      89.04218042      55.60976068      84.46817138
C      89.92846206      58.07774325      81.28965173
H      91.58197259      57.94357268      80.07077825
C      87.88188847      56.60942590      79.85534945
H      86.25105466      56.71336085      81.10823800
H      88.41668101      54.66489752      79.43771994
C      87.25071988      57.94924186      77.33256483
H      88.93446602      57.91333706      76.14581670
H      86.51183688      59.85597571      77.57067034
S      84.76384004      56.45824780      75.59779607
C      84.55785988      58.50482139      72.92194361
H      84.48982974      60.50604156      73.41327245
H      82.98182814      57.80751238      71.79566673
H      86.28695946      58.17600901      71.84857907
C      89.29162429      60.83296421      81.70350179
O      90.49349023      62.46946720      80.69627766
N      87.52284047      61.46791225      83.35512259
H      86.78773693      60.02983053      84.36990562
C      86.85765680      64.08707292      84.08644667
H      86.46081428      64.92800113      82.24774297
C      84.40290232      64.17022088      85.57555100
H      84.32920300      66.05616774      86.39947168
H      84.59565440      62.70379326      87.00796355
C      81.98783210      63.72046602      84.02597543
H      82.23916569      62.15955208      82.70505673
C      79.84488246      63.36330774      85.79286953
H      79.21938305      64.99981073      86.87757243
H      80.49494830      61.80428354      86.97205875
H      78.22160755      62.62064530      84.76485842
C      81.22816212      66.02971157      82.49340739
H      79.56898241      65.36452791      81.46917573
H      82.83442949      66.67032879      81.37090996
H      80.58187571      67.59062551      83.67259661
C      89.02517289      65.57428753      85.47350578
O      89.28595511      67.97801940      85.51885921
N      90.83364097      64.15132362      86.66592309
H      90.79584644      62.26537676      86.37679496
C      93.12965843      65.30216694      87.78086161
H      92.67234466      67.05772269      88.76162957
C      94.14066202      63.56361873      89.85578110
H      95.89810748      64.44423119      90.47372161
H      94.55073262      61.64365680      89.22839197
C      92.46258504      63.07606934      92.06298144
H      90.73915464      62.21435414      91.34110599
H      92.00716101      64.83351481      93.03619049
C      93.62287700      60.96335533      93.63145428
H      95.25182109      61.82318080      94.55175099
H      94.28617094      59.48558935      92.35399929
N      91.94857950      59.79928392      95.49283469
H      91.06040812      58.20624464      94.93914488
C      90.93379647      61.14476905      97.37878156
N      91.74259933      63.48047077      97.84554395
H      91.43835338      64.09274210      99.62755587
H      93.40744820      64.11163936      97.15957330
N      89.31430101      60.26415659      99.07008661
H      89.06674686      61.36586703     100.60832382
H      88.95525301      58.39143781      98.98315919
C      95.21969574      66.04671911      85.91003256
O      96.87131653      67.54716180      86.65647446
N      94.97214159      65.32106420      83.47795480
H      93.50004479      64.20423595      82.99985404
C      96.61053431      66.16199241      81.44649901
H      97.85586394      67.68889127      82.04932170
C      98.22625030      64.00014551      80.41470844
H      99.41299842      64.89020660      78.98796508
C      99.84952520      62.85497137      82.54631972
H      98.58340857      61.80617326      83.78786991
H     100.85296987      64.25714829      83.67259661
H     101.16288499      61.61720063      81.55421341
C      96.51604799      62.19356716      78.95961918
H      95.40866836      63.26882143      77.59523678
H      94.95891350      61.53783212      80.13691868
C      97.64799405      59.88810105      77.49508129
H      99.11442166      60.38131962      76.13447834
H      96.03794724      59.00559887      76.56155649
H      98.64954900      58.66733786      78.81788971
C      95.18001148      67.59062551      79.44149939
O      96.24770686      68.66965923      77.73696626
N      92.65911658      67.66999401      79.64370011
H      91.80496030      66.62875481      80.99674415
C      90.95836291      68.89453666      77.57633952
H      92.00149183      69.10618601      75.81322487
C      88.87966395      66.98591309      76.97729628
H      87.78740215      66.63442399      78.68749859
H      89.51839145      65.18500391      76.20628794
C      87.34709591      68.10652079      74.83434664
O      88.40345292      68.55060647      72.84257511
O      85.04540927      68.58651127      75.27276315
C      89.60342913      71.37385758      78.47584925
O      89.29351402      73.07083181      76.94328121
N      89.25382976      71.61007337      81.00997223
H      89.46358938      70.11907931      82.18538200
C      88.75305230      73.93443674      82.26286078
H      88.87777424      75.60684453      81.06855375
C      86.13767108      73.66609560      83.47417534
H      86.19436287      72.10140221      84.81021185
H      84.65045646      73.16909758      82.13624911
C      85.05485790      75.99801787      84.78564541
H      86.56852867      76.81626937      85.91948119
H      83.69992414      75.32338558      86.18026342
C      84.00228035      77.76869143      82.82410949
O      85.52728948      78.77780528      81.34823324
O      81.74405739      78.47733879      82.91481636
C      90.62010189      74.62418684      84.50596591
O      91.47614791      76.72178305      84.37179534
N      91.36276433      72.98012495      86.18971206
H      90.68624232      71.21890003      85.90814284
C      93.08997419      73.36940857      88.44982473
H      94.94001624      74.07805594      87.88668628
H      93.50193452      71.65164735      89.51185091
C      92.06007334      75.32527530      90.36411748
O      89.70169490      75.82605278      90.40758119
N      93.53405987      76.23234393      92.25573352
H      95.36898412      75.70700002      92.22927735
C      92.39455490      77.21878107      94.67458320
H      90.33664294      77.23011943      94.61033251
C      93.19390913      75.39708490      96.78729722
H      95.18379093      74.99835265      96.42824922
H      92.19046445      73.61318326      96.56241979
C      93.00871595      75.97345143      99.63511477
H      94.39388533      77.45310713     100.00361140
C      90.31585596      76.77469539     100.04707511
H      89.05162905      75.49724040      99.03985098
H      89.83964493      78.48489770      99.00394618
H      89.76594559      76.88429951     102.02939801
C      93.53405987      73.70389013     101.38311161
H      93.27894681      74.04593059     103.39755986
H      95.35764575      72.83083657     100.98815881
H      92.13566239      72.35273581     100.71225877
C      93.25438037      79.84739037      95.26606754
O      95.54850812      80.51068431      95.26795726
N      91.50260409      81.48200363      96.13723137
H      89.74326888      80.76201791      96.26006358
C      92.14511102      83.88762523      97.48271650
H      94.13121338      84.32037255      97.81908779
C      91.20402732      86.07214885      95.81219844
H      91.54606778      87.79746897      96.87989381
H      89.16123317      85.96821390      95.57031347
C      92.58919671      86.28190847      93.28563436
H      92.43423916      84.48855820      92.28218969
H      94.54128400      86.89040034      93.54074741
C      91.63299519      88.43808619      91.64346220
H      91.59520066      90.02356657      92.95493226
H      89.86988055      87.95053680      90.69670931
N      93.50760370      89.08626232      89.59688860
H      93.59642084      87.78613061      88.20038085
C      95.08741489      90.96087082      89.55909407
N      95.33685877      92.69563957      91.34299571
H      96.45368702      94.08080896      90.65513533
H      94.36742917      92.76555945      92.98327815
N      96.39888495      91.08370303      87.62023487
H      97.66500158      92.50855667      87.51063075
H      96.23825822      89.87049874      86.15569698
C      90.72970601      84.00100881     100.00550113
O      88.50360842      83.18464704     100.13211279
N      91.92968222      84.84193702     101.99160349
H      93.81373937      85.04602746     101.75538770
C      90.98292935      85.04602746     104.56352100
H      89.43713322      83.69298342     104.69202239
C      92.95202416      83.97833209     106.37765826
H      92.37943708      84.32226228     108.32785581
H      94.75104362      84.95721032     106.16222946
C      93.40177902      81.14941180     106.10742739
H      93.75893729      80.58438363     104.15911957
C      95.63543552      80.22155618     107.84975506
H      96.44990757      78.58694292     106.89922272
H      95.13087860      79.89274380     109.82073960
H      97.14532685      81.61995365     107.93290301
C      91.10387182      79.59227732     106.69702200
H      89.88499835      79.77747050     105.04729093
H      89.90956479      80.23100481     108.24848731
H      91.52906024      77.59672633     106.98426040
C      89.85287300      87.55747373     105.51027388
O      88.92501739      87.73510800     107.63432626
N      89.63744420      89.46798703     103.76794622
H      90.62010189      89.21098425     102.15223022
C      88.47904198      91.96998467     104.05707435
H      87.23749179      91.96620522     105.70113624
C      90.60876353      93.96364593     104.46903468
H      91.77850412      93.99388155     102.77395018
H      91.69724589      93.40428694     106.12632466
C      89.65256202      96.56012988     105.24949165
H      89.14800510      96.68674155     107.24315291
H      88.12944262      97.19885738     104.01927982
C      91.88999797      98.44040757     104.96414298
H      92.46447477      98.17017670     103.00449679
H      93.39233040      97.80545952     106.22081097
C      90.99237797     101.00854562     105.52161224
H      89.11965919     101.40916760     104.76761144
H      92.42668025     102.16694785     104.59942580
N      91.06229785     101.63215531     108.23147977
H      92.70069057     101.13515729     109.07618743
H      89.66201066     100.72319695     109.15555594
H      90.55018202     103.43495421     108.59430722
C      86.77261911      92.44241625     101.75160824
O      87.33764729      91.48621473      99.76739561
N      84.69580991      93.79735001     101.98404458
H      84.14967900      94.27356105     103.75093868
C      82.88167264      94.30946584      99.86377166
H      82.12767184      92.47832105      99.29496404
C      80.66124423      96.10470584     100.80107591
H      81.61177655      97.82435679     101.41712669
C      78.85655560      97.13838614      98.73182560
H      77.75862460      95.67951742      97.77751381
H      79.88645643      98.29867809      97.37878156
H      77.67736637      98.51032744      99.71826273
C      78.85655560      94.98409814     102.87410567
H      80.01306809      94.32647338     104.44635797
H      78.15168767      93.11515882     102.36576930
C      77.22761151      96.81335321     104.24793670
H      75.62134414      97.28578479     103.04796049
H      78.25373289      98.47253291     104.91123064
H      76.13345997      96.14250037     105.85798352
C      84.28007012      95.59447974      97.59421035
O      85.67468813      97.33869712      97.99672206
N      83.67913714      94.72709536      95.33787714
H      82.34121091      93.36649241      95.36811276
C      84.64478730      95.40172765      92.93792472
H      85.38744974      97.30090260      93.21571449
C      86.83686982      93.60459793      91.95904649
H      88.28440016      93.34192597      93.40090767
H      87.88377819      94.40584189      90.37734557
C      85.91279364      90.87583313      91.40157723
C      85.16635175      90.35426867      88.91847685
H      85.53106893      91.78857094      87.51252047
C      84.13078173      87.96943406      88.31376443
H      83.52228986      87.39306754      86.45427374
C      84.24416532      86.11183310      90.21104965
O      83.57142274      83.71188068      89.44193104
H      83.30875079      83.73077794      87.64858077
C      84.90556953      86.63339756      92.67336304
H      84.79596539      85.44475971      94.32687356
C      85.76917445      89.10138013      93.39145903
H      86.21326013      89.46231785      95.35110522
C      82.39979243      95.92707157      90.98961689
O      80.32298321      94.81969195      91.34677516
N      82.71915617      97.51066222      89.03563988
H      84.47849138      98.15316917      88.67659188
C      80.94470316      97.67317868      86.93048477
H      79.08899193      97.29145397      87.73361845
C      81.04296893     100.15438933      85.52641812
H      79.82976464      99.95029889      83.87101787
H      82.99505621     100.44351746      84.93304406
C      80.13967976     102.36536912      87.03252999
H      81.17902924     102.60725409      88.79375492
H      78.10066507     102.14427114      87.22906153
C      80.61778051     104.98641951      85.75318528
H      80.33054212     105.11681063      83.71795004
H      82.59632396     105.35302642      86.19349151
C      79.01151316     107.05755955      86.87568271
H      80.09810579     108.79799749      86.67159227
H      78.63923707     106.52087728      88.82776999
N      76.68526006     107.28810616      85.60767635
H      75.76118390     105.64404427      85.31476877
H      77.12178683     108.04966587      83.91070212
H      75.59110852     108.39737551      86.70938679
C      81.48705462      95.53967767      85.05587627
O      83.56575356      95.22409338      84.13180010
N      79.48772418      94.33214256      84.17715353
H      77.79641913      95.02756184      84.72517416
C      79.36489197      92.72776492      81.84145181
H      80.57998600      91.07236467      82.00774773
C      76.73817239      91.60337776      81.51074970
H      75.72149964      93.36838214      81.21028322
H      75.92936953      90.86827423      83.25685682
C      76.38857302      89.90073436      79.27142402
O      75.38323863      90.92496602      77.33823401
O      77.27863412      87.68408539      79.36402061
C      80.06220099      94.46820286      79.46795556
O      79.88078726      96.69619018      79.79298849
N      80.61589079      93.53089860      77.16248946
H      80.99572578      91.66762846      77.00564217
C      81.26784636      95.20330639      74.95339940
H      82.82309112      96.51855590      75.26331451
C      82.05019307      93.49688353      72.63092576
H      82.64356713      94.74977208      71.10780635
C      84.43502766      92.08525797      73.50964850
H      85.92413201      93.47231709      73.82712252
H      85.08320380      90.88717149      71.96574210
H      84.05708241      90.95898109      75.19150491
O      80.16235647      91.84337301      71.77487974
H      80.85966548      90.81158244      70.45774050
C      78.97749807      96.84736828      74.15404517
O      79.27796456      98.86181653      72.92194361
N      76.66447308      96.11604420      74.99875283
H      76.34321959      94.44552614      75.86613721
C      74.33633025      97.61648689      74.46962946
H      74.67648098      98.50654799      72.64415384
C      72.02897443      96.03667570      73.76098210
H      70.27908786      97.10059161      73.53610466
H      71.50929969      94.68741111      75.22929944
C      72.59967178      94.39450353      71.39693448
H      74.15491653      93.15862252      71.94117566
H      73.14391294      95.46408862      69.72263696
C      70.25074197      92.80335397      70.63726450
O      70.39436116      90.49410842      70.62025696
O      68.31377249      93.93341031      69.71885751
C      73.86011922      99.74620845      76.48029826
O      71.85511960     100.83658053      76.68060925
N      75.85755993     100.27911127      78.01853548
H      77.41280469      99.17173165      78.03743274
C      75.54764481     102.16505813      80.05377072
H      74.35522751     103.71085425      79.39047678
H      77.45248894     102.88693358      80.36179611
C      74.47239054     101.11248057      82.58033480
O      74.67270154     102.56756983      84.36990562
N      73.35367258      98.88449325      82.50852520
H      73.73350756      97.96230681      80.87958112
C      71.83244288      97.83002597      84.63068785
H      70.80632150      99.46463923      85.34878385
C      69.82177409      95.92518184      83.70472195
H      68.39314099      95.58314138      85.14658313
H      70.73451190      94.13183157      83.25874654
C      68.31755194      96.67351346      81.39169695
C      68.15881493      94.86504538      79.47551447
H      68.92037464      93.02823140      79.93660769
C      66.79632227      95.48676534      77.24752714
H      66.58656265      93.97687401      75.89070365
C      65.69839128      97.91506365      77.01131135
O      64.30944243      98.35348015      75.05355489
H      63.48174231      99.96730643      75.05166517
C      65.76453169      99.71597283      79.01253152
H      64.63447537     101.39593952      78.74796984
C      67.10245792      99.03189190      81.14036335
H      67.14781135     100.31690579      82.72773345
C      73.31965750      96.74721279      86.93993340
O      75.18670710      95.44141191      86.70182789
N      72.60534096      97.13838614      89.29453239
H      71.23717910      98.45363565      89.51563037
C      73.94893636      96.41651068      91.59054986
H      75.94259761      96.79634567      91.23906076
C      73.30076023      98.07758011      93.82798581
H      73.58988835      97.24043136      95.68936623
H      71.28820171      98.42906921      93.56531386
C      74.67270154     100.61359283      93.99050228
C      73.38768764     102.78677809      94.69159074
H      71.36001131     102.86803632      94.91079899
C      74.58577413     105.13003871      94.67647293
H      73.68248494     106.84213075      95.32275933
C      77.22005260     105.26987846      94.13601120
O      78.45215416     107.56400620      93.77129402
H      77.29564165     108.95862422      93.66546935
C      78.47672060     103.10803156      93.56153440
H      80.37022638     103.09480347      92.79808497
C      77.28430330     100.78366819      93.65602072
H      78.30664523      99.09992205      93.11366927
C      73.78641989      93.58948012      92.16691638
O      71.66614698      92.53312311      92.18959310
N      75.96338461      92.47832105      93.06642611
H      77.48083483      93.63294382      93.13634598
C      76.28841753      89.77034324      93.02863158
H      74.45349328      88.85949516      93.24595011
C      77.29375194      89.06547533      90.46805243
H      79.12300700      89.98199259      90.23183664
C      77.42603277      86.22143723      90.12979142
H      75.71772019      85.30114051      90.82332098
H      79.27040565      85.80947689      90.94993264
H      77.63768212      85.77168236      88.13046098
O      75.56276263      89.74577680      88.37234595
H      75.95393597      91.48054555      88.01140822
C      78.20082057      88.99366573      95.11677916
O      79.66157900      90.59804337      96.02195806
N      78.35199866      86.65040510      96.01817861
H      77.27674439      85.28791243      95.22827301
C      80.31353458      85.73955702      97.79452134
H      81.94625811      86.97921748      97.60554871
C      79.29308237      85.83593306     100.61966218
H      78.54853020      87.70298265     101.06752732
C      77.09155121      83.86116906     100.92768757
H      75.55142428      84.31092392      99.63700450
H      76.31298397      84.13895883     102.81552416
H      77.89657462      81.97333247     100.74627384
C      80.93147509      85.20287474     102.99693788
H      81.47004709      83.22055184     103.14055708
H      79.77307285      85.55814329     104.66178677
C      83.22182337      86.96409967     103.10465228
H      84.24038585      86.91118733     104.89422310
H      82.42813832      88.78579583     102.56041111
H      84.65801537      86.24978312     101.81018976
C      81.22249293      83.09394018      97.32397949
O      79.86944889      81.67664544      96.10699575
N      83.28040490      82.27379896      98.49183035
H      84.44636603      83.47755462      99.40645789
C      84.13267145      79.67353555      98.39923376
H      82.65679520      78.53781004      99.27606677
H      85.91468337      79.45621702      99.40834762
C      84.67880236      78.64930389      95.73471966
O      85.90712446      79.90030271      94.16246737
N      83.83220497      76.30793299      95.31897987
H      83.10277061      75.34417257      96.79485612
C      84.03629541      74.96055813      92.93225554
H      85.55941482      75.88274457      91.89479579
C      84.52573453      72.08628440      93.36878232
H      83.08576308      71.12819316      94.48939002
C      84.70714825      70.88630820      90.60789218
H      85.44414152      68.96256681      90.60411272
H      85.95058817      72.08250495      89.48350502
H      82.84954729      71.11307535      89.74617698
C      87.11465958      71.67432407      94.86922501
H      87.09576232      72.71556327      96.64556775
H      88.70958858      72.23368306      93.69192552
C      87.24694042      68.96634626      95.78763200
H      87.71937200      67.73235498      94.20782080
H      85.51028195      68.62997498      96.84587873
H      88.47904198      68.91721338      97.43736307
C      81.50973133      75.67865413      91.66235946
O      79.76551396      74.19332924      91.55842451
N      81.23950047      78.11829080      90.81198262
H      82.74750207      79.28614166      90.91591756
C      79.19481660      78.80237172      89.08477277
H      79.05497685      77.43609960      87.54842527
H      79.60488721      80.65997269      88.29297744
C      76.56431758      79.06126423      90.46616270
O      74.80498237      79.68298418      89.09611113
N      76.40180111      78.80048199      92.95493226
H      77.97783286      78.24301273      93.87900842
C      73.96594389      79.32204646      94.38545508
H      72.79998276      78.02569421      93.29130354
C      74.15869598      78.38474221      97.18980892
H      75.54575510      79.46377593      98.26317347
H      74.68026045      76.39297067      97.12366850
C      71.50740996      78.54725867      98.31797553
N      69.62335282      76.81437964      98.23860703
H      69.84256108      75.11173623      97.40901718
C      67.52386689      77.78191951      99.24961060
H      65.63980976      77.00524200      99.38378117
N      68.14936631      80.16486439      99.90345591
H      66.94372092      81.40641458     100.71225877
C      70.66837148      80.55414801      99.54818736
H      71.90236276      82.12262085      99.97715524
C      72.92092524      82.11506195      94.10010640
O      73.76185345      83.98967045      95.35677440
N      71.17481813      82.44009487      92.38990409
H      70.63624613      80.81681997      91.53952725
C      69.91815013      84.78713495      91.75117659
H      71.52063804      85.91152211      91.10677992
C      68.29865469      84.40541024      89.39468788
H      66.65837224      83.22244157      89.79342013
H      69.30776853      83.33771487      87.95282671
C      67.33300454      86.66363318      87.85645066
H      66.83222706      85.80380771      86.05176203
C      64.78187401      87.58770935      88.88068233
H      63.51575739      86.00411870      89.24728923
H      63.92015882      88.93130476      87.57677117
H      65.34501245      88.49855743      90.63812780
C      69.20950276      88.72154514      87.22150262
H      68.18905055      90.01033848      85.97995244
H      70.86490301      87.96187516      86.25963193
H      70.03342344      89.59270897      88.89580014
C      68.40825881      85.71499057      93.96782556
O      66.90970584      84.43942531      95.29252371
N      68.87124175      88.13572998      94.70859827
H      70.08633577      89.27523495      93.77507348
C      67.63914019      89.27334522      96.90634998
H      66.81521953      87.78424089      98.06475221
C      69.55910214      90.76433928      98.52584543
H      68.55187800      92.05124290      99.77873397
H      70.46050159      92.10226551      97.24839044
C      71.65669834      89.14484383      99.72771136
H      72.40314023      88.07714846      98.13089263
C      73.59555753      90.82292080     101.09398349
H      72.47872929      91.87927781     102.46592479
H      74.52719262      92.02856619      99.70881410
H      74.95805020      89.69286446     102.14467132
C      70.75340916      87.21543327     101.79318222
H      72.38802243      86.35371807     102.70403031
H      69.32477608      85.93041937     101.05429923
H      69.74429532      88.39273276     103.15000571
C      65.49052138      90.99488589      96.15423890
O      63.49686012      90.74922147      97.24272126
N      65.74752416      92.59926353      94.12656257
H      67.53331553      93.03768004      93.61633647
C      63.77464988      94.20742062      93.03996994
H      62.33278871      92.77122863      92.71304729
C      63.00364155      96.23509696      94.84276884