 %block lattice_cart
   142.669   0.000   0.000
   0.000 146.65   0.000
   0.000   0.000   162.396
 %endblock lattice_cart

 %block positions_abs
N      96.11353628      44.28841035      82.84489648
H      95.70535540      43.99739249      84.68548991
H      97.98814478      44.63800971      82.76363825
H      95.74314992      42.95048411      81.53153670
C      94.96080323      46.62411207      82.01530663
H      95.69779649      48.30974794      82.93938280
C      95.51071359      47.13622790      79.24496786
H      94.88143472      45.41279749      78.30766361
H      97.53272074      47.37055396      78.92749384
C      94.14066201      49.31319260      78.14892660
H      92.12810349      48.87477610      78.11302180
H      94.68679291      49.19036039      76.16660369
S      94.68112374      52.42557184      79.42071240
C      98.03349821      52.93390822      78.67049106
H      98.44923800      52.12699509      76.82233872
H      99.21835661      51.94936082      80.03865291
H      98.47002499      54.94646674      78.76497737
C      92.10920622      46.55608191      82.41403888
O      90.79584644      44.75895220      81.55043396
N      90.88088412      48.34187329      83.63858153
H      91.89188770      49.91601531      84.01274734
C      88.03306657      48.62155277      83.95416583
H      87.16757192      47.31008271      82.62379850
C      87.58142198      47.84109580      86.80198338
H      88.00661040      45.84932428      87.11189850
H      85.54240729      47.86188279      87.10056014
C      88.53573377      49.55696731      88.96572001
O      89.64500311      51.47692924      88.47817062
N      87.75338707      49.00138777      91.26362721
H      88.25416455      50.09364958      92.74706236
H      86.20381150      47.90534650      91.45637929
C      86.85576707      51.22370591      83.26819518
O      88.17290631      53.19469045      82.72584373
N      84.41990986      51.28417715      83.17559859
H      83.47126725      49.62688717      83.20583421
C      83.07253499      53.68223984      82.57088617
H      83.89834539      54.32663652      80.79643316
C      80.16802565      53.24949252      82.37057518
H      79.71449134      51.62999706      81.18193733
C      79.24961866      52.24604784      84.99729475
H      79.56898241      53.75404944      86.36167715
H      80.53274283      50.71914899      85.51696949
H      77.29753138      51.58653336      84.95383105
C      78.65435488      55.53795109      81.52397779
H      78.98127753      57.04406296      82.88836019
H      76.62856827      55.17134418      81.46539627
C      79.34977416      56.58296974      78.96339864
H      77.92303079      58.00215420      78.53254104
H      79.16080153      55.13543938      77.50830938
H      81.21493403      57.43901575      79.15237127
C      83.69425495      55.87243263      84.39069261
O      83.94369883      58.22325217      83.85590006
N      84.57864687      55.24504350      86.75851968
H      84.87155444      53.40822952      87.19126700
C      85.42902371      57.20846914      88.66525353
H      84.19692215      58.85631048      88.77674738
C      85.54240729      56.13321487      91.28441420
H      86.34743070      57.43523629      92.66391441
H      86.52128552      54.32474679      91.15969226
C      83.04796855      55.22047706      92.19715201
C      81.36422241      57.07996775      93.12500763
H      82.08231841      58.97536324      93.35744396
C      79.00773370      56.19935530      94.13034202
H      77.72649926      57.60153222      94.87678392
C      78.14979795      53.81263096      93.50673234
H      76.20904903      53.18524183      93.59554948
C      79.64079201      52.09864919      92.16313693
H      78.74884119      50.32986537      91.66802864
C      82.18436363      52.78273011      91.58488068
H      83.36166312      51.52984158      90.48505997
C      88.00094122      58.35175356      87.82243559
O      88.44691663      60.60430732      87.88479656
N      89.72626134      56.78139099      86.87001353
H      89.40311814      54.90678250      86.70749707
C      92.21881035      57.54106097      85.94215791
H      92.91800909      58.97914269      87.23851016
C      93.79673182      55.02961471      85.85334077
H      93.08619473      53.76349808      84.39069261
H      93.67956879      54.05640566      87.66369858
C      96.57840895      55.78928468      85.70594212
H      97.14910630      57.12721092      87.16670056
H      96.83730146      56.77194237      83.91259185
C      98.22436057      53.49515693      85.73995719
O      97.37776318      51.28606688      85.48106469
O     100.62053354      53.77672616      86.06687985
C      92.08275006      58.89410501      83.26819518
O      93.58508247      60.65910938      82.78631497
N      90.34231212      58.03616926      81.71295042
H      89.68846682      56.28439298      82.09467514
C      89.95302850      59.07740847      79.16181990
H      91.62543629      58.97725297      77.96373342
C      87.72504118      57.58263496      77.92404916
H      86.15089916      58.06451517      79.15993017
H      87.95369806      55.57385589      78.31522251
C      87.11843903      58.02105146      75.14804121
H      88.49227006      57.09508557      73.92349856
H      87.34898564      60.03549970      74.78899321
S      83.93236047      57.01949652      74.08979448
C      84.78084758      56.15778131      70.95284880
H      86.30018754      54.76694274      71.01709949
H      85.21737436      57.93790350      70.01743427
H      83.11410897      55.18835171      70.22152471
C      89.09131330      61.84396779      79.48307337
O      90.20814155      63.64676669      78.38892184
N      87.37544181      62.40143706      81.23862912
H      86.53451360      60.93500943      82.12302103
C      86.48916017      64.92233196      81.91893059
H      85.86366076      65.99758623      80.27864815
C      84.02684678      64.54249696      83.49685206
H      83.37678093      66.35852395      84.22817614
H      84.73171470      63.35952830      85.02753037
C      81.73460877      63.19512210      82.15892583
H      82.18625335      61.46224308      81.14603253
C      79.65024064      62.20868497      84.06188023
H      80.42502843      60.69501419      85.22406191
H      78.12901096      61.62664926      82.80332250
H      79.09655083      63.76770917      85.29020233
C      80.59321407      64.99603127      80.23329472
H      79.12300700      63.87353384      79.32433636
H      82.02751634      65.74436289      78.95772946
H      79.77874203      66.68166715      81.09500992
C      88.43935772      66.47379726      83.23984928
O      88.59620501      68.68855650      82.66348276
N      90.08341962      65.14909911      84.60990086
H      89.55429625      63.34252075      84.92737488
C      92.27361241      66.39820821      85.95538599
H      91.51394244      68.02148311      86.96827930
C      93.53405986      64.55005587      87.74873627
H      95.57118483      64.45179011      87.45393896
H      92.86509675      62.61686586      87.52007938
C      93.08997418      65.08862786      90.56631820
H      91.08686429      65.01870799      91.04441896
H      93.63610508      67.01047953      91.06520594
C      94.59986550      63.19134265      92.19526228
H      94.66789565      63.85274685      94.14545984
H      96.38565687      63.02504674      91.17858952
N      93.28461599      60.75359570      92.57320754
H      91.47236846      60.98414231      93.13067680
C      94.22192024      58.39710700      92.79241579
N      96.48959182      57.74893087      92.43903697
H      97.02438436      55.92156553      92.58832535
H      97.86342285      59.05284203      92.19904173
N      92.76683098      56.79272936      93.86955979
H      93.33563860      54.97292291      93.86767007
H      91.17757115      57.35964725      94.76340034
C      94.08019077      67.35818916      83.96550419
O      95.09119435      69.48035182      84.11479257
N      94.38254698      65.86341565      81.93593813
H      93.45658108      64.19667705      82.02853472
C      96.06440340      66.58529110      79.86668781
H      97.70657556      67.28637957      80.89280920
C      97.01682546      64.29116337      78.34734786
H      95.32929986      63.22535772      77.83334230
C      98.26593455      64.97713402      75.90015228
H      99.57929434      66.55127604      76.07211738
H      96.78816857      65.52893409      74.57356441
H      99.36197581      63.49558858      74.97985557
C      98.56451131      62.49781309      80.02542482
H      97.57807417      62.46568774      81.83200318
H     100.38998693      63.38031528      80.39392146
C      99.15977510      59.75204075      79.21284251
H      97.37020428      58.87898721      78.68182942
H     100.04983619      58.58985907      80.66226259
H     100.34841295      59.80117365      77.53476554
C      94.99103885      68.83406541      78.40026020
O      96.22691986      70.66898966      78.04310192
N      92.52494601      68.68288732      77.79932723
H      91.54606778      67.16921654      78.41915746
C      91.04151086      70.61418760      76.44817291
H      92.04684526      70.72757119      74.65293292
C      88.38266593      69.48035182      76.01731531
H      87.16757192      71.06205275      75.50897894
H      87.58898088      68.78304281      77.78609914
C      88.18802412      67.65676593      73.77421018
O      89.49571473      68.11030025      71.95629347
O      86.71781705      65.86341565      73.79688690
C      90.79773616      73.19744348      77.76342243
O      90.72970602      75.14008213      76.45951127
N      90.54073338      73.48846133      80.24274335
H      90.26483334      71.85951725      81.19705514
C      90.15711894      75.92620828      81.58822849
H      90.89600193      77.39263589      80.34667830
C      87.34331646      76.60650974      82.14758747
H      87.19591781      78.35828604      83.21906229
H      86.69136088      75.07205198      83.35890204
C      85.77484362      76.67076044      79.59267750
H      85.46870796      74.72056289      78.99741371
H      86.88222324      77.19421463      77.93727725
C      83.30119188      78.03325312      79.82889329
O      83.17835967      80.16108494      80.92682428
O      81.44926009      77.06004406      78.69127805
C      91.57252395      76.27580765      84.11668229
O      92.40967271      78.39230112      84.65147484
N      91.74826850      74.21033679      85.62468389
H      91.07363620      72.61729750      84.81966048
C      93.39610984      73.99301826      87.76385408
H      94.87954500      75.40464382      87.55031500
H      94.28806066      72.13730702      87.69771366
C      92.07708088      74.48434710      90.14679896
O      90.04751482      75.60495479      90.16002704
N      92.84997894      73.17665649      92.19337255
H      94.61309359      72.48501666      91.95526704
C      91.62732601      72.72123244      94.56686880
H      89.59020105      72.83650576      94.28907903
C      92.47770285      70.13230739      95.50228333
H      94.52805590      70.00758547      95.35488468
H      91.90889523      68.78493253      94.05097352
C      91.62732601      69.31972509      98.09498783
H      92.29817886      70.70300475      99.46503941
C      88.81352353      69.37830659      98.28773991
H      87.92913162      68.23124273      96.82131229
H      88.42990909      71.38141649      97.99294261
H      88.25605427      68.89453667     100.20959157
C      92.55518163      66.77426374      98.97371056
H      94.58474769      66.76670483      98.61655229
H      91.68401780      65.44389641      97.66601996
H      92.02794799      66.43033354     100.93524648
C      92.46636450      74.96055813      96.39990333
O      94.55451207      74.78859304      97.35988429
N      91.12087936      77.06949270      96.39612387
H      89.56941406      77.18287627      95.29063398
C      91.85220345      79.35039235      97.72460147
H      93.90633595      79.34283344      97.88522821
C      91.20591705      81.70310162      96.06731150
H      90.91867865      83.40952447      97.18602947
H      89.38989006      81.32137690      95.17536068
C      93.35075641      82.19632017      94.02073790
H      93.59831056      80.63162680      92.70170893
H      95.05528955      82.57804490      95.11299971
C      92.74037481      84.37895408      92.14612940
H      94.65088811      84.56036780      91.39968750
H      92.04117608      86.08915639      93.05697748
N      91.15300471      83.54747450      89.99184140
H      90.43112926      81.78435984      90.12601197
C      90.91867865      84.77012742      87.82432532
N      92.14511102      86.78457567      87.21394372
H      91.78228357      87.55936345      85.50941058
H      93.46980917      87.56503264      88.34588978
N      89.34264690      83.93486839      86.12924082
H      89.26327840      84.66997192      84.36990562
H      88.41479128      82.31348322      86.52041416
C      90.71458820      79.43165058     100.30974707
O      88.68502214      78.39797028     100.76895056
N      92.23014871      80.49556650     102.14278159
H      93.83263662      81.21933168     101.39822942
C      91.91456441      80.23856371     104.88477447
H      90.28184088      79.08772040     105.38366222
C      94.20680243      78.75512857     105.97892601
H      94.72080799      79.56582116     107.80062217
H      95.93779173      79.16708890     104.94335599
C      93.74004003      75.68621304     106.24726714
H      91.98826374      75.42354108     107.29606525
C      93.64555372      74.49568546     103.60920921
H      94.94190597      75.08150061     102.12010488
H      91.88621852      75.24590679     102.84009060
H      93.48114753      72.44533241     103.72259279
C      95.92267392      74.71678343     107.85920369
H      95.73937047      75.41787190     109.78672453
H      97.68767830      75.39330546     107.03906247
H      95.65811224      72.67587902     107.76282765
C      91.54984724      83.00512305     105.98081573
O      90.89033275      83.29803062     108.13888318
N      91.88243907      84.84004730     104.32541548
H      92.28873022      84.39785133     102.51316795
C      91.07363620      87.40629562     105.03784230
H      89.83208602      87.20220518     106.66867611
C      93.23926256      89.18830754     105.68223898
H      94.39199561      88.20942931     107.07874672
H      92.30006858      90.91929683     106.28695140
C      94.96836214      89.60971651     103.40889822
H      93.84586471      90.71520640     102.08231035
H      95.46913961      87.82581486     102.50560904
C      97.35508647      90.95520164     104.27250315
H      98.25459619      91.90384425     102.68135359
H      98.60986474      89.45097949     104.91312037
C      96.90911106      92.76744917     106.45324731
H      96.25337603      91.86038054     108.18045716
H      95.53905948      94.17529527     105.83152735
N      99.36575527      94.13561103     106.91811998
H     100.91722057      93.05846702     107.18268167
H      99.34307855      95.49054480     108.26171539
H      99.92700398      94.98220842     105.30429371
C      89.17068181      88.54391087     103.02528378
O      89.39177979      87.93541900     100.68202315
N      87.33008838      89.95553643     103.81707910
H      87.28095549      90.30324606     105.69357733
C      85.43469289      91.27645512     102.24104736
H      84.32353381      89.68908502     101.54751780
C      83.66968851      93.02067249     103.86810172
H      84.71470716      94.39450353     104.99059915
C      81.73649849      94.36804737     102.01239048
H      82.74183289      95.87793869     101.03729170
H      80.14156948      95.23921120     102.97993035
H      81.27162582      93.21153485     100.37399776
C      82.12956156      91.32369827     105.70491569
H      83.30119188      90.32592278     107.07118782
H      80.98438742      89.98577205     104.63911005
C      80.67825176      93.17940952     107.40944883
H      79.92803041      91.90006480     108.83808192
H      79.09088165      93.91640278     106.32852537
H      81.97838346      94.48710012     108.33163527
C      86.77450884      92.43674707      99.84487440
O      88.76439065      93.58948013     100.28329090
N      85.69547512      92.27801006      97.49972404
H      84.05897213      91.29913183      97.42413499
C      86.88978215      93.23610129      95.12433807
H      88.18046522      94.81213304      95.43236345
C      88.55274130      91.02323179      94.02640708
H      89.87932917      90.42796800      95.48527579
H      89.60531886      91.52211954      92.32754312
C      87.29418358      88.65540472      93.04185967
C      86.33798206      88.75933966      90.54553121
H      86.57419785      90.41851937      89.38334953
C      84.84887773      86.68064072      89.71405163
H      83.88889676      86.76756814      87.91503218
C      84.75628114      84.45832257      91.20315597
O      83.40701655      82.40419008      90.39624283
H      83.04607883      82.52324284      88.62367955
C      85.65579086      84.55658835      93.62200565
H      85.30052232      82.77457644      94.55175099
C      86.83120063      86.65985373      94.68025238
H      87.61732678      86.75056059      96.56241979
C      84.77139895      94.12238294      93.34799533
O      82.65490548      93.02067249      93.38012068
N      85.37611137      96.15194901      91.97794375
H      87.17324109      96.74721279      91.73794851
C      83.56953302      97.38594029      90.24128527
H      81.62500464      97.06657653      90.84032851
C      83.99094198     100.24320647      90.24128527
H      85.89767583     100.60036475      89.55342489
H      83.76606455     100.78555793      92.21415954
C      82.26184241     101.80978959      88.59533365
H      80.30786540     101.50932309      89.17358991
H      82.61333150     101.34113746      86.62056966
C      82.59821369     104.60847426      89.14902346
H      82.77962742     104.95240444      91.17103062
H      81.02218195     105.85191416      88.68226106
C      84.95470240     105.80656074      87.92637054
H      84.83753937     105.19239968      85.96294490
H      86.70647869     105.03366268      88.68981997
N      84.77895786     108.60335568      88.11534317
H      84.80730375     108.89626326      90.00129003
H      83.17080076     109.32712086      87.38968827
H      86.32286425     109.30444413      87.23284098
C      83.92480156      96.19541271      87.61456570
O      85.96759571      96.07824968      86.51096553
N      81.68358615      95.42818383      86.72261488
H      80.19448182      95.77022428      87.86778902
C      81.11477853      94.92929607      84.00329871
H      82.80041441      93.93718976      83.35701231
C      79.00962342      92.85248686      83.80298772
H      77.35989235      93.50633217      84.84800638
H      79.77685231      91.21409415      84.78564541
C      78.49561786      92.17974430      81.06666402
O      80.13779003      90.93063520      79.92904878
O      76.47550044      92.92996564      80.03865291
C      81.06753538      97.16862176      82.18538200
O      80.64234696      99.37204263      82.81277114
N      81.70248342      96.75477170      79.73629670
H      81.67413752      94.96898033      79.05788495
C      82.08798759      98.57079868      77.71239982
H      83.50528232      99.83313586      78.50986432
C      83.11032952      97.32357932      75.17449738
H      82.82498085      98.54056307      73.53421494
C      85.89956556      96.75477170      75.45039742
H      86.67246362      95.77211401      73.81200471
H      86.06019230      95.36582286      76.96217847
H      86.94458421      98.46308429      75.92849818
O      81.92169167      95.05779747      74.49608563
H      81.99161154      94.95953170      72.68383810
C      79.91858178     100.33202361      77.16248946
O      80.24739416     102.15371977      75.78109953
N      77.63579239     100.00699067      78.32278142
H      77.15391218      98.34592124      79.12969455
C      75.42103315     101.73231080      78.15081632
H      75.91047227     102.99464798      76.59746129
C      72.97383758     100.29989826      77.33445455
H      71.40725446     101.53577927      77.84468066
H      72.97950676      98.75599186      78.69505750
C      72.83399783      99.42684471      74.56600551
H      74.47239054      98.27033220      74.09735338
H      72.70171699     101.24287168      73.60035536
C      70.39058171      98.04545477      74.07278694
O      68.57644445      99.25110016      73.23941763
O      70.46617076      95.68329687      74.07467666
C      75.17536873     103.04756031      80.70005712
O      73.43493080     104.54989274      81.01375169
N      76.75329020     102.65827669      82.62946768
H      78.05342191     101.33924773      82.16648474
C      76.76273884     103.69573645      85.16359067
H      76.15613669     105.66294154      85.22595164
H      78.76395900     103.48975628      85.60956608
C      74.91647623     102.46174516      87.10244987
O      73.50674040     103.63526520      88.56320831
N      74.90135842      99.93329136      86.78686557
H      76.11645244      99.16228301      85.53208730
C      73.40469518      98.21930959      88.42336856
H      72.06865867      99.32479948      89.53263791
C      71.85322987      96.40328261      86.71127652
H      70.53798036      95.46219890      87.98684178
H      73.21761227      95.00299541      86.06687985
C      70.13168920      97.37082247      84.56643715
C      69.74996449      95.91762293      82.37246491
H      70.51908310      94.02789662      82.42348752
C      68.15125603      96.78311758      80.48084887
H      67.67693472      95.47164753      78.98985480
C      67.34056344      99.36070428      80.48273859
O      65.78720841     100.24131675      78.69316777
H      65.50941864     102.03277729      78.73852121
C      68.00007792     100.84980862      82.54254027
H      67.16103944     102.70929931      82.55765808
C      69.30587880      99.87848929      84.59667278
H      69.76319257     101.25043059      86.03664423
C      75.19804545      96.79445595      90.24884418
O      77.01029298      95.76455510      89.49862283
N      74.63868646      96.83791966      92.73194455
H      72.92848415      97.57113347      93.15335352
C      76.05787092      95.68896606      94.68214211
H      78.01940683      96.00077090      94.13790093
C      75.74984553      97.04767928      97.23516236
H      76.42636755      95.88927705      98.79796602
H      73.78264044      97.53522867      97.60932817
C      77.52807799      99.24732071      97.61877680
C      76.59266347     101.79467177      97.87388985
H      74.60467139     102.23875745      97.77562408
C      78.29908633     103.82423784      98.00239124
H      77.70760199     105.73097169      98.42380021
C      80.91068809     103.35180625      98.24238648
O      82.55286026     105.34546752      97.94758918
H      81.79319028     106.94984516      98.31986526
C      81.76673411     100.89516205      98.12522345
H      83.77362346     100.53233460      98.03640631
C      80.17369483      98.85425763      97.62066652
H      81.07509428      97.02878200      97.48838568
C      75.45126877      92.83547933      94.91079899
O      73.36312120      91.83392438      95.25661891
N      77.48272456      91.38605924      94.84843802
H      79.12111727      92.18163402      94.27585095
C      77.43926086      88.50989580      94.76717979
H      75.60622633      87.65007032      95.14512505
C      78.50884595      87.77668198      92.11022460
H      80.55541955      87.66707786      92.30297668
C      77.46571702      85.37483984      91.11811828
H      77.47138620      83.96321429      92.61856097
H      78.89623984      84.94020278      89.69893382
H      75.61567496      85.81136661      90.32632296
O      77.96082532      89.36405208      90.03908456
H      78.86222477      90.91929683      90.27530035
C      79.28174401      87.41574426      96.72871570
O      81.04485866      88.72910404      97.44303225
N      78.96426999      85.01768157      97.39200964
H      77.59421841      84.12384101      96.41124168
C      80.80297369      83.41897311      98.85276808
H      82.58120615      84.43564586      98.61844202
C      80.11700304      83.57771012     101.63255549
H      79.85433108      85.54869466     102.17112749
C      77.67925610      82.15096675     102.17490694
H      76.03330448      83.23000047     101.56830479
H      77.67169719      81.72955778     104.19313464
H      77.59988759      80.29336579     101.29051502
C      82.00861908      82.41741816     103.37488315
H      82.27129104      80.43320553     102.88733376
H      81.23572102      82.43064625     105.28350672
C      84.56163933      83.70621150     103.53173043
H      84.26306257      85.69042414     103.99849283
H      85.56697373      83.59471765     101.73838016
H      85.72382101      82.81237096     104.97737106
C      80.90312919      80.68831859      97.72082202
O      79.25339812      79.96266368      96.12022383
N      82.80041441      79.13874301      98.36332897
H      83.85677141      79.73967597      99.83353604
C      83.30497133      76.57249468      97.41090690
H      81.54563613      75.58416781      97.82286724
H      84.98493802      75.76936099      98.28585019
C      83.82842552      76.22667476      94.63678868
O      85.44981070      77.55704209      93.53129878
N      82.31097529      74.73946015      93.32720834
H      81.07509428      73.74168466      94.38356535
C      82.09932594      74.46544984      90.50206750
H      83.43914190      75.80148634      89.68948519
C      82.82309112      71.80282546      89.57799134
H      81.38122994      70.43277389      90.11467361
C      82.99505622      71.72156723      86.68104090
H      83.32575832      69.79404639      86.03097505
H      84.44447630      73.10673662      86.20860932
H      81.17147032      72.32061047      85.93459901
C      85.23816135      70.98268424      91.05764704
H      84.58998522      70.08317451      92.79241579
H      86.44191701      72.59462079      91.50551218
C      87.05040888      69.17988534      89.81420713
H      88.22959810      68.14242558      91.14457445
H      88.00472067      70.06994642      88.21738839
H      86.07719983      67.54338234      89.02997071
C      79.33276662      75.22511981      89.91814207
O      77.75484515      73.65853670      90.42836818
N      78.83009942      77.57404962      89.09800085
H      80.33243184      78.74001076      88.93737412
C      76.34888877      78.36017577      88.26652128
H      75.70638183      77.25279615      86.65080528
H      76.43392646      80.19887947      87.34622456
C      74.12279118      78.68898814      90.07687908
O      72.00629771      78.99134436      89.21327416
N      74.71427551      78.56615593      92.56753836
H      76.50951551      78.05970928      92.97382952
C      72.83399783      79.07260258      94.49316948
H      70.93293316      78.63796554      93.82798581
C      73.26674516      77.47767357      96.80808421
H      74.87679198      78.11073190      97.92491246
H      73.95649526      75.58605754      96.37155743
C      71.24095855      77.40964342      98.77339958
N      69.98995973      75.31582667      99.65779149
H      70.43593514      73.54704285      99.09654278
C      68.39692045      75.96022335     101.52673081
H      67.21773123      74.68465809     102.59820563
N      68.98462533      78.46033125     102.03695692
H      68.14369712      79.50912937     103.39000096
C      70.77797560      79.38629716     100.30218816
H      71.65102916      81.22689059     100.20959157
C      72.69793754      81.94876604      94.97882914
O      74.04720212      82.87473193      96.53974307
N      70.82332903      83.10905799      93.79963992
H      69.78964874      81.97522221      92.66391441
C      70.23562415      85.75467483      93.99806118
H      72.04598196      86.63717702      93.56153440
C      68.28731632      86.65418456      92.09699651
H      66.45428180      86.37639479      92.99461651
H      68.36479510      85.28035353      90.56253875
C      68.57455472      89.42263361      91.12378746
H      68.71628420      90.86449477      92.58643563
C      70.78175506      89.45286923      89.27185567
H      71.12190579      91.40306677      88.69737887
H      70.65325367      88.09982519      87.72228010
H      72.53731080      88.97287874      90.23372637
C      66.17838176      90.15584741      89.69137492
H      66.09523380      88.90862805      88.05487193
H      66.05365982      92.16273675      89.24162005
H      64.52109178      89.65695967      90.80820317
C      69.38713704      86.51812426      96.63044994
O      68.44227388      84.98177677      98.14601044
N      69.48918226      89.04657807      97.25594935
H      70.12224057      90.43741664      96.11266493
C      69.11123699      90.16907550      99.79196206
H      68.13613822      88.68753007     100.84264989
C      71.58488874      90.76433929     101.18469035
H      70.87624137      91.77156341     102.83631115
H      72.82265947      91.91707234     100.01117031
C      73.07210335      88.50422662     102.23348845
H      73.24028899      87.37794973     100.51950669
C      75.65157976      89.19586645     103.30496327
H      75.61189551      90.81725162     104.57296963
H      77.02919025      89.64184186     101.84042538
H      76.49439770      87.59526826     104.29140041
C      71.73228739      87.06992435     104.45580660
H      71.91370112      88.28879782     106.10553767
H      72.56376697      85.21799256     104.81485460
H      69.74807476      86.68630990     104.06652298
C      67.18560588      92.38761419      99.57842298
O      65.64358921      92.73721355     101.26972804
N      67.49363127      93.97687402      97.66601996
H      69.00163287      93.81813700      96.50572800
C      66.01397557      96.30312711      97.09343288
H      64.02031431      95.83825443      97.31075141
C      66.41270782      98.17206642      99.24016197