 %block lattice_cart
   142.669   0.000   0.000
   0.000 146.65   0.000
   0.000   0.000   162.396
 %endblock lattice_cart

 %block positions_abs
N      92.09975759      42.28907990      76.22140576
H      93.79295237      42.31364634      75.34079330
H      90.71080875      42.01506959      74.94395077
H      92.10164732      40.74706323      77.34768264
C      91.78417329      44.47927270      77.87491628
H      93.43201465      44.21849047      79.08056167
C      91.78795275      46.99827787      76.26864892
H      89.87743946      47.75983758      76.14392698
H      92.76116181      46.74127509      74.47340892
C      93.35264614      49.06941791      77.63681077
H      95.38977110      48.76706170      77.58011898
H      92.96147279      49.26972890      79.64747956
S      93.10509200      52.31407799      76.46707018
C      94.97970050      54.02994948      78.74230066
H      93.82318800      54.32663651      80.42037763
H      95.37087385      55.94991142      78.10357317
H      96.62943157      52.84131163      79.05977468
C      89.28028593      44.26573362      79.33000554
O      87.46236923      43.01851426      78.59490201
N      89.29918320      45.67735918      81.46350655
H      90.94702455      46.52962575      81.91326141
C      87.28284522      45.72082289      83.41559383
H      85.84098404      44.38100693      82.81277114
C      88.42801937      44.70037068      85.91192229
H      90.23081827      45.57342423      86.38813332
H      88.95525301      42.72749641      85.64358116
C      86.43624783      45.10099265      87.96794452
O      86.20948068      47.03229295      89.16792073
N      85.12855723      43.12433893      88.51974460
H      83.90968376      43.17158209      89.98995168
H      85.12099832      41.69003666      87.26307661
C      86.19058341      48.45714659      83.63669181
O      87.50583292      50.39222633      83.67259661
N      83.69425495      48.54596372      84.02975488
H      82.73427398      46.90001210      83.94093775
C      82.14845883      50.78717913      84.00896790
H      82.25617322      51.35598675      82.03231417
C      79.31197964      50.11632629      84.49084811
H      78.72805421      48.91068090      82.92615472
C      78.93403438      48.69903155      86.97205875
H      80.35699829      47.23638339      87.24984852
H      77.04997724      47.86944170      87.05898616
H      78.88490149      49.93302284      88.62367955
C      77.94192806      52.72981778      84.45872276
H      78.52963295      53.93924262      82.89780882
H      78.65246515      53.74649054      86.10089492
C      75.07899270      52.66934654      84.81777076
H      74.50451589      54.53828586      85.46405716
H      74.64246592      51.10843260      86.09144629
H      74.24373367      52.12888481      83.01497185
C      83.02151238      52.87343698      85.83633324
O      83.05174801      55.18457226      85.21650301
N      84.00039062      52.08542111      88.06998974
H      84.25172421      50.21081260      88.30998498
C      84.88100307      53.90900700      89.97294414
H      83.58843028      55.51149491      89.95593660
C      84.93958460      52.63533146      92.68470140
H      85.88822720      53.93546317      93.97349474
H      85.91846283      50.83253256      92.85477677
C      82.32042393      52.33108553      93.88467761
C      81.19792649      49.92546393      94.20971053
H      82.12200266      48.41179315      93.20059668
C      78.70726722      49.56830566      95.24717028
H      77.82098558      47.73149168      95.33598742
C      77.40902524      51.86432313      95.72716076
H      75.48717358      51.60732035      96.36210880
C      78.52018430      54.33797487      95.48527579
H      77.54130607      56.08975116      95.86133133
C      81.06564565      54.56096258      94.63678868
H      82.08420814      56.31840805      94.44025714
C      87.52850965      54.90300304      89.13201593
O      88.07275083      57.09886502      89.43248241
N      89.08564412      53.39689117      87.93581917
H      88.42612965      51.87944094      86.98150739
C      91.63488492      54.15278169      86.95694094
H      92.62321178      54.91812085      88.59344393
C      93.21658584      51.87944094      86.14435863
H      95.17623203      52.41801294      85.80609762
H      92.54384328      51.01772574      84.39825152
C      93.05973857      49.72326322      88.10778427
H      94.29561957      48.13778284      87.65802941
H      91.07741566      49.16390423      88.13613016
C      93.95546884      50.45647703      90.79686481
O      95.43512453      52.27439374      91.09922102
O      93.64744344      48.82942267      92.42013971
C      91.51772189      56.16345049      84.85745501
O      92.99359814      57.87365280      84.89713926
N      89.59020105      55.71180590      83.26819518
H      88.78139819      53.98648578      83.39858630
C      88.82675163      57.43145685      81.18571678
H      90.57663819      57.73759251      80.14447759
C      86.87088489      56.08975116      79.43016104
H      85.25138943      55.59653260      80.60368108
H      87.93102135      54.50805024      78.64592462
C      85.88633748      57.86798363      77.31744702
H      87.46236923      58.06451516      76.00786669
H      85.58020182      59.76904830      78.05066083
S      83.13111652      56.68123550      75.59590635
C      80.50628667      57.46736165      77.70673064
H      80.66691341      56.48848342      79.51330900
H      78.61845007      57.38988287      76.88658942
H      80.79730452      59.39299276      78.37191430
C      87.87243983      59.93534421      82.04932171
O      89.08186467      61.80806299      81.50130108
N      85.88066829      60.03549971      83.64803017
H      85.10965996      58.38387891      84.21305834
C      84.75817087      62.48269528      84.40770015
H      84.25172421      63.63353861      82.77875607
C      82.30152667      62.07262467      85.68704486
H      81.60421766      63.86219549      86.43726621
H      82.88167264      60.76493406      87.16670056
C      80.18881265      61.00870876      83.89369459
H      80.81053260      59.44212564      82.70883619
C      78.04019382      59.99581545      85.39980646
H      76.59644292      59.27771945      84.11857202
H      77.09344094      61.63420817      86.21238878
H      78.73183366      58.61253579      86.75851968
C      79.13623509      63.05528235      82.08711623
H      77.75295543      64.12108799      83.17937804
H      78.11578288      62.24458977      80.49218723
H      80.67447230      64.17211061      81.29343118
C      86.70458898      64.05116812      85.97239353
O      87.01828353      66.25080955      85.30343042
N      88.38266594      62.82284602      87.55598418
H      88.15400905      60.93878888      87.75251572
C      90.59175599      64.07195511      88.71816587
H      89.90200590      65.69145056      89.78964069
C      92.11298568      62.35986307      90.50206751
H      93.91011540      63.33685157      90.73072439
H      92.63266042      60.56840253      89.62523450
C      90.90545056      62.28049457      93.09666173
H      88.96470164      61.58885474      93.10422064
H      90.89978139      64.22124349      93.78452211
C      92.21692063      60.74414707      95.10355108
H      91.35142598      61.00870876      96.95548287
H      94.15389010      61.43200745      94.97127024
N      92.34920146      58.19868573      94.33065302
H      93.14855569      57.78294594      92.64690687
C      91.34575679      56.28817243      95.59110047
N      89.98704358      56.33919504      97.62822543
H      89.25194004      54.74237630      98.37277760
H      89.73382026      58.04183845      98.45592556
N      91.87676988      54.03939811      94.73505445
H      91.31930063      52.37076978      95.47582716
H      93.20902693      53.86932275      93.38012068
C      92.46447478      65.44578614      86.85111627
O      93.74759894      67.19000353      87.71472120
N      92.73848509      64.64076273      84.56832688
H      91.75393768      63.09118715      84.04676242
C      94.38443671      65.97868896      82.59734234
H      95.01182585      67.82495157      83.25874655
C      96.84486036      64.36297296      82.02097581
H      97.88232011      65.36074846      80.54887902
C      98.52671678      64.31006063      84.41525905
H      99.97235742      62.96079604      83.84078225
H      97.38721182      63.39732282      85.86845859
H      99.46213131      66.08829309      84.86879337
C      96.11542600      61.77215819      80.97973662
H      94.42601068      61.13343069      81.96995320
H      97.67256049      60.50037238      81.42382230
C      95.47291907      61.70790749      78.08089645
H      93.65878180      62.65277065      77.82956285
H      95.14788613      59.90510859      77.13792302
H      96.93745695      62.73402888      77.06044424
C      92.81596387      66.96890555      80.31077350
O      93.99137364      68.45800988      78.88403013
N      90.38577582      66.34718559      80.02164537
H      89.72626135      64.89398606      81.06855375
C      88.60943310      67.60574332      78.25664100
H      89.73759971      68.19155847      76.63336610
C      86.59687457      65.87664374      77.27209359
H      85.18146957      65.81050332      78.76497738
H      87.50772266      64.03794004      77.10012849
C      85.30430177      66.62308563      74.74741924
O      86.62899992      66.95945692      72.77265524
O      82.97993841      66.92733157      74.80978020
C      87.43780277      70.22868344      79.00308289
O      86.88789242      71.64597817      77.22674016
N      87.33008839      70.66143076      81.48051409
H      88.19747276      69.42554976      82.65025468
C      86.45703482      72.94422015      82.56710672
H      86.47404237      74.38608133      81.09878937
C      83.81708717      72.51525228      83.75574457
H      83.81708717      70.99591232      85.14658314
H      82.60766233      71.71211859      82.29309640
C      82.57742670      74.92843278      84.77997623
H      83.95503719      75.61629316      86.14813808
H      80.92769563      74.19899842      85.77397227
C      81.84421289      77.01469063      82.86568348
O      79.62000503      77.52302701      82.65592386
O      83.49772341      78.09750381      81.56933123
C      88.30329743      73.92498811      84.58155497
O      88.92123793      76.15486516      84.44360495
N      88.98548863      72.29604402      86.37868469
H      87.90078572      70.73513009      86.53931143
C      91.00182660      72.72501190      88.28541854
H      92.70447001      73.35240103      87.31031976
H      91.53850887      70.97701506      89.23595088
C      90.28373060      74.60906903      90.43781681
O      88.45258581      76.05281994      90.21671883
N      91.71047398      74.66387109      92.55620001
H      93.36398450      73.71144903      92.52785411
C      90.81285397      75.56716027      95.08276409
H      88.79462628      75.23078899      95.31897988
C      92.05251444      74.06860731      97.16146303
H      94.05562432      74.15931417      96.69470063
H      91.43646366      72.10896112      97.02918219
C      91.62354656      74.82260811      99.84676412
H      92.38132681      76.73879059      99.85999221
C      88.76628038      74.81693893     100.42313065
H      88.25038510      72.82327767     100.40990257
H      87.58331170      75.78258907      99.04174072
H      88.43179882      75.77691989     102.21648092
C      93.03895157      72.83839548     101.60609932
H      93.80051127      73.94577510     103.16701326
H      94.70946964      72.11463030     100.64233890
H      91.67267944      71.51180760     102.39033574
C      91.44591228      78.42631618      95.26417782
O      93.55295713      79.19543479      95.03741066
N      89.69035655      79.75668351      96.43202868
H      87.94424943      78.99134435      96.33754236
C      90.09664771      82.27001950      97.55074665
H      92.04873499      82.20387908      98.20837141
C      89.63366476      84.36383626      95.64779226
H      87.90078572      85.36917066      96.13156219
H      89.44091267      83.70999096      93.70326388
C      91.86165207      86.16285571      95.89912586
H      93.65500235      85.22177201      95.51740114
H      91.88810825      86.95654076      97.79830080
C      91.91078497      88.55146977      94.10010641
H      93.61531809      89.61538568      94.55742017
H      90.24215663      89.55869389      94.76529007
N      91.75015823      88.02234640      91.28063475
H      91.12276909      86.31970299      90.68537096
C      91.10954101      89.83270421      89.71216191
N      91.34953624      92.15517785      89.97672359
H      90.50671832      93.33247734      88.73328368
H      92.16967747      92.72209574      91.60566767
N      90.13633196      89.37161099      87.62023488
H      89.71303327      90.97598863      86.67348200
H      90.01727920      87.56503263      87.01363273
C      88.61510227      82.55725790      99.98471415
O      86.40601222      82.14340784     100.02628812
N      89.99271276      82.92386481     102.08231035
H      91.86354181      83.20732376     101.83853566
C      88.97981946      82.82181959     104.76005254
H      87.22804315      81.74467559     104.61454361
C      91.21725541      82.09616468     106.50049047
H      90.88088412      82.69898738     108.44123940
H      92.96903170      83.02591003     105.94113148
C      91.89377742      79.20110397     106.39277607
H      92.52683574      78.50757442     104.55785182
C      93.95168939      78.56048675     108.32785582
H      93.28650572      78.71544431     110.27049447
H      95.69968622      79.64518966     108.21069279
H      94.32018601      76.57438440     107.92156466
C      89.54295790      77.53058591     107.09764399
H      87.98204395      77.97467160     105.82963763
H      88.94958383      77.97845105     109.01760592
H      90.12688332      75.55393219     107.06173919
C      88.23904673      85.52979739     105.62932664
O      86.48916017      85.91530156     107.07685700
N      89.41823596      87.51401002     104.57863881
H      91.03773140      87.34960383     103.58086332
C      88.12755289      89.84971175     104.31029768
H      87.09954176      89.81380695     106.09608904
C      90.05696345      92.08525797     104.35187165
H      90.94513481      92.29123814     102.50560905
H      91.63110546      91.63928256     105.60287047
C      88.88533313      94.57402753     105.11343136
H      87.78362269      94.19041309     106.81040559
H      87.85165284      95.16362214     103.43157494
C      91.04151086      96.57146824     105.54617868
H      92.39644462      96.67540319     103.99849283
H      92.02227881      96.03856542     107.27716799
C      90.06830181      99.30590222     105.96569793
H      88.75872147      99.34558647     107.55495776
H      89.12154893     100.11470508     104.32541549
N      92.07519115     101.14271619     106.68568365
H      91.43457394     102.85669796     107.23370428
H      93.29028518     101.50554364     105.25894028
H      93.04273102     100.26210373     108.07652222
C      86.12633271      90.11238370     102.25238572
O      86.39656358      89.27712467     100.09620800
N      84.12133310      91.52022981     102.97615090
H      84.06653103      92.24777444     104.73737582
C      82.29207802      92.60871216     101.16579309
H      81.15068333      91.15362290     100.25872446
C      80.33054212      94.29812749     102.64544879
H      79.76740367      93.34381570     104.38021755
C      81.17524977      96.85681691     103.42968521
H      79.75606532      97.92073283     104.47281414
H      81.68925534      97.93018146     101.74782880
H      82.95726169      96.69996963     104.45013742
C      77.82287529      94.40773161     101.27917667
H      77.19926562      92.47832105     100.92768758
H      78.28396851      95.34314614      99.50094421
C      75.75740444      95.71353250     102.63411044
H      75.63268250      95.06913582     104.58430799
H      73.93003910      95.49432424     101.70814454
H      76.07865792      97.74876773     102.63222071
C      83.52417959      94.06191170      99.02284345
O      85.40256755      95.41117629      99.31197158
N      82.34310064      93.80490892      96.85721710
H      80.97493879      92.47832105      96.75706160
C      83.00072539      94.99165704      94.49127975
H      83.97015500      96.77366896      94.84276885
C      85.00383529      93.27956500      93.13634599
H      86.58742593      92.77878753      94.35332973
H      85.99594161      94.30568639      91.64913138
C      83.98527280      90.69441941      92.09132734
C      83.66212960      90.58292556      89.50240229
H      83.84543306      92.29690732      88.40825075
C      83.37867066      88.16785533      88.40447130
H      83.20292611      88.25856219      86.37301551
C      83.27284599      86.00789815      89.88034755
O      82.96671033      83.67786561      88.76162957
H      83.32197888      82.31348321      89.90302427
C      83.52228985      86.19498106      92.52785411
H      83.82842553      84.63595685      93.81097828
C      83.94936800      88.56280813      93.65602072
H      84.57864686      88.69130952      95.59110047
C      80.60644215      95.43007355      92.74328291
O      78.63356788      94.35859873      93.10044119
N      81.04107921      96.92862651      90.84977715
H      82.72671508      97.75821637      90.51718532
C      79.21938305      97.58058209      88.86556452
H      77.30698001      97.00988475      89.37579062
C      79.19670633     100.48509144      88.55564940
H      80.66313394     101.08413468      87.23851016
H      79.85055163     101.29389430      90.33388186
C      76.53786141     101.36570390      87.79786915
H      75.37379000     100.97264082      89.45326940
H      75.99173050     100.40005375      86.06121067
C      76.55864840     104.26832351      87.35189374
H      76.78163610     105.19617913      89.17925909
H      74.82765910     104.78799825      86.36923606
C      78.74128229     105.38515177      85.62468389
H      78.43892608     104.69351193      83.70661169
H      80.73683328     104.93539690      85.84389215
N      78.75262065     108.20084397      85.38279892
H      77.24083960     108.84335092      84.41147960
H      79.91102288     108.82634338      84.00329872
H      79.13245564     109.17972220      86.97772793
C      79.83921327      96.19919216      86.28608810
O      82.04641360      95.83447498      85.82499488
N      77.89468490      95.64739207      84.80454267
H      76.29030725      96.43351822      85.47728524
C      77.92114107      94.36048846      82.36868546
H      79.41591458      92.94319372      82.40836971
C      75.42670233      92.98098825      82.09656487
H      74.02641514      94.38694462      81.53909560
H      75.06576460      92.12305250      83.93526857
C      75.66858730      90.78890572      80.31833241
O      75.17347900      91.09126193      78.08467590
O      76.04653257      88.56091840      81.11768664
C      78.63545762      96.19919216      80.22573582
O      78.24995344      98.46875346      80.52053312
N      79.35544333      95.32802833      77.96751287
H      79.89212561      93.50633216      77.78042997
C      79.43670158      96.98153885      75.80566597
H      80.49494831      98.64638773      76.39337085
C      80.73494354      95.61337700      73.50964850
H      79.31953853      94.55890972      72.44762231
C      81.81586699      97.52011085      71.60669410
H      83.32197888      96.57902715      70.55978573
H      82.68892056      99.15472411      72.50620383
H      80.30408594      98.03600613      70.30656240
O      82.75317126      94.07325006      74.24664176
H      82.32042393      92.36493747      73.81011498
C      76.83076898      97.97364517      75.01953982
O      76.54542032      99.90305573      73.60791427
N      74.82765910      96.66595456      75.83968104
H      75.08655160      95.01622349      76.76564694
C      72.21038814      97.49743413      75.53165566
H      72.05921005      98.52733498      73.75342319
C      70.40003035      95.20330639      75.43338989
H      68.46306087      95.90250513      75.35969056
H      70.73262217      94.24710488      77.22862988
C      70.83277767      93.48176572      73.25264572
H      69.68760353      91.77345313      73.38870602
H      72.84533619      93.08303347      73.07690117
C      69.80287682      94.82158168      70.80545015
O      71.16914895      96.25966340      69.43728830
O      67.47851346      94.61371178      70.27443705
C      71.38457776      99.39093990      77.63303132
O      69.16981852     100.29233935      77.57256007
N      73.03430883     100.10525645      79.44149940
H      74.82954882      99.52133102      79.16370963
C      72.49384710     101.93451152      81.45783737
H      71.15970032     103.34046789      80.75863864
H      74.41947820     102.49576023      81.92082032
C      71.20505375     100.78366819      83.75007539
O      70.61356942     102.06301291      85.52830785
N      70.57955434      98.31379590      83.61590482
H      70.90836673      97.38783001      81.98129156
C      69.36068087      96.82469157      85.63224280
H      67.89614298      97.88860748      86.61679021
C      68.23251426      94.43796723      84.49840701
H      67.10812710      93.37027187      85.85523050
H      69.75563367      93.16618143      83.94093775
C      66.73585103      94.70819810      82.08522651
C      66.69049759      92.63327861      80.40525982
H      67.57677924      90.87205368      80.93438318
C      65.43193987      92.78256698      77.99207931
H      65.53776454      91.33503663      76.55777704
C      63.93527663      94.86693511      77.60468542
O      62.54065860      94.95764197      75.39748509
H      62.20239760      96.71319772      75.08379052
C      63.99385814      97.01366420      79.29976992
H      62.79955111      98.62371102      78.92182466
C      65.25430560      96.87760390      81.57689013
H      65.28076176      98.34781098      82.99040541
C      71.20127429      96.10848529      87.74495682
O      73.42737189      95.54534685      87.15536221
N      70.39625089      95.92329212      90.11278389
H      68.66526158      96.35981889      90.78930591
C      72.17070390      95.01622349      92.11589378
H      74.15491653      95.42440437      91.74550742
C      71.68882368      96.28234012      94.58576607
H      72.66581220      95.31291052      96.11833411
H      69.73106723      96.01966816      95.17725041
C      72.48250874      99.01866382      94.61978114
C      70.71939409     100.76477093      93.74105841
H      68.81454996     100.38115649      93.11555900
C      71.34300377     103.31779118      93.56909331
H      70.02586454     104.80311606      93.09477201
C      73.86389868     104.08690979      94.01884818
O      74.58955357     106.53788482      93.42169466
H      73.37445955     107.50542469      92.48250068
C      75.68181538     102.34269240      94.95048325
H      77.52807799     103.10236238      95.37378194
C      74.95993993      99.77266462      95.22638329
H      76.27707918      98.46119455      96.06920122
C      72.26896967      92.15706757      92.33510203
O      70.46428103      90.91551739      91.94392868
N      74.49884672      91.04968796      92.97760898
H      75.97661270      92.23454635      93.22138367
C      75.08844132      88.32659234      93.16280216
H      73.38012873      87.18708737      93.33287752
C      76.11834217      87.24377916      90.66836342
H      77.86444927      88.18864232      90.11845307
C      76.89312996      84.44131504      90.58143601
H      78.35766785      84.14462801      92.00062047
H      77.70382255      84.09927458      88.71816587
H      75.20182490      83.27346418      90.71560658
O      74.44026519      87.40629562      88.63690764
H      73.74862537      89.08248286      88.60856174
C      77.00651354      87.63306278      95.33598742
O      78.20271028      89.24877878      96.36210880
N      76.82132036      85.25767681      96.24305605
H      75.34166465      84.34115954      95.45881963
C      78.51640485      84.08604649      98.17246661
H      80.24928389      85.19720556      98.14412072
C      77.14257382      84.46210203     100.80107591
H      76.33944014      86.29135710     101.30185339
C      75.03174953      82.55347845     100.99949718
H      73.77886098      82.37962363      99.37244282
H      73.63713151      83.04291757     102.43379945
H      75.70260237      80.68453913     101.55318699
C      79.14946317      83.92541975     102.81363444
H      79.96771466      82.04514207     102.61332345
H      78.18759248      84.01234717     104.63155115
C      81.12044772      85.91341184     102.76828100
H      82.29774721      85.97199335     104.45769633
H      80.38345445      87.83715322     102.69269195
H      82.58120615      85.51278986     101.37366299
C      79.27607484      81.31948717      97.53562884
O      78.05720136      80.15730549      95.99172245
N      81.20359568      80.26879934      98.78662766
H      82.20326089      81.44609883      99.90912509
C      81.77996219      77.55515235      99.04174072
H      80.01684754      76.51580288      99.27228733
H      83.11788842      77.20177353     100.56863958
C      82.73049453      76.53658987      96.44903621
O      84.63722839      77.42287151      95.35299495
N      81.42469365      74.74323960      95.44937099
H      80.09999551      74.11207101      96.67013419
C      81.40012720      73.60184491      93.06642611
H      82.85332675      74.41064777      91.85133209
C      81.60799711      70.72190201      93.16091243
H      79.81464683      69.99435738      93.86767007
C      81.80452865      69.53326416      90.45482435
H      81.81775673      67.47724193      90.58143601
H      83.47126725      70.09829232      89.38712898
H      80.02062700      69.56161005      89.42303378
C      83.43347273      69.44255729      94.93914489
H      83.24261036      67.39220424      95.01851339
H      83.18213912      70.03593135      96.89501162
C      86.29829782      69.81672310      94.43836742
H      86.73671432      71.81605354      94.69348047
H      86.68191226      69.36129906      92.46738287
H      87.57197335      68.69611540      95.60621828
C      78.87356313      74.53914916      91.77952249
O      76.91769640      73.24657636      91.86644990
N      78.97938780      76.66131181      90.43025791
H      80.64801614      77.58916743      90.45860380
C      76.97060874      77.54948317      88.68226107
H      76.59077375      76.04715076      87.32543757
H      77.75106569      79.25401631      87.82810477
C      74.27396928      78.14285724      89.64602149
O      72.45794230      78.11262162      88.25140347
N      74.13035009      78.64552444      92.09510679
H      75.56654209      78.94221147      93.31775971
C      71.70205178      78.74945938      93.25161929
H      70.39058171      77.44176878      92.35399929
C      71.86267850      77.83672157      96.06164232
H      73.30076024      79.05181559      96.89879108
H      72.50896490      75.88274457      96.00872998
C      69.30965825      77.86317774      97.39200964
N      68.06999780      75.73534591      98.07609057
H      68.51975266      73.96467236      97.52051103
C      66.03476256      76.51202343      99.40078871
H      64.53809932      75.24590680      99.97526551
N      65.81366458      79.06126423      99.42346543
H      64.59290139      80.21777673     100.32297516
C      67.95283477      79.92486915      98.23482758
H      68.70305612      81.81270574      98.04774467
C      70.75718861      81.47633445      93.03052131
O      71.56599148      83.00134359      94.56875853
N      69.12635481      82.03947289      91.21638405
H      68.53298075      80.67698022      90.01829757
C      67.70906007      84.50556573      91.21071487
H      68.85801367      86.11939200      90.64190725
C      65.61524332      84.07281841      89.10555976
H      64.34723697      82.65363395      89.89735509
H      66.42215645      83.15819087      87.44449033
C      63.97685061      86.28946737      88.29486717
H      63.22096008      87.06992434      90.04475374
C      65.42249123      88.48532935      86.93993341
H      65.86468720      87.71999019      85.07855299
H      67.11757574      89.24310960      87.83188423
H      64.06566774      90.01411794      86.67348200
C      61.83390096      85.33893504      86.78686558
H      60.57723297      86.79024485      86.04042368
H      60.90604535      83.93108893      87.96983425
H      62.44995174      84.32037255      85.10500916
C      66.50341468      85.39940628      93.77696321
O      65.04076652      83.99911908      94.95804215
N      67.17993670      87.66707785      94.58765580
H      68.26086015      88.87272324      93.57854194
C      65.97996050      88.88784105      96.85343764
H      65.10501722      87.43653124      98.02128851
C      67.85645873      90.31080497      98.37088787
H      66.73963047      91.54479625      99.58220244
H      68.72573282      91.51645035      96.94414451
C      69.93137821      88.59871293      99.67479903
H      71.07088319      87.58770935      98.28962964
C      71.83433261      90.35615840     100.80485537
H      70.68159956      91.70542299     101.85176374
H      73.00218348      91.05913659      99.26283869
H      73.02486020      89.21665343     102.04073637
C      68.77108627      86.76189895     101.61743768
H      70.18649127      85.82081525     102.78150909
H      68.05676972      85.16319049     100.53462450
H      67.04387641      87.39117781     102.54718303
C      63.80110605      90.57725638      96.00495053
O      61.60713381      90.29001798      96.70981844
N      64.30755271      92.62005052      94.55930990
H      66.03098311      93.05468757      93.86200089
C      62.20995651      94.18096446      93.59554948
H      60.65660148      92.85059713      93.37256178
C      61.39926391      96.03289624      95.49283470