 %block lattice_cart
   142.669   0.000   0.000
   0.000 146.65   0.000
   0.000   0.000   162.396
 %endblock lattice_cart

 %block positions_abs
N      90.51900153      42.26356859      77.46956998
H      89.31524587      42.42419533      75.99747319
H      89.76878018      40.69509575      78.25947559
H      92.24810111      41.79113702      76.81383496
C      90.63238510      44.41974632      79.17410313
H      91.81157433      43.86605651      80.77092185
C      91.76811061      46.82725764      78.26703450
H      90.46986865      48.03101330      77.21256720
H      93.16650809      46.14317671      76.91399046
C      93.21753071      48.57714421      80.21345259
H      94.93907137      47.59070707      80.76336295
H      92.09314355      48.80202164      81.92365490
S      93.96964177      51.70464125      78.99079966
C      95.80267629      51.06024458      76.06172388
H      96.82312850      52.77611607      75.54960805
H      94.58380283      50.46309107      74.51214830
H      96.91572509      49.38027789      76.49069176
C      88.19463817      44.96965667      80.49691155
O      86.18963855      45.13784232      79.20055929
N      88.37227243      45.31736632      83.01591672
H      90.15995353      45.50822867      83.65842367
C      86.26711733      45.44019853      84.72989848
H      84.92919110      44.07959558      83.95322096
C      87.00033113      44.90540598      87.59472358
H      88.35526490      46.36238497      88.12384694
H      87.87905387      43.05914337      87.85172635
C      84.71565202      44.87894981      89.32760260
O      82.54624621      45.29468960      88.84572239
N      85.27501100      43.97566063      91.48567005
H      83.78212722      43.42952973      92.54202705
H      86.97576469      43.19331394      91.85605641
C      85.41107131      48.19541949      84.50313132
O      87.03812566      49.85270947      84.34250459
N      82.95253736      48.73777094      84.47289570
H      81.60138305      47.44330842      84.84895124
C      81.95854132      51.30779873      84.28959226
H      82.90340448      52.41139889      82.83072354
C      78.98600183      51.44763848      83.83038876
H      78.74222715      50.39506092      82.07672274
C      77.27957898      50.39506092      85.97900757
H      77.41563928      51.20764323      87.86684417
H      77.65752425      48.39384075      86.28703296
H      75.28969718      50.43285545      85.43854584
C      78.19609623      54.14994710      83.16520510
H      78.80836756      55.36504112      84.71289094
H      76.13629456      54.18396218      83.18788181
C      79.34316012      55.29323152      80.74635541
H      79.32426285      53.90806213      79.22323601
H      81.31036520      55.60692609      81.27169933
H      78.33782572      57.02233110      80.25124712
C      82.81647708      52.70997565      86.61395561
O      83.63094912      54.90772735      86.40986517
N      82.65018115      51.46653574      88.83060459
H      81.98877694      49.68074437      88.91186281
C      83.82559093      52.50588521      91.14929876
H      82.84482297      54.28978685      91.45732415
C      82.99411135      50.92040483      93.46988267
H      84.06936563      51.42496176      95.15173909
H      83.62716966      48.97965591      93.21099017
C      80.18219860      51.06780349      94.17853005
C      78.54191616      49.21020252      93.34516075
H      79.28457859      47.58881734      92.35305442
C      75.92653494      49.47287448      93.80436423
H      74.70766147      47.95542425      93.19587236
C      75.07615809      51.40417477      95.38984462
H      73.04659204      51.53645561      95.56369944
C      76.67297684      53.23909902      96.44809134
H      75.86039451      54.76788761      97.52712508
C      79.28646833      53.03500858      95.88306318
H      80.39573766      54.62615813      96.51990095
C      86.84915303      52.98776542      91.20221111
O      87.84503880      53.74176622      93.14107030
N      88.16062308      52.43407561      89.11406352
H      87.40851201      51.99187965      87.41708929
C      90.78167348      53.35059287      88.68131621
H      91.35048111      54.36726563      90.37829043
C      92.55423676      51.17173843      88.13329557
H      91.89850173      49.81869439      86.72355975
H      92.49376553      49.99632867      89.82082116
C      95.29245020      51.94463650      87.85928526
H      96.01810510      53.37326959      89.15563751
H      95.50409955      52.50588521      85.88830071
C      96.80234152      49.54279435      88.37518053
O      97.40138476      49.35949090      90.66930828
O      97.17083815      47.92707835      86.64419123
C      90.77033513      55.17039931      86.51002066
O      91.89094284      57.19996537      86.78214125
N      89.33981231      54.64694512      84.42754227
H      88.47998684      52.95752980      84.20455456
C      89.77633909      56.06423986      82.05026657
H      91.78700789      55.77322201      81.70066721
C      88.05101896      54.93418352      79.99424434
H      86.11215977      55.29512125      80.58950814
H      88.23054296      52.88194075      80.05849503
C      88.62738549      55.91495148      77.36941450
H      90.02767268      54.73009308      76.43022052
H      89.68374250      57.67050722      77.57350494
S      86.07436524      56.63115775      75.34173816
C      84.73643901      59.38259926      76.86296785
H      85.01611851      59.06134579      78.87741610
H      82.74844692      59.61314587      76.38108764
H      85.89295152      61.07201459      76.64564932
C      89.24721571      58.89882933      82.45088854
O      90.29790354      60.62603918      81.27358906
N      87.55780040      59.57724107      84.16676005
H      86.90962427      58.12026209      85.21555815
C      86.69419547      62.12648187      84.76013410
H      86.30869130      62.92394637      82.90253313
C      84.07692453      61.80333867      85.94310277
H      83.55913951      63.50220263      86.98434197
H      84.09771152      60.39738229      87.44921464
C      81.96232079      61.46318793      84.02881001
H      82.34971468      59.63771232      83.15764619
C      79.33749094      61.19106735      85.19099171
H      77.90885784      60.59391383      83.83227849
H      78.72332988      63.04866831      85.83727810
H      79.49055877      59.66605821      86.56482273
C      81.57870635      63.75731568      82.21845221
H      82.90907367      63.80266911      80.64808964
H      81.60327279      65.46373854      83.37118526
H      79.74756154      63.67794717      81.27925824
C      88.52911972      63.76487458      86.27947405
O      88.58959096      66.10813521      86.03569936
N      90.49065563      62.50820659      87.44165574
H      90.51900153      60.60336246      87.31693380
C      92.57313403      63.62503484      88.86461965
H      91.86826611      65.37114195      89.69798895
C      93.58980679      61.79200031      91.00756929
H      95.10725702      62.59891345      92.14140509
H      94.27388772      60.15927678      89.95310201
C      91.79078734      60.95485156      92.99556137
H      89.99932680      60.26510145      92.24156057
H      91.19174410      62.47986069      94.24467046
C      92.87360052      58.72875396      94.58482120
H      94.78978299      59.00843345      95.28968912
H      93.12871356      57.03555918      93.44153678
N      91.38449618      58.01632714      96.78446263
H      90.97442557      56.15872617      96.93564073
C      90.86293172      59.45251914      98.78946226
N      91.63960924      61.70129345      99.27512191
H      91.35237084      62.29088806     101.06658246
H      93.14950056      62.55922920      98.48143686
N      89.48154179      58.61159093     100.69808582
H      88.90895470      59.92873017     101.95475382
H      89.06580200      56.79178449     101.09114890
C      94.82190834      64.29021850      87.12607144
O      96.44140379      65.67538789      88.04069898
N      94.83513643      63.54188688      84.69966286
H      93.59169652      62.14915859      84.29904088
C      96.53966956      64.35068974      82.70033242
H      97.85302934      65.74908721      83.44677431
C      98.26687942      62.14726886      81.68554939
H      99.29866998      63.09780119      80.17565806
C     100.02243515      61.51799000      83.75857915
H      98.89426855      60.49186861      85.14185881
H     100.91438598      63.14126490      84.65997860
H     101.48886278      60.33313160      82.92898931
C      96.81179015      59.86070002      80.61218485
H      95.54000434      60.46541244      79.10985242
H      95.74409479      58.78166630      82.00491313
C      98.44640340      57.89349493      79.26292025
H      99.58779811      58.86292453      77.84940497
H      97.24642721      56.60659131      78.19144543
H      99.65771797      56.82013038      80.53470606
C      95.25654540      65.88136805      80.60651567
O      96.74942918      67.04166001      79.23457437
N      92.80179091      66.11569412      80.52147799
H      91.83047158      65.33901660      81.97089807
C      91.09536806      67.35913403      78.60340577
H      92.24054220      67.64070325      76.91588017
C      88.92029307      65.57523239      78.09317968
H      87.66551480      65.23886111      79.69188813
H      89.61193290      63.67605745      77.69066797
C      87.30835653      66.31789483      75.80661084
O      88.47053820      66.11380439      73.74302970
O      85.09359729      66.85457711      76.07117252
C      90.26955765      70.17860569      79.49913605
O      89.89728157      71.87369019      77.87019197
N      89.97287062      70.57544822      81.95578025
H      90.02389324      69.01264455      83.04804207
C      89.54201303      73.02642324      83.08205713
H      90.01066515      74.58922690      81.82538913
C      86.68096739      73.46483975      83.57905515
H      86.15373374      72.00597103      84.93398892
H      85.60004394      73.16059381      81.85373503
C      86.20664609      76.11990522      84.75068547
H      86.96253660      76.34856210      86.65363987
H      84.16952112      76.42604088      84.79792862
C      87.03812566      78.44048913      83.48456884
O      87.20631130      80.41903258      84.62596353
O      87.43496819      78.28364185      81.11863150
C      91.09914751      73.45728084      85.55003971
O      92.06479766      75.57755377      85.93554386
N      91.56402017      71.50519356      87.00512896
H      90.97820503      69.72696110      86.62718370
C      93.27044303      71.57133398      89.26146218
H      95.15072072      72.21762038      88.71722100
H      93.50098965      69.62491588      89.90207940
C      92.01377505      72.90926021      91.40819127
O      90.13538709      74.26419398      91.04536382
N      92.89249778      72.59556564      93.79680534
H      94.37026375      71.40881752      94.02168276
C      91.62071196      73.49696510      96.12116869
H      89.61004318      73.71995280      95.72999535
C      92.24999082      71.50708329      98.13750667
H      94.27388772      71.35023600      98.47576768
H      91.74543390      69.65137205      97.39862369
C      91.32591466      71.98518405     100.94941943
H      92.20463740      73.64247402     101.80168599
C      88.55557588      72.17037722     101.55224212
H      87.76756002      73.77286514     100.52423101
H      88.29668339      72.54265331     103.56291092
H      87.66362507      70.35623996     101.15350987
C      92.37093332      69.78365289     102.57080460
H      92.06857711      70.20128241     104.56446587
H      94.42128637      69.75908645     102.38750115
H      91.48276195      68.03376632     101.94530520
C      92.90194641      76.08589014      96.68808660
O      95.23386867      76.31076758      96.72777084
N      91.31835575      78.01719044      97.03201678
H      89.47965206      77.63357599      96.69942495
C      92.02322367      80.42659149      98.17908065
H      94.02255412      80.57965932      98.65340195
C      91.73787499      82.60922538      96.32525913
H      89.77444936      82.87378706      95.77156933
H      92.82824709      82.03474858      94.67363835
C      92.50132443      85.30964428      96.99044281
H      91.98164970      85.95971013      98.87638966
H      91.58669690      86.45292870      95.54480218
C      95.32457555      85.63467720      96.45376052
H      95.94440578      84.91469148      94.62828491
H      96.29589487      84.47627497      97.85404773
N      96.16928320      88.43147215      96.55769548
H      97.06879292      88.89067564      98.17719092
C      95.88204481      90.34009572      94.88150823
N      94.65939187      90.25694777      92.88406752
H      94.74253984      91.78573635      91.74456256
H      93.90350136      88.60721669      92.28502428
N      96.84202577      92.52650907      95.61850150
H      96.31857159      94.07230519      94.63206436
H      98.29522531      92.68335635      96.84304414
C      90.56435495      80.84800045     100.66785020
O      88.25132996      80.86689772     100.45431113
N      91.79267707      81.47349986     102.76733613
H      93.66728557      81.11634159     102.75977724
C      90.78545294      81.67003140     105.28823105
H      89.15461912      80.41903258     105.42618106
C      92.84525462      80.54186479     107.18551625
H      92.05345929      80.47005519     109.08469120
H      94.50632404      81.75884854     107.15528063
C      93.59169652      77.72239313     106.79623263
H      94.03956165      77.32933006     104.82524809
C      95.66094682      77.18382113     108.56501646
H      95.57212969      78.19671444     110.35647701
H      97.33713407      77.74318012     107.50676973
H      95.82157357      75.15236535     108.87115214
C      91.44118796      75.90069697     107.10047857
H      90.30546245      76.22950934     108.78800417
H      91.93062708      73.96372749     106.60159083
H      90.18074051      76.40147444     105.55090300
C      89.84625895      84.42714209     105.89483318
O      88.99399240      84.82020516     107.97731158
N      89.82358224      86.29797114     104.24321240
H      90.57002413      85.85388546     102.54434844
C      89.27178217      88.99650031     104.57580422
H      88.28156558      89.22515720     106.36726477
C      91.84369967      90.37600052     104.69485697
H      92.91895394      90.07742377     102.96386768
H      92.77533475      89.46704217     106.29167571
C      91.45063660      93.24838452     105.26177488
H      89.90484048      93.30129686     106.62048809
H      91.04812490      93.98348805     103.37582801
C      93.94696506      94.59386965     106.09325445
H      93.77877942      96.62910489     105.83058250
H      95.51354817      93.84364831     104.98587484
C      94.27199798      94.03451067     108.99776379
H      94.17373222      92.02006242     109.41350359
H      92.82068818      94.93779984     110.14860712
N      96.55856682      95.14378001     109.98987010
H      98.07979651      94.49938334     109.03366859
H      96.74753946      94.61276692     111.81156628
H      96.52266203      97.04673441     109.85569953
C      87.78645728      89.83364907     102.30813265
O      87.90928949      88.58076053     100.32958919
N      86.04790908      91.71770621     102.56891488
H      85.70775834      92.21848368     104.38116241
C      84.34904512      92.54918578     100.54312826
H      83.41929977      90.84654238      99.84959871
C      82.17963931      94.31607989     101.49555034
H      83.03001615      95.73148489     102.72387244
C      80.87572816      95.76172052      99.46220481
H      82.36483249      96.99571180      98.75166773
H      79.31481421      96.95602755     100.07636586
H      80.08582256      94.52772923      98.01278473
C      80.33148698      93.01027900     103.30212868
H      81.31792411      92.38477959     105.00099264
H      79.33182176      91.42668835     102.44986212
C      78.29436200      94.93024094     104.28667610
H      77.23422555      94.24993946     105.91750991
H      76.66541792      95.26850195     103.07158207
H      78.97844294      96.81807752     104.74398987
C      85.64350764      93.70758801      98.26033888
O      87.34237160      95.23259715      98.43986288
N      84.81958696      92.94224886      95.94542415
H      83.24166550      91.86510486      95.91896798
C      86.12727758      93.26350233      93.55114091
H      87.53323396      94.76205530      93.68720120
C      87.76567028      91.03173555      92.85572163
H      88.96186705      90.74638688      94.50734243
H      89.27934106      91.55330002      91.55936938
C      86.80946877      88.44470023      92.04691877
C      86.86427083      87.73227341      89.50901633
H      87.49165998      89.00972840      88.04447844
C      86.38239062      85.24917304      88.89674500
H      86.27089677      84.67658596      86.93898855
C      85.70019943      83.31976247      90.75245625
O      85.39784322      80.88768471      90.09483149
H      85.45264529      80.46438601      88.33171683
C      85.80602411      84.09077081      93.32437375
H      85.41863020      82.65646853      94.72655067
C      86.18018991      86.67591640      93.87995328
H      86.39183926      87.17291442      95.84904810
C      84.31691977      94.33119770      91.44976526
O      82.29869206      93.12555231      91.07181999
N      84.96320617      96.41178637      90.05136778
H      86.56002491      97.38688514      90.42364387
C      83.18497371      97.41901049      88.13518529
H      81.28579877      97.66845437      88.88540665
C      84.30180196     100.05895815      87.63440782
H      86.34459611      99.88699306      87.43787629
H      83.89362107     101.22491929      89.28224918
C      83.02623670     101.24570628      85.29303692
H      80.97777337     101.37987684      85.45933283
H      83.30024701     100.11187049      83.59606270
C      83.80858339     104.02927313      84.78470054
H      83.42685868     104.96279793      86.57994054
H      82.69931405     104.83618627      83.24646332
C      86.54490709     104.03116286      83.92298535
H      87.01355922     102.96724695      82.22412139
H      87.77511893     103.17889629      85.33839036
N      87.45764490     106.60119065      83.47323049
H      87.48977025     107.75770315      84.99068071
H      86.67529821     107.55928189      82.01814122
H      89.29256915     106.59741119      82.95166602
C      82.70687295      95.75794106      85.88641098
O      84.34148621      95.23070742      84.46344707
N      80.34093560      95.07763959      85.46878148
H      79.02568609      95.64833694      86.72922893
C      79.76267936      93.29940713      83.32772155
H      81.18375355      91.82164115      83.12363111
C      77.27013034      91.83486924      84.02503056
H      75.80559246      93.26350233      83.80582232
H      77.27957898      91.26984107      86.00735346
C      76.59549806      89.63711753      82.22412139
O      78.41908394      88.36155227      81.39831100
O      74.44498951      89.41601956      81.42098771
C      79.74756154      94.64678199      80.72745815
O      79.48111014      96.97114536      80.62730265
N      80.18219860      93.13311121      78.76214278
H      80.17652942      91.25283353      79.08717572
C      80.96076584      94.03451067      76.14487184
H      82.59159965      95.26661222      76.40754379
C      81.92074681      91.87644322      74.25325580
H      82.89206612      92.84398309      72.71501858
C      84.14495468      90.34198545      75.39087104
H      85.04257467      91.37188629      76.93099799
H      85.56980832      89.69002987      74.05294482
H      83.27379085      88.66957766      76.22046090
O      79.96488007      90.30797038      73.48413720
H      80.66029936      89.58798465      71.97235614
C      79.06348062      95.68613146      74.72757710
O      79.72110538      96.78784190      72.78871791
N      76.68998437      95.84864793      75.68944781
H      76.42164324      95.03228616      77.39209120
C      74.52246829      97.24515567      74.79560725
H      75.03836358      98.16545239      73.02871315
C      72.44754880      95.32897319      74.31372704
H      70.66175743      96.30596169      74.00192220
H      71.97322750      94.24804974      76.00125264
C      72.91242147      93.56207909      71.98747395
H      71.31749247      92.26194738      71.90432599
H      74.60183679      92.39044877      72.10652672
C      73.04092286      95.10031631      69.59319071
O      74.25601688      94.18757850      67.74125892
O      72.08094190      97.22814813      69.52705029
C      73.68909899      99.29928817      76.65698767
O      71.76157815     100.41800615      76.27337323
N      75.21032867      99.96636156      78.46545575
H      76.86950837      99.05173403      78.69600236
C      74.59049844     101.69735086      80.37785879
H      73.18454206     103.06362299      79.75424909
H      76.33471583     102.77071541      80.58950814
C      73.50012636     100.66745002      82.98946055
O      73.15997562     102.19623861      84.68832450
N      73.18076260      98.19946746      83.24835305
H      73.54547978      96.98437344      81.82160968
C      72.20755356      97.20736114      85.56704724
H      70.81482526      98.49615449      86.37396037
C      70.72789786      94.67323816      84.85084097
H      69.36162572      94.42001483      86.37018092
H      72.07338299      93.11610368      84.90942248
C      69.05737980      94.52206005      82.44332964
C      68.99501883      92.30730082      80.97123285
H      69.96255869      90.56497315      81.42098771
C      67.27725761      92.05596722      78.98702022
H      67.21678637      90.25694777      78.02703924
C      65.97901563      94.18379904      77.97790636
O      64.41999141      93.86443530      75.90865605
H      63.75102831      95.45558485      75.35307651
C      66.33050472      96.54028776      79.20433875
H      65.30627306      98.14844485      78.47679412
C      67.68921794      96.61776653      81.57972471
H      67.68543849      98.47158805      82.43577073
C      74.02924972      96.84075424      87.76668867
O      76.20432471      97.87821399      87.59472358
N      73.38863249      95.39133416      89.72444513
H      71.60095141      94.82630599      90.08160340
C      75.31237388      94.44080182      91.44409608
H      77.22666665      94.77528338      90.76568432
C      75.05915056      95.68424174      93.99144714
H      76.14763292      94.56174431      95.33315282
H      73.03525368      95.63132940      94.37317185
C      76.00968289      98.49237504      94.22388347
C      74.28436278     100.49359520      93.99711632
H      72.27369398     100.24226160      93.76656972
C      75.17631359     102.95401886      93.79680534
H      73.84216681     104.47146909      93.50011831
C      77.69531876     103.45479634      94.13128688
O      78.36050243     106.01348576      93.74956217
H      76.80147822     106.76748656      93.21099017
C      79.46599233     101.53294468      94.07081564
H      81.43319742     102.07151667      94.17097114
C      78.61939494      99.12921280      94.09538208
H      79.93086500      97.57018860      93.98199852
C      75.11395262      91.58353564      91.62173035
O      73.05226122      90.63489303      91.89763038
N      77.34005022      90.41568478      91.72755501
H      78.98789156      91.37755547      91.70676803
C      77.62161945      87.67558162      92.17919960
H      75.70732668      86.92913973      92.32092909
C      78.98222239      86.27907388      89.86428487
H      79.67386221      84.42525236      90.43120276
C      76.95265633      85.82364984      87.77424758
H      77.77090782      85.64601556      85.89208016
H      75.69598833      87.43936583      87.53803179
H      75.96243974      84.03596874      88.02369144
O      80.82281581      87.87589261      88.85517103
H      81.52012482      88.66201876      90.33293700
C      79.03324500      87.06897948      94.69064588
O      80.60738702      88.47871530      95.47488230
N      78.74600659      84.84855106      95.84148921
H      77.47422078      83.56731662      95.21976924
C      80.32581780      83.88479064      97.98632856
H      82.18908794      84.76351337      97.97121076
C      78.81781620      84.36856057     100.43730360
H      78.06192567      86.28285333     100.51667210
C      76.45754804      82.63757127     100.74343925
H      75.35772732      83.28574740     102.35726553
H      77.17375431      80.76107304     101.20264275
H      75.18198278      83.02874462      99.17307669
C      80.26723628      84.07943245     102.96386768
H      80.78691102      82.08766091     102.99032384
H      78.97844294      84.62934281     104.47186928
C      82.79191064      85.39468196     103.56480064
H      83.40796142      85.00539834     105.49043176
H      82.32703796      87.39401240     103.39094583
H      84.18274919      84.93547847     102.11727029
C      80.97021446      81.00484774      97.83137102
O      79.91763692      79.57810437      96.31203105
N      82.78813118      79.99573389      99.28646027
H      83.72921489      81.26374024     100.35982481
C      83.47599156      77.33121978      99.29779862
H      81.91129817      76.05565452      99.70408978
H      84.90840411      76.86823684     100.70375500
C      84.60415817      76.40714362      96.71265304
O      86.23310224      77.65058353      95.60149397
N      83.83314984      74.04687545      95.89440154
H      82.85616133      73.05665886      97.20209214
C      83.88606216      73.08122531      93.23933607
H      85.48099117      73.90514598      92.23211194
C      84.30936087      70.19372350      93.13351139
H      82.79002091      69.08445415      93.97443961
C      84.60604790      69.54176792      90.37451097
H      83.22276824      70.62458110      89.29925671
H      84.54557666      67.53109913      89.92664584
H      86.30302212      70.32411462      89.50712660
C      86.67718794      69.30555213      94.61694655
H      86.47498721      69.91026455      96.57848246
H      88.18518954      70.53387424      93.94042453
C      87.65417643      66.59946405      94.50734243
H      87.96409155      65.97585437      92.56848322
H      86.22743306      65.42027483      95.41063160
H      89.27367188      66.43505786      95.76967960
C      81.54658099      74.17537684      91.85794613
O      79.58126563      72.96595200      91.75212147
N      81.80547350      76.47895322      90.68064664
H      83.51000663      77.23673347      91.07937889
C      80.18030887      77.73751094      88.80981759
H      80.19353695      76.60556488      87.08827693
H      81.16674601      79.43070572      88.18053872
C      77.48555914      78.60111587      89.67153280
O      75.97755754      79.22661528      88.05770651
N      76.90352345      78.31198774      92.06959548
H      78.24711885      78.38946652      93.42263952
C      74.27680387      78.66347684      92.98800246
H      72.84250160      77.60900955      91.95243245
C      74.04436754      77.32366088      95.58070697
H      74.83994231      78.35545145      97.17563597
H      74.86828820      75.43582429      95.62983986
C      71.35150753      77.03831221      96.46698861
N      69.92854363      74.84245023      96.79013181
H      70.44443890      73.15114518      96.07770499
C      67.60606999      75.35078661      97.60271412
H      66.07161222      74.04687545      97.93908541
N      67.58528300      77.83010753      98.18852929
H      65.93366219      78.70505081      98.57781291
C      69.73012236      78.96016387      97.23610722
H      70.02491966      80.98028129      97.26256338
C      73.27713865      81.42814643      92.85950108
O      74.09539014      83.06464942      94.26356773
N      71.27780820      81.87223211      91.39307347
H      70.15531078      80.43037094      90.84127338
C      70.14397243      84.51217977      91.23433646
H      71.70299662      85.75561969      90.72222062
C      68.27692282      84.44981881      88.98367242
H      67.00891646      82.83032336      89.07248954
H      69.36162572      84.01896121      87.28480846
C      66.61396366      86.85544040      88.45265931
H      65.44800254      86.94236781      90.14963355
C      68.08983991      89.18925240      87.95755103
H      68.94588594      89.15712705      86.08483225
H      69.33705929      89.24783391      89.59594373
H      66.83695137      90.79551976      87.64196673
C      64.76581133      86.30364032      86.14908295
H      66.03948687      85.79341421      84.61462518
H      63.66032144      87.99683510      85.75035069
H      63.45056182      84.90335312      86.89741456
C      68.86651744      85.38145388      93.65507585
O      67.48134805      83.90746735      94.83426508
N      69.16887365      87.76439876      94.26734718
H      70.42743137      88.77729206      93.24878470
C      68.01992005      88.86421947      96.58226192
H      67.33016994      87.25228293      97.66129564
C      70.00224295      90.21726351      98.04491008
H      69.08005651      91.43802671      99.42441030
H      71.01513626      91.46448288      96.75611673
C      72.12251586      88.71304137      99.20142259
H      73.05793039      87.44692474      97.87105526
C      74.13318467      90.46103821     100.16707273
H      73.33949962      91.88778157     101.42185100
H      75.05726084      91.54196166      98.67796839
H      75.50701570      89.45003463     101.31980578
C      71.07371776      87.44503501     101.55980102
H      69.65264357      86.10521906     100.90406599
H      70.29892998      88.84721194     102.85615327
H      72.35495221      86.34332457     102.73710051
C      65.74846901      90.49883273      96.23266254
O      63.94000094      90.32875737      97.65373673
N      66.03381769      92.24493985      94.35238487
H      67.74590973      92.26761656      93.50578747
C      64.31227701      94.28962372      93.74200326
H      62.46979386      93.36365782      93.69664984
C      64.40676333      96.52328022      95.65062684