 %block lattice_cart
   142.669   0.000   0.000
   0.000 146.65   0.000
   0.000   0.000   162.396
 %endblock lattice_cart

 %block positions_abs
N      89.59870481      42.03585658      79.75991828
H      89.65350688      40.49950908      80.89186434
H      90.91206461      41.75428736      78.40498451
H      87.84125934      41.93948053      79.01536611
C      90.13160763      44.36588912      81.22445617
H      91.88149420      44.21660074      82.29971044
C      90.32247000      46.63734015      79.42732645
H      88.46675876      47.29496491      78.83017293
H      91.50921812      45.96270786      77.88342005
C      91.87960448      48.67446511      80.78037049
H      93.73531572      48.04329653      81.41720825
H      90.87993926      49.36610494      82.44143992
S      92.24243193      51.04040246      78.42955095
C      94.83324670      49.80452145      76.41510270
H      94.96741728      47.75227867      76.33951365
H      96.68139903      50.47159484      77.03682266
H      94.29089526      50.63600103      74.61041408
C      87.76567030      44.56997956      83.00457836
O      85.72665560      45.18414061      82.17120905
N      87.81669290      44.01817948      85.43665612
H      89.47398288      43.61566777      86.28892269
C      85.79846520      44.51895695      87.23000639
H      84.19975675      43.40590815      86.55915355
C      86.73954890      43.65724175      89.79058555
H      87.82614154      45.18414061      90.64474184
H      87.84503879      41.94892917      89.47689098
C      84.64195269      43.11489030      91.66141460
O      82.55758457      43.97660550      91.50645704
N      85.12572263      41.74861818      93.71554710
H      83.74433271      41.23461262      94.92875139
H      86.97198524      41.43303388      94.07459510
C      84.98021371      47.30063408      87.13363035
O      86.57892218      49.09965353      87.30370572
N      82.47254689      47.67857935      86.85584058
H      81.35382892      46.14979076      86.61962479
C      81.39729261      50.19947425      86.91631183
H      82.06247629      51.19158056      85.23634513
C      78.47010657      50.06341395      86.58560972
H      78.06003595      48.70092128      85.09650539
C      77.07926800      49.43035564      89.10083544
H      77.52713313      47.48393754      89.60350264
H      75.07993755      49.30752343      88.62462441
H      77.48555916      50.73426680      90.64474184
C      77.20587965      52.51627871      85.67854109
H      77.67642151      54.16600978      86.81993578
H      75.16875469      52.29896018      85.48011983
C      77.91452703      53.34964801      83.02536535
H      77.05281182      52.08920056      81.64208569
H      79.94976227      53.32130212      82.71733996
H      77.31548378      55.31874283      82.98001192
C      82.03790983      52.05518549      89.20099094
O      82.59726882      54.22648102      88.84383266
N      82.51790032      51.10276343      91.41008100
H      82.44609073      49.21114739      91.63117898
C      83.50433746      52.48037391      93.51145666
H      82.37806058      54.14522279      93.96688070
C      83.57614706      50.91568052      95.94164470
H      84.54746639      51.74149092      97.55736069
H      84.57959174      49.22815492      95.31803501
C      80.90407405      50.44324894      96.94130992
C      79.82881977      48.03006844      96.89028731
H      80.75289595      46.35388120      96.18352966
C      77.43264681      47.64078482      97.82570183
H      76.56526243      45.80019139      97.98065939
C      76.04558771      49.71759404      98.71954238
H      74.14452303      49.43791454      99.40740275
C      77.05848101      52.16289989      98.53056975
H      75.95110138      53.78428506      99.08614928
C      79.54536083      52.59564721      97.74822305
H      80.34849451      54.47403517      97.76334086
C      86.16129266      53.49326721      93.15996756
O      86.92663182      55.33575037      94.29380335
N      87.68819151      52.35187252      91.39685291
H      86.93041127      50.78150995      90.62206513
C      90.27711657      53.16256511      90.65985965
H      91.01033037      54.67623588      91.84849750
C      92.10259218      50.96103395      91.17953439
H      93.95641370      51.65645324      90.61072677
H      91.81346405      49.33586932      89.94743283
C      91.88716339      49.99538381      93.87050466
H      90.00499597      49.22815492      94.19931704
H      92.30668263      51.55629774      95.14606992
C      93.71830819      47.89022869      94.40718693
O      93.52933555      45.86444209      93.26012306
O      95.46063584      48.19069518      95.83582002
C      90.50955290      54.38332831      88.08794214
O      92.02889286      56.05762582      87.97266883
N      88.71809236      53.79940288      86.43065216
H      87.50488806      52.43313075      86.97678307
C      88.34770600      54.96158456      84.00613330
H      90.19018915      54.71214068      83.11418248
C      86.20286663      53.67279121      82.45277827
H      84.35849376      54.39655639      83.01969617
H      86.32569885      51.66212242      82.87418724
C      86.26711732      54.17923786      79.58795318
H      87.91873813      53.44791378      78.59773660
H      86.49766393      56.20502447      79.27614834
S      83.42118951      52.99248974      77.97223719
C      83.20009153      55.06740923      75.30583336
H      84.01645329      54.19057622      73.62775639
H      84.27534579      56.75871428      75.78393412
H      81.22532753      55.61920931      75.11875045
C      88.03023197      57.79239457      84.16487031
O      89.03367665      59.29283727      82.62852282
N      86.41262625      58.65788923      85.90908770
H      85.41863022      57.49381782      87.04859267
C      85.48855008      61.24870400      85.79570412
H      85.32414389      61.85530615      83.83227848
C      82.78246200      61.42822800      86.85206113
H      82.26089755      63.41433036      87.02213650
H      82.79569009      60.75737516      88.79847923
C      80.58471030      59.95235175      85.38941296
H      80.93808913      57.92656514      85.51035545
C      78.12617638      60.62320459      86.76135427
H      77.95610100      59.65944417      88.57360180
H      76.51423983      59.83518872      85.75224042
H      78.05058732      62.66599874      87.01457759
C      80.52423906      60.81028750      82.75324476
H      82.20420576      60.18478809      81.73657200
H      80.45242946      62.86630972      82.65686872
H      78.81970592      60.14888329      81.80271242
C      87.28756953      63.08929743      87.15252761
O      87.11182500      65.25492378      86.57427136
N      88.97131569      62.02160206      88.73989772
H      89.11682461      60.13754493      89.01768749
C      91.08591942      63.38787419      89.94365338
H      90.38672070      65.11319431      90.82615557
C      92.39738948      61.79294518      91.98077834
H      94.04712055      62.89654535      92.53257843
H      93.13627247      60.09408122      91.08315835
C      91.07080161      60.70068337      94.28813417
H      89.21320066      59.96369011      93.79113615
H      90.68907691      62.28427402      95.55047135
C      92.58258266      58.65788923      95.68275219
H      94.00554658      59.61409074      96.82792634
H      93.82413285      57.67901100      94.36183350
N      90.97064613      56.71903003      96.90162566
H      89.79523635      55.70424700      95.79613577
C      90.77033514      56.51682931      99.34315206
N      91.90984009      57.94546241     101.02122903
H      91.78511817      57.70924662     102.91284507
H      93.20619235      59.18512287     100.37116317
N      89.23587736      54.75371466     100.26533850
H      88.65384166      54.77828111     102.08514494
H      88.71998208      53.34775829      99.08236983
C      93.17217727      64.03227086      88.00479418
O      94.71419395      65.68578138      88.85328130
N      93.20241290      63.03071591      85.69743835
H      92.02700314      61.57184720      85.33461090
C      95.01466043      63.84707768      83.72456408
H      95.91605989      65.62908959      84.23479019
C      97.14438198      61.88365204      83.41653869
H      98.42561642      62.50159255      81.92554463
C      98.68450893      61.74948147      85.87129317
H     100.55344826      60.92556080      85.62373903
H      97.69429235      60.47958539      87.15630707
H      98.91883499      63.69023040      86.52135903
C      96.29778459      59.09063655      82.91387149
H      95.02788852      58.39710699      84.38218884
H      97.91350059      57.81507129      82.98568109
C      95.30567828      58.80150843      80.15676080
H      95.60992422      56.85509032      79.55393811
H      96.27888734      60.10352986      78.89253390
H      93.29500949      59.19457150      79.94322173
C      93.82602259      64.81083810      81.34350893
O      94.90694604      66.15254378      79.77125664
N      91.20119274      64.64454219      81.23957398
H      90.40750768      63.23858581      82.26002619
C      89.63460961      65.86341566      79.29315588
H      90.50766318      66.10719035      77.44311382
C      87.38205586      64.16077225      78.69600236
H      85.98554810      64.13431608      80.20778341
H      87.89417169      62.21435415      78.25947559
C      86.05168853      65.12453267      76.29416022
O      87.10048664      64.58218122      74.25892498
O      83.91629779      66.36230340      76.43022051
C      88.65006221      68.45234071      80.09628956
O      88.82769648      70.10963068      78.49191192
N      87.99810663      68.92288256      82.44710910
H      87.75433194      67.35629944      83.50913528
C      87.35370995      71.33417333      83.52236337
H      87.15906814      72.69099683      81.98412615
C      84.75533627      71.08850891      84.55604366
H      84.63061434      69.65987582      86.03191991
H      83.41552032      70.31939030      83.19544072
C      83.51000663      73.53948394      85.59728286
H      84.69864448      74.65442247      86.85773031
H      81.95854134      72.92154344      86.80292825
C      82.72577022      75.43109998      83.59795242
O      80.42975275      76.12840899      83.49212775
O      84.21298483      76.60273029      82.17498851
C      89.42107054      72.27903649      85.44421503
O      90.69096662      74.20655733      85.10028484
N      89.98987816      70.66709994      87.46244273
H      89.14706022      68.95689763      87.52669342
C      91.97220107      71.33228361      89.29925671
H      93.26477386      72.67020984      88.41864424
H      93.05690398      69.71467788      89.97577873
C      90.75710704      72.29415430      91.67464268
O      88.49510466      72.49824474      91.91085847
N      92.13471753      72.96122769      93.58515598
H      94.01688494      72.76469615      93.33760184
C      91.25977424      73.59617573      96.12872760
H      89.22075956      73.87018605      96.08526390
C      91.83236132      71.41165211      98.00522583
H      93.87515547      71.16409797      97.89940116
H      91.10670641      69.65420664      97.21154078
C      90.74576870      71.59117611     100.68674747
H      88.82958620      72.33572828     100.80580023
C      90.37727205      69.16476753     102.03790178
H      89.26422326      67.89109199     100.86249202
H      89.38138629      69.44633675     103.82180342
H      92.16684287      68.27848589     102.54812789
C      92.40494839      73.18232567     102.54812789
H      91.24843588      73.44877708     104.23187403
H      92.40683811      75.15708966     101.96609218
H      94.34191786      72.51336255     102.75221833
C      92.34636688      76.11896036      97.05658322
O      94.63104598      76.40997821      96.96209691
N      90.81757830      77.82916267      98.10538132
H      88.94674925      77.45877631      98.19041901
C      91.41473181      80.42564663      98.92363282
H      93.45563623      80.64485488      99.09748764
C      90.51711180      82.14340784      96.76178592
H      90.05412885      84.01423689      97.49122027
H      88.83336567      81.23255976      96.00400566
C      92.53344978      82.74056136      94.65285135
H      93.50476911      80.97744671      94.22955266
H      94.15294524      83.83093344      95.31614529
C      91.60559416      83.82337454      92.20187632
H      89.67618359      83.16197033      91.92030710
H      92.90383614      82.95599016      90.85828091
N      91.78700789      86.52190371      91.87306394
H      91.90984009      87.59337853      93.44909569
C      91.71330857      87.67463676      89.61106155
N      91.58858663      86.46899137      87.58149549
H      91.54134347      87.49889221      85.97333840
H      91.45441605      84.56981643      87.45677355
N      91.90039147      90.06514055      89.41830946
H      91.66228595      91.06102631      87.80448319
H      91.93062708      91.11582838      91.01134875
C      90.28845492      81.08327138     101.47476334
O      88.12282856      80.37462401     102.02656342
N      91.67740377      82.40230035     103.21898073
H      93.40650333      82.93709290     102.61048885
C      90.88749817      83.09016073     105.82113386
H      89.25288491      81.92419959     106.28978599
C      93.13627247      82.66119285     107.67873483
H      92.62415664      82.71410519     109.67239609
H      94.62348708      84.04825197     107.35181217
C      94.19640893      79.94565614     107.29512038
H      94.76143710      79.42409168     105.38460708
C      96.13148868      79.20299370     109.29634055
H      95.33213445      79.66786637     111.13693398
H      97.91161087      80.22155618     109.11681655
H      96.75509837      77.24145779     109.38704741
C      92.09881273      78.10317299     107.96786295
H      92.67706899      76.22478503     108.58391373
H      91.00088174      77.91042090     106.23687365
H      90.98198447      78.88362995     109.51365908
C      89.92940692      85.76979264     106.26521954
O      88.47053820      86.08726666     108.10203352
N      90.21853505      87.43842097     104.36793433
H      90.97442557      86.83370855     102.72387243
C      89.30201779      90.18608303     104.36037542
H      88.30424229      90.47521116     106.13860788
C      91.51677703      91.95675659     104.52289188
H      90.94607967      93.91073359     104.20919732
H      92.79234228      91.26322703     103.06024372
C      93.11359576      91.93030042     106.95685937
H      93.51988692      89.96498505     107.41228342
H      91.86637640      92.78256699     108.35714657
C      95.62315230      93.41940475     106.89260868
H      95.97464139      94.00333018     108.83524733
H      95.38315707      95.18440913     105.85514893
C      97.79444783      91.89628535     105.97609142
H      97.47697382      90.90984821     104.19596923
H      98.24987187      90.38639402     107.30078956
N     100.10180367      93.41184585     105.60948451
H     100.63281675      94.50599738     107.07969159
H     100.01109680      94.45497477     104.01455551
H     101.57012102      92.24210526     105.26933378
C      87.00600031      90.53946185     102.48009774
O      87.10048664      90.08403781     100.29179467
N      84.89328629      91.67707709     103.35882047
H      84.80446917      92.08903743     105.22020089
C      82.82970517      92.70508821     101.66184625
H      81.78846597      91.05346741     101.00611122
C      80.93619939      94.30757612     103.23031909
H      80.25967737      93.13783553     104.78556384
C      81.88295228      96.77177923     104.57391449
H      80.55258495      97.57491292     105.92695853
H      82.43853182      98.10592601     103.10559715
H      83.51756554      96.37682643     105.76633180
C      78.72710933      94.81024332     101.54279349
H      77.86539415      93.16807115     100.64706322
H      79.31481422      95.91573321      99.90818023
C      76.47077612      96.08958803     102.77300532
H      75.91141713      95.26755709     104.57958367
H      74.97222315      95.97809418     101.36704894
H      76.56337271      98.14561026     102.78812313
C      83.82181148      94.24521515      99.39795412
O      84.99722124      96.24454559      99.68330280
N      83.25300386      93.30791090      97.13595173
H      82.20231602      91.72243052      96.99044280
C      84.22243345      94.34537065      94.81536781
H      85.34493088      96.03667570      95.16118773
C      86.21798444      92.50099777      93.74011354
H      87.70330932      91.86982918      95.02134798
H      87.31402571      93.36838214      92.22833249
C      85.29957745      89.92152135      92.62895447
C      85.11249456      89.43964114      89.97199927
H      85.40918158      90.94953246      88.63407304
C      84.53045884      87.00189419      89.14240942
H      84.55124584      86.81292156      87.11095364
C      84.24511018      84.95532060      90.86206037
O      83.92952587      82.54214010      90.04947805
H      83.57425733      82.38907226      88.27691477
C      84.57392255      85.37861929      93.49066967
H      84.30369168      83.88573550      94.85505207
C      85.00289043      87.92408064      94.31270061
H      84.99533152      88.30013617      96.31958996
C      81.94720298      94.98976732      93.13918057
O      79.67953141      94.80268441      93.89696083
N      82.58593047      95.40172766      90.69765418
H      84.40762663      95.77022429      90.26868630
C      80.57337194      96.01021953      88.68320593
H      78.80836758      95.46408862      89.59405401
C      80.13306571      98.78244803      88.05581679
H      79.29213750      98.84480900      86.17742884
H      81.89240091      99.85014340      87.98589692
C      78.38128943     100.23753729      89.94176365
H      79.20143064     100.19596331      91.82771051
H      76.65596930      99.12070904      90.09672121
C      77.95799074     103.00409661      88.97611351
H      76.77502205     102.99842743      87.29047764
H      79.69464921     104.05856390      88.64730113
C      76.25156786     104.31556667      90.88851654
H      77.48555916     104.78421880      92.47021746
H      74.83805258     103.08346512      91.74267283
N      75.11206290     106.57001017      90.02113216
H      74.38451828     106.31489711      88.27502504
H      76.52746791     107.84557543      89.88885132
H      73.78736475     107.25409109      91.21165973
C      80.83982335      94.32458366      86.28892269
O      82.84860242      94.44930559      85.07193894
N      78.81592647      93.26066774      85.31382391
H      77.30036598      93.51200134      86.44765970
C      78.42097367      92.23076690      82.77403175
H      79.83637868      90.74166257      82.61718446
C      75.73189314      91.30102156      82.62852282
H      74.43176143      92.87327385      82.33939470
H      75.13473962      90.43741663      84.40108610
C      75.57504585      89.43019251      80.44966838
O      74.55081419      90.20875975      78.51647836
O      76.65596930      87.31369904      80.64431019
C      79.04269364      94.08269869      80.61407457
O      79.13340049      96.32958328      80.93154859
N      79.52079439      93.00177524      78.37096944
H      79.19198202      91.12149756      78.35018245
C      79.76267935      94.42851860      75.92755332
H      81.19320218      95.85715170      76.32439584
C      80.47510618      92.89217111      73.69200709
H      80.47699590      94.08269869      72.01204039
C      83.14151000      91.76211478      73.89042835
H      83.19820179      90.43174745      75.46079092
H      84.46620816      93.30980063      74.18900511
H      83.67063337      91.23299141      71.97235614
O      78.80080867      91.01000370      73.23658305
H      79.45465397      89.69664392      72.17455686
C      77.33816050      95.78723182      75.23213403
O      77.24934336      97.65428142      73.88286944
N      75.13473962      95.04456938      76.05794443
H      74.91742110      93.34192597      76.89131374
C      72.82549406      96.60359359      75.99747319
H      72.61195499      97.53333894      74.17388730
C      70.50868961      94.85181730      76.41699243
H      68.76258250      95.93085102      76.26581433
H      70.65608825      93.93907949      78.25758586
C      70.19310530      92.69752930      74.45356679
H      69.21422707      91.02512151      75.15087580
H      72.13007479      92.00777920      74.32317568
C      69.38430245      93.73120960      71.97802532
O      70.55782249      95.62471536      71.01615463
O      67.34528776      92.77878753      71.08040532
C      72.57416047      98.61426239      78.11018721
O      70.71089032      99.88604820      78.19900434
N      74.33349566      98.95441312      79.79771280
H      76.03424935      98.09836710      79.66165251
C      74.32404704     100.86303670      81.84995558
H      73.67398117     102.68473287      81.14130821
H      76.28936240     100.91594904      82.46222691
C      72.65730842     100.03722630      84.17998812
O      72.19999466     101.67750874      85.79381440
N      72.24345836      97.51633140      84.51635941
H      72.84439133      96.22186888      83.24835305
C      70.80159718      96.53745317      86.67442686
H      69.90208745      97.99254243      87.82527018
C      68.64164000      94.71386728      85.73334315
H      67.54559875      93.98632265      87.31693380
H      69.70177646      93.14350471      84.92454029
C      66.85017946      95.80612909      83.80015314
C      65.96578754      94.23765625      81.81971996
H      66.13208346      92.20620046      81.70633638
C      64.27070305      95.42629410      80.06227449
H      63.35418578      94.27734050      78.64497975
C      63.62252692      98.03411641      80.12085600
O      61.90476570      99.05456862      78.39931533
H      61.48524646     100.79122710      78.70545100
C      64.59384625      99.53833855      82.08428164
H      64.18188591     101.53766899      82.11829672
C      66.24357731      98.45363565      83.91920589
H      67.08639525      99.58558171      85.39508214
C      72.39463646      95.03512075      88.52446892
O      74.37506964      93.96553566      87.85928526
N      71.71433500      95.29590298      90.98867203
H      70.08728063      96.24832504      91.27968988
C      73.28469756      94.81402277      93.26201278
H      75.20088004      95.47164753      92.89729561
C      72.13574396      96.08202913      95.62417068
H      72.77636118      95.24865982      97.39673396
H      70.07972173      96.11604420      95.70920836
C      72.98801052      98.80701447      95.98132895
C      71.27402876     100.81201409      95.72621590
H      69.26335997     100.51343733      95.54291244
C      72.10361861     103.29133501      96.10983034
H      70.78836910     104.84657977      95.99833649
C      74.70955119     103.78644331      96.64084343
O      75.55425886     106.18450600      96.94130992
H      74.45254841     107.56778566      96.53312903
C      76.34416445     101.82112794      96.76556537
H      78.28113393     102.29544925      97.20776133
C      75.46166228      99.29456386      96.57659274
H      76.75045561      97.73553965      96.86005168
C      73.60595104      91.97943330      93.67019367
O      71.71811444      90.70764749      94.08026428
N      75.87173289      91.15929208      93.91396836
H      77.28335843      92.41973953      93.68531148
C      76.67864601      88.44942455      93.93664508
H      75.05915057      87.18519765      94.09349236
C      77.92775510      87.66329840      91.58393582
H      79.85905540      88.38139440      91.59338445
C      78.12050719      84.83626784      90.86206037
H      79.55858892      84.67564110      89.39563275
H      76.22889115      84.14084856      90.44065140
H      78.88017718      83.87817660      92.51935034
O      76.65596930      88.77823693      89.46933207
H      77.00934813      87.76912308      88.00479418
C      78.46632711      87.86738885      96.18163994
O      79.60772181      89.53412745      97.22476886
N      78.76301413      85.39184738      96.77879345
H      77.48366942      84.26179104      95.92652689
C      80.33526643      84.28446776      98.78568280
H      82.09838108      85.33137613      98.58159236
C      79.07481899      84.23344515     101.49177088
H      78.36428188      86.13639954     101.84137025
C      76.69565356      82.54591955     101.62216199
H      75.91519658      82.79347370     103.51188831
H      76.93564879      80.52958157     101.27823180
H      75.31237390      83.31692788     100.30502275
C      80.79635966      83.43220119     103.70275066
H      81.25178370      81.45365774     103.34748212
H      79.83637868      83.45676763     105.52444683
C      83.22276823      84.95910005     104.02400414
H      84.27723553      84.37517462     105.69641192
H      82.58215101      86.89606952     104.31124254
H      84.44164172      85.02524047     102.36671416
C      80.80391855      81.51979816      97.90129088
O      79.26946079      80.52202267      96.58226192
N      82.88450722      80.28769660      98.66096086
H      84.23566154      81.10216865      99.73621513
C      82.86749969      77.54003455      98.83103623
H      80.99100147      77.07327215      99.54346305
H      84.09582180      76.86918170     100.33903783
C      83.54213198      76.34005834      96.33848722
O      84.84037396      77.52113728      94.83804453
N      82.52923868      74.08750457      95.97754950
H      81.91885708      73.28059144      97.59515522
C      82.57081267      72.68910710      93.51523611
H      84.30180197      73.17665649      92.50990171
C      82.62561472      69.79026694      93.71365737
H      80.83793363      69.11185519      94.47899653
C      83.15662782      68.83217570      91.05670218
H      84.89517603      69.67877308      90.34616508
H      81.69964882      69.06461203      89.61673073
H      83.11127439      66.77615347      91.16630630
C      84.58337119      68.86241132      95.59015560
H      83.96732041      69.05138395      97.54791206
H      86.24444062      70.06616698      95.41630078
C      85.38650487      66.09585199      95.51645628
H      86.36160365      65.54027246      97.24555585
H      86.50333312      65.65176631      93.84215876
H      83.74811216      64.85241208      95.42196996
C      80.49967262      73.73223602      91.90140984
O      78.83104428      72.47178857      91.17953439
N      80.66407882      76.18132133      91.41008100
H      82.11727834      77.21122217      92.09605165
C      78.99922993      77.36617972      89.66208416
H      78.74222715      76.23990284      87.95566130
H      79.63417796      79.22944987      89.05737174
C      76.34038501      77.75168389      90.65796993
O      74.73411764      78.05781956      89.07626900
N      75.90574796      77.89530309      93.18075455
H      77.38918311      77.93498734      94.38262049
C      73.52091334      78.42064701      94.37317186
H      72.04692682      77.34161328      93.41886007
C      73.71744488      77.59105716      97.02823733
H      74.70577174      78.97244709      98.19041901
H      74.35050319      75.63141097      97.00556061
C      71.10206367      77.37184890      98.38128137
N      69.58650317      75.24968625      98.67607867
H      69.69988674      73.49224078      97.93908541
C      67.57205491      75.94510554      99.97810010
H      66.08106086      74.62418684     100.42218578
N      67.71378438      78.40174974     100.41651661
H      66.41176296      79.60739513     101.11571534
C      69.92287444      79.31826701      99.46787400
H      70.82427390      81.14752208      99.50944798
C      72.78958926      81.14752208      94.18608895
O      73.87051271      82.80859151      95.35393981
N      70.70522114      81.61617420      92.89729561
H      69.87185184      80.05714999      92.17919961
C      69.39942025      84.01045744      92.79147093
H      70.75813347      85.44286999      92.20376605
C      67.58339327      83.78935946      90.52001990
H      66.48735201      82.06592906      90.79780967
H      68.58683794      83.66085807      88.72666963
C      65.68232861      85.96443445      90.17042054
H      64.79604697      86.42363794      91.97132971
C      66.99568838      88.34359988      89.21421902
H      67.48134805      88.26990055      87.21299886
H      68.66242700      88.66107390      90.38018016
H      65.68043887      89.90451381      89.49389852
C      63.71512351      85.39751655      87.96133048
H      62.34129247      86.92630514      87.81204210
H      62.70600965      83.74211630      88.65108058
H      64.57305926      85.08004253      86.11317814
C      68.20133377      84.73800207      95.37850626
O      67.56449600      82.96921824      96.76178592
N      67.97078716      87.16630038      96.03046183
H      68.77581058      88.33793070      94.76056575
C      66.96167331      88.16785533      98.23577244
H      66.11507592      86.64095647      99.32992398
C      68.94021677      89.46420758      99.91195968
H      67.72323302      90.41662964     101.27445235
H      69.82649840      90.88906122      98.71954238
C      70.93576776      87.84471213     101.25555509
H      71.98078641      86.66741264      99.92329804
C      72.86706804      89.72310009     102.22498469
H      73.46233183      90.91551739     100.65273239
H      74.35617237      88.72343487     103.23409854
H      71.92976379      90.83992834     103.68007395
C      69.88507992      86.21954750     103.39283555
H      68.16353924      85.32003778     102.70875462
H      69.35028737      87.53857647     104.88382961
H      71.22867533      84.83248839     104.10715209
C      64.94155588      90.17096522      97.89184225
O      62.93277681      89.99711040      98.97654516
N      65.38753130      92.04179427      96.15140432
H      66.97679113      91.84715246      95.11016512
C      63.40898784      93.77278357      95.33693228
H      61.87453008      92.50855667      94.80213973
C      62.78348843      95.71164277      97.36460861