 %block lattice_cart
   142.669   0.000   0.000
   0.000 146.65   0.000
   0.000   0.000   162.396
 %endblock lattice_cart

 %block positions_abs
N      91.30134823      41.22138454      84.92170570
H      92.92462313      41.21382563      85.92515038
H      91.42607016      40.09132820      83.38913766
H      89.82169252      40.53919334      85.91759147
C      90.79679130      43.59110134      83.73117813
H      91.51299757      45.12744883      84.90091871
C      92.02133395      44.00873085      81.16492979
H      91.45441606      42.32309498      80.12935977
H      94.07546645      43.93503152      81.30287981
C      90.97820503      46.39923464      79.93093851
H      88.95241842      46.22349009      79.59834668
H      92.00243669      46.51828739      78.14703687
S      91.76055172      49.33020015      81.67893535
C      90.75143787      51.64889433      79.34134390
H      88.75966633      51.35787648      78.90481712
H      91.83992022      51.30685387      77.62547241
H      91.07647079      53.54428982      80.08022689
C      87.91306895      44.13912197      83.77275211
O      86.57514272      42.55553132      82.66726221
N      87.13261198      46.21404146      84.86501391
H      88.34581627      47.47448891      85.62846334
C      84.37361156      46.55230247      84.98406667
H      83.52890390      45.48649683      83.43638082
C      83.42496895      45.20870706      87.33488621
H      84.30558141      43.34732664      87.37079101
H      81.37839536      45.02351388      87.21016427
C      84.02590192      46.66190659      89.84822220
O      84.94241918      48.83131240      89.81798658
N      83.47599156      45.39956942      91.93070060
H      84.21865400      46.08742980      93.54830632
H      82.50467224      43.76495616      91.76251496
C      83.64795666      49.36610495      84.86123446
O      85.33359253      50.80985585      84.40203097
N      81.23477616      49.95192011      85.12579615
H      80.04046913      48.49305139      85.42626263
C      80.12928626      52.50871981      85.03697901
H      80.60738702      53.45925213      83.27386436
C      77.16619540      52.14589235      85.18815711
H      76.67864602      50.84954010      83.66314798
C      76.34605418      51.16323467      87.87534793
H      76.66541793      52.64478010      89.26996595
H      77.20021048      49.32264124      88.22872675
H      74.30703949      50.94213669      88.06621029
C      75.60717120      54.66300780      84.93871324
H      75.74512122      55.67212165      86.72828406
H      73.62862775      54.13577416      84.69304882
C      76.22133225      56.52060877      82.81655059
H      75.68087052      55.72125453      80.99674415
H      78.20365515      57.07807803      82.79198415
H      75.02513549      58.18356792      83.03575884
C      81.21776862      54.34553377      87.01363273
O      81.62783923      56.52627795      86.38813332
N      81.63350841      53.46114187      89.31720911
H      81.33304192      51.58464364      89.50807147
C      82.97710382      54.86520852      91.35244435
H      81.87917283      56.57919029      91.66424919
C      82.75033666      53.29106650      93.86955980
H      84.13928550      54.36632077      94.94481407
H      83.43252786      51.35409703      93.72594060
C      80.19920614      53.19280073      95.03930038
C      78.60238740      51.20669838      94.61600169
H      79.11072378      49.66657143      93.37823095
C      76.40841515      50.92890861      96.14101082
H      74.92686972      49.59287211      95.70637377
C      75.73945204      52.83942191      97.87388985
H      73.89129970      52.75438423      98.73371533
C      77.23611528      55.04851197      98.00995015
H      76.56526244      56.65288961      99.07764551
C      79.51134576      55.16378528      96.62856021
H      80.89273569      56.63021290      96.94981369
C      85.61327202      55.64944494      90.63056890
O      86.24066116      57.85286582      90.72694494
N      87.23087775      53.89010974      89.93137016
H      86.67907766      52.06274440      89.86334001
C      89.70830894      54.65733862      89.23028170
H      90.49443509      55.75526961      90.78552645
C      91.15583930      52.23470949      88.47250145
H      92.80179092      52.82241437      87.38023964
H      89.84814869      51.00638739      87.46149787
C      91.91172982      50.91190107      90.98394772
H      90.28656520      50.54907362      92.19526228
H      93.30445812      51.92101492      92.11589378
C      93.01910944      48.36077055      90.43592708
O      91.90039147      46.37088874      91.05953677
O      95.21308169      48.21337190      89.50051256
C      89.79145690      56.50549096      87.00985328
O      91.42229071      58.20624464      86.91914642
N      87.89795114      56.27872380      85.32988659
H      86.86805029      54.70080233      85.63602225
C      87.62016137      57.93034460      83.04709720
H      89.39272465      57.98325693      81.99829910
C      85.59626449      56.89477458      81.24051885
H      84.00511493      56.18234776      82.33844983
H      86.40317762      55.26772022      80.26919952
C      84.48510541      58.89221529      79.47929392
H      85.82303164      59.93912367      78.31333279
H      83.91251834      60.48903403      80.64903451
S      81.61272142      57.81318157      77.74830462
C      82.61049691      57.54295070      74.45073220
H      82.76545447      59.39866193      73.57011974
H      81.17808437      56.58296974      73.32445532
H      84.29991224      56.38643820      74.22774450
C      87.04757429      60.60619706      83.91259185
O      88.27400667      62.39198842      83.12457598
N      85.16351716      61.00492931      85.50374141
H      84.20920537      59.42889757      85.99695998
C      84.42652390      63.54661120      86.38435387
H      84.22054373      64.74469767      84.72139471
C      81.86405502      63.28393924      87.75629517
H      81.56925771      64.96012648      88.91658713
H      82.10405026      61.78916573      89.15091319
C      79.65496496      62.99859057      85.93081955
H      79.62472934      61.29027798      84.78186596
C      77.32682214      62.52993844      87.72039037
H      77.09627553      64.07384484      89.06209606
H      77.54225094      60.71391146      88.66714326
H      75.59772256      62.36553226      86.61112103
C      79.43008753      65.42499915      84.38313370
H      77.49500778      65.70467865      83.73873703
H      80.52423906      65.15098884      82.66159303
H      80.33904588      66.95756719      85.41681400
C      86.50333312      64.80894837      87.93770890
O      86.63372423      67.11630421      87.64669105
N      88.04912924      63.38976392      89.37579062
H      87.60693328      61.53594240      89.32854747
C      90.11271037      64.27226610      91.03686005
H      89.71964730      65.91632800      92.21226982
C      91.48087222      62.19545689      92.73950346
H      93.48398212      62.62820421      92.94737335
H      91.43362907      60.33785592      91.85322182
C      90.11271037      61.71546639      95.33031824
H      88.13416692      61.23547592      95.01284422
H      90.17507134      63.46913242      96.40935196
C      91.47520305      59.64621609      96.77973832
H      93.44807732      60.13376548      97.10855070
H      91.45063660      57.88310144      95.71204295
N      90.14861517      58.90355365      99.18724964
H      89.66484524      57.05729104      99.21748526
C      89.90106103      60.16211137     101.33586846
N      90.60781867      62.38820897     101.81585894
H      90.31302136      63.14032004     103.54495852
H      91.65283732      63.27260089     100.48738134
N      88.60848823      59.02260641     103.12921873
H      88.17763063      59.77282775     104.83186214
H      87.88661278      57.27649928     102.85142896
C      92.25943947      65.48358067      89.58366052
O      93.62193214      66.90843431      90.70615795
N      92.55045732      64.85808126      87.09489096
H      91.82669214      63.24425499      86.38435387
C      94.38727129      66.06372665      85.32232768
H      95.40583378      67.50180837      86.38624360
C      96.25054144      64.03227086      84.36801589
H      97.96830266      64.76926413      83.50252124
C      97.49209163      62.66221929      86.58466486
H      96.34313803      61.16177659      87.40669581
H      97.72452796      64.08707293      88.05298220
H      99.27221381      61.81562190      85.98373189
C      94.81812889      62.24081032      82.51041493
H      94.07735618      63.40866118      80.98351607
H      93.27989167      61.32051360      83.52330823
C      96.51699285      60.13565521      81.57122095
H      98.13081912      60.79705942      80.47895914
H      95.40772350      58.90166392      80.35423721
H      96.95162990      58.90355365      83.16426023
C      93.00588136      67.69078101      83.24551846
O      94.16806304      69.58995595      82.54065055
N      90.63616456      67.21834943      82.33089093
H      89.81791307      65.55350055      82.77497661
C      89.11304515      68.57328319      80.48651805
H      90.27711656      68.74524829      78.79521300
C      86.93419072      66.95000828      79.56055215
H      85.63594874      66.71757195      81.14036335
H      87.81102372      65.10752514      79.26953430
C      85.60760284      67.80983375      77.14170247
O      86.88694756      68.28226534      75.25575561
O      83.26245249      68.13486669      77.21162235
C      88.09826212      71.15275960      81.38602777
O      88.12849775      72.94799961      79.87802617
N      87.58425657      71.38897540      83.89936377
H      87.79968537      69.89231216      85.06532490
C      87.23843665      73.80026617      85.10311943
H      87.21575994      75.23078899      83.62157400
C      84.41896499      73.80404563      86.01963669
H      84.38872937      72.38297144      87.51063075
H      83.05269287      73.28248117      84.56832688
C      83.45331485      75.96211307      87.70149311
H      84.80824861      76.29281518      89.21705361
H      81.70909746      75.34417257      88.60667201
C      82.98277300      78.33182987      86.12735109
O      83.45331485      78.36017577      83.80487745
O      82.32325851      80.24612262      87.28197387
C      89.25855408      74.32183063      87.24039989
O      90.15617408      76.50257480      87.23473071
N      90.06546722      72.53603926      88.99595563
H      88.81635812      71.10362672      89.18870772
C      92.00810587      72.93288180      90.83276961
H      93.61626296      74.04215114      90.17892431
H      92.96430738      71.17732605      91.32598818
C      90.98198448      74.29159502      93.13445626
O      88.68596701      74.66765055      93.19870695
N      92.56179568      74.96433758      94.92780653
H      94.32302060      74.22923404      94.93536544
C      91.77566953      75.98478979      97.43547335
H      89.72153703      76.01313569      97.57153364
C      92.75265803      74.12907854      99.38189145
H      94.78978300      74.02136415      99.09843250
H      92.22164494      72.23179333      98.78095848
C      92.04023121      74.75457796     102.21648092
H      92.84336490      76.58005357     102.73237620
C      89.15272941      74.93032250     102.54907275
H      88.50266356      76.47611862     101.34909654
H      88.58770124      75.28937050     104.49738058
H      88.41762587      73.15586949     101.80263086
C      93.15516974      72.77603451     104.20069355
H      94.89938713      71.93699603     103.49771536
H      92.06857711      71.03937602     104.39722509
H      93.79389723      73.82672233     105.85231435
C      92.75454776      78.66253198      97.93625082
O      95.00521180      79.22756015      97.58476173
N      91.13127286      80.35194730      98.86410644
H      89.37571711      79.63952048      99.08709415
C      91.42795989      82.77646616     100.09431827
H      93.36681909      83.25456691     100.60076492
C      90.69285635      85.01012266      98.21026114
H      90.66451046      86.80158321      99.22693389
H      88.80124031      84.62650822      97.48838569
C      92.67328953      85.45231861      95.95014847
H      92.87171079      83.58715875      95.09977163
H      94.36270485      85.83971252      97.05941781
C      91.94763462      87.44597988      94.02451735
H      93.68429311      88.23777520      93.24972957
H      90.85726254      88.90673832      94.98638805
N      90.46419947      86.59371330      91.90613416
H      89.77444936      84.83437811      92.16880611
C      89.73287539      88.06958955      90.06176127
N      90.52845016      90.42040909      90.02396675
H      89.83870006      91.60337777      88.69359942
H      91.63394006      90.95520164      91.48472519
N      88.31369092      87.41007508      88.18337332
H      87.87338469      88.60816156      86.76418886
H      87.76378057      85.58648919      88.08132810
C      89.68752195      82.93331345     102.36198985
O      87.55969013      82.07537770     102.44324808
N      90.72687143      84.08226704     104.34620247
H      92.52211142      84.71343563     104.20636273
C      89.61193290      84.24856296     106.73481653
H      87.89984086      83.11850662     106.92000971
C      91.55079210      83.62684300     108.70202163
H      90.59648031      84.00289854     110.48781299
H      93.14572111      84.91752607     108.51871817
C      92.32935934      80.75823845     108.63966066
H      93.79200751      80.53147130     107.20724811
C      93.57468898      80.11573151     111.13220966
H      92.34258742      80.38407265     112.75926402
H      95.22630978      81.28547210     111.50070630
H      94.27955689      78.18065176     111.04717198
C      90.09003366      79.05370533     108.27305375
H      88.81068894      78.95354983     109.88688002
H      90.85348309      77.18476599     107.85920369
H      89.05257391      79.57715950     106.57418980
C      88.47809711      86.94142296     107.26582963
O      86.86049139      87.28346341     108.89666344
N      89.26989244      88.98610683     105.89955750
H      90.69852553      88.63461772     104.68068403
C      87.72031686      91.33125717     105.64822390
H      86.59403998      91.35771335     107.37165430
C      89.74610347      93.41373558     105.58397321
H      91.03111736      93.33625679     103.97581612
H      90.78923239      93.22287321     107.34897759
C      88.39872861      95.99888117     105.48003826
H      86.80190987      95.95919692     106.78205969
H      87.73165522      96.15572846     103.53739961
C      89.95775282      98.34025207     106.19057536
H      88.97698486     100.15249961     106.22081098
H      91.37315782      98.58969595     104.71280938
C      91.32402494      97.94340955     108.72658807
H      91.87204557      95.98565308     109.05351072
H      89.97287063      98.65772610     110.10797800
N      93.40461361      99.73487009     108.85697918
H      93.70508010     100.44918663     110.59930684
H      92.80934982     101.35436555     108.04250714
H      95.03166797      99.08669396     108.10108866
C      85.96854057      91.27456539     103.45803111
O      86.44664133      90.07269945     101.48893629
N      83.88417245      92.57280737     103.67912909
H      83.48544019      93.26255747     105.41389784
C      81.93397489      92.78256699     101.82908703
H      81.05903161      90.99677561     101.29807393
C      79.83637868      94.69497001     102.76072210
H      80.73588841      96.24832505     103.77172568
C      78.31325928      96.00455035     100.58375739
H      76.70888164      94.81213304     100.07353128
H      79.42252862      96.46375385      98.91134960
H      77.53469203      97.81868761     101.17335200
C      78.00334416      93.40806639     104.48226277
H      78.86505936      92.77878753     106.24348769
H      77.13784951      91.85660110     103.44102357
C      75.92653494      95.08047419     105.59342184
H      74.53758610      95.66628934     104.18935519
H      76.78447069      96.75099224     106.43812950
H      75.05159166      93.92585141     107.06173919
C      83.02434697      93.81057810      99.30819212
O      84.77045409      95.38472011      99.16457292
N      82.12294752      92.89406084      97.12555823
H      80.67919662      91.65629011      97.31264114
C      82.82403598      93.65751027      94.58954552
H      83.58559569      95.56991329      94.54797154
C      84.91596301      91.84337300      93.47082754
H      86.66018040      91.90762370      94.56308935
H      85.55091105      92.47265187      91.61700603
C      83.88417245      89.18452809      93.08910283
C      82.92986066      88.28690808      90.80442372
H      82.61994554      89.43019251      89.14146456
C      82.25333864      85.70365222      90.55120039
H      81.62594950      85.09705006      88.70682751
C      82.58026129      84.11628211      92.61289180
O      82.14562424      81.56326187      92.27652051
H      82.13050643      80.82437888      90.61923054
C      83.54024226      85.03468911      94.95048325
H      83.75378133      83.74589575      96.51895609
C      83.90495944      87.56503263      95.26039836
H      84.51345131      88.50800606      96.96682122
C      80.54313633      93.90128497      92.82076169
O      78.23200104      93.61593629      93.60310839
N      81.01367818      94.58914534      90.44348599
H      82.80324900      95.03890021      89.95782633
C      79.14095940      94.90850908      88.54053159
H      77.26257145      94.43229805      89.23406115
C      78.75734496      97.84703351      87.96416507
H      77.23800500      97.90750475      86.57332650
H      80.42975275      98.78244803      87.20638482
C      77.54792012      99.30590222      90.10333525
H      78.63073330      99.26999742      91.85700127
H      75.64118627      98.61426238      90.45293462
C      77.31170433     102.00632111      89.45704885
H      75.58260475     102.76410137      90.27719007
H      76.83549330     101.83246630      87.46149787
C      79.74000264     103.45763092      89.93892906
H      81.43886660     102.96441236      88.88257206
H      80.05369721     103.63337548      91.96660540
N      79.22221763     106.00687172      88.86367479
H      77.41374955     106.46607521      89.26618650
H      79.36394711     105.92561349      86.96261012
H      80.39006849     107.39582057      89.45515913
C      79.36583683      93.34948488      86.04042368
O      81.59193443      92.71264712      85.49618250
N      77.27579953      92.57847655      85.02942010
H      75.73189313      93.04901839      86.04798259
C      76.84494193      91.69408463      82.46317177
H      78.19987570      90.20120085      82.04176280
C      74.33349566      90.23710565      82.33278065
H      72.79336872      91.58637022      82.55387863
H      74.24089907      89.06925477      84.02597543
C      74.07082370      88.83681845      79.88369535
O      75.69598833      87.08315243      79.43394049
O      72.82360434      89.65695967      78.12813961
C      76.90163372      93.78034247      80.42982626
O      75.92086576      95.85526197      80.95139072
N      77.89940921      93.45341982      78.13380879
H      79.08615734      91.97754357      77.89003409
C      77.91641675      95.30346188      75.99841805
H      79.12773132      96.82847102      76.66549144
C      79.37906492      94.10726512      73.77421018
H      79.37906492      95.33180778      72.11692021
C      82.03413039      93.83136509      74.69828635
H      83.14528946      95.43196328      74.03121296
H      82.81836681      92.19486210      73.72318757
H      82.17019068      93.84270345      76.75430858
O      78.40774559      91.78101204      72.95595869
H      79.39040327      91.27267567      71.51787697
C      75.36717595      96.22375861      75.03087818
O      75.25379238      98.17395616      73.76854100
N      73.24501330      94.93307552      75.51842757
H      73.32249208      93.17563005      76.26486946
C      70.70711087      95.93840993      74.95906858
H      70.84506089      97.20074711      73.33579368
C      68.97045238      93.58759040      74.54332879
H      67.00135757      94.19419254      74.53765961
H      69.21989626      92.14194976      75.98896942
C      69.32950038      92.34037102      72.00164690
H      68.60006603      90.41473992      72.02999280
H      71.30048493      92.11171415      71.45362627
C      67.88008030      93.79168083      70.01743427
O      68.49613108      95.93840993      69.44106775
O      66.17176771      92.76555945      68.76832518
C      69.69043811      97.66939923      77.17571755
O      67.60795971      98.69174116      77.05855452
N      71.26835958      98.16072808      79.10701784
H      72.95399545      97.26877726      79.05032605
C      70.87907596      99.93896054      81.17248870
H      69.59595179     101.44318268      80.59045299
H      72.62707280     100.95563329      81.56177232
C      69.88507992      98.95441313      83.61212537
O      68.59250712     100.49454006      84.84989610
N      70.04003748      96.46753330      84.27919876
H      71.36095617      95.26944682      83.59322811
C      68.71344961      95.31480025      86.42970730
H      67.14497677      96.51288673      87.02119164
C      67.44733298      92.89595056      85.38090920
H      66.41743214      92.21186963      87.02875054
H      68.92131950      91.49566337      85.05020709
C      65.71067449      93.38161023      83.13969379
C      65.67665942      91.65629011      81.23107021
H      66.73679588      89.92530079      81.42760175
C      64.03448725      91.76400451      79.22229114
H      64.01181054      90.31836388      77.78042997
C      62.42255071      93.98443292      79.14670209
O      60.81061416      94.34348092      77.18327645
H      60.60463400      96.13116202      76.94517094
C      62.46223496      95.91384349      80.95139072
H      60.99202789      97.32924850      80.91359619
C      64.17810645      95.54912631      83.00741295
H      64.29526949      96.89272171      84.53998099
C      70.71655950      94.80457413      88.53864187
O      73.01635642      94.19608227      88.10400481
N      69.70366619      94.95764198      90.89702031
H      67.81205015      95.06913582      91.12378746
C      71.33261028      94.39261380      93.09666173
H      73.35083798      94.64016796      92.75462127
C      70.43121082      96.11415447      95.38512030
H      70.84506089      95.09370226      97.12555823
H      68.42054203      96.56012989      95.45126072
C      71.70677609      98.59725485      95.69125596
C      70.63719099     100.88571341      95.07898464
H      68.66809617     100.96886138      94.54419209
C      72.06204463     103.17984115      95.10544080
H      71.33638973     105.03366268      94.65568594
C      74.70577174     102.99464797      95.79519091
O      76.10038976     105.03744213      95.70826350
H      75.32560198     106.58701770      95.17725040
C      75.76023903     100.61926200      96.26951221
H      77.72366467     100.59847501      96.83265065
C      74.22200181      98.51032743      96.39045470
H      74.91364164      96.74154362      97.13689659
C      71.45166303      91.52400926      93.95648721
O      69.44855314      90.27678990      94.17380573
N      73.78547503      90.69630914      94.69159074
H      75.17442387      91.96998466      94.39301398
C      74.64907995      87.99966969      95.09599217
H      72.96155436      86.84315718      95.31897988
C      76.20810416      87.13795448      92.75840072
H      78.05247704      88.06014093      92.72438565
C      76.50290147      84.24289377      92.57320754
H      77.44398517      83.76857248      90.80253399
H      74.58293953      83.50023133      92.59966371
H      77.55547902      83.57015121      94.21160026
O      75.04781221      87.70676210      90.48128052
H      74.48656349      89.43208223      90.50773668
C      76.41786378      87.89384502      97.45248089
O      77.48933860      89.88561655      98.20459196
N      76.85628029      85.68664467      98.51450707
H      75.55236913      84.34304927      98.15167962
C      78.74789633      84.92697470     100.41935120
H      80.31447944      86.23466530     100.14534088
C      77.52902286      85.35405285     103.00638652
H      76.82415494      87.27212506     103.26905848
C      75.26324101      83.43787037     103.39567014
H      75.80937191      81.45176801     103.44291330
H      73.80626202      83.53046696     101.94058088
H      74.45065869      83.89518413     105.23437384
C      79.43953616      84.87595210     104.94524572
H      79.89307047      82.88796000     105.23248412
H      78.45687848      85.18019803     106.72914736
C      81.73933308      86.48599891     105.23626357
H      82.47443662      86.16474544     107.13165906
H      81.15162820      88.45887319     105.12854917
H      83.06781068      86.01923652     103.73393115
C      79.65118551      82.15663592     100.12644362
O      78.43231203      80.71855421      98.76962013
N      81.90940845      81.56326187     101.23571296
H      83.07347986      82.95787989     101.81963839
C      82.74277775      78.97622655     101.76294661
H      81.32170357      77.88396474     102.77772964
H      84.46242870      78.94788064     102.89678239
C      83.37772579      77.64963868      99.34787638
O      84.56825337      78.73056213      97.72460147
N      82.54624622      75.21567118      99.04740989
H      81.36894672      74.52970053     100.38344640
C      82.45742908      73.98923881      96.54163280
H      83.90306971      74.95488894      95.43803264
C      83.34749017      71.23212811      96.52462527
H      81.89051119      70.14742520      97.49216514
C      83.71220735      70.07750534      93.95837693
H      83.33615182      68.05360846      94.00373036
H      85.52445489      70.72568146      93.22516312
H      82.44420100      70.99780205      92.62234043
C      85.74177341      70.81449860      98.20270223
H      85.06336167      71.07528082     100.12833334
H      87.29890789      72.11085085      97.83420560
C      86.87371947      68.12919751      98.01183987
H      87.53701341      67.49613920      96.16746699
H      85.38461514      66.79694045      98.52017625
H      88.44219231      67.76825978      99.29496404
C      80.05936639      74.29726419      95.06575655
O      78.19609624      72.92154343      95.31520043
N      80.01968214      76.48745698      93.63901319
H      81.49366866      77.67609484      93.87144952
C      78.00901334      77.17153792      91.86456018
H      78.01279279      75.78069935      90.34522022
H      78.65907919      78.94977038      91.04819841
C      75.26135128      77.58727770      92.90013020
O      73.64752501      77.75546335      91.24850940
N      74.91175191      77.98789969      95.48527579
H      76.41219460      78.48489771      96.55675061
C      72.28881179      78.29970453      96.50950745
H      70.85073007      76.95610912      95.89912586
C      72.36629057      78.09372436      99.38945036
H      73.42453730      79.65085884     100.22281966
H      73.44721402      76.38919122      99.79952097
C      69.75468880      78.23545383     100.74816357
N      68.14086253      76.18888023     101.22248488
H      68.29582009      74.39930942     100.57808821
C      66.05082523      77.02980844     102.29773915
H      64.26314414      76.10195282     102.63222071
N      66.27003348      79.59794650     102.76828100
H      65.00202713      80.85272478     103.44480302
C      68.49235163      80.39730073     101.53239999
H      69.28981613      82.25679143     101.25838968
C      71.41197878      81.03035905      95.90290531
O      72.45510771      82.85583467      96.86477600
N      69.45800177      81.06437411      94.32687356
H      68.94777567      79.32015674      93.74672759
C      68.01425087      83.15630115      93.45570973
H      69.20477845      84.69075892      92.76784936
C      66.18121635      82.19443046      91.26929639
H      64.35952018      81.67853516      92.08376843
H      67.19977883      80.69020830      90.29986679
C      65.67476969      84.14084855      89.08477277
H      64.51069829      83.14874224      87.70527256
C      64.27826195      86.56725715      90.14112978
H      65.55949639      87.88628611      91.06898540
H      62.64742814      86.27057010      91.36378270
H      63.46567963      87.39495727      88.43848637
C      67.98212552      85.03657882      87.71283147
H      67.42465626      86.06270022      86.01585724
H      69.13863803      83.38684775      87.29331223
H      68.95911403      86.26679065      89.04886797
C      66.61396367      84.05203142      95.73282994
O      65.22123538      82.54402982      96.85532737
N      66.49680064      86.58804413      96.20337179
H      67.37741310      87.77857170      94.99961613
C      65.31761142      87.71432101      98.42380021
H      64.88864355      86.09482557      99.62188669
C      67.08072607      89.59648842      99.90534564
H      65.86185260      90.45064472     101.32830955
H      67.91220565      91.01945234      98.66757490
C      69.30115449      88.37005605     101.33019928
H      70.06838337      86.96409966     100.03384703
C      71.40253015      90.10671453     102.33175423
H      70.89986295      91.81124766     103.37299342
H      72.51746867      90.73032421     100.71414850
H      72.57793992      89.03901916     103.64322429
C      68.39030641      86.82803938     103.65267292
H      68.59439685      87.78424089     105.46681018
H      69.75846826      85.33704532     104.05140517
H      66.44766776      86.21387832     103.34842698
C      62.84018023      89.17507946      97.73216038
O      60.66510524      88.47777045      98.27829128
N      63.22946385      90.98165780      96.06164232
H      64.93588671      91.32369827      95.27929563
C      61.20367724      92.48965940      95.10733053
H      59.60307905      91.20086607      94.94859352
C      60.53093467      94.61371178      96.88934244