 %block lattice_cart
   142.669   0.000   0.000
   0.000 146.65   0.000
   0.000   0.000   162.396
 %endblock lattice_cart

 %block positions_abs
N      92.33691824      43.15740914      79.08528598
H      92.91328477      43.21599066      77.26925900
H      90.88371871      41.97066101      79.44433398
H      93.81468423      42.92497280      80.27392384
C      91.09536805      45.61405335      79.66165251
H      92.48053745      46.99733301      80.30415945
C      90.04656995      46.83859600      77.28437680
H      88.17952035      47.67196530      77.52626177
H      90.12404874      45.46098552      75.75558821
C      91.86070721      49.03634770      76.64753903
H      91.34292221      49.87727591      74.84096068
H      93.80145613      48.34659759      76.62486232
S      91.49410030      51.42496176      79.11552160
C      94.56679529      53.17862778      79.09284489
H      94.75387819      53.48665317      77.06327882
H      96.01432565      51.83125292      79.66543196
H      94.51199322      54.71497527      80.46289647
C      89.21131092      45.16240876      81.57783498
O      88.46486903      43.04402556      82.26191592
N      88.37605189      47.30724812      82.63608172
H      89.26800271      48.93619220      82.19766523
C      86.87938866      47.57558926      84.87729713
H      85.55658024      46.00900615      85.06438003
C      88.66140057      47.38850635      87.23189611
H      90.31302136      48.60737983      87.05804129
H      89.26422325      45.43830880      87.49645781
C      87.34993051      48.11983044      89.66208416
O      85.07470002      48.19352976      89.84916706
N      88.68596701      48.37872294      91.88818176
H      87.80346482      48.02912357      93.54358200
H      90.49632482      48.95886892      91.70676803
C      85.59626449      50.04546155      84.46344706
O      86.90773455      51.86148854      83.71322573
N      83.11883328      50.35915612      84.89430466
H      82.38561947      48.68485861      85.44610475
C      81.79980432      52.88005102      84.85651014
H      82.06247627      53.73987649      83.00079890
C      78.92553061      52.63438660      85.18532253
H      78.17341953      51.12827473      83.99857439
C      78.23389077      51.94841595      87.85361607
H      79.24489435      50.31191296      88.59249906
H      76.22511170      51.50244054      87.93109485
H      78.65718947      53.59436757      89.01768748
C      77.40052146      54.95119106      84.36329158
H      78.40963532      56.63304748      84.99823961
H      75.54292051      54.96252942      85.25335266
C      76.95832551      55.04000820      81.53626102
H      78.55514425      55.86581859      80.53281634
H      75.20088004      55.94896655      80.96556366
H      76.76557343      53.09736955      80.88052598
C      82.93175039      54.79623350      86.80103851
O      83.57614706      56.96941876      86.26246651
N      83.46843266      53.74743540      89.08571763
H      82.79569008      52.02400500      89.55814921
C      84.44731089      55.36504112      91.21732891
H      83.24922441      57.03933863      91.19276247
C      83.90117998      53.94396693      93.66830394
H      84.59093008      55.09292053      95.23299732
H      85.32414389      52.45486260      93.68153202
C      81.23288643      53.05768529      94.15774305
C      80.44865000      50.49521641      93.78546697
H      81.60327279      48.88705932      93.29224840
C      77.89940921      49.79223822      94.23900129
H      77.10194470      47.94975507      93.88373273
C      76.19676581      51.60259603      95.20276171
H      74.20499427      51.20008433      95.38984461
C      76.97533305      54.08380668      95.70731864
H      75.64496572      55.38582811      96.54446738
C      79.42063889      54.80190268      95.06292196
H      80.02346159      56.69918790      95.51645627
C      87.22898801      56.26833030      90.72411034
O      88.09448267      57.98042234      92.05069821
N      88.66895948      55.21575274      88.89107583
H      87.88850250      53.71342032      88.01235309
C      91.14072149      56.16439535      87.98211746
H      91.89661202      57.27744415      89.53925194
C      93.12682384      54.08191695      87.44732491
H      92.75643748      53.11815654      85.66531301
H      92.83958545      52.60793043      88.85706074
C      95.84236055      55.07591300      87.63440782
H      95.84425029      56.11904192      89.41075055
H      96.45274216      56.41572895      86.19443637
C      97.76799167      52.87816129      87.70432769
O      97.62815192      51.16228980      89.35216904
O      99.49142206      52.96319898      86.10750896
C      90.76088649      57.89538465      85.72200480
O      91.83614077      59.90038427      85.67476163
N      89.06769173      57.15650167      84.08172235
H      88.24944023      55.43874045      84.22345182
C      88.56124508      58.48497926      81.70444665
H      90.17885080      58.13537990      80.47801427
C      86.35782418      57.13949413      80.23423958
H      84.59470953      57.32279758      81.28681714
H      86.78112289      55.15528150      79.87330185
C      86.53356873      58.33947034      77.65665290
H      88.32502928      58.06923948      76.67588493
H      86.23688171      60.37281585      77.53760013
S      84.21487455      57.02800028      75.61196901
C      81.52201455      58.86670398      76.47368421
H      81.50122756      60.83579880      75.87086152
H      80.78502130      58.36403678      78.33128518
H      80.24833901      58.10514428      75.04694086
C      87.84125934      61.27610503      82.09750972
O      89.16595750      63.01087378      81.21500753
N      85.83248027      61.83357429      83.44299487
H      84.94241919      60.35769804      84.26124635
C      85.24855485      64.42060961      84.17242921
H      85.16351715      65.55822485      82.45844745
C      82.62750444      64.60013361      85.40642049
H      81.85460639      66.48985993      85.67287190
H      82.70498323      63.72330060      87.26969064
C      80.68864526      63.25275875      83.66787229
H      81.21020971      61.29500229      83.28803730
C      78.14507363      63.03166077      84.95099645
H      78.46821683      61.55767425      86.35317338
H      76.59927751      62.62347989      83.65464420
H      77.71799548      64.83445968      85.85239591
C      80.24455957      64.82879050      81.34161921
H      78.85561072      64.11825340      79.99424433
H      81.99255641      64.86658502      80.25124711
H      79.70220811      66.75064216      81.84617612
C      87.31969488      65.75664612      85.72578424
O      87.46709354      68.04321496      85.60673148
N      88.93541089      64.32423357      87.00134951
H      88.80313004      62.43450726      86.75946454
C      90.90072625      65.33523715      88.57738126
H      90.12593846      67.04166001      89.43153754
C      91.44874688      63.29811218      90.72033089
H      92.61848747      61.68995509      90.18742807
H      89.66295551      62.80867307      91.62173035
C      92.94163066      64.34502056      92.86894971
H      91.73976473      65.81522763      93.66641422
H      94.59325147      65.39948784      92.23967085
C      93.80523558      62.46474288      94.83993426
H      94.99765290      63.57212250      96.10416115
H      95.02221934      61.01721252      94.01979303
N      91.60937362      61.20240570      95.82826112
H      90.72876116      59.90416373      94.73977876
C      90.41506659      61.77688250      97.88428335
N      90.74954815      64.07856915      98.88772801
H      89.80657472      64.67761239     100.43352415
H      91.80590514      65.23130220      97.79357648
N      88.82202731      60.23297610      98.84993349
H      88.26077858      60.62981863     100.63383513
H      88.95619787      58.47742036      98.11294022
C      93.25532524      66.17805508      86.97678307
O      94.70285559      67.72385121      87.94054349
N      93.27611222      65.49397416      84.50502105
H      91.83236132      64.44895551      83.81905040
C      95.16961799      66.34246127      82.74001667
H      96.28833597      67.78432245      83.69432846
C      96.95540936      64.32990275      81.74980009
H      98.17239309      64.96674052      80.21534231
C      98.69773702      63.33401698      83.91164699
H     100.21896670      62.28710861      82.99701945
H      97.52799642      62.11136406      85.08894648
H      99.40260492      64.82312132      85.14752799
C      95.56835023      62.06223117      80.62163347
H      94.65750216      62.98441762      79.01914557
H      94.21719592      61.08335294      81.82727886
C      97.44295874      60.21218911      79.45000316
H      99.11914598      61.13815501      78.69600236
H      96.53400039      59.14638347      77.94011183
H      97.97586157      58.82890945      80.87863626
C      93.96964178      67.60101900      80.29849028
O      95.33780362      68.81233356      78.72245853
N      91.40906262      67.62747517      79.98290599
H      90.32058026      66.55411062      81.12619040
C      89.91617884      68.87658426      77.94578101
H      91.22008999      69.32444940      76.41321297
C      87.85070798      67.08701344      77.11808089
H      86.52223037      66.50119828      78.57883933
H      89.00911021      65.44295155      76.67966438
C      86.45231051      67.62369571      74.56506064
O      87.01355922      66.26498249      72.76604119
O      85.05013358      69.57956245      74.26459415
C      89.01666912      71.38236135      78.93599760
O      89.47587261      73.34389726      77.61507891
N      87.96598128      71.44661205      81.25469179
H      87.55591068      69.80255015      82.13152479
C      87.26111336      73.73696034      82.60773583
H      87.31024626      75.22228522      81.18288219
C      84.47943624      73.32500000      83.45622295
H      84.39061910      71.59023124      84.56549229
H      83.31536482      73.17760135      81.76302817
C      83.40607169      75.18260097      85.29114720
H      84.80257944      75.69093734      86.71789057
H      81.95476189      73.99207339      86.13774459
C      82.35916331      77.66948079      84.07038399
O      80.26723628      77.77341574      82.98379137
O      83.82937039      79.56109683      84.09495043
C      89.20186230      74.51174812      84.67887586
O      89.91239939      76.72083818      84.88674577
N      90.13916654      72.84500952      86.37585010
H      89.44563698      71.08756405      86.11884731
C      91.92873736      73.65570211      88.36006273
H      93.22697934      75.02953313      87.54181123
H      92.95107929      71.91148472      88.76635389
C      90.67017964      74.41726181      90.86772955
O      88.45353067      74.92370846      90.93764941
N      92.16306342      74.97284135      92.83304491
H      94.00554658      74.47962278      92.85761135
C      91.12560368      75.90447642      95.29724802
H      89.06580200      75.94227094      95.34260145
C      92.15928397      73.99207339      97.30413737
H      94.18507057      73.62924594      97.17563598
H      91.48465168      72.09478817      96.86950031
C      91.58291744      74.89158311     100.04801997
H      92.01566478      76.88524437     100.32958919
C      89.12816297      74.06199326     101.29334961
H      88.96942595      74.40025427     103.32102595
H      88.79179168      72.05888337     100.94941943
H      87.69197096      75.24685166     100.41084742
C      93.60870406      73.60467949     101.83192161
H      95.38882624      74.42104126     101.19697357
H      93.58224789      71.54487781     101.76011202
H      93.55579171      74.23206863     103.79156779
C      92.05345930      78.71827890      95.83770974
O      94.23042401      79.38913174      95.45976448
N      90.49821454      80.32832572      96.88083868
H      88.67084920      79.78408454      96.81658798
C      91.03678655      82.71693978      98.29435395
H      92.97564574      82.93236858      98.95764790
C      90.44530220      85.02429560      96.58982083
H      90.24499121      86.71371093      97.75389222
H      88.62927522      84.82587434      95.64117821
C      92.53911895      85.22460659      94.60938764
H      92.94163066      83.43881523      93.66452448
H      94.26443908      85.73483270      95.61283231
C      91.98542915      87.22960621      92.64785173
H      93.80334587      88.04785770      92.12817699
H      90.84970363      88.64312149      93.62484023
N      90.69663580      86.26395607      90.42175413
H      90.26388848      84.41013455      90.31403973
C      90.33380836      87.60755147      88.39407780
N      90.77222485      89.96215046      88.15975173
H      90.50199399      91.02417665      86.59694808
H      91.89094284      90.68213619      89.53169304
N      89.24154655      86.50206158      86.47033641
H      89.47209316      87.41290966      84.80926698
H      88.40817724      84.80130790      86.69710357
C      89.41918082      82.73016786     100.59037143
O      87.37827640      81.74562045     100.55068718
N      90.37538234      84.06431464     102.55190733
H      92.02511341      84.96193464     102.20041825
C      89.16406776      84.48572360     104.88949879
H      87.58425657      83.16480491     104.96130838
C      90.87427007      83.61455977     106.94552101
H      89.88027404      83.73172281     108.74454047
H      92.49376553      84.87878668     107.10236829
C      91.76244145      80.91225115     106.90961621
H      93.16461836      80.68926344     105.41673242
C      93.51043828      80.40391477     109.36248097
H      94.78033437      81.98372597     109.73475705
H      94.43451445      78.58221860     109.09036038
H      92.25377029      80.40769422     110.99520451
C      89.88216377      78.80520631     106.54678877
H      90.75332760      76.96272315     106.25388118
H      88.89005744      79.01685565     104.75343849
H      88.54045809      78.82977275     108.10770270
C      87.91117922      87.07464865     105.12571457
O      86.25955842      87.35432815     106.69040796
N      88.54612726      88.90579345     103.53267529
H      89.68941168      88.38233926     102.09837303
C      87.49165998      91.47204178     103.09992797
H      86.42585433      92.09187201     104.74776931
C      89.69886031      93.32019412     103.17173757
H      88.99210267      95.15700809     102.56513542
H      90.92529269      92.67012827     101.65050788
C      91.14261122      93.59609416     105.66428658
H      93.06446288      94.16112233     105.18807555
H      91.11804478      91.83108978     106.72253331
C      90.07302613      95.74471298     107.27055394
H      88.33258818      95.03039643     108.11148216
H      89.66673496      97.30751664     105.99120923
C      91.87393529      96.48359597     109.41161385
H      93.77499997      96.85965150     108.71997402
H      92.19518877      94.89055668     110.67773048
N      90.98576393      98.58875108     111.06323466
H      90.50199399     100.05517870     109.93884750
H      92.21219630      99.13110253     112.42194788
H      89.28501024      98.20891609     111.84369161
C      85.80035492      91.60243290     100.78123378
O      86.00066592      89.99994499      99.10315682
N      84.17519029      93.55640991     100.64328377
H      83.99377657      94.86410052     102.02089424
C      82.43853182      93.90978873      98.53812865
H      81.51445564      92.10698983      98.16585256
C      80.42597330      95.82219176      99.37905685
H      81.56169880      97.29050910     100.27667686
C      78.97466349      97.04673441      97.20587159
H      80.38439931      97.96892085      96.02290292
H      77.63862699      98.43946270      97.93152650
H      78.08271267      95.69369037      95.93597551
C      78.67419700      94.43891210     101.28012152
H      79.90818828      93.80963323     102.80135121
H      77.62539889      92.83453446     100.52234128
C      76.72399945      96.30974115     102.51978199
H      77.88618113      97.74404342     103.43629925
H      75.66008354      95.18157454     103.87660548
H      75.69787805      97.00516043     100.87572009
C      83.89740052      94.74882721      96.15707349
O      85.54713161      96.44013226      96.37628175
N      83.06781068      93.61121197      94.13695606
H      81.72421526      92.27706519      94.35994378
C      83.83692928      94.21781412      91.52913376
H      85.00855961      95.89589108      91.76157009
C      85.65106654      92.23549121      90.64852129
H      87.37071750      92.21281450      91.78046735
H      86.30302213      92.90067488      88.81359704
C      84.75155682      89.50483669      90.30081165
C      84.17141084      88.57131189      87.95566129
H      84.05991700      89.91112785      86.41931381
C      83.71787654      85.97104849      87.68732015
H      83.55913951      85.24539358      85.78625548
C      83.64984638      84.22494137      89.72633486
O      83.47221211      81.70215675      89.27657998
H      83.87283408      81.15602584      87.59283385
C      84.00889438      85.28696756      92.08282356
H      83.85204709      84.20604411      93.80625396
C      84.67407805      87.92124604      92.51557088
H      84.81202806      88.50706120      94.46387871
C      81.44831523      94.58064157      89.96066092
O      79.34504985      94.56363403      90.89229599
N      81.92452625      95.08519849      87.58149549
H      83.74433269      95.39511361      87.09394610
C      79.95543145      95.88833218      85.62751847
H      78.10916883      95.85620683      86.53836656
C      80.47510618      98.47347777      84.89052521
H      79.82881977      98.79473125      82.96111465
H      82.43475237      99.07630047      85.08138758
C      78.86505935     100.21013626      86.74434672
H      79.73811292     100.24037188      88.60761687
H      76.87706728      99.69235125      86.87284811
C      78.64207165     103.11842505      85.86184454
H      80.58282057     103.78360871      85.67476163
H      77.90885784     104.22958412      87.43409683
C      77.31170432     103.47747305      83.42220787
H      75.39174239     102.73481061      83.46945102
H      78.36050244     102.47591810      81.95955971
N      77.39296257     106.30450361      82.93465848
H      76.87706728     107.46101612      84.36329158
H      76.51801928     106.84874479      81.32839111
H      79.21087927     106.88087014      82.86851806
C      79.64740606      93.97970860      83.44488458
O      81.55413990      92.99327147      82.43955019
N      77.39674202      93.67546266      82.31293852
H      76.06448496      94.77150393      83.13119001
C      76.83360358      92.52083989      79.97156763
H      77.80114345      90.70103345      79.93188337
C      74.05948535      91.66857332      80.14353271
H      72.80092762      93.27673041      80.40620467
H      73.86106409      90.36466216      81.72523365
C      73.35083797      90.09443130      77.93444265
O      72.37573919      91.21503901      76.03715744
O      73.96877849      87.83431863      78.05538515
C      77.10383444      94.46347854      77.76058783
O      76.76368369      96.72548093      78.09317967
N      77.57059684      93.38444481      75.47779845
H      77.92019620      91.50983631      75.43055530
C      78.09216130      94.86221079      73.25925975
H      79.65496495      96.13777605      73.67310982
C      78.63640248      93.13878039      70.90466077
H      77.99767499      93.99671614      69.14343586
C      81.59382415      92.72870978      70.64576826
H      82.40829619      91.81408225      72.30305824
H      82.43853182      94.60709774      70.66088608
H      82.17774959      91.77250827      68.91855842
O      77.59705300      90.74827661      71.19756835
H      78.10538938      89.93947374      69.65555169
C      75.74134177      96.40800691      72.71123912
O      76.03235961      98.39032982      71.43945332
N      73.43020649      95.75794106      73.52760090
H      73.28469756      94.02128258      74.30616814
C      71.10773285      97.36042898      73.21390632
H      71.29670548      98.82307714      71.77582460
C      68.81360509      95.66156502      72.81706381
H      67.05238017      96.72737066      72.76982064
H      68.57738932      94.55040595      74.53482503
C      68.94399621      93.83986885      70.43600864
H      67.70244603      92.21281450      70.66088608
H      70.92442940      93.28428932      70.53049497
C      68.70211124      95.29873757      67.91322403
O      67.37174393      94.32930797      66.19924226
O      69.89263883      97.25649403      67.42756435
C      70.45955672      99.23881693      75.45134228
O      68.54904341     100.53516918      75.26425937
N      72.05259599      99.32574434      77.30327406
H      73.62106883      98.23915171      77.31272270
C      71.67087129     101.25515491      79.24591272
H      70.29515052     102.64977293      78.60907495
H      73.48500854     102.18867970      79.52748195
C      70.90175268     100.17612118      81.83294804
O      71.24946232     101.52349604      83.61307023
N      70.21767175      97.73837424      81.98223642
H      70.11751625      96.85587205      80.29093137
C      69.17832227      96.49115487      84.13652441
H      67.98023579      97.74215369      85.24768348
C      67.58150355      94.21970384      83.21622770
H      66.41932187      93.68680102      84.83194370
H      68.83439209      92.63989265      82.80237765
C      66.00547180      94.50694224      80.79926775
C      65.56894503      92.34698507      79.19111065
H      66.52703626      90.56308343      79.44811343
C      63.82472764      92.59831867      77.18422132
H      63.68299815      91.16968557      75.73291151
C      62.45467606      94.80551900      76.95178497
O      60.96746145      95.17779508      74.78048945
H      59.64654276      96.40989664      74.95434427
C      62.95167407      96.90878439      78.35774136
H      62.26570343      98.76827508      77.87208168
C      64.55794145      96.68201723      80.42510193
H      64.64297913      98.18812910      81.80082269
C      71.26835959      95.62943967      86.00168428
O      73.53036198      95.56707870      85.34405953
N      70.61829373      95.39889306      88.52824836
H      68.77392084      95.17968481      88.96288542
C      72.59305772      94.88866696      90.39340823
H      74.42420252      95.64455748      89.83782870
C      72.22267136      96.16234249      92.99556137
H      73.77413667      95.83164039      94.31081088
H      70.44632864      95.55385062      93.84026904
C      72.30203987      98.96291689      92.81036819
C      70.07783201     100.44635204      92.65919009
H      68.24101803      99.55629095      92.63084420
C      70.19877449     103.07874080      92.95020794
H      68.40353448     104.02171423      93.18831345
C      72.58171936     104.35997524      93.04091480
O      72.81793516     106.83929616      93.13351139
H      71.25891094     107.71045999      92.80847847
C      74.78325052     102.85008391      92.74233804
H      76.64652066     103.68534294      92.82359627
C      74.56215255     100.27816640      92.73288941
H      76.30825966      99.22180939      92.81414764
C      72.98423107      91.95014254      90.85450146
O      71.05671023      90.60843686      91.13607068
N      75.32371224      90.97126431      90.99812066
H      76.86005975      92.03895968      90.61828567
C      75.95110139      88.30863994      91.27780015
H      74.21822235      87.30330554      91.74834200
C      77.04525291      87.28062882      88.70399291
H      78.95765594      88.04596798      88.73611826
C      76.86005975      84.39501674      88.57549152
H      74.95143616      83.62211868      88.55281482
H      77.99389552      83.69959746      90.14963355
H      77.96932908      83.64479540      87.00890842
O      75.75456984      87.87778234      86.51002066
H      76.33282610      86.64757051      85.30815473
C      77.62917835      87.87967206      93.57003818
O      79.10883405      89.51806478      94.32025952
N      77.50067696      85.72538407      94.87772878
H      76.06637468      84.53296676      94.47332735
C      79.07103953      85.25295249      97.18319489
H      80.65085072      86.57198145      97.10382637
C      77.67831123      86.24127935      99.62850073
H      77.24556391      88.24438924      99.41496165
C      75.35583759      84.75406474     100.06124805
H      74.07082371      84.82398461      98.45120123
H      74.42798197      85.39657169     101.78467846
H      76.02669044      82.82276445     100.30124330
C      79.33182175      85.88412108     102.11349083
H      79.95165199      83.93392352     102.35159634
H      78.37750997      86.32820676     103.88416438
C      81.72988445      87.44692474     102.09270384
H      82.44798045      87.46393227     104.02211440
H      81.13462066      89.33098187     101.51066814
H      83.08670795      86.48316432     100.87949955
C      79.63795742      82.38056849      97.11705446
O      78.55136480      80.97461212      95.66385492
N      81.38217481      81.52452247      98.67229921
H      82.37239139      82.86244870      99.60582401
C      82.32703797      79.06409881      98.74032937
H      80.84738226      77.83010753      99.46598427
H      83.83692928      78.93559742     100.13494739
C      83.33237236      78.11167675      96.28746462
O      84.97076508      79.28330707      95.10827539
N      82.54435649      75.80621065      95.60149395
H      81.35004946      75.01252560      96.86572086
C      82.62939418      74.55332210      93.11839359
H      84.01267384      75.44527292      91.87873312
C      83.29268810      71.62613604      93.42830869
H      81.71665637      70.80788455      94.46765817
C      83.46087375      70.22773857      90.75245623
H      83.51945527      68.18305470      91.00190011
H      85.09170755      71.04787979      89.79625472
H      81.79035570      70.57733794      89.59783347
C      85.54524188      71.05354897      95.31614529
H      84.97454452      71.65448194      97.20209214
H      87.16662705      72.19494367      94.75867602
C      86.30680158      68.22462868      95.54102271
H      87.70519906      68.02998687      97.04146540
H      87.08725854      67.63503407      93.72688546
H      84.68541641      67.00953466      95.90196044
C      80.12550681      75.12968863      91.87495366
O      78.36428188      73.68782745      91.92597627
N      79.83826841      77.37468349      90.75623569
H      81.23099670      78.65969738      90.99434120
C      77.72177494      77.77152601      88.99690050
H      77.78980509      76.31832648      87.53614205
H      78.16208116      79.51952285      88.00101473
C      75.13473962      77.95105001      90.27624520
O      73.45477293      78.27797267      88.75123608
N      74.95143616      78.51607818      92.73666886
H      76.56904188      79.06220909      93.58893543
C      72.57793992      78.99795839      94.03302111
H      71.40253015      77.32744033      93.76467998
C      72.91242148      79.03008374      96.82603660
H      74.18231755      80.53997506      97.42319012
H      73.75523940      77.22161566      97.34193189
C      70.49357180      79.08866525      98.36805329
N      68.97612156      77.00240741      98.62883551
H      69.53170110      75.35267633      97.84459910
C      66.85584864      77.56932530      99.81936308
H      65.29493471      76.28431141     100.09526313
N      66.86340755      79.98628525     100.20108780
H      65.47823815      81.12956967     100.84737420
C      69.01202636      81.10689296      99.27890136
H      69.30871340      83.11756175      99.07292119
C      71.34205891      81.59444235      92.91430314
O      72.30959878      83.51818373      93.50578748
N      69.07249760      81.60200125      91.69353994
H      68.19188515      79.93148319      91.40630154
C      67.48701723      83.89801872      91.37795564
H      68.53203588      85.30775455      90.29892193
C      65.27036827      83.27440904      89.67531224
H      64.27826194      81.67759030      90.51435072
H      66.09428894      82.44859864      87.97833801
C      63.34284743      85.28129838      88.69076483
H      62.29404932      85.56853678      90.43876167
C      64.42755032      87.65857408      87.42086875
H      65.46878953      87.10299455      85.73145342
H      65.68232860      88.80563796      88.58494015
H      62.76270145      88.79052015      86.97867279
C      62.00114175      83.74873034      86.62907343
H      61.48524646      81.92325472      87.43220711
H      63.33717825      83.26873986      85.13618963
H      60.50825796      84.86366887      85.74657124
C      66.70467054      85.12445110      93.84782795
O      65.27036827      84.05675573      95.24811514
N      67.46623024      87.41479939      94.33726705
H      68.47345437      88.39178789      93.04469425
C      66.36451980      88.96626469      96.35549475
H      65.59729092      87.64723573      97.74066414
C      68.17298788      90.67268755      97.90129089
H      67.15631513      91.93880418      99.16740752
H      69.15186611      91.68936031      96.39895846
C      70.34617314      89.23082638      99.38472603
H      71.31182329      87.85699535      98.19041900
C      72.43054127      91.05630200     100.24833097
H      71.38363288      92.09187201     101.69019213
H      73.08627630      92.48871454      98.92174309
H      74.00657301      89.99805526     101.04957491
C      69.14619694      88.03085017     101.67507432
H      68.18432624      86.35844238     100.95508860
H      67.70622549      89.25161337     102.50088472
H      70.58238893      87.42991720     103.02433891
C      64.03448726      90.35899299      95.49188983
O      61.85374309      89.52751341      95.87172483
N      64.32361538      92.59453921      94.23144239
H      66.09995811      93.02161736      93.67775257
C      62.29404932      93.92868599      93.15996756
H      60.75581211      92.63422347      92.70643324
C      61.27170738      95.79384586      94.93631029