 %block lattice_cart
   142.669   0.000   0.000
   0.000 146.65   0.000
   0.000   0.000   162.396
 %endblock lattice_cart

 %block positions_abs
N      92.27928159      42.63584468      77.81633477
H      91.08875401      42.88339882      76.34612770
H      91.92968222      40.93887045      78.61946845
H      94.07452158      42.84371457      77.20028399
C      91.97314592      44.87139091      79.54165489
H      93.07107691      44.44620249      81.23107021
C      93.08619472      47.32992484      78.53443077
H      92.38510626      47.52645638      76.60690993
H      95.14410668      47.21843099      78.53821022
C      92.37754735      49.68641355      80.15770567
H      92.70824946      49.13839292      82.11357240
H      90.35176075      50.05868963      80.17849266
S      94.43356958      52.36226601      79.46228639
C      93.84775443      53.35815178      76.27809755
H      94.61876276      55.25732672      76.08534546
H      91.83519590      53.54712441      75.87936530
H      94.73403607      52.04668172      74.96473776
C      89.32185991      45.12461423      80.61690916
O      87.35465481      44.64462375      79.44716857
N      89.30296264      45.92207874      83.00930267
H      90.93946563      45.95987326      83.99007063
C      87.03718079      46.62505692      84.57777551
H      85.64067305      45.26256425      83.91637130
C      87.60787814      45.79357735      87.32165812
H      89.14989481      47.01245082      87.93581917
H      88.29762824      43.86794623      87.56354309
C      85.73893882      46.11105137      89.36256254
O      83.91346320      47.47354404      89.30020157
N      86.06586147      44.79580185      91.37512106
H      85.05485789      45.36838893      92.88879184
H      87.36032399      43.39362493      91.34110599
C      85.97704433      49.37271898      84.34722890
O      87.27906576      51.28512201      84.37368507
N      83.40134737      49.55602244      84.21683779
H      82.52073490      47.89495301      84.53998099
C      81.84799234      51.85581936      84.11857202
H      82.22404787      52.45675233      82.18538200
C      78.83576859      51.25677612      84.32077274
H      78.45593361      49.89806290      82.81655059
C      78.30475550      50.31947187      86.96261012
H      78.24995344      51.87660635      88.30998498
H      79.49150363      48.68863806      87.38401909
H      76.35455795      49.65050875      86.98339711
C      77.28052384      53.77011211      84.06376996
H      77.96271504      55.07591300      85.50374141
H      75.30764957      53.29957026      84.41525905
C      77.42981222      55.08158217      81.49185245
H      76.00495858      56.56690706      81.40114558
H      76.77785664      53.66617717      80.14447758
H      79.31953853      55.82046516      81.13658390
C      82.68703082      53.86459843      86.05176204
O      82.76828905      56.13793918      85.46972633
N      83.69803440      53.08792091      88.28352881
H      83.88700703      51.27189393      88.84099808
C      84.38967423      55.12693561      90.20727020
H      83.18213911      56.76532832      90.52096477
C      84.62400029      53.95719502      92.81887197
H      85.97704433      55.13071506      93.83554472
H      85.54051755      52.12227077      92.63367879
C      82.14467937      53.59436757      94.38545508
C      80.46093322      51.60448576      93.84877281
H      81.05430729      50.64639452      92.14612940
C      78.33499112      50.99410416      95.41913537
H      77.02352106      49.48421284      94.99961613
C      78.00050956      52.50777494      97.58098227
H      76.32621205      52.05990980      98.65434682
C      79.70126325      54.49009784      98.04963440
H      79.39890704      55.49165278      99.80330042
C      81.75539575      55.09103081      96.47549238
H      82.76639933      56.75776941      97.08209453
C      87.06930614      55.94329737      89.47972557
O      87.42079523      58.17884360      89.47783584
N      88.80974407      54.30490466      88.75785012
H      88.37510702      52.47942904      88.41391993
C      91.42890474      54.94741161      88.13801989
H      92.29250967      55.90361312      89.74617698
C      92.64021931      52.31880230      87.55787391
H      92.53817409      51.73109742      85.58688937
H      91.63866437      50.86560277      88.62178982
C      95.38410192      52.23754407      88.04920275
H      96.10408764      53.70775115      86.79820393
H      96.24014794      50.54623902      87.24795879
C      96.34597261      52.56446673      90.79686481
O      96.00960133      50.73521165      92.21415955
O      97.52138238      54.57324580      91.12378746
C      91.54606778      56.40061114      85.59633800
O      93.22792419      57.86136958      85.13713450
N      89.66012092      56.22864605      83.83322335
H      88.24471591      54.95308079      83.94282747
C      89.68846681      57.88026684      81.53531615
H      91.54228832      57.85192095      80.63958588
C      87.92535216      56.68973927      79.42260213
H      86.05452311      56.40250087      80.23518445
H      88.47337279      54.77166706      78.90103767
C      87.71748227      58.07679838      76.93005313
H      89.61287776      58.29033745      76.15526534
H      87.13733629      60.01565758      77.32122647
S      85.66334976      56.46297211      74.87970008
C      82.56041916      57.08658179      76.47273936
H      82.53207326      56.31368373      78.38325266
H      81.13556552      56.09258575      75.36913919
H      82.05208278      59.08213278      76.42360647
C      88.84753860      60.59391383      82.24585324
O      90.06074289      62.38537437      81.40114558
N      86.74805267      60.91894676      83.57055139
H      86.25672383      59.27677459      84.40958987
C      85.82586623      63.38692932      84.38313370
H      85.46870795      64.39793290      82.62379851
C      83.22938227      63.30945054      85.79097981
H      82.44703558      65.19161795      86.09144629
H      83.31441996      62.21529901      87.53330747
C      81.02974084      62.24364490      84.28297821
H      81.44170118      60.36147749      83.54787467
C      78.71293638      61.92617088      85.97995244
H      77.94381777      63.76487458      86.49395800
H      79.12489672      60.99642553      87.77141298
H      77.23517041      60.96996937      84.91225707
C      80.13590030      63.94628831      82.16270529
H      79.67480708      65.89459614      82.63891632
H      78.57120691      63.06756557      81.14981198
H      81.59476901      63.96140612      80.70950575
C      87.69669528      65.00075559      86.01396751
O      87.84976311      67.30433197      85.54720511
N      89.08564412      63.86125062      87.66936776
H      88.81919271      61.99420103      87.96038561
C      91.14922525      65.42027483      88.92981521
H      90.48026214      67.16449222      89.80097904
C      92.43234942      63.73463896      90.97260936
H      94.02349897      64.75131172      91.79653003
H      93.35075640      62.06412090      90.19026266
C      90.66545531      62.47797096      92.93414527
H      88.99493725      61.64838111      92.06109171
H      89.85476273      63.89148625      94.19270299
C      92.10542676      60.33880078      94.26451259
H      94.03294760      60.89249059      94.73694417
H      92.79517687      58.94418276      92.91524801
N      90.69569093      58.99142592      96.22793823
H      89.70169489      57.40405581      95.85188270
C      90.22514908      59.76999316      98.60710366
N      91.04340058      61.92806061      99.48015722
H      90.61254298      62.46852233     101.25838968
H      91.91834386      63.08835256      98.24238648
N      88.86643586      58.55867859     100.30218816
H      88.42046045      59.32023829     101.99349322
H      88.14267069      56.82768929      99.93936071
C      93.25060091      66.27821058      87.06654507
O      94.67734428      68.16037799      87.68637530
N      93.77972428      65.09713163      84.85745501
H      92.80840495      63.52109989      84.38880288
C      95.53716975      66.22151879      82.91103691
H      96.82785282      67.47440734      83.91259185
C      97.23981316      64.22785753      81.61468466
H      98.26404482      65.15760288      80.08778579
C      98.97080246      63.12803682      83.60078701
H     100.56951092      62.36836684      82.54820945
H      98.10908726      61.44429067      84.41525905
H      99.79094368      64.55100073      84.84233720
C      95.67889922      62.16238667      80.12180087
H      94.30317847      63.13370599      78.93505274
H      94.44112849      61.17217008      81.43516066
C      97.42500634      60.19518158      78.65537325
H      98.56262158      61.05878650      77.17004837
H      96.20991232      58.75709985      77.81822449
H      98.70435105      59.24842869      79.96117413
C      94.21436133      67.94305946      81.05532567
O      95.34441766      69.90459537      80.24841253
N      91.75204794      67.45362035      80.51108449
H      90.99615742      65.77554338      81.01753114
C      90.17034702      68.94650413      78.69883695
H      91.36465405      69.22240417      77.04154698
C      88.17668576      67.15315386      77.69539228
H      86.63088964      67.25897854      79.05410550
H      88.81352353      65.27665563      77.13981275
C      86.77450884      68.20006224      75.35780083
O      88.09542753      68.37202733      73.36036012
O      84.54274206      68.84256919      75.33134466
C      89.38422087      71.55810590      79.59645695
O      89.47681746      73.51964181      78.31522251
N      88.38644538      71.65259221      81.93971758
H      87.86488092      70.03120704      82.79765333
C      87.54551717      73.97884530      83.18693695
H      87.74960761      75.58511267      81.91137169
C      84.93769486      73.45728084      84.27163985
H      85.12099831      71.89069773      85.59255854
H      83.68102686      72.96595200      82.71261564
C      83.76417482      75.72873187      85.84200242
H      85.13800585      76.48651212      87.17425947
H      82.31853419      74.80843516      86.98339711
C      82.42246914      77.50318488      84.12802065
O      80.21904826      77.12901907      83.49307261
O      83.54685629      79.42503654      83.29843080
C      89.24627085      75.01630505      85.35067358
O      89.36154416      77.35767595      85.76452364
N      90.70136011      73.33066918      86.70182789
H      90.77127999      71.46361958      86.30498536
C      92.42101106      73.89947680      88.83343917
H      93.61342836      75.49251608      88.30998498
H      93.63043590      72.24596628      89.05642688
C      91.34764651      74.79520707      91.38267997
O      89.42390513      76.09344905      91.45826902
N      92.87832483      74.25474535      93.35555424
H      94.33530381      73.02453352      93.28752409
C      92.79139742      75.39991949      95.93125120
H      90.77316971      75.47361882      96.34132181
C      94.10475720      73.55176716      97.80396998
H      95.98692461      73.39680960      96.98571849
H      93.32807969      71.66015112      97.55641583
C      94.31640655      74.57977827     100.48360189
H      95.32174095      76.36367991     100.69147179
C      91.51394243      74.91614956     101.44925204
H      91.43646365      75.33377907     103.46559001
H      90.62955051      73.06421777     101.26594858
H      90.55963064      76.45249705     100.46092518
C      95.48992659      72.50107933     102.19191448
H      94.58474769      70.65481672     102.04640555
H      95.30851286      73.23996232     104.10620723
H      97.48736730      72.32911423     101.72704180
C      93.98759417      78.01530071      96.16368754
O      96.17589724      78.40647406      95.44559154
N      92.54006382      79.79353317      97.16524249
H      90.73537519      79.46472079      97.70003503
C      93.46602971      82.21049312      98.17057688
H      95.50126495      82.01585131      98.41813103
C      92.66289603      84.38556811      96.28274030
H      92.81218441      86.21482318      97.22004455
H      90.75427245      83.91880571      95.66479979
C      94.43545931      84.35533249      93.95648721
H      94.00082226      82.66969662      92.85477677
H      96.37809796      84.46304689      94.64056813
C      93.95357910      86.62867324      92.31809449
H      95.76393691      87.31086444      91.61322658
H      93.37910230      88.30108103      93.37445150
N      92.26605350      86.06553480      90.27152090
H      91.64244382      84.27218453      90.07120991
C      91.84275481      87.51117543      88.30431580
N      92.36431927      89.97915800      88.31754389
H      92.27172268      90.94480814      86.67348200
H      93.29217489      90.74638688      89.79908932
N      90.73348546      86.67402668      86.30120591
H      90.23459771      87.71526587      84.78375568
H      90.02294837      84.91091203      86.48639909
C      92.21881034      82.56198222     100.75194303
O      90.01349974      81.89301910     100.97682046
N      93.61153864      83.41046933     102.62466180
H      95.38788137      84.01329203     102.26750353
C      92.55896108      83.71660500     105.20413822
H      90.90734028      82.48639317     105.29295536
C      94.54695316      82.91725077     107.14299742
H      93.79484209      83.32921110     109.01382647
H      96.21180204      84.12667561     107.18268167
C      95.18190120      80.10344829     107.09764399
H      95.72803211      79.30031460     105.28161700
C      97.45713168      79.45338243     108.88532508
H      97.84830503      77.43137528     108.80973603
H      96.91855968      80.01652087     110.79205893
H      99.10308330      80.51162917     108.23714895
C      92.82919194      78.64457957     108.18423662
H      93.26382899      76.65658749     107.86109342
H      91.11898963      79.07354744     107.12221043
H      92.56651998      79.16992349     110.15900061
C      91.55173695      86.43592116     105.93735203
O      90.48593131      86.71938011     108.01983043
N      91.81629864      88.28785295     104.22337026
H      92.79895632      88.04218853     102.60576454
C      90.58608681      90.76528414     104.52950593
H      89.52784007      90.77473277     106.29828976
C      92.85186866      92.63611319     104.76194226
H      93.89688731      93.09909614     103.04796050
H      94.18412571      92.07675420     106.22836988
C      92.03172744      95.30818620     105.68034925
H      91.22670403      95.19480262     107.57196529
H      90.71080875      96.13588632     104.33486412
C      94.40144423      96.99193234     106.27750277
H      95.26882861      97.00893988     104.40856344
H      95.62976634      96.17935003     107.71747422
C      93.59453110      99.58841630     107.09953371
H      92.71013918      99.34653133     108.94390659
H      92.14700074     100.24226160     105.78806365
N      95.72047320     101.38743575     107.30551388
H      96.77871994     100.86776101     108.80784630
H      94.98347994     103.04850518     107.88565986
H      96.71257952     101.65010771     105.69546706
C      88.71147831      91.36432738     102.31285696
O      88.95147355      90.21915324     100.38533612
N      86.76694993      92.95358721     102.66623578
H      86.68002252      93.90222982     104.31974631
C      84.83564964      93.41468043     100.59320602
H      84.27818038      91.45881370     100.27006282
C      82.51317600      95.01905807     101.34342736
H      83.07064526      96.81051862     102.18813503
C      80.69714901      95.73904380      99.25716951
H      78.93592409      96.57241310      99.92424290
H      80.20582017      94.09876136      98.11199537
H      81.53051832      96.94846864      97.80963916
C      81.05808674      93.57341744     103.35409616
H      82.40357187      92.74949677     104.67690458
H      80.03763453      92.06730557     102.38655629
C      79.02663095      94.90945395     104.81296487
H      77.41280468      95.42345950     103.63566538
H      79.96015575      96.60264872     105.52350197
H      78.41813908      93.64144759     106.31529729
C      85.99594159      94.42190456      98.17813579
O      87.62110622      96.08486371      98.29340909
N      85.06808597      93.65278595      95.94636901
H      83.61299671      92.41879467      95.88211832
C      85.99027242      94.33686687      93.43870220
H      86.75939102      96.22470346      93.74105841
C      88.01983848      92.43202275      92.72438565
H      89.10832083      92.28462410      94.46482358
H      89.01950370      93.18980300      91.08788266
C      86.92001776      89.79585454      92.10266569
C      85.89956555      89.38767366      89.61011669
H      85.76350526      90.86166018      88.20793976
C      84.95848185      86.96126507      89.00351454
H      84.35754888      86.58143009      87.09111151
C      85.08509351      85.08098739      90.85544633
O      84.32164408      82.69804251      90.26018254
H      83.41457545      82.71882950      88.68981997
C      85.99972105      85.56853678      93.22705285
H      85.81641759      84.19848521      94.73127499
C      87.10710067      87.86077480      93.88278788
H      87.57008361      88.18769745      95.84432379
C      83.86999949      94.83197517      91.57732178
O      81.64579162      94.11009972      92.23305681
N      84.35943861      96.02250275      89.41736460
H      86.02995667      96.92012274      89.19437690
C      82.55852943      96.13966578      87.36890128
H      80.63100859      95.96203150      88.07565892
C      82.66624383      98.81929769      86.00262915
H      81.84421288      98.94590935      84.11857202
H      84.64856673      99.17834569      85.58310991
C      81.56642312     100.81862813      87.82054587
H      82.92324661     100.86965074      89.36823172
H      79.63701255     100.27627668      88.29675690
C      81.71193204     103.39621482      86.72639433
H      80.58754489     103.31306686      85.00107421
H      83.69614467     103.87998476      86.45427374
C      80.62344969     105.25570551      88.57076721
H      81.97271427     105.29350004      90.12790170
H      78.80742270     104.58863212      89.27185568
N      80.21904826     107.84841001      87.35189374
H      81.82342590     108.75736837      86.85678545
H      79.12300699     108.81217043      88.58021585
H      79.10410973     107.68967300      85.80987707
C      82.83442947      94.10443054      85.25240781
O      84.82620101      93.52239483      84.12802065
N      80.61400106      93.16712629      84.42281796
H      79.00962342      93.61688115      85.34878385
C      80.08865714      91.68369113      82.06632924
H      81.63256354      90.33064709      81.91326141
C      77.49406291      90.40245669      82.48773821
H      76.02196611      91.69502949      83.12646571
H      77.55264443      88.88878591      83.88424596
C      76.48494906      89.20059076      80.13124950
O      75.55331399      90.55174507      78.37947321
O      77.06131559      86.96693425      79.69283300
C      80.50628666      93.54885100      79.83078302
O      80.67825175      95.91856780      80.19738992
N      80.58376543      92.57564195      77.45350731
H      80.68392093      90.69725400      77.12658466
C      81.02029221      94.18568877      75.14237203
H      82.92324661      94.96236628      75.28221178
C      81.00895385      92.57753168      72.75753743
H      80.90501891      93.64522704      70.99820223
C      83.48449532      91.12244242      72.59691069
H      83.91157347      89.74294221      74.06711776
H      85.18524901      92.27517547      72.74052989
H      83.18591857      90.13411555      70.81489878
O      78.94726245      90.92969033      72.59124151
H      79.38945840      90.02262170      71.08323991
C      79.01529259      96.28517470      74.75308841
O      79.72016051      98.32229967      73.87247595
N      76.71171622      95.92423698      75.64692896
H      76.41502919      94.37277167      76.72029350
C      74.61600974      97.78183794      75.58834744
H      74.89757896      98.74181891      73.78743827
C      72.05921004      96.39477883      75.44283852
H      70.57766461      97.82530165      75.43150016
H      71.69827231      95.08519849      76.99052437
C      71.95905454      94.93968957      73.00320185
H      73.08722115      93.22003862      73.12603406
H      72.67337109      96.14344523      71.49142080
C      69.29265071      94.15356342      72.34746682
O      68.21928617      95.19102317      70.49553503
O      68.25519097      92.56808305      73.77609991
C      74.45160355      99.84352935      77.66515666
O      72.66581218     101.21169120      77.86168820
N      76.33944014      99.83030127      79.38480761
H      77.43359167      98.28639487      79.13347401
C      76.48494906     101.56507002      81.52775725
H      75.56654207     103.30928741      80.92493455
H      78.47672060     101.77482964      82.00774773
C      75.51740919     100.45580068      84.04109324
O      75.57032153     101.70679950      85.93459901
N      74.68781934      98.02183318      84.05810078
H      74.57254603      97.11854401      82.38002381
C      73.26107597      97.14500018      86.30120591
H      72.24818267      98.71536274      87.16670056
C      71.00852221      95.39700334      85.36579139
H      69.92948848      95.08141904      87.09300124
H      71.87401686      93.63199896      84.75729951
C      69.32855551      96.41745555      83.35512259
C      68.30243413      94.76205529      81.51830861
H      68.96950751      92.84209336      81.67515590
C      66.69049758      95.67857256      79.55110352
H      65.95350432      94.54284704      78.02609439
C      66.48829687      98.31663049      79.28276239
O      65.35068162      99.23881693      77.23996824
H      65.59823577     100.99437268      76.84879489
C      67.57299977      99.95313348      80.99296470
H      67.56355114     101.94490501      80.54698929
C      68.94494107      99.04984430      83.07355337
H      69.83689189     100.41800615      84.29620629
C      74.74829058      95.87510409      88.52730351
O      76.32243260      94.33308742      88.13801989
N      74.15113706      96.78028300      90.85355660
H      72.91903551      98.23726198      90.90835866
C      75.34922355      95.70313900      93.07587474
H      77.34855399      95.88077327      92.60911234
C      74.56309740      97.18279470      95.38134085
H      75.54764481      96.56863365      97.08398425
H      72.58455395      96.94468919      95.89345668
C      75.27930367      99.96069238      95.40401756
C      73.30831913     101.69168168      95.41535592
H      71.36757021     101.06051310      95.42480455
C      73.75240481     104.21068686      95.22071411
H      72.17070389     105.49003157      95.35488468
C      76.27140999     105.10074795      95.08087436
O      76.57943538     107.59707641      94.89946064
H      74.94482212     108.37753338      95.02796203
C      78.26696097     103.27338261      95.04496956
H      80.10944413     104.12564918      94.82009213
C      77.76996295     100.74492880      95.42480455
H      79.33843579      99.43723819      95.42291482
C      74.87868170      92.78729130      93.45948919
O      72.75840877      91.81786170      93.55019605
N      76.98383681      91.56274865      93.65791045
H      78.56931718      92.62477483      93.70326388
C      77.44304030      88.83398385      93.88845706
H      75.65724894      87.81731109      94.02451735
C      78.41435963      87.90045905      91.31276009
H      80.29463731      88.74327699      91.30331146
C      78.33499112      85.04508259      91.10300047
H      79.55953377      84.15502150      92.49950822
H      79.10222000      84.46682634      89.27941458
H      76.38857302      84.37800921      91.16914089
O      76.82509980      88.84154276      89.37201117
H      77.01785188      90.61032659      89.02052208
C      79.36489196      88.06486524      95.86700051
O      81.11099908      89.54641067      96.42069032
N      79.14568371      85.87656217      97.03674110
H      77.48839373      84.93169901      96.95737259
C      81.03163057      84.95437573      98.88300370
H      82.80797330      85.97671767      98.68458244
C      79.92425095      85.53641143     101.48893629
H      79.38567895      87.52629324     101.46059039
C      77.54886498      83.92258516     102.23348846
H      76.03708393      84.17769822     100.85965743
H      76.68903950      84.43659072     104.03439763
H      77.65657938      81.86656294     102.17490694
C      82.02373688      85.12634082     103.58275304
H      82.66057465      83.17614327     103.76038732
H      81.19036758      85.86333409     105.31374235
C      84.37644614      86.71371093     103.21992559
H      85.22304353      87.06708975     105.06429847
H      83.73960838      88.63367286     102.84198033
H      85.87688884      85.93892314     102.03884665
C      81.49461352      82.14813216      98.63167010
O      80.05464207      80.82721346      97.44870143
N      83.58843027      81.24295325      99.75416753
H      84.86021608      82.57710003     100.24927583
C      84.18180433      78.58032888      99.98282442
H      82.43002804      77.58066366     100.40801284
H      85.50461275      78.27986239     101.53051027
C      85.18524901      77.60711983      97.61121790
O      86.90678968      78.70883027      96.43958758
N      84.00794951      75.56432568      96.78918695
H      82.97048977      74.62702143      98.08931865
C      83.89267621      74.62891116      94.18136464
H      85.11343941      75.69471680      92.90957883
C      84.41046122      71.84912375      93.74672759
H      82.75695069      70.88347360      94.51206674
C      84.63911810      71.23496270      90.80253399
H      84.99249692      69.24319116      90.40380174
H      86.10554572      72.35557040      89.88979618
H      82.85710619      71.54487781      89.82176603
C      86.55719031      70.92693731      95.08276409
H      86.19247313      71.12346885      97.10099179
H      88.21070083      72.02864775      94.54230236
C      87.22993288      68.09990674      95.12433807
H      88.96281191      67.86369096      96.21282042
H      87.42835414      67.60479845      93.13445626
H      85.61421688      67.17394085      96.00684026
C      81.36989158      75.27330783      93.03996994
O      79.31953853      74.02041928      93.46704809
N      81.35855322      77.43515473      91.71716152
H      82.98749730      78.42915077      91.65480056
C      79.19670632      78.05498496      90.12790170
H      79.06631520      76.51485802      88.76729875
H      79.38756868      79.73873111      88.96005083
C      76.58132510      78.47639393      91.32031900
O      74.65380426      78.01719044      90.00129003
N      76.42825727      79.14724677      93.79019129
H      77.97027394      79.72550302      94.75395171
C      73.98295142      79.65180370      95.16402232
H      72.62612793      78.37056926      94.29096876
C      74.00940759      78.70505081      97.97971453
H      74.99773445      80.23761885      98.93591604
H      74.96182965      76.90603136      98.28585019
C      71.46583597      78.31576719      98.93591604
N      69.93704739      76.23706825      98.92646741
H      70.31877210      74.38135701      98.69214135
C      67.55977168      76.89469301      99.65590177
H      66.00452693      75.57377431      99.69180657
N      67.44638811      79.39102147     100.05652374
H      65.85334882      80.32643599     100.53462450
C      69.90681177      80.35289216      99.51039284
H      70.36223581      82.33899451      99.39511953
C      73.24973761      82.43348083      94.72749554
O      73.98862060      84.11155779      96.10132657
N      71.26363526      83.08165695      93.10233091
H      70.58144406      81.67381085      92.00628965
C      70.15814537      85.54774979      92.65824523
H      71.68315450      86.92913973      92.55997946
C      68.57644444      85.23216550      90.10144553
H      66.98151543      83.97171805      90.44159626
H      69.79342819      84.67280651      88.53675214
C      67.53142579      87.72471451      89.18681799
H      66.20672764      88.34643446      90.63812780
C      69.26619455      90.00183471      88.60667201
H      70.96694823      89.24027501      87.72605955
H      69.78397956      90.93158006      90.36789694
H      68.20983754      91.43235753      87.56732254
C      65.85523855      87.19559114      86.89646970
H      66.88513939      87.28251855      85.11445779
H      64.25086091      88.48438448      86.80576284
H      65.01620007      85.32854154      87.11756768
C      68.37613345      86.44159034      94.83143049
O      66.55443729      85.22271687      95.51929087
N      69.10178836      88.48060503      96.05408341
H      70.77986532      89.11744280      95.40023811
C      67.83378200      89.52940313      98.35388034
H      67.05899421      87.90423851      99.35354556
C      69.77642065      91.16212667      99.84109494
H      68.92793354      92.31485972     101.32075065
H      70.61923859      92.50761180      98.53151461
C      72.05732031      89.74294221     101.15067528
H      73.00218347      88.47871530      99.82786686
C      73.89413429      91.57786646     102.40356382
H      74.96182965      92.33564671     100.81430400
H      75.28875231      90.48749437     103.45992083
H      72.89824852      93.03106599     103.46747974
C      71.01986056      87.92313577     103.22748450
H      70.15814537      89.11744280     104.66745595
H      72.56943614      86.74961573     103.91156542
H      69.50241033      86.79874861     102.40734328
C      65.42249122      91.06764035      97.63011516
O      63.31166693      90.44969985      98.41057213
N      65.65681729      93.22759753      96.17880535
H      67.37079905      93.76427980      95.53818813
C      63.74063481      95.32330401      95.74038885
H      61.83390096      94.54473677      95.68369706
C      63.87858483      97.28106047      97.86822067