 %block lattice_cart
   142.669   0.000   0.000
   0.000 146.65   0.000
   0.000   0.000   162.396
 %endblock lattice_cart

 %block positions_abs
N      95.43984885      43.48055233      83.55070927
H      95.36614952      43.66196605      85.44988421
H      97.24453747      43.90196131      83.09339550
H      94.97686591      41.69476097      83.05938043
C      93.84869929      45.31925603      82.11640700
H      94.16806304      47.19575426      82.90442287
C      94.34380759      45.30413823      79.18733121
H      93.31012730      43.68086333      78.45411739
H      96.31290240      44.83548611      78.80560650
C      93.02666834      47.74377490      78.12908447
H      90.97820502      47.62661187      78.31805711
H      93.48398212      47.76834134      76.12219513
S      94.24365209      50.64828423      79.45756207
C      96.49431613      51.30212954      76.97635143
H      98.11759104      50.05679990      76.74769454
H      97.25398610      53.15784078      77.44500355
H      95.49276119      51.48165355      75.18489088
C      91.04056600      44.87706008      82.63041254
O      89.67618359      43.54669275      81.33217058
N      90.14672544      46.16585342      84.55793338
H      91.31457631      47.28646113      85.56893697
C      87.53890313      46.25656028      85.52547327
H      86.33892693      45.16429847      84.25746691
C      87.63905862      45.12650396      88.20888463
H      89.18296502      46.01845477      89.24445465
H      88.14739500      43.15551940      87.89141061
C      85.19186305      45.01878955      89.78302665
O      83.70653817      46.72143296      90.02869107
N      84.70809311      42.90607553      90.97355423
H      83.25867303      42.74166934      92.20376606
H      85.88917206      41.41697120      90.78647132
C      86.64128314      48.87005177      85.52169380
O      88.07936485      50.67096095      85.31382392
N      84.12794713      49.14406209      85.71633562
H      83.23977577      47.68141393      86.56482274
C      82.74088803      51.55535287      85.69932809
H      83.35315936      52.59659206      84.03069975
C      79.87606293      51.15473090      85.53681162
H      79.39985190      49.66940600      84.19132649
C      78.65718946      50.07191771      87.85172635
H      76.65218985      49.65617792      87.61362084
H      79.01812718      51.37771859      89.40508139
H      79.51890467      48.21998593      88.10305996
C      78.40585587      53.41862301      84.63730190
H      78.46065792      54.96630887      85.99601512
H      76.45376859      52.79690306      84.42754228
C      79.13717995      54.76221843      82.29593100
H      80.98344256      55.65605896      82.49435226
H      77.97688799      56.40061113      81.83483777
H      79.17119503      53.21453257      80.93721778
C      83.43252785      53.30712916      87.92164623
O      83.68764090      55.69007405      87.84416744
N      83.92952587      52.18652145      90.15341301
H      83.62905940      50.30813351      90.31403974
C      84.91974247      53.34681341      92.53446815
H      83.71409708      54.93796296      93.04469426
C      84.42463417      51.59881658      94.77946302
H      85.13139182      52.29801532      96.58415165
H      85.05013358      49.64483956      94.56970340
C      81.59571389      51.32858572      95.46354394
C      80.25967737      49.22909977      94.58671093
H      81.15918711      47.71731872      93.55492037
C      77.73500302      49.04768605      95.21410006
H      76.50290147      47.57747898      94.51112188
C      76.51990900      51.09236992      96.35171530
H      74.48089432      51.13583363      96.43108382
C      77.75201055      53.25421683      97.28335037
H      76.77691179      54.75465952      98.26600807
C      80.40140686      53.29768053      96.87516950
H      81.47477140      54.87371228      97.60271413
C      87.66173535      54.49576701      92.33982635
O      88.49888411      55.58046991      94.18419923
N      89.03367665      54.01199707      90.28569384
H      88.27400668      52.88760991      88.94398817
C      91.59803526      55.07024381      90.00790407
H      92.30101344      56.34013989      91.46866252
C      93.70508009      52.91973526      90.25356850
H      93.22319989      52.23565435      92.13573591
H      95.62882149      53.65861825      90.29703221
C      93.55390199      50.72576301      88.34494491
H      93.57090952      51.50999943      86.44199053
H      91.75488254      49.72231834      88.39974699
C      95.60425503      48.70375586      88.70966209
O      97.67161562      49.25177650      89.70743760
O      95.32268581      46.43041510      87.96133047
C      91.90417092      56.34391935      87.50212699
O      93.24020742      58.26199155      87.45110437
N      90.56624468      55.73164802      85.51224518
H      89.79145690      53.99498954      85.34783899
C      90.74765841      57.16028112      83.03481398
H      92.67139980      57.07713315      82.30160018
C      88.93163143      56.01699670      81.24335344
H      87.00600031      56.57635568      81.70633639
H      89.07714036      53.97042310      81.06382944
C      89.58736645      56.72564406      78.60907495
H      91.44496742      55.96597408      78.14231256
H      89.77633908      58.77221765      78.46734549
S      87.34048187      55.53889593      76.22990952
C      85.26367265      58.34513951      76.56628081
H      84.44353144      58.30167581      78.45411739
H      83.90306971      58.08057782      75.04316141
H      86.19530772      60.17817403      76.44533833
C      90.11460010      59.96841441      83.43921542
O      91.49787976      61.59168931      82.63797145
N      88.10960048      60.48997887      84.97556291
H      87.11749417      59.05756634      85.75035070
C      87.11182498      63.12047791      85.56515752
H      86.81702768      64.21651916      83.84739630
C      84.43597253      62.70473811      86.88229675
H      83.52323472      64.44706577      87.49834754
H      84.77234381      61.31389954      88.36195246
C      82.37239139      61.39326805      85.06626977
H      83.29457784      59.79833904      84.14030388
C      79.84771704      60.40305147      86.34372475
H      78.30759009      59.92873016      85.05871087
H      79.04269364      62.07734899      87.23567558
H      80.41841439      58.94418275      87.67976126
C      81.40863097      63.21307450      82.90064342
H      80.96643502      65.10469054      83.59228325
H      79.54158137      62.50631685      82.38852759
H      82.84293325      63.03921967      81.43610552
C      88.85604237      64.77587816      87.16575571
O      88.82958620      67.03977027      87.01457760
N      90.63427484      63.53810742      88.33171684
H      90.85348308      61.70885234      87.82527019
C      92.88115942      64.81178295      89.45988345
H      92.22920385      66.54088253      90.36884181
C      94.21908566      63.05433748      91.45921388
H      95.62315230      63.93683968      92.67997709
H      95.15261044      61.51232081      90.46332812
C      92.30101344      61.64649139      93.27335115
H      90.96308722      60.43517681      92.28313456
H      91.08402969      63.03921967      94.17853005
C      93.74287463      60.12148224      95.24622541
H      94.78789327      61.60491740      96.22132420
H      95.23386869      58.98386700      94.39962802
N      92.14416615      58.59647311      96.94319965
H      90.90450570      57.31901812      96.25155982
C      92.21030659      58.61537037      99.52834524
N      93.51799719      60.15927677     100.86627146
H      93.25721495      59.99298085     102.75032861
H      94.69529668      61.44429066     100.08959395
N      91.07269134      56.96941875     101.08358999
H      90.96875640      57.31712839     102.95819850
H      90.33947754      55.37071029     100.34659674
C      94.93718165      65.58090156      87.50968589
O      96.21841610      67.34968539      88.18620791
N      95.08647003      64.46218358      85.24957321
H      94.07735618      62.84457786      85.18721226
C      96.76265727      65.12169807      83.00646809
H      97.81145538      66.83190038      83.47700993
C      98.63726578      63.05811694      82.07483302
H      99.77866047      63.89526569      80.58005950
C     100.25298176      61.96396540      84.24612855
H     101.95184572      61.09658102      83.46567158
H      99.18339668      60.67895151      85.44799449
H     100.91438597      63.57023277      85.35161844
C      97.35792105      60.75643028      80.68399444
H      96.65116342      61.39326805      78.85662911
H      95.79322766      60.13848979      81.87074258
C      98.81301032      58.44340528      79.89975802
H     100.40793933      59.16150127      78.80938595
H      97.64326973      57.26988524      78.67710511
H      99.55567275      57.40594554      81.51925347
C      95.45874611      66.36702771      80.78226022
O      96.75698808      67.45928951      79.09851407
N      92.95296902      66.19128317      80.66320746
H      92.00810587      65.26531728      82.03703848
C      91.32402494      67.11535933      78.76970170
H      92.48809635      67.02087301      77.07272746
C      89.30201779      65.20673575      78.13664338
H      87.74110384      65.17461040      79.48401824
H      90.14672544      63.33023753      78.25947559
C      88.18707926      65.82278653      75.52693134
O      89.22264928      65.23130219      73.62964613
O      86.04035017      66.91315862      75.51181353
C      90.21286586      69.85357275      79.23457437
O      90.83080638      71.64125385      77.86074334
N      88.90328554      70.21262075      81.40586990
H      88.60659850      68.66493490      82.48301389
C      88.28912449      72.65981633      82.50569062
H      88.03023197      74.19427409      81.15831576
C      85.83437001      72.52942521      84.14786278
H      85.97987893      71.10079212      85.62373903
H      84.20920538      72.00219157      82.99512972
C      84.92163220      75.02575367      85.30437529
H      86.45797968      75.91581477      86.34939394
H      83.39473334      74.43426934      86.55159465
C      84.16196221      77.03075329      83.43354624
O      81.91507763      77.35389650      83.07827769
O      85.77956793      78.27041375      82.13908371
C      90.46230974      73.52531098      84.20833402
O      91.22953863      75.66826062      84.06093537
N      91.24276671      71.87557991      85.99034594
H      90.57758305      70.08411936      85.95633086
C      93.05312452      72.42171081      88.08983187
H      94.62348708      73.43460412      87.22433722
H      93.79011777      70.68883178      88.92509089
C      91.85314830      73.82388774      90.28758357
O      89.78200827      74.77630980      89.99467600
N      93.33280401      73.70861443      92.42486403
H      94.88615903      72.66548552      92.04691877
C      92.77722447      74.61190361      94.97410482
H      90.71931252      74.63080087      95.12150347
C      93.86948628      72.53320466      96.72399139
H      95.86692700      72.26486353      96.28935433
H      92.90950531      70.76631056      96.27234680
C      93.17784646      73.07744584      99.42441030
H      94.30034388      74.76119199      99.81369392
C      90.38105150      73.63302538     100.10093232
H      90.29412410      75.63991472     100.55635636
H      89.90673021      72.49163069     101.74877366
H      88.97320540      72.97540062      98.74788828
C      94.20018838      71.02898252     101.24043728
H      93.85625820      71.69605591     103.16039921
H      96.19384965      70.90615031     100.73588036
H      93.14194166      69.28476514     100.95886805
C      93.71641845      77.27452798      95.39362406
O      95.93684687      78.03797742      94.82481644
N      92.14794561      78.83922137      96.64273316
H      90.39427960      78.17970689      97.01311951
C      92.56179568      81.40546970      97.76712031
H      94.59892064      81.40735943      98.07703543
C      91.75677226      83.44259467      96.05124883
H      92.28022645      85.15279698      97.06981131
H      89.70075003      83.37834399      95.94920361
C      93.16650810      83.34243918      93.62295051
H      92.90383614      81.62845741      92.51179144
H      95.09024948      83.60700086      94.31081089
C      92.47297854      85.57987513      91.95054273
H      90.43585358      85.82931900      91.79936462
H      93.24776633      85.31531345      90.06081642
N      93.38004717      88.10454948      92.89162642
H      93.97342123      88.26517622      94.70009452
C      92.99076354      90.25316830      91.58393582
N      92.37093332      90.18513815      89.20666012
H      92.02511341      91.81408224      88.27313532
H      92.40494839      88.45414885      88.40541617
N      93.25532523      92.39233849      92.81036820
H      92.98887383      94.03451065      91.87495368
H      92.77344503      92.42824329      94.65663081
C      91.08402969      81.30720394     100.11793985
O      88.97509514      80.32454625     100.28234604
N      92.39927922      82.24261846     102.10215247
H      94.26065962      82.62434319     101.93207711
C      91.33725302      82.52418768     104.67973917
H      89.64216852      81.35444709     104.72698233
C      93.19863345      81.36956490     106.63182646
H      92.36337442      81.58877316     108.50076578
H      94.74442956      82.72827812     106.72064359
C      93.95263425      78.58032887     106.05923938
H      94.83324670      78.41403295     104.20352813
C      95.85369891      77.81687944     107.88471500
H      95.25654539      78.39891514     109.76877212
H      97.58657794      78.82977274     107.41984233
H      96.45274216      75.91581477     107.36881972
C      91.85314830      76.65658748     106.39561067
H      92.66951008      74.79898651     106.04979075
H      90.27333710      77.07421700     105.14083239
H      91.18607492      76.88524436     108.33069040
C      90.41884604      85.16980452     105.27689269
O      89.11493487      85.45137374     107.16283954
N      91.01222010      87.01039795     103.61582326
H      92.22353466      86.71560064     102.17018263
C      89.90861993      89.58042573     103.54779310
H      89.56468975      90.02640114     105.52822629
C      91.88716339      91.40968081     102.39694979
H      91.17473656      93.33909137     102.29301484
H      92.16306342      90.73882796     100.46753922
C      94.54600830      91.38322464     103.62527189
H      95.34536253      89.50672641     103.32291568
H      94.42884528      91.81786169     105.63594069
C      96.53966956      93.27673040     102.74843888
H      96.37526338      93.55640990     100.71509337
H      98.34624791      92.42635356     103.25488553
C      96.44140380      95.68424174     104.14116716
H      96.42250653      95.24582522     106.15183597
H      94.69151723      96.70091448     103.75566301
N      98.63726578      97.42090021     103.66306642
H      98.55789727      98.92323263     104.83658646
H      98.50498493      98.18057018     101.91695929
H     100.28132766      96.45713979     103.59503627
C      87.41418119      89.90167921     102.09837303
O      87.15528869      88.45792830     100.29557413
N      85.91184878      91.83486923     102.47253884
H      86.56569408      93.07830914     103.76511163
C      83.87472382      92.48493508     100.62438651
H      83.09237712      90.66134919     100.06880697
C      81.87539337      94.39166893     101.82814217
H      82.87316886      95.78439722     102.97142659
C      80.25211848      95.79384586      99.93274668
H      78.69876344      96.92579191     100.66973994
H      79.32426286      94.42946345      98.70064512
H      81.44075632      97.20169195      99.01244996
C      80.35605341      92.92713103     103.78589863
H      81.68831047      92.19769668     105.17673719
H      79.37528546      91.32842257     102.93363206
C      78.46254766      94.66001006     105.10681732
H      76.91864126      95.18535398     103.84825960
H      79.34693957      96.44202198     105.64538932
H      77.46477215      93.72459554     106.64505453
C      85.02367742      93.67924211      98.31892040
O      86.95875716      95.09086766      98.40962726
N      83.84448819      93.16901600      96.29502351
H      82.24955919      92.12399736      96.33470777
C      84.80446915      94.00427503      93.73444437
H      85.81547274      95.79195613      93.87617384
C      86.93230099      92.11076927      92.76501477
H      88.19841762      91.72148565      94.34104652
H      88.16251282      93.07075023      91.41952964
C      86.04979879      89.49916750      91.82582079
C      85.38650487      89.20059075      89.21043958
H      85.55091106      90.62166493      87.75346058
C      84.46431842      86.84599176      88.39785726
H      83.55347034      86.68914448      86.57616110
C      84.17519029      84.93358874      90.18931781
O      83.48732992      82.58843838      89.46744235
H      83.03190588      82.73772676      87.71944551
C      84.86683013      85.14145863      92.75178668
H      84.51345130      83.47849947      93.88373275
C      85.46776310      87.59621311      93.65885531
H      86.04223989      87.98927618      95.57881724
C      82.45364962      94.41434564      91.95999135
O      80.29936162      94.19324766      92.80469901
N      82.87694833      95.19858206      89.58082592
H      84.65896023      95.87888354      89.54303141
C      81.08548777      95.39322387      87.45488383
H      79.30347586      94.86976968      88.34683465
C      81.02879598      98.00104620      86.30404051
H      80.06692530      97.94435440      84.48612379
H      82.86560997      98.53394901      85.54059108
C      80.09716091     100.05328896      88.09361132
H      81.35193918     100.38021161      89.69609924
H      78.12239691      99.65266698      88.50935111
C      80.05558694     102.57040441      86.70844193
H      79.49244849     102.28694546      84.74879575
H      82.05113793     103.07874079      86.63285287
C      78.57215178     104.46579990      88.37896000
H      79.63039851     104.70390542      90.13073628
H      76.70699190     103.66455595      88.72477991
N      78.24144968     107.10196811      87.37551533
H      77.59138383     108.24525253      88.76257444
H      77.40808037     107.39865514      85.68232055
H      79.98755679     107.83518193      87.13552008
C      81.36327754      93.41468043      85.41964859
O      83.37961552      93.29373794      84.23479019
N      79.46977177      91.71581647      85.10595402
H      78.09027156      91.63077878      86.41931381
C      78.92364087      90.60087794      82.73434750
H      79.87795267      88.77918178      82.62852283
C      76.09850004      89.98671690      82.77781121
H      74.97033343      91.70825756      82.69277351
H      75.83582807      89.18736266      84.65808888
C      75.21032866      88.08187277      80.77092185
O      74.45821760      88.72060026      78.68277429
O      75.84716643      85.89545942      81.21311782
C      79.37528546      92.22037339      80.49691155
O      79.23166627      94.62599499      80.60084649
N      79.56425810      91.21314927      78.15743036
H      79.67575195      89.31019487      78.08940021
C      80.11227873      92.68524607      75.93133277
H      81.56169880      94.00805449      76.55494246
C      81.27446041      91.12811158      73.70523517
H      81.56358854      92.34131589      72.06684245
C      83.78212723      89.89034085      74.35719076
H      84.49644377      89.15523731      72.56950966
H      83.38528469      88.17824881      75.43244503
H      85.07658975      91.22448763      75.24158267
O      79.71165674      89.21192910      72.94745493
H      80.27668492      89.09476607      71.22591424
C      77.81815098      94.26127781      74.98646962
O      78.05247704      96.08108425      73.55594679
N      75.53536160      93.49215920      75.78393412
H      75.55803832      91.78384662      76.63620069
C      73.22233658      95.07386013      75.30205391
H      73.18832152      95.97714930      73.45012213
C      70.96222392      93.37310644      75.27748747
H      69.22367571      94.47103743      75.37953269
H      71.10962256      92.11454872      76.90076237
C      70.82994307      91.66479386      72.92477821
H      69.60351070      90.06230594      73.33484882
H      72.63652143      90.75583550      72.54494322
C      69.67909976      93.00838927      70.55884087
O      70.89419377      94.62599499      69.32295986
O      67.65520287      92.32619807      69.64799278
C      73.05037150      97.23381730      77.17477269
O      71.22867533      98.75126753      77.13508844
N      74.77002243      97.46625364      78.95111542
H      75.95488084      95.99415684      79.20811819
C      74.70388202      99.43723818      80.98257120
H      73.60217157     100.91500416      80.06416422
H      76.62951312     100.16289309      81.10729314
C      73.60028185      98.61331751      83.67732093
O      74.50924020      99.53928340      85.58783423
N      71.99590421      96.70847339      83.60173187
H      71.65197402      95.86187600      81.92743436
C      70.75057456      95.72014653      85.84483701
H      69.29359558      96.94657890      86.62907343
C      69.07627705      93.42034960      85.15886636
H      67.88574948      92.86099061      86.74434674
H      70.33105532      91.80085415      84.93776838
C      67.53426039      93.75861061      82.85340025
C      67.40197955      91.74794182      81.05438081
H      68.36762968      90.01128333      81.52114321
C      65.98657454      92.00305487      78.88119554
H      65.67099024      90.36844161      77.70389606
C      64.80738532      94.35954358      78.42955095
O      63.32583989      94.43513263      76.36785955
H      62.74002472      96.10376098      75.95967866
C      64.82439285      96.28706442      80.29660055
H      63.79071255      97.96892084      79.78070527
C      66.22090060      96.04328972      82.54348513
H      66.52892599      97.58908585      83.83794767
C      72.71211049      94.74882720      87.90841814
O      74.51301965      93.25216396      87.47189137
N      72.23400972      95.54251225      90.32159865
H      70.97356228      96.96925562      90.44065140
C      73.86295380      95.05496286      92.39840787
H      75.80181301      95.48015128      91.84849750
C      73.39997087      96.63666379      94.66418972
H      74.06326480      95.61810130      96.32714886
H      71.36473563      96.73115010      94.96087675
C      74.45254841      99.22747856      94.78702193
C      72.88218585     101.43467890      95.23110761
H      70.91309104     101.02271856      95.56369944
C      73.99334493     103.89510256      95.35016037
H      72.68943376     105.45034731      95.58070697
C      76.62762341     104.23147384      95.04780416
O      77.72366467     106.57095501      94.93442058
H      76.57849051     107.95612440      95.18197472
C      78.10916883     101.98836871      94.68308698
H      80.13117598     102.24915094      94.56214449
C      77.04147346      99.60164437      94.60182875
H      78.31892845      98.01805372      94.77190411
C      73.82515929      92.14289461      92.84627300
O      71.82204939      90.97126430      92.75934559
N      76.04180824      91.05819171      93.67586284
H      77.52146394      92.24305011      93.90451974
C      76.44243023      88.22360224      93.62106078
H      74.60750598      87.31464389      93.84782795
C      77.53847149      87.53196241      91.02835629
H      79.30536559      88.53540708      90.70143364
C      77.95421128      84.69926267      90.47655621
H      78.64963055      84.40446536      88.56037371
H      76.27046513      83.55975770      90.80914804
H      79.38095465      83.83376802      91.68409132
O      75.59583284      87.97226864      89.13674024
H      74.92686972      89.65979425      89.15752724
C      78.46632711      87.76439875      95.65629603
O      79.95354172      89.36877639      96.19297830
N      78.63451274      85.45326347      96.68430713
H      77.51579477      84.07754271      95.97565977
C      80.52234934      84.40068591      98.47954714
H      82.10405026      85.71404570      98.57214373
C      79.22032791      84.45737770     101.05524410
H      78.60049768      86.39623690     101.36515922
C      76.86572892      82.70182196     100.98910368
H      77.54036121      80.75729358     101.08925918
H      75.53347186      82.97961172      99.44141783
H      75.85094588      83.15157682     102.72576217
C      80.85872062      83.70904608     103.34937185
H      81.05147271      81.65869303     103.27378280
H      79.64551632      84.39690647     104.86493234
C      83.38528469      85.06964903     103.67251504
H      84.60793763      84.53107703     102.10404220
H      84.19975673      84.81075652     105.54523382
H      82.96954490      87.08409727     103.58936709
C      81.05714188      81.71349509      97.59326549
O      79.60772180      80.67792507      96.22699338
N      83.10182575      80.51729835      98.46442932
H      84.37739102      81.47727930      99.50755826
C      83.48921964      77.83010752      98.20931628
H      81.86972420      76.76619161      98.91040474
H      85.22587813      77.32366087      99.19764314
C      83.81236284      76.83611148      95.55614053
O      84.35093485      78.31009801      93.72877519
N      83.36260799      74.36434946      95.30858638
H      83.11505383      73.36090479      96.91107430
C      83.36071825      73.28342601      92.80847848
H      84.89517603      74.19805355      91.78235709
C      83.78401695      70.38836530      93.01823810
H      82.11538862      69.65893094      93.97821905
C      84.00322521      69.45673023      90.28191440
H      85.64539737      70.37135776      89.44098618
H      82.21932356      69.78365288      89.29925671
H      83.98810740      67.41204636      90.04002943
C      86.18963855      69.82522686      94.40529720
H      86.04223989      70.54521258      96.33092832
H      87.64094836      70.95717292      93.47933132
C      87.10615581      67.06433673      94.41285611
H      88.83147594      67.03032165      95.53913300
H      87.31969488      66.45962429      92.45698938
H      85.78712684      65.79255091      95.35582955
C      80.93430968      74.20750218      91.48755978
O      79.03513473      72.87146567      91.25134399
N      81.05714188      76.56210116      90.38962880
H      82.62750444      77.58444310      90.75623570
C      79.15985667      77.79420272      88.78903061
H      78.71577097      76.75674297      87.06560021
H      79.80047389      79.68581876      88.28636341
C      76.53880627      78.14758154      89.97577872
O      74.71522038      78.44993775      88.64541141
N      76.34983364      78.18726579      92.47966609
H      77.74823111      77.34444786      93.46610322
C      73.82326955      78.36490007      93.70420875
H      72.61573444      77.08177591      92.63462365
C      73.99523465      77.28586634      96.34226668
H      75.17820332      78.52363708      97.48744083
H      74.80970669      75.39614003      96.43864272
C      71.47811921      76.87579573      97.71042852
N      69.69799701      74.97851051      97.21532024
H      70.13452380      73.31933082      96.38384066
C      67.49646585      75.59834074      98.29813342
H      65.70311559      74.70450020      97.91262925
N      67.81016042      77.69026777      99.58314730
H      66.27192321      78.51607817     100.35415563
C      70.19310530      78.68993299      98.98977325
H      70.90742185      80.53808533      99.47921236
C      72.91242148      81.15791556      93.63239915
O      74.01980109      82.83032334      94.88150823
N      70.81860471      81.70404646      92.31337018
H      69.78681416      80.36423051      91.42897826
C      69.45422232      84.15124204      92.24911949
H      70.82805335      85.60633130      91.77290846
C      67.40386926      83.87723172      90.30648084
H      66.27948212      82.38623766      91.17575494
H      68.18810569      83.38968233      88.46399768
C      65.54626830      86.04096835      89.92097666
H      64.76581133      86.55497391      91.75590091
C      66.65553765      88.40312624      88.87217856
H      67.77803507      87.81731109      87.24701393
H      67.85173441      89.47460106      90.16475136
H      65.12107989      89.57664628      88.15975175
C      63.44300292      85.20192987      88.02180172
H      62.22223972      86.77229243      87.48889890
H      62.48302195      83.49739673      88.67186758
H      64.18377564      84.54619484      86.21522336
C      68.51313862      84.82398460      94.83804454
O      67.62685698      83.16291518      96.16652213
N      68.76636194      87.20503976      95.59960424
H      69.39375108      88.38044953      94.23333212
C      67.77236590      88.37100089      97.95042376
H      67.32450077      86.86866849      99.29023973
C      69.98334568      89.98293744      98.86883076
H      69.15186611      91.36999656     100.14439601
H      70.43876973      91.26795133      97.32681409
C      72.32471659      88.74138725     100.03290217
H      73.16564479      87.39212266      98.72710129
C      74.48278404      90.46670738     100.61304815
H      74.73789709      91.82542059      99.08236983
H      76.18920690      89.32153323     100.73021118
H      74.37695937      91.48526986     102.39883950
C      71.62362813      87.26362127     102.42529568
H      70.65797799      88.48060502     103.77645000
H      73.28847701      86.46237732     103.33614377
H      70.46711562      85.59877239     102.05490932
C      65.31950115      89.84120797      97.09059830
O      63.24647138      88.85477083      97.66885455
N      65.47067925      91.93691445      95.65818576
H      67.31127269      92.43391247      95.56936862
C      63.44111319      93.51672564      94.48655543
H      61.84051501      92.24682956      94.22010402
C      62.50569867      95.59731432      96.43297354