 %block lattice_cart
   142.669   0.000   0.000
   0.000 146.65   0.000
   0.000   0.000   162.396
 %endblock lattice_cart

 %block positions_abs
N      92.50321415      44.22793909      82.86568347
H      94.40049937      44.27329254      83.07355337
H      92.01755449      42.43458882      82.42726697
H      91.71519828      44.22038019      84.60612141
C      91.50543866      46.38789628      81.15926061
H      92.27077782      47.94314103      82.27230941
C      92.71486350      46.20081337      78.62513763
H      92.00054696      44.51895696      77.67838474
H      94.75387819      46.14979075      78.91426575
C      92.32746961      48.52895618      76.99052437
H      90.28467547      48.76895142      76.89603805
H      93.20808207      48.06408352      75.18772546
S      93.76366162      51.36354566      78.31144306
C      93.19107453      53.48759803      75.70551047
H      91.21631054      54.08097209      75.68283376
H      93.55768145      52.55596296      73.90649102
H      94.62915627      54.93701812      75.98141051
C      88.66140056      46.42002162      81.32933598
O      87.35937913      44.43769871      81.37657914
N      87.63149972      48.71414936      81.56744150
H      88.62360603      50.33742427      81.39358668
C      84.89706575      49.12799942      82.00585800
H      83.75567105      47.78440401      80.94005236
C      84.45675952      48.63289114      84.86312419
H      85.15406852      46.78095934      85.43760098
H      82.43664209      48.40423425      85.18437766
C      85.73799395      50.39978524      86.73395324
O      86.86238112      52.23848893      86.01774696
N      85.36571788      50.06719340      89.14524401
H      86.21231527      51.27850797      90.35088940
H      84.47754651      48.46092603      89.67247765
C      84.20353619      51.87755121      81.08745101
O      85.89862070      53.35342747      80.58478381
N      81.88673173      52.61832392      81.53153670
H      80.48833427      51.40700937      81.99829910
C      80.89084596      55.16000581      81.03453868
H      81.10060558      55.61731958      79.03520824
C      78.01468252      54.97103319      81.37090996
H      77.50256669      53.45358296      80.07644743
C      77.14162896      54.34742351      84.01085762
H      78.28302365      55.35653736      85.39791673
H      77.33060160      52.34053417      84.44171522
H      75.26513073      55.14110856      84.30754465
C      76.45376859      57.26894039      80.50919476
H      76.75234534      58.80717760      81.84712099
H      74.48656349      56.65099988      80.51297421
C      77.13218032      58.30640013      77.88625464
H      75.56937666      59.40055167      77.11335658
H      77.56681738      56.74359647      76.61824828
H      78.80080867      59.51204551      77.96751287
C      82.21365438      57.18579243      82.64269577
O      82.43664209      59.39299277      81.93971758
N      83.12828192      56.49415260      84.91981598
H      83.23410660      54.64411054      85.37524002
C      84.19975675      58.26671588      86.74907105
H      83.03568533      59.96557983      86.79442448
C      84.05802726      57.25760202      89.42681323
H      85.25800347      58.23836998      90.78363672
H      84.71565202      55.31685310      89.22461252
C      81.52768373      57.03083487      90.34710995
C      80.49211372      59.06040092      91.74172797
H      81.61461114      60.73280871      92.06109171
C      78.11672773      58.81662624      92.84343841
H      77.52902285      60.44934977      93.91680295
C      76.70699190      56.57730056      92.59777398
H      74.83049368      56.42990191      93.38390013
C      77.82382015      54.64788998      91.18992788
H      76.76557342      52.90556232      91.08599293
C      80.21054449      54.75182494      90.08065854
H      81.16296655      53.05485070      89.46649748
C      86.99277224      58.96969406      86.02908532
O      87.63905863      61.19579167      86.16325589
N      88.61037796      57.23492531      85.23540027
H      88.21731488      55.41322915      85.64547088
C      91.10481669      57.82074047      84.07699804
H      92.19707849      59.07362902      85.29587151
C      92.46164018      55.30551474      83.96361446
H      92.09692300      54.58930848      82.06632924
H      91.88905311      54.04128784      85.48673387
C      95.37748788      55.51716409      84.35667753
H      95.63071120      56.54895466      86.12357164
H      96.02755373      56.51871903      82.67860057
C      96.50187503      52.84320135      84.57777551
O      95.65338793      51.37866347      86.21049905
O      98.13648830      52.31029854      82.93749307
C      90.78356322      58.95646599      81.46917573
O      92.28967508      60.47769566      80.60935026
N      88.75021770      58.24214944      80.18794129
H      87.52945451      56.88532594      80.73974137
C      88.13416693      59.41000030      77.66893611
H      89.81035417      59.64243664      76.49352635
C      86.09137277      57.83585827      76.33100988
H      84.61738625      57.72814388      77.76342243
H      86.75088727      55.92723470      75.92282900
C      85.06714111      59.00937831      73.88003485
H      86.45231050      58.57852071      72.41738669
H      85.04446440      61.06729027      73.76665128
S      82.18719821      57.62231920      72.90304635
C      81.82815021      58.87709747      69.56012050
H      83.37583607      58.07207407      68.46407924
H      81.76200979      60.93122998      69.43161911
H      79.98566707      58.32340766      68.82123751
C      87.49921889      62.26915621      77.97885123
O      88.64628276      63.89432084      76.68816816
N      85.76822958      62.88709671      79.64370011
H      84.64384243      61.56239857      80.43549543
C      85.02934659      65.47980122      80.33722967
H      84.79502052      66.42088492      78.51931295
C      82.64262226      65.54972109      81.82444427
H      82.51790032      67.47535220      82.54631973
H      82.79946954      64.23447158      83.40047602
C      80.15952189      65.06973060      80.25975089
H      80.41841439      63.64676669      78.79143354
C      77.97688799      64.49903326      81.92082032
H      78.34538462      62.75670559      82.96016979
H      76.15708156      64.30817090      80.97595716
H      77.94098320      66.08073418      83.23984928
C      79.43953615      67.62464058      78.81411026
H      79.43008753      69.14020109      80.20872828
H      77.61783999      67.31094601      77.90515190
H      80.97588366      68.23880164      77.58767788
C      87.07403046      66.98213363      81.74318604
O      87.17607569      69.33673262      81.49563190
N      88.73698961      65.76703962      83.21717257
H      88.39494916      63.89999002      83.41370410
C      91.04812490      66.91977266      84.24518368
H      90.45286110      68.46367906      85.47350578
C      92.60336965      64.97335456      85.64736061
H      93.31390674      63.52582420      84.36612617
H      91.51488729      64.09463182      87.15914166
C      94.84647478      65.98624786      87.35945265
H      94.09247398      67.15220901      88.87879260
H      96.03700237      67.12953228      86.12357164
C      96.44140379      63.81873178      88.48006035
H      97.87948551      64.39887777      89.83310439
H      97.40138477      62.87386863      86.92292587
N      94.80112136      62.02916097      89.96916468
H      93.00588135      62.54505625      90.37167639
C      95.34536254      59.74070241      90.73450384
N      97.56768068      58.76560362      90.09388662
H      97.70374098      56.97225335      90.73261411
H      98.96418843      59.78038666      89.28319403
N      93.72964654      58.34419466      91.97983348
H      93.94507533      56.44690944      91.90613415
H      92.16873261      59.22669684      92.63367878
C      92.71486350      67.98557831      82.09467514
O      93.63516022      70.15120466      82.34222928
N      92.83958544      66.63820345      79.90448234
H      91.74165446      65.10374567      79.62102339
C      94.50065487      67.68700155      77.88058546
H      96.26187979      68.54682702      78.51553350
C      95.38693652      65.45145532      76.21951603
H      93.74854380      64.26470719      75.83968104
C      96.35069694      66.44734109      73.62303208
H      94.88993849      67.44511658      72.56856479
H      96.73053192      64.89965523      72.31723119
H      97.89082387      67.77770842      73.94239582
C      97.25587583      63.57873654      77.43649978
H      96.76832644      63.24614471      79.40748432
H      99.00009323      64.65588055      77.62547241
C      97.50720943      60.99737040      76.03243313
H      95.61748313      60.33974565      75.54110428
H      98.61080961      59.58574485      77.04721616
H      98.62403769      61.54350130      74.39026096
C      93.04934506      69.90176078      76.49163662
O      94.01121575      71.94077547      75.83779131
N      90.58892140      69.55783059      76.07400710
H      89.61382262      67.94211461      76.36124550
C      89.18296503      71.43243911      74.69072744
H      90.11648983      71.85951725      72.90115662
C      86.42396462      70.45734033      74.30522328
H      85.08981784      71.96345220      73.86491704
H      85.59815421      69.74680322      76.05322011
C      86.06302688      68.72824074      72.23786269
O      87.14584007      69.28382029      70.15538429
O      84.37172184      67.09740693      72.27565721
C      88.83714511      73.86640660      75.94928517
O      88.44975122      75.72778702      74.64537401
N      88.58203205      73.94199565      78.45695198
H      88.29101420      72.20722688      79.19583497
C      87.94708402      76.19454941      79.90259261
H      88.21353543      77.93687707      78.83489725
C      85.26745211      76.07549665      80.80966124
H      84.96509590      77.64396949      82.10790322
H      85.22398841      74.31049228      81.86979771
C      83.08859766      75.84683976      78.97095754
H      81.51256593      75.24968626      80.15581594
H      83.32670318      74.44655257      77.47807375
C      82.24200027      78.26757917      77.67838474
O      83.69897927      80.08549589      77.83145258
O      80.21999313      78.22978464      76.35557632
C      89.71208839      76.53092070      82.22128680
O      90.85159336      78.56804566      82.69371838
N      90.03901104      74.51269299      83.73306785
H      89.34926094      72.79115232      83.27953354
C      91.53756402      74.76780605      85.99129079
H      93.01721971      76.13029871      85.55665374
H      92.20841685      72.93288180      86.64513610
C      90.08625421      75.77691990      88.37045622
O      88.16818199      77.15830983      88.17959387
N      91.18607492      75.23267872      90.62867917
H      92.81879846      74.25380048      90.49072915
C      89.67618359      75.65597741      93.03996994
H      87.66173534      75.66920549      92.60344316
C      90.20719668      73.23523800      94.64245786
H      92.22353467      73.06327291      95.03363120
H      89.45697535      71.73857476      93.44248165
C      88.70486428      73.36184966      97.17847057
H      88.98454376      75.12685405      98.20459196
C      85.78145767      73.11996469      96.71926707
H      85.05202331      74.97189649      96.18825398
H      84.77423353      72.44911185      98.38789541
H      85.45264529      71.76503093      95.20181684
C      89.54579247      71.20000276      98.99260783
H      88.24377105      70.88063901     100.55352176
H      91.34292220      71.98234946      99.62566614
H      89.51177741      69.48035182      97.86255149
C      90.39616933      78.26568945      94.32120438
O      92.62793609      78.86095323      94.46293386
N      88.75777661      79.59227732      95.64212308
H      86.90584483      79.31637727      95.26417781
C      89.35304039      81.97711193      97.06130754
H      91.37126810      82.06592907      97.45815006
C      88.52534028      84.34304927      95.63078472
H      88.19274843      85.89262485      96.94603423
H      86.67718794      84.06903895      94.76340034
C      90.46608919      85.04035828      93.73538923
H      90.88371871      83.43787036      92.51084657
H      92.26510864      85.44853916      94.65190649
C      89.45697535      87.18708738      92.00628965
H      90.93852078      88.08281765      90.88757167
H      88.42707450      88.60438210      93.09288228
N      87.60315383      86.12128173      90.17892430
H      87.13450171      84.27501913      90.28852843
C      86.97198524      87.04535789      87.94715753
N      87.23843666      89.41507470      87.26307660
H      86.24255088      90.24277482      85.86089968
H      88.14361555      90.71520639      88.33077197
N      85.52634461      85.71310084      86.62812856
H      84.70620340      86.19498105      84.97272831
H      85.14650962      83.93297866      87.19693618
C      88.05479841      82.03002426      99.75983671
O      86.06113715      80.79603298      99.98660387
N      89.17540612      83.18464705     101.69869591
H      90.60025977      84.29391639     101.07886568
C      88.65006220      82.86528329     104.41612235
H      87.06647156      81.55570296     104.56163127
C      90.96686666      81.74089613     105.70113624
H      91.02922763      82.32293184     107.67401051
H      92.72242241      82.48922776     104.92823818
C      91.06324270      78.74001076     105.66145199
H      89.37571712      78.04270175     106.61576377
C      91.16906739      77.62129278     102.95914336
H      92.55612650      78.71355458     101.89711717
H      89.28123079      77.50035030     102.14278159
H      92.10448191      75.78447879     103.01205570
C      93.48209239      78.00679695     107.09575426
H      93.26477386      78.64930390     109.04028263
H      95.03544741      79.13685327     106.35309182
H      93.70130065      75.96211308     106.99559876
C      87.53134422      85.32570696     105.58586293
O      86.46742832      85.14807269     107.64188516
N      88.08125458      87.36850109     104.33675384
H      88.92596224      87.08126270     102.64733852
C      87.24977501      89.94797752     104.96225325
H      86.39183927      89.95931588     106.83308230
C      89.52500550      91.66573874     104.87721557
H      90.35081589      91.83392437     102.99882761
H      90.89883651      90.86071533     106.18679590
C      89.16028832      94.45497477     105.80507119
H      87.88661278      94.49654876     107.42267691
H      88.40628752      95.70975304     104.35565110
C      91.65094760      95.68140714     106.58741788
H      92.89627723      95.65873043     104.94902517
H      92.36715387      94.70630838     108.25604621
C      91.29378931      98.46497401     107.27905771
H      89.63649935      98.69552062     108.48092365
H      90.68718718      99.36637346     105.52917114
N      93.45752595      99.85392284     108.42612158
H      95.14127210      99.76321599     107.53228104
H      93.81846368      98.88071380     110.02860950
H      93.00210191     101.61703750     109.00059838
C      85.10115620      90.53001321     103.07063721
O      85.11627400      89.56058363     100.91068004
N      83.40418197      92.29690733     103.77550513
H      83.53268336      92.89406084     105.58208348
C      81.51445564      93.50255271     102.07286172
H      80.55069522      91.91896207     101.17335199
C      79.63228824      95.06724610     103.53173043
H      80.61305619      96.55824015     104.55974155
C      77.51390505      96.35414972     101.87633018
H      76.90163372      95.12582762     100.34187242
H      78.47577573      98.02655750     101.15256500
H      75.87551233      96.99098749     102.95158445
C      78.40585587      93.35326434     105.46869990
H      79.83070951      92.48399022     106.67434529
H      77.42508790      91.81313739     104.51249839
C      76.45943777      94.53245356     107.34141868
H      75.42386774      93.13027662     108.43745994
H      75.09694509      95.82502634     106.49482129
H      77.66508314      95.67951743     108.55840242
C      82.85049215      95.07291527      99.89022783
O      84.71565202      96.27667093     100.36454913
N      81.87161393      94.86126592      97.57720282
H      80.22188286      93.90317468      97.55641583
C      82.67096815      96.12927228      95.19425794
H      83.95598204      97.61459717      95.81597790
C      84.32636840      94.30379666      93.63901318
H      85.94397412      94.04112471      94.88623255
H      84.79691026      95.39605848      91.95715676
C      83.11694356      91.78668122      92.87178430
C      82.09649135      91.59770859      90.42458872
H      82.14751397      93.16429170      89.11689812
C      80.86438979      89.34137537      89.54397626
H      79.80992251      89.04657807      87.82243559
C      80.96265557      87.19464627      91.06898540
O      80.06881501      84.82870893      90.47939079
H      79.32993203      84.98933568      88.82965972
C      82.03602011      87.45353879      93.54263714
H      82.20042630      85.73199811      94.62545032
C      83.28701894      89.66073911      94.33632219
H      84.26778689      89.68908502      96.12589301
C      80.42786301      97.06279708      93.68814607
O      78.40207641      96.25021476      94.42513933
N      80.77935211      98.55379115      91.67936700
H      82.53490786      99.18873919      91.29008338
C      78.66474836      99.50432349      90.06932018
H      76.84116248      99.01677410      90.89324085
C      78.50034218     102.41828145      89.76129479
H      76.91675152     102.82646234      88.50651652
H      80.16708078     103.22330487      88.85989534
C      78.02602088     103.99620293      92.09699651
H      79.64173688     103.78833303      93.35933369
H      76.40841516     103.18551034      93.07965419
C      77.56681738     106.84213075      91.51496081
H      76.18731718     106.82323349      89.98617222
H      79.37528547     107.62825689      90.92347647
C      76.53502681     108.30288920      93.90735432
H      78.03735923     108.52020771      95.30008261
H      75.04970194     107.27676781      94.89568118
N      75.59961229     110.86535808      93.38201040
H      74.63207241     111.70628629      94.79741541
H      74.46388678     110.90315261      91.84944236
H      77.00367895     112.11824662      93.04941857
C      78.66852782      98.25143494      87.47472595
O      80.64896099      98.27411165      86.22372713
N      76.52557819      97.38971973      86.55631896
H      74.92120055      97.38216083      87.58999926
C      75.94165275      96.37682643      83.98818090
H      77.07548854      94.71953645      83.53086714
C      73.22422631      95.23165228      84.12235147
H      71.84661583      96.75288197      84.31888301
H      72.95210572      94.06947061      85.80042844
C      72.61762416      93.59514929      81.89058470
O      73.98200657      91.77912231      81.28965173
O      70.82238417      94.24521515      80.57911463
C      76.08149250      98.19474315      81.69972234
O      76.08527195     100.42839964      82.15325665
N      76.03424935      97.34814576      79.36213089
H      76.07771304      95.46597834      79.03898769
C      75.73378286      99.05267889      77.23618879
H      77.42508790     100.22619893      77.15871001
C      75.98511645      97.42751426      74.72285279
H      75.97566783      98.83347063      73.21674092
C      78.49089355      95.94407911      74.57545414
H      80.04802804      97.28389506      74.74741923
H      78.47010656      95.02945157      72.72919153
H      78.31514900      94.74032345      76.23652357
O      74.15586138      95.49054480      74.42616576
H      74.46577650      94.57969671      72.88981827
C      73.25446193     100.51721679      77.06044424
O      72.96722354     102.38993557      75.81889405
N      71.38174315      99.71975228      78.61379927
H      71.86740282      98.34970071      79.84968028
C      68.99879827     101.21830524      79.14670209
H      68.50746943     102.35592048      77.50075047
C      66.69711162      99.42306525      79.97818167
H      65.07761618     100.38682567      80.80966124
H      67.43977408      98.27033219      81.51452916
C      65.97523617      97.62782526      77.75208407
H      64.43888868      96.46186411      78.47395952
H      67.66654123      96.47887166      77.51775801
C      65.34028814      99.09614260      75.31622685
O      63.85685299     100.92539767      75.56378100
O      66.22845950      98.50276854      73.21296147
C      69.37674354     103.27054802      81.25185720
O      67.73079193     104.86925648      81.86034907
N      71.62929730     103.43306449      82.41592861
H      72.73478719     101.98553413      81.85090044
C      72.14897204     104.64248932      84.84989610
H      71.25324176     106.49442111      84.89147008
H      74.14830249     105.11870036      84.98973585
C      71.37607397     103.05133976      87.35189374
O      72.54014539     103.71652343      89.23028170
N      69.69043810     101.22397442      87.33677593
H      68.59250712     100.84791888      85.82121543
C      68.72100851     100.37359758      89.80097904
H      67.90653647     101.99687248      90.77229837
C      66.37018897      98.67851309      89.43815159
H      65.25336072      98.49709936      91.16158199
H      67.13741785      96.99854638      88.52730351
C      64.40298388      99.88415846      87.72605955
C      62.52648566      98.27978083      86.54120115
H      62.78537816      96.26533258      86.75474023
C      60.39298464      99.10181178      85.26563589
H      59.04372007      97.85081295      84.38313370
C      60.13598187     101.70585463      85.05587627
O      58.16310759     102.69796095      83.67637606
H      58.17255624     104.50642903      83.56110276
C      61.82917664     103.39338023      86.23506549
H      61.46445946     105.37948259      85.93648873
C      63.83417626     102.50709860      87.65802940
H      65.00769630     103.82990702      88.67659189
C      70.74490540      98.89583160      91.44693066
O      72.22078165      97.42184509      90.36789694
N      70.60317592      99.30401249      93.95459748
H      69.59217234     100.83658053      94.47805167
C      72.39085701      97.89049721      95.59299019
H      74.36373129      98.14372053      95.06386682
C      71.93732270      98.75410213      98.35388033
H      72.79714816      97.41806564      99.66346067
H      69.89074909      98.93551586      98.50127899
C      73.16186534     101.31090183      98.87166534
C      71.68598909     103.00787607     100.23604774
H      69.80571141     102.49009105     100.83698071
C      72.62140362     105.30956271     101.23760269
H      71.54992880     106.57189990     102.43190972
C      75.09505536     105.98230528     100.60832383
O      75.94543221     108.42761114     101.30185338
H      74.54514500     109.43483525     101.87255073
C      76.62006449     104.30044886      99.05307907
H      78.64585111     104.53288520      98.94725440
C      75.66386298     101.92317316      98.32553444
H      76.92053098     100.43406882      97.71893229
C      71.93165351      95.00110568      95.67991760
O      69.75657853      94.28111995      95.88967722
N      73.96688875      93.61215683      95.50039360
H      75.68464997      94.43985697      95.43803263
C      73.86295381      90.88717150      94.93914489
H      72.03558847      89.98388232      95.23394219
C      74.69821284      90.36371730      92.14990885
H      76.64841039      90.99110644      91.94203895
C      74.20121482      87.62739360      91.09922102
H      75.35394786      86.41229958      92.29730750
H      74.62451352      87.53290728      89.08477277
H      72.20566383      87.13228530      91.22583268
O      73.14674754      91.84526274      90.53986203
H      72.89541393      93.57436232      91.02552169
C      75.80181300      89.63239323      96.75139242
O      77.40052146      90.91740712      97.71515284
N      75.81126163      87.06992435      97.13311714
H      74.43365116      86.19120161      96.15045945
C      77.51957422      85.54113575      98.72048724
H      79.29591695      86.58804414      98.72993587
C      76.46699666      85.54113575     101.40389860
H      75.81693082      87.41574425     101.95191923
C      74.20688399      83.73455739     101.54184862
H      72.65919815      84.34304927     100.32675461
H      73.44532430      83.56259230     103.44858247
H      74.76624299      81.86561808     100.88233414
C      78.12050720      84.43375613     103.51094344
H      78.63829220      82.44576405     103.35598588
H      76.96021524      84.47721983     105.21169712
C      80.56770276      86.01923652     104.07030243
H      79.87984239      87.45542851     105.37421359
H      81.49177893      86.80725238     102.40545355
H      82.13806533      84.96287951     104.88099502
C      78.22633187      83.04102785      97.42035554
O      76.61439531      81.99978864      96.08242931
N      80.30314108      81.66530708      98.05908303
H      81.44642550      82.26812978      99.46503941
C      80.64707128      78.93465256      97.28807469
H      78.97844294      77.79703733      97.70759394
H      82.39506812      78.17120313      98.06853166
C      81.27823987      78.73245184      94.43458796
O      83.14151001      79.93620750      93.55208577
N      79.88551157      77.20555298      93.12311790
H      78.47010656      76.45344191      94.15868792
C      79.55103001      77.35673110      90.42647845
H      80.64140210      79.05181559      89.99373113
C      80.77557266      74.96622731      89.06209605
H      79.49244850      73.42232091      89.52318927
C      81.19320217      75.16653829      86.15569698
H      79.51890466      75.91298018      85.21839273
H      81.51067620      73.36373939      85.20894410
H      82.65018117      76.51391315      85.60578663
C      83.31536483      74.28781555      90.28474898
H      82.82403598      73.73412575      92.20471091
H      84.50400267      75.95266444      90.04853319
C      84.76100546      72.15809400      89.02808098
H      85.50933708      72.63619476      87.16859029
H      83.53079363      70.50647321      88.94493302
H      86.51089203      71.74046449      90.02585647
C      76.76746316      77.68176401      89.74617698
O      75.23678483      76.26635900      90.68159150
N      76.19109663      79.62251294      88.17581441
H      77.52146394      80.85839395      87.58999926
C      73.62862775      79.91164106      87.15158275
H      73.07115848      78.26190999      86.05365176
H      73.65697363      81.59160775      85.95916545
C      71.59906168      80.20643838      89.06776523
O      69.54681891      79.30692864      88.49328843
N      71.97889668      81.20610360      91.42614367
H      73.64374555      81.22878031      92.35966847
C      69.97011760      81.60294611      93.35177478
H      68.15787006      80.95665972      92.61289180
C      70.47278481      79.95888423      95.73849912
H      72.11117751      80.69965693      96.74572324
H      71.14363764      78.07671681      95.24717028
C      68.32605571      79.69621226      97.49783431
N      66.92576852      77.57782907      97.69436585
H      67.62874670      75.86195758      97.23894181
C      65.25902991      77.92553872      99.69369629
H      64.20834207      76.49879535     100.70469987
N      65.14564633      80.44076444     100.15667924
H      63.95322902      81.31381799     101.36421435
C      67.21300691      81.51412898      98.98504892
H      67.80071179      83.45487791      99.21559553
C      69.48256822      84.32982119      93.92436186
O      70.62396290      85.49767205      95.58921074
N      67.67032069      85.50145151      92.65257605
H      66.99001921      84.51123492      91.16725117
C      66.53081572      87.87872721      93.39712822
H      68.04637622      89.23366096      93.05319803
C      64.21212153      88.35115878      91.65669028
H      62.97624052      86.71087635      91.49984300
H      65.03604219      88.43430673      89.77074342
C      62.67199459      90.82858997      92.23872599
H      61.83106637      90.56780774      94.10199613
C      64.07606123      93.28334446      91.71905125
H      64.62786131      93.10004100      89.74239753
H      65.71823339      93.55357532      92.93225554
H      62.85151859      94.93118580      91.88723689
C      60.63675935      91.03268042      90.19782157
H      59.58040234      92.74666219      90.63434835
H      59.58607152      89.26956576      90.36789694
H      61.48524646      91.46353801      88.37045622
C      65.76547655      87.89762446      96.19959234
O      64.38030717      86.29135709      97.07831507
N      66.48357255      89.93096997      97.43547335
H      67.66087204      91.04590850      96.42824922
C      65.55949639      90.69252968      99.94880934
H      64.70156065      89.03712943     100.82375263
C      67.67976932      91.65440037     101.62877603
H      66.75947260      92.22698745     103.37866260
H      68.49235162      93.30413144     100.70281014
C      69.81516004      89.74577681     102.54151384
H      70.67309579      89.01445272     100.81619372
C      71.79181377      91.01189342     104.14400176
H      72.42676182      92.87705331     103.54873797
H      73.27713866      89.63806240     104.53517510
H      70.88474514      91.48432501     105.93168285
C      68.82872292      87.53668674     104.15345039
H      67.43788435      86.50111673     103.04418104
H      68.19755432      88.24155466     105.98270546
H      70.51813824      86.41607903     104.52383675
C      63.44867209      92.54446146      99.63700450
O      61.25281012      91.90762371      99.89589701
N      64.13842220      95.02000293      99.12677840
H      66.01492043      95.28645434      98.89245233
C      62.29782877      97.24987998      99.24583115
H      60.36274902      96.55257097      99.14189621
C      62.26381370      98.57079868     101.81585894