 %block lattice_cart
   142.669   0.000   0.000
   0.000 146.65   0.000
   0.000   0.000   162.396
 %endblock lattice_cart

 %block positions_abs
N      93.59358625      41.88373361      82.19010632
H      95.44929748      41.94042540      82.62285364
H      93.50476911      40.39840872      80.99201984
H      92.62793610      41.41130202      83.76613807
C      92.57880322      44.24778122      80.99957875
H      93.55012254      45.74822391      82.02381041
C      93.52177665      44.57092443      78.23868860
H      92.47297854      43.42197083      76.88942400
H      95.53622490      44.15140519      78.31238792
C      93.24020742      47.27134333      77.41098848
H      91.20308246      47.39039609      77.13508844
H      94.00554658      47.33559401      75.49858545
S      94.59136174      49.81113548      79.25914080
C      92.87171079      52.40383999      78.01003171
H      93.55579172      54.24821287      78.62419277
H      90.83269610      52.52100302      78.27081394
H      93.16272865      52.65328387      75.98802456
C      89.70830895      44.24211204      81.25091234
O      88.31369093      42.57348371      80.58383896
N      88.68596701      46.37372333      82.27703372
H      89.91050966      47.60393516      83.06882906
C      86.02901181      46.81213983      82.96300437
H      84.96509590      45.49878005      81.78759461
C      85.64728710      45.83704106      85.77491714
H      86.15751320      43.84337980      85.69932808
H      83.69519982      46.17719179      86.34183502
C      87.49921889      47.04835562      87.59661329
O      87.38205585      49.25744567      88.18242846
N      89.31146642      45.53090538      88.43187233
H      90.72309198      46.05058012      89.60539237
H      89.71208840      43.94920446      87.44165574
C      85.23532676      49.54846353      82.62474337
O      86.92474209      51.17551789      82.19010632
N      82.81647708      50.08514580      83.09717495
H      81.71476664      48.53368051      83.27858868
C      81.54469127      52.53990029      83.12552085
H      81.77712761      53.46775591      81.30004522
C      78.70254290      52.14494749      83.23134551
H      78.45498875      51.27189393      81.38319319
C      77.81248181      50.38372256      85.43476639
H      75.75268012      50.46120133      85.48767874
H      78.79324976      51.25866584      87.02213650
H      78.57215178      48.47131954      85.37618488
C      76.99989949      54.66017321      83.26725032
H      77.47044134      55.92251038      84.82627453
H      75.02135604      54.09892450      83.34850854
C      77.03958374      56.41005977      80.98635065
H      76.41408433      55.51810896      79.23646410
H      79.01623747      56.98831603      80.93343831
H      75.92842467      58.11459290      81.30004522
C      82.72765995      54.42395742      85.24579377
O      82.70876268      56.71808517      84.76769301
N      83.70464845      53.61515456      87.49645781
H      83.78401695      51.76511249      87.96322020
C      84.86116095      55.40472537      89.23500602
H      83.61772104      57.02989000      89.46744234
C      85.12572264      54.28222795      91.87495368
H      86.43719270      55.44629935      92.95776685
H      86.11404950      52.50588522      91.54047212
C      82.67474761      53.98932036      93.26768197
C      81.65618513      56.05857067      94.70576368
H      82.75222639      57.75743463      94.97788428
C      79.36583683      55.77700146      95.93597551
H      78.61561549      57.30012086      97.06981131
C      78.04491814      53.48476344      95.88684263
H      76.21377334      53.29579080      96.76745510
C      79.08426761      51.42307204      94.61127737
H      77.78413591      49.87349645      94.33726706
C      81.37272618      51.71220016      93.24689498
H      82.24955919      50.21931638      92.16786125
C      87.49165998      56.13038027      88.22967162
O      88.10582103      58.31868334      88.31659902
N      88.82769648      54.41639851      87.12796117
H      88.05479842      52.67218112      87.09394610
C      91.30134823      54.98709586      86.14341376
H      92.47297854      55.81479599      87.62306946
C      92.54100869      52.43407561      85.60484177
H      91.60937362      51.78212004      83.88708055
H      92.09314355      51.01867060      87.03347486
C      95.46819475      52.40006053      85.31760336
H      95.99353866      53.45074836      83.62629832
H      96.32802022      50.60293081      84.79414918
C      96.79100317      53.39405657      87.71755579
O      96.30534350      52.37360437      89.77924720
O      98.37270409      55.11181779      87.71377634
C      91.12371395      56.67273173      83.84928602
O      92.60525938      58.37726487      83.66031338
N      89.19997257      56.45163376      82.33183579
H      88.28723476      54.78489514      82.51324952
C      88.44786149      58.06923948      80.27770329
H      89.94641446      58.01065796      78.86796746
C      86.01767346      57.02422083      79.14197777
H      84.43597253      57.53633665      80.35896153
H      86.23877144      54.97764722      79.22323600
C      85.16351716      57.73286819      76.46990476
H      86.59970916      57.27744415      75.06583811
H      85.16918634      59.77755206      76.71178973
S      82.08893245      56.62548858      75.63842519
C      82.48010580      55.99998917      72.38242676
H      83.03568533      57.82546478      71.60574923
H      80.68864525      55.52755758      71.48291703
H      83.77645805      54.41828824      72.13298288
C      88.14928474      60.75454056      81.05249108
O      89.18863421      62.56489837      79.97534708
N      86.65640095      61.10602966      82.95733520
H      85.90240015      59.55267464      83.76802778
C      85.90428988      63.62881429      83.75857916
H      85.49421927      64.92894600      82.21467276
C      83.43819704      63.50031289      85.31193419
H      82.94875792      65.35791387      86.05648636
H      83.84259847      62.25687299      86.90119401
C      81.21587890      62.58757510      83.54881954
H      81.69775910      61.07201459      82.24301865
C      79.12206214      61.65405030      85.42720750
H      78.35294353      63.12047791      86.65175014
H      79.66630332      60.05156238      86.60072754
H      77.53658176      61.17028036      84.20455456
C      80.35038424      64.47919112      81.62696787
H      81.07981860      66.28576949      82.29404127
H      78.30381065      64.38281509      81.41531853
H      81.36138782      64.15415821      79.86385323
C      88.02267307      64.91193845      85.30248556
O      88.18329981      67.23441209      85.23445541
N      89.68941168      63.61180676      86.63852206
H      89.36626848      61.73152907      86.56482274
C      92.02511341      64.62658978      87.81393182
H      91.49976949      66.42560923      88.66619840
C      93.03233753      62.65749496      89.69420951
H      95.06001386      62.98819706      89.85105680
H      92.57502376      60.77721729      88.98745186
C      91.73787501      63.08079365      92.45698938
H      89.70452949      62.75576073      92.47588663
H      92.09125383      65.00642477      93.09760660
C      92.96430738      61.40460642      94.46954790
H      92.27266755      62.03766473      96.30258242
H      94.98820426      61.76743387      94.62828490
N      92.27455728      58.72497451      94.03869030
H      90.66640019      58.15805662      94.89662605
C      93.65027803      56.85603518      92.99367165
N      95.89716262      57.27555442      91.98455780
H      96.76454700      55.77700146      91.18142411
H      96.86659222      58.91772660      91.90896875
N      92.80368065      54.55623827      92.89162642
H      93.56335062      53.19941477      91.78613653
H      91.29567905      53.86459842      93.83459985
C      93.99609795      65.22563302      85.77302740
O      95.66094683      66.67127365      86.20010555
N      93.78444860      64.10691504      83.46189212
H      92.47864772      62.82190116      82.92709957
C      95.18284607      65.18594877      81.21122808
H      96.88737921      66.02498725      82.00302342
C      95.75921260      63.05811694      79.18355175
H      94.04901029      62.27010107      78.35018245
C      97.06312376      64.17683492      76.83084250
H      99.06056447      64.09179724      77.33350970
H      96.51699285      66.09490713      76.32439584
H      96.88171003      62.90882856      75.21701623
C      97.42217176      60.79611454      80.34195399
H      96.13148868      60.00242950      81.73468228
H      98.98686514      61.62948384      81.39453153
C      98.59569180      58.67773134      78.66765648
H      99.37047958      57.21508318      79.89597857
H     100.20006944      59.38448899      77.58673301
H      97.03855731      57.88593603      77.57728439
C      93.84114039      67.41015665      80.06605394
O      95.11103647      69.26397815      79.71078539
N      91.28056124      67.56133474      79.75235937
H      90.36215425      65.98152355      80.30604919
C      90.09192339      69.38681037      78.21979133
H      90.94985913      69.84601385      76.40376435
C      87.36504832      68.66682463      77.68877824
H      86.40317762      70.37513723      77.06516856
H      86.58270162      67.84479369      79.40842918
C      87.35370996      66.75064215      75.41921694
O      88.92785198      67.05299836      73.65610229
O      85.73988369      64.97240969      75.32662035
C      89.91050966      71.85290320      79.64653470
O      90.06168777      73.79932130      78.42388178
N      89.83303088      71.99463267      82.13719399
H      89.58169728      70.29576873      82.96867356
C      89.57413838      74.27175288      83.69432847
H      90.29034465      76.01030110      82.85151053
C      86.76789480      74.65914677      84.18565731
H      86.45420023      76.08777987      85.63696712
H      86.02712209      72.88658349      84.92643001
C      85.13895072      75.46605992      82.08050220
H      83.17363536      75.13157836      82.60017692
H      85.61894120      74.32277550      80.43644030
C      85.41485076      78.29686993      81.58350418
O      85.24099594      79.79731262      83.35417772
O      86.05357826      78.92614880      79.42354700
C      90.93852078      74.38702618      86.22467199
O      91.88527366      76.35234155      86.99757006
N      91.38449619      72.08344981      87.30937489
H      90.58514195      70.56977903      86.46466724
C      92.82257791      71.61479768      89.62617936
H      94.42128637      72.89603212      89.39941221
H      93.49721020      69.67215903      89.71121705
C      91.46008524      72.54832248      92.13006673
O      89.79523636      74.12813368      92.09038248
N      92.07613602      71.66204084      94.37884103
H      93.36114991      70.25230501      94.46198900
C      90.66262073      72.33667313      96.75422701
H      88.63116495      72.44060808      96.42163519
C      90.93285160      70.35246051      98.79135197
H      90.40561796      71.36724354     100.50533375
H      92.93218204      69.90648511      99.00678078
C      89.21320065      67.96195672      98.67418894
H      88.58014234      67.83723478      96.72021194
C      90.74765842      65.51854060      99.28079110
H      91.15017012      65.44673101     101.29901879
H      92.49943471      65.61869610      98.19797791
H      89.63460962      63.83479445      98.86694102
C      87.04001539      68.12069374     100.50344402
H      86.25766870      66.22340852     100.66596047
H      85.58303640      69.09012334      99.41496166
H      87.61827164      68.74997260     102.37805252
C      91.50354894      74.88402421      97.57058878
O      93.57468898      75.14102698      98.45687041
N      89.90295076      76.83422176      97.38350587
H      88.26644777      76.49974020      96.46131944
C      90.38861042      79.26818925      98.38506082
H      92.41817648      79.59133245      98.51734167
C      89.19997257      81.21649709      96.58226192
H      89.33225341      83.05331107      97.50633809
H      87.27245173      80.64013055      96.14195568
C      90.53978852      81.32232175      94.12750744
H      90.23365286      79.60267081      93.03335591
H      92.58069294      81.47161013      94.36372323
C      89.62516099      83.48605838      92.41541539
H      90.06924667      85.32476209      93.23177717
H      87.59748465      83.46338167      92.05069822
N      90.71364334      83.52196318      89.82838008
H      92.16873261      84.73705720      89.60917183
C      89.88027404      82.64890963      87.76479894
N      88.06802651      80.99539910      87.66653318
H      87.43307846      80.16769899      86.06593499
H      87.32536407      80.48706273      89.34838959
N      90.97442558      83.20259943      85.60106232
H      89.99554735      82.90024322      83.98912577
H      92.56557513      84.24383864      85.41586914
C      89.41162191      79.67259069     101.04579546
O      87.27056200      78.81087548     101.66940515
N      90.97631530      80.83288264     102.86182246
H      92.70541488      81.31854230     102.21175661
C      90.40939741      81.12767994     105.60192560
H      88.88627800      79.77841535     105.92506880
C      92.76966557      80.30942846     107.20063408
H      92.00810587      80.05620512     109.09602957
H      93.95263424      81.98939515     107.35559162
C      94.34002814      78.06254386     106.40694902
H      95.20174334      78.31198774     104.55312750
C      96.55478738      77.60900956     108.24754244
H      95.84802974      77.46916980     110.17695302
H      97.95318485      79.09433443     107.95652459
H      97.62815192      75.90069696     107.83369239
C      92.56746486      75.70794488     106.47686889
H      93.50854856      73.90703570     106.81512990
H      91.53000511      75.46794963     104.71375424
H      91.10670642      76.04620589     107.88849444
C      89.40595274      83.78463514     106.33513941
O      88.53289918      84.15313177     108.45730206
N      89.49665960      85.61389021     104.54745833
H      90.28089602      85.10555383     102.88260945
C      88.36471354      88.14234402     105.01233100
H      86.90395510      88.00628373     106.45797162
C      90.27711657      90.24182996     105.83247221
H      90.89127762      89.46704216     107.63905057
H      89.32091505      91.99360624     106.33702915
C      92.46730936      90.48938410     103.85959794
H      91.74165446      90.46292793     101.93018739
H      93.72775681      88.87555783     104.06557811
C      94.19262949      92.80996801     104.45486174
H      94.87671041      92.32997753     106.33702915
H      93.28934031      94.65623062     104.33013980
C      96.53400039      92.66445908     102.58214297
H      97.03666759      90.72937934     102.09459358
H      97.96452321      93.81530241     103.51755748
N      96.02944346      93.94758325     100.25588987
H      95.30378856      92.67390771      99.03323694
H      97.72452797      94.38222030      99.49810962
H      95.12426456      95.62188077     100.39572961
C      86.67340849      88.90579345     102.75977724
O      86.99277223      87.82298027     100.76800571
N      84.94241918      90.75205605     103.21142183
H      84.98021371      91.62133017     104.91217550
C      83.18308399      91.80841306     101.46909417
H      81.97932833      90.21915323     100.94752970
C      81.44264605      93.77939761     102.95063960
H      82.72388049      95.27228141     103.56102119
C      79.72677456      94.96803546     100.98910367
H      78.49278328      93.68680102      99.94975421
H      80.78124184      96.03573083      99.57747812
H      78.59293877      96.50627268     101.76011202
C      79.85149650      93.10854477     105.26555433
H      80.99856037      91.86321513     106.44096409
H      78.37750997      91.70258839     104.94997004
C      78.74789633      95.28361975     106.73198195
H      79.96676980      96.93335082     106.54489903
H      78.57404151      94.77717311     108.71997402
H      76.81470631      95.58219651     106.09136473
C      84.59281982      92.83642418      99.10126709
O      86.69041602      93.65089622      99.26189382
N      83.34560045      92.62855428      96.90918457
H      81.58059607      91.93691445      97.13973118
C      84.13550605      93.26917151      94.32970815
H      85.37138706      94.91323340      94.44876091
C      85.65484600      91.11488352      93.29035869
H      87.13639143      90.63111358      94.63773355
H      86.49010503      91.78384662      91.52913376
C      84.32069923      88.73949753      92.75934559
C      83.42118950      88.11399812      90.36128289
H      83.33615182      89.41979901      88.79469979
C      82.37050167      85.69136899      89.71310676
H      81.89429064      85.30019565      87.76668867
C      82.46120854      83.70904609      91.51401595
O      81.80547350      81.30720394      90.98111313
H      81.59949334      81.20515872      89.18209368
C      83.24166550      84.35533248      93.94609371
H      83.32859291      82.77741101      95.23488706
C      84.08448344      86.78363081      94.52246024
H      84.71565203      86.98394179      96.45565025
C      81.76389953      93.98348805      92.71588188
O      79.69842867      93.97781887      93.75901081
N      81.96987969      94.37466140      90.20254589
H      83.76511969      94.47859634      89.55814921
C      79.83070951      94.71103268      88.44887987
H      78.02980033      94.40111756      89.40130193
C      79.97810816      97.47192282      87.40953039
H      78.63262303      97.77427903      85.87885209
H      81.93397489      97.77427903      86.83316386
C      79.24489435      99.54873204      89.38807385
H      80.69242471      99.51282724      90.85072202
H      77.34193995      99.24259638      90.11561847
C      79.46599233     102.11687010      87.99345583
H      78.18853734     102.15655435      86.37773982
H      81.35382892     102.35875507      87.20543996
C      78.78947031     104.19745878      89.66775333
H      80.41841439     104.66989035      90.83560420
H      77.71988522     103.35653056      91.21543919
N      77.32304269     106.30261388      88.42809288
H      78.30192092     107.35897089      87.17331461
H      76.67675629     107.49314146      89.77168829
H      75.66197326     105.62420214      87.77613730
C      79.75323073      92.63989265      86.45521860
O      81.71665637      92.13911518      85.24579377
N      77.49122833      91.74794182      85.99412538
H      76.03802880      92.28084465      87.10906392
C      76.90541318      89.72971413      84.17431895
H      78.40018669      88.37478035      84.59761765
C      74.43554088      88.21982279      84.88485604
H      73.00312834      89.67491207      85.14563828
H      74.86639848      87.28629800      86.67064741
C      73.85917436      86.25639716      82.92709957
O      75.74323149      84.99217025      82.25813647
O      71.73512198      86.22805126      81.89908847
C      77.16997486      90.80307867      81.39453153
O      77.52146395      93.10287560      81.19611027
N      76.73155835      89.38389420      79.38197301
H      75.89629932      87.70959670      79.75613882
C      76.44620968      90.53851699      76.76281234
H      78.24333940      91.46448288      76.36219037
C      76.22511170      88.66012903      74.62742162
H      76.00023427      89.65034561      72.83407135
C      78.40963532      86.83654313      74.43089008
H      78.50412164      85.81231148      72.64509871
H      78.64207166      85.57420596      76.04093689
H      79.96110062      88.17635909      74.23057908
O      74.08405179      87.08787673      74.98835934
H      72.63085226      88.01006317      74.41199281
C      74.28625251      92.38855904      76.73635617
O      74.23900935      94.16868123      75.24536212
N      72.21889192      91.90856856      78.23490914
H      72.07149327      90.29096284      79.24024354
C      69.96633815      93.58475581      78.26892421
H      69.69421756      94.46914771      76.42644107
C      67.68732822      91.88400212      78.68088456
H      65.98468481      93.03862489      78.58450852
H      67.88574948      91.36054793      80.66320745
C      67.70622548      89.51617505      77.08595554
H      65.88263959      88.56375298      77.19933912
H      69.28225723      88.24627897      77.46956998
C      68.16542898      90.07931349      74.20412291
O      69.88885937      88.91713180      73.02304398
O      66.57427942      91.34543012      73.06650767
C      70.16853887      95.86376574      80.12085601
O      68.26936392      96.89177686      80.75202459
N      72.48345360      96.54217748      80.97690202
H      73.96688876      95.59920406      80.23046013
C      72.88029613      98.80417988      82.55671323
H      71.64063567     100.25171023      81.77247680
H      74.87395739      99.32574434      82.55482349
C      72.33794468      98.65111204      85.51035544
O      73.29225646     100.22147461      86.83127415
N      70.67498552      96.88799739      86.27758434
H      69.74712990      95.87321436      84.95477591
C      69.80760114      96.90122548      88.92509090
H      69.52414220      98.84386413      89.54492113
C      67.24891172      95.65967529      88.96099570
H      66.44199858      95.94502396      90.83371447
H      67.42087681      93.60743251      88.88540664
C      65.26469909      96.56107474      86.99379060
C      64.24613660      94.87732861      85.24012458
H      64.91887917      92.95547695      85.10784374
C      62.53404456      95.74282325      83.37874417
H      61.86130200      94.47859634      81.92554463
C      61.79138212      98.29962295      83.50535583
O      60.20212229      99.31629571      81.81971996
H      59.73535990     100.93768088      82.48868308
C      62.57561854      99.91533895      85.52736298
H      61.80649993     101.78805773      85.79570412
C      64.23290852      99.04795457      87.31504408
H      64.92076890     100.33674791      88.73800800
C      71.65197403      95.61999104      90.75245624
O      72.93320847      93.80018460      90.04002943
N      71.73134253      96.49493433      93.12406276
H      70.50868961      97.88955234      93.57570735
C      73.51713390      95.64077803      95.02701716
H      75.38985267      95.54818144      94.17853005
C      73.78925449      97.20169196      97.50822781
H      75.08182728      96.11509933      98.68363758
H      71.93165352      97.44735638      98.36427384
C      74.88529575      99.82841154      96.80147017
C      73.46989074     102.14710573      97.17374625
H      71.55370826     102.40977768      97.82381211
C      74.65474914     104.46768963      96.63895371
H      73.71933461     106.26292963      96.88839759
C      77.22477692     104.56784513      95.90385018
O      78.39640724     106.79394274      96.00211594
H      77.29280707     108.15643540      96.47076806
C      78.60049768     102.33418863      95.43708778
H      80.61305620     102.39465988      95.10071648
C      77.39674202      99.95313348      95.88684263
H      78.65152029      98.34686611      95.82826112
C      72.92187011      92.88555707      95.78857687
O      70.66553689      92.31485972      96.27234681
N      74.94954644      91.48149041      95.69409056
H      76.52746791      92.50572207      95.35771927
C      75.21788758      88.76784344      95.46732339
H      73.52091335      87.77195767      96.07392554
C      75.57882530      88.20470498      92.57415241
H      76.96777414      89.32153324      91.54614130
C      76.03802880      85.37767442      92.11305918
H      75.73945204      85.06964903      90.09861094
H      74.88529575      84.02274065      93.15429839
H      77.94476265      84.90902229      92.73099970
O      73.36217634      88.53918654      91.31181524
H      73.44154484      90.29096284      90.84505283
C      77.40430092      87.67369189      97.01500924
O      79.19765119      89.08153799      97.53846344
N      77.42886736      85.29830592      97.88239362
H      75.86984316      84.22305164      97.64617784
C      79.48488959      83.92636461      99.07670065
H      81.23099671      84.82398462      98.45309097
C      79.17686420      84.41769345     101.99443808
H      79.02190665      86.43214170     102.38750115
C      76.82415494      83.00984735     103.02055946
H      76.50290147      83.23850423     105.04067689
H      76.72588918      80.95949430     102.84481492
H      75.24623347      83.91313653     102.05112987
C      81.41052071      83.60322141     103.57613900
H      83.24922441      84.12667561     102.81268958
H      81.43319742      81.55664782     103.80668561
C      81.66752348      84.87878668     106.30679352
H      80.22944176      84.22494138     107.63149166
H      81.61839060      86.92536028     106.07435718
H      83.48355047      84.40635511     107.15717037
C      79.69464921      81.12956967      98.43986288
O      78.12050719      80.33210517      96.91674348
N      81.29335767      79.51385367      99.61338292
H      82.71254213      80.31509764     100.60548923
C      81.09493641      76.76997106      99.44897674
H      79.12017241      76.20305317      99.60960348
H      82.29869207      75.70605516     100.73588036
C      81.78657624      76.11990522      96.77690373
O      83.95787178      76.66981558      95.91329881
N      80.20676504      74.69127212      95.40874188
H      78.67797646      73.90136653      96.23266255
C      80.22566231      74.64213924      92.63084420
H      81.71287692      75.88935860      91.94109410
C      81.17619464      72.07211145      91.82204133
H      79.84393759      70.68316262      92.55714488
C      81.14028984      72.03998610      88.84194293
H      81.58626525      70.17671596      88.08983187
H      82.73710858      73.07366640      88.05203735
H      79.31670395      72.65603688      88.10494968
C      83.78968613      71.48062711      92.94453877
H      83.54213199      70.74741330      94.85316234
H      85.13706099      73.03965132      92.97099493
C      85.49988845      69.56822409      91.60661254
H      87.28001063      69.29799322      92.60627776
H      86.06113716      70.47907217      89.84538761
H      84.55502529      67.80699916      91.10583507
C      77.63106808      75.49818526      91.47622141
O      75.71110615      74.04687545      91.62173035
N      77.50634614      77.82443835      90.61639594
H      78.99356075      78.88457481      91.18142411
C      75.19899031      78.75418369      89.39563275
H      74.60372653      77.42759582      87.93676404
H      75.54481023      80.52863670      88.40919561
C      72.98423108      79.34188858      91.20977000
O      70.88663487      79.94660100      90.39340824
N      73.32627154      79.40802901      93.67208339
H      75.01190741      78.82410357      94.35238487
C      71.27969794      79.71038522      95.48811038
H      69.49768603      78.80898577      94.98166374
C      71.82771857      78.32332609      97.98443884
H      73.16942425      79.20393857      99.27323219
H      72.75368447      76.56588062      97.44019766
C      69.36918464      77.77908492      99.45464591
N      67.71756384      75.84211544      99.12583353
H      68.22401049      74.26419397      98.17530120
C      65.95822864      76.04620589     100.84548448
H      64.43888869      74.69694130     101.01744958
N      66.54026435      77.90569659     102.51222308
H      65.45178199      78.36867953     104.00888632
C      68.58305849      79.12079060     101.56735994
H      69.48823740      80.74973468     102.40072924
C      70.49546152      82.45615754      95.95676251
O      71.94866106      83.80920158      97.28712984
N      68.24290776      83.21582752      95.21221034
H      67.36040557      81.88168074      94.17286086
C      67.11474115      85.71971489      95.70542890
H      68.47156464      87.05386166      94.91552330
C      64.73557572      85.87089299      94.07270537
H      63.59985021      84.36478112      94.89662605
H      65.08328536      85.49105800      92.07904411
C      63.61874747      88.57320162      94.13695606
H      63.11608027      88.98138250      96.09093308
C      65.30438334      90.47237656      92.74233804
H      64.23668797      92.23171177      92.66863872
H      65.99224372      90.08687240      90.83938366
H      66.92576852      90.85599100      93.95176288
C      61.16588271      88.31430912      92.68375653
H      59.97913459      86.77418217      93.36594773
H      61.51548208      87.79463438      90.72222063
H      60.46290453      90.24938887      92.64596201
C      66.87285618      86.50206158      98.42474508
O      66.35318144      85.02996478     100.11227067
N      67.19977883      88.99650031      98.96898626
H      68.07850157      90.25883749      97.83892991
C      66.90120207      90.06608540     101.54090376
H      66.04137660      88.50706119     102.57836350
C      69.61673879      90.63867249     102.45553130
H      69.26713942      91.38700411     104.34147816
H      70.35184232      92.09943092     101.20264275
C      71.44221440      88.40501597     102.89583752
H      71.79370350      87.27684936     101.21020165
C      73.93476341      89.32153324     103.86148768
H      75.26702046      87.74739123     103.88605412
H      73.88185107      90.13789500     105.75121398
H      74.51679912      90.57631152     102.33269909
C      70.52380742      86.44348007     104.80257138
H      72.09228026      85.17547371     105.22020090
H      69.08950514      85.23405522     103.95408427
H      69.74712990      87.31653362     106.49954561
C      65.02848330      92.27706519     101.38216676
O      63.16899261      92.31297000     102.77111559
N      65.48768679      94.23293193      99.87605489
H      67.27725761      94.31419015      99.21654040
C      63.51859197      96.09998152      99.27134247
H      61.62508621      95.29306838      99.37527740
C      63.06883711      98.20702636     101.31980578