 %block lattice_cart
   142.669   0.000   0.000
   0.000 146.65   0.000
   0.000   0.000   162.396
 %endblock lattice_cart

 %block positions_abs
N      89.45603047      46.55230246      75.66110191
H      90.80529506      45.37122352      75.00914633
H      89.64500311      48.19258490      74.70301066
H      87.73637952      45.73027152      75.62330738
C      89.90389561      47.18158132      78.35018245
H      90.47081350      45.40145914      79.21756683
C      92.11487539      49.00516722      78.81883457
H      93.92712293      48.55163290      77.95145020
H      92.74226453      49.07130764      80.78037049
C      91.45536091      51.63755597      77.93633239
H      93.02194402      52.84131163      78.52214754
H      89.71870243      52.18935605      78.89442363
S      90.79395670      52.38966704      74.68600313
C      93.34697696      54.45324818      74.30238869
H      93.08808444      56.10297925      75.51181353
H      93.75893729      54.96158455      72.35030140
H      95.06095871      53.42145761      74.78237917
C      87.38678016      48.07353214      79.56149702
O      85.91279363      49.17902204      78.20656325
N      87.16946163      47.51795261      82.04459739
H      88.58675637      46.74694427      83.06504960
C      84.85265717      48.09242941      83.51858391
H      83.32197886      46.86221758      82.89497423
C      85.35721410      47.26094983      86.23223090
H      86.61577182      48.49494111      87.29425709
H      86.42679920      45.52807080      85.92231578
C      82.87978290      46.74694427      87.73645305
O      80.96171069      47.94692048      87.28858791
N      83.00639456      45.26728857      89.63751772
H      81.33020732      44.95359400      90.49545346
H      84.58242631      44.31864596      90.14018492
C      84.13834062      50.91379079      83.40331061
O      85.89200664      52.32352662      83.13685920
N      81.73271904      51.77550599      83.39764143
H      80.33432156      50.49238182      83.58850379
C      80.87289356      54.35309268      83.60929078
H      81.70815260      55.40189079      82.04459739
C      77.98161230      54.54584477      83.72267436
H      77.35233343      53.44980350      82.09750973
C      76.56053811      53.60476106      86.04703772
H      74.52341314      53.59720216      85.75790960
H      77.00840325      54.77828110      87.68165098
H      77.04619777      51.69613749      86.64797069
C      77.00651352      57.25760203      83.13496947
H      77.95137668      58.55395428      84.42565254
H      75.02608034      57.70924661      83.47134076
C      77.59232868      58.12120695      80.47990400
H      77.28241356      60.14321410      80.25880602
H      76.12968051      57.42956712      79.20622847
H      79.60299747      57.79239457      80.17187861
C      82.00483962      55.47370039      86.01869183
O      82.75128152      57.75648977      86.18309802
N      82.43758694      53.90144809      88.05014761
H      81.73649848      52.13455399      87.87251334
C      83.94936799      54.82741399      90.14963355
H      83.15568294      56.59997727      90.83938365
C      83.87188921      52.85264999      92.35305443
H      85.44981069      52.85076026      93.67775257
H      83.75094673      50.94402641      91.58393582
C      81.49650324      53.26838978      93.94987316
C      79.58410021      51.49771622      93.70609847
H      79.78441120      49.78940364      92.61005721
C      77.48839373      51.58653336      95.40685215
H      75.89913390      50.33175509      95.14040074
C      77.29942110      53.56885626      96.96398663
H      75.47205575      53.99971386      97.76145114
C      79.22316248      55.41511887      97.15106954
H      79.13812480      56.87398758      98.57403345
C      81.39634774      55.30362502      95.59960423
H      83.01017402      56.51304986      95.90196044
C      86.79907527      55.32063255      89.55814921
O      88.00850011      56.71903003      90.97544395
N      87.88377818      54.25860637      87.53047288
H      86.95781228      53.10020414      86.32860694
C      90.40278335      54.98804072      86.61017616
H      91.28528554      55.77605660      88.29392231
C      91.84275480      52.62777256      85.62562875
H      93.70791467      53.01516645      84.83572315
H      90.76183135      52.01550123      83.98345659
C      92.23959733      50.52072772      87.61929001
H      90.45569569      49.84231597      88.39407780
H      93.41689682      51.08764561      89.21232930
C      93.55295712      48.25305614      86.31726858
O      95.88298966      47.89967732      86.58938917
O      92.26983295      47.02473404      84.69588341
C      90.38199636      57.07996775      84.58438956
O      91.82385754      58.96024543      84.81115671
N      88.80974407      56.83241360      82.66631735
H      87.90834462      55.15622636      82.54159541
C      88.50549813      58.46891659      80.47801428
H      90.14389085      58.58418990      79.23457436
C      86.48349098      57.34263971      78.72434826
H      84.80919348      56.74170674      79.76558746
H      87.42079523      55.74771070      77.81916935
C      85.44792096      59.00748859      76.59651643
H      86.97859927      59.50448661      75.31150254
H      84.72226606      60.69501419      77.52815150
S      83.03474046      57.83018910      74.60096544
C      84.89045170      55.45669285      73.09674330
H      83.61110698      54.51371942      71.78716296
H      85.18335928      53.95625016      74.47624351
H      86.50805742      56.26360598      72.10652671
C      87.85165283      61.13343069      81.22823562
O      89.13477700      62.77371313      80.32116699
N      85.99594159      61.60586227      82.88174615
H      84.87911334      60.23203124      83.59228324
C      85.30997094      64.23069212      83.48267911
H      85.01517363      65.30216694      81.74791036
C      82.78151714      64.16833115      85.00390880
H      82.41868968      65.98813759      85.89585962
H      82.94403361      62.95134741      86.65930905
C      80.36455718      63.59763381      83.47512021
H      80.62155996      61.61720063      82.96867356
C      78.07042943      63.74314273      85.32138282
H      77.91925133      65.63286904      86.12829595
H      78.44270552      62.41088568      86.84639195
H      76.39235247      63.18000429      84.26880526
C      79.97527356      65.28704913      81.05249108
H      81.49272379      64.65965999      79.81094089
H      80.07353933      67.32984327      81.30193495
H      78.19137192      64.95823675      80.07361285
C      87.47937675      65.67822248      84.76580328
O      87.52095073      67.94589405      84.60895600
N      89.20469687      64.34974488      86.01869183
H      89.15934344      62.44112130      86.07538362
C      91.43079447      65.57806698      86.96355498
H      90.81096424      67.34496108      87.82338046
C      92.80840496      64.04738867      89.07815873
H      94.28239147      65.07539978      90.08349313
H      93.60775918      62.27482539      88.39596753
C      90.74293409      63.18378374      91.05481245
H      89.18390988      62.00081507      90.41041578
H      90.07019152      64.91288332      91.94676327
C      92.04117607      61.65688488      93.04469426
H      93.40744820      62.88709671      93.97066015
H      93.22981393      60.33974564      91.99967561
N      90.29317923      60.44179086      94.83048562
H      89.22170441      58.90355364      94.46576845
C      89.62043666      61.21279920      97.03390651
N      90.13255249      63.43511734      97.92963678
H      89.88877780      63.68267149      99.80802473
H      91.10387181      64.76170521      96.96398663
N      88.18802411      59.75959966      98.51734166
H      88.06708163      60.26604632     100.35415564
H      87.67212883      58.07774324      97.78034840
C      93.33563859      66.29238353      84.83194370
O      95.03450255      67.85707691      85.36862598
N      93.22036529      65.32106420      82.47923444
H      91.96558701      63.90754892      82.22790084
C      94.88143471      65.88609237      80.26636493
H      96.16266915      67.48480083      80.48746291
C      96.70880006      63.64676669      79.46890043
H      97.78594406      64.13431608      77.78326455
C      98.65143871      63.38976391      81.68743912
H      99.84007656      65.05083334      81.96144943
H     100.03660810      61.95546164      81.17910274
H      97.56673582      62.90032480      83.36740581
C      95.41811699      61.05028274      78.99457912
H      93.56618520      61.31673415      78.13475365
H      95.00804639      60.24714905      80.84651091
C      96.85430899      59.25693246      77.25603091
H      98.90655176      59.28905781      77.43555491
H      96.61809320      59.99203600      75.34362788
H      96.23447875      57.29539655      77.19178022
C      93.23170364      66.89520622      78.08184131
O      94.16900789      67.22401860      75.94645058
N      90.93757590      67.62842003      78.67521537
H      90.28184088      67.24102614      80.42321221
C      89.17446125      68.67721813      76.81005550
H      90.20058264      69.10618601      75.07528675
C      87.05229860      66.92733157      76.18644582
H      85.56130454      66.87252951      77.60563028
H      87.76850487      64.99603128      76.13731294
C      85.94491899      67.53960289      73.54460843
O      87.49260483      67.74180361      71.74369926
O      83.56008438      67.37897616      73.16666317
C      88.08408917      71.21512057      77.89097895
O      87.33386782      72.86485164      76.42455134
N      87.74771789      71.33984251      80.37218960
H      88.08408917      69.85451763      81.52114320
C      87.08064450      73.76814082      81.57027609
H      86.95025338      75.02102937      79.93944228
C      84.48038109      73.60562436      82.65497899
H      84.19881187      72.00124672      83.91542644
H      83.21993364      73.00280166      81.14319794
C      83.31441995      75.88652402      83.99857440
H      84.86588526      76.62540701      85.13618964
H      81.62122519      75.10228760      84.87351768
C      82.59065477      77.80459623      81.91609600
O      80.45715377      77.68554347      80.86162872
O      83.94369881      79.53369580      81.54381992
C      89.00816534      74.70166562      83.49590720
O      89.86799081      76.90886595      83.60740105
N      90.16089838      72.83461602      84.79414918
H      89.40122841      71.08661918      84.67131697
C      91.67078971      73.35429076      86.97111389
H      93.40744820      74.28403611      86.36640147
H      92.38888572      71.48157198      87.43787629
C      90.31963539      74.69032726      89.26524163
O      88.02739739      74.91898415      89.43531700
N      91.88810823      75.34417257      91.11906315
H      93.74759893      74.95488895      90.93953915
C      90.84686904      76.00557678      93.68909093
H      88.78895708      75.98667951      93.69098066
C      91.75582739      74.12151964      95.75267207
H      93.80051126      73.86829632      95.79046659
H      90.84875876      72.27336731      95.71298781
C      91.17946087      74.91709442      98.52301084
H      92.30951720      76.56493576      99.02567804
C      88.39022483      75.62196233      98.93875063
H      87.92724189      75.49724040     100.94186052
H      87.18457944      74.40308886      97.79735594
H      88.15589877      77.62885168      98.54001838
C      91.85031371      72.69477628     100.14817547
H      93.78350373      72.06927687      99.80424528
H      90.48404158      71.18677468      99.82125282
H      91.39866912      73.22012019     102.08703467
C      91.53283969      78.68898814      94.41852529
O      93.79484208      79.35606153      94.14640470
N      89.65067228      80.23667399      94.97032537
H      87.85732201      79.62440267      94.73599931
C      90.15333948      82.65552367      96.26289817
H      92.13188293      82.96543879      96.73910920
C      89.37855169      84.95721032      94.56403421
H      89.16312290      86.72788388      95.59393505
H      87.61354731      84.28635748      93.73822382
C      91.43268419      85.37106038      92.48344554
H      92.33786310      83.58148957      92.00345506
H      92.88021455      86.51434480      93.40185253
C      90.38766554      86.70520716      90.09861094
H      91.94668975      87.53101756      89.03280530
H      89.30296264      88.38328413      90.59749868
N      88.77761872      85.07059390      88.51502029
H      88.74360366      83.16763950      88.66997784
C      87.34142673      85.94364746      86.61962479
N      87.31119110      88.16218615      85.64641574
H      86.09042791      88.61949992      84.24990800
H      88.22392892      89.46798703      86.69899330
N      86.24160602      84.33926982      85.14752800
H      85.53673810      84.86839318      83.45433322
H      86.27184164      82.46655104      85.51602463
C      88.58486664      82.94087234      98.69875539
O      86.28884917      82.87851138      98.63828415
N      89.85098327      83.50212106     100.74532898
H      91.69913560      83.95754510     100.61871732
C      88.80785434      83.57204093     103.27945197
H      87.19402807      82.31348321     103.51188831
C      90.84497931      82.60261133     105.16350910
H      89.92279287      82.71599491     107.00221281
H      92.55140217      83.72888822     105.41862216
C      91.42512530      79.64329993     104.88382961
H      92.11487539      79.24645740     102.98465466
C      93.46413998      78.86473269     106.76032784
H      92.60431451      78.13340860     108.48375824
H      94.68301345      80.43320553     107.31212792
H      94.63199084      77.40964343     105.89105373
C      88.94013519      78.03514284     105.22775980
H      87.66268021      78.30726343     103.63472052
H      87.98582340      78.38663193     107.01922034
H      89.57886268      76.08116583     105.12949403
C      87.64567266      86.06647967     104.10904182
O      86.52317523      85.91719129     106.14616679
N      87.70803363      88.04313339     102.57080460
H      88.58675637      87.72754910     100.90595572
C      86.71025814      90.64339680     102.96197795
H      85.60476824      90.85315642     104.68540835
C      88.90800984      92.34792993     103.20008346
H      90.10798605      92.41407035     101.52389623
H      90.00027165      91.60904694     104.78178439
C      88.17668577      95.08803308     104.01455551
H      87.00694517      95.08236391     105.70775028
H      87.00127600      95.94974828     102.55946624
C      90.64844777      96.63760866     104.46431037
H      91.81251918      96.51477645     102.76922587
H      91.85598289      95.74376812     105.87404620
C      90.12688332      99.29456386     105.35437146
H      88.35432004      99.37582209     106.39939011
H      89.68657708     100.37170786     103.65550751
N      92.39266516     100.27344209     106.62804700
H      92.11676513     102.11025606     107.06457377
H      93.86098251     100.11470508     105.42051188
H      92.54006381      99.11881931     108.14171777
C      85.00572501      91.31424964     100.63383513
O      85.63122441      90.25978236      98.56269509
N      82.96860005      92.88461220     100.87760983
H      82.61522122      93.47231709     102.65773201
C      81.25650801      93.79923974      98.93875063
H      80.23227634      92.07202989      98.48143686
C      79.18347823      95.69085578      99.99510764
H      80.27951950      97.35192521     100.52612073
C      77.25973685      95.98187363      97.83326074
H      75.87834691      97.43507317      98.30569231
H      76.43392645      94.12049321      97.51956617
H      78.04397327      96.62438058      96.03802074
C      77.92114107      94.57024808     102.31569155
H      79.13245562      93.88805688     103.83881096
H      76.78541554      92.93752454     101.77900928
C      75.98606132      96.48643056     103.44196843
H      76.88935050      98.24009658     104.03723222
H      74.93726322      95.67762769     105.01800018
H      74.60089192      96.96642104     101.99443808
C      82.51884517      94.82914058      96.66352015
O      84.20259133      96.39383397      96.86761059
N      81.89523549      93.72743014      94.50167325
H      80.60833187      92.31958404      94.54891640
C      82.59254450      94.59859397      91.94487354
H      83.69614467      96.33336273      92.04691877
C      84.28951874      92.70319848      90.51057127
H      85.87499911      92.37249637      91.78613653
H      84.97737911      93.54034723      88.75690525
C      83.21237473      90.05002273      90.18742807
C      81.99917044      89.61160623      87.81582155
H      81.81397726      90.99299616      86.32671722
C      80.99572577      87.13417503      87.38118450
H      80.01684754      86.60127221      85.67098219
C      81.56075393      85.18397748      89.15185805
O      80.68581065      82.74434081      88.73233881
H      80.05464206      82.70087710      87.02969540
C      82.88356235      85.63940152      91.35338921
H      83.04607882      84.02557525      92.59115994
C      83.61299671      88.12817107      91.91652765
H      84.81108319      88.59115402      93.50200803
C      80.39290307      95.30157216      90.30648083
O      78.20082055      94.51544601      90.76946378
N      80.85777575      96.65461620      88.19943599
H      82.62655958      97.35381493      88.04825789
C      79.08332274      96.96075186      86.06782471
H      77.23328068      96.33714218      86.72355974
C      79.03985903      99.72731118      85.35539789
H      80.81998122     100.07124137      84.37840939
H      79.13812480     100.74587367      87.14307898
C      76.67203197     100.68918188      84.07227372
H      75.03363925     100.51532706      85.31004446
H      76.30164560      99.49487485      82.43577074
C      76.72494430     103.46707956      83.42787705
H      78.14601849     103.91116524      82.00491314
H      77.22194233     104.52532629      85.12485128
C      74.23806448     104.19273446      81.98412615
H      72.62801765     103.51621244      83.07449823
H      74.18704186     103.18928979      80.18699642
N      73.86389866     106.91960953      81.57594526
H      72.93226359     107.27298835      79.94889091
H      75.49284274     107.91171584      81.54570964
H      72.79809303     107.57912401      83.01780644
C      79.61622556      94.98598786      84.06093537
O      81.71571149      94.92362690      82.94788657
N      78.17814384      93.01689305      83.69054901
H      76.99706489      92.80524370      85.17209444
C      78.07609861      91.21976332      81.54004047
H      79.92236122      90.31836387      81.38508291
C      76.08054764      89.33003701      82.13530425
H      74.32499188      90.40340156      82.11640699
H      76.35644767      88.59871293      84.04014838
C      75.97661268      87.11716750      80.35896152
O      77.53563689      85.36917066      80.81627529
O      74.74262140      87.26834560      78.31427765
C      77.80586775      92.63138888      78.96623323
O      76.96871899      94.79701523      78.78670923
N      78.34443975      91.46542774      76.81005550
H      78.83198914      89.61916514      76.74958426
C      78.09310616      92.44808543      74.20601264
H      78.80175352      94.37749599      74.37230856
C      79.25150838      90.69819886      72.15754932
H      78.18192329      91.05535713      70.43222920
C      81.99350126      91.24621949      71.56417526
H      83.00450484      91.02512151      73.34429745
H      82.01617798      93.29468281      71.34685673
H      82.69647946      90.09537617      70.00704078
O      79.14001453      88.16407587      73.04194124
H      77.67169718      87.21354354      72.56006103
C      75.25662696      92.72398547      73.57295433
O      74.54797960      94.30568639      72.12353425
N      73.60689589      91.44842021      74.93922645
H      74.20215967      89.94797751      75.95778894
C      70.91781534      92.08525797      75.01481551
H      70.10334330      92.02289701      73.12319947
C      69.44760827      90.24466454      76.69289247
H      67.57677922      91.09504139      76.84407058
H      70.26963921      90.19364193      78.58072906
C      69.02808903      87.41385453      75.77070603
H      68.39314099      86.29324682      77.38075285
H      70.77608587      86.60883112      75.03749222
C      67.11001683      87.23810998      73.58996187
O      67.86023816      86.84882636      71.44512250
O      64.86502196      87.53479701      74.17388730
C      70.33766936      94.93118580      75.72913205
O      68.50274511      96.01399898      74.85985795
N      71.99495934      96.05557296      77.28437681
H      73.69571302      95.22976256      77.53948986
C      71.59244763      98.51788634      78.26136531
H      70.34144881      99.55534609      76.99524868
H      73.44437942      99.42495497      78.27270367
C      70.51341392      98.58780622      80.88052598
O      69.47406444     100.51721678      81.67610076
N      70.56254679      96.53556344      82.26002619
H      71.40725446      95.08992281      81.34161920
C      69.34934250      96.33147300      84.76202383
H      68.78809379      98.18151506      85.47256092
C      67.14403189      94.47198231      84.51069023
H      66.13113859      94.08458841      86.26246652
H      67.72039842      92.58603545      83.91164699
C      65.16170899      95.38094066      82.57938994
C      64.28865543      93.70286370      80.70856089
H      64.83667606      91.73754833      80.64242047
C      62.32900926      94.52867410      79.18733121
H      61.70539956      93.08870265      77.88153032
C      61.27643169      96.94374432      79.39142165
O      59.29977797      97.61270744      77.90987622
H      58.96340668      99.38338099      78.12530502
C      62.24775102      98.63315965      81.12430068
H      61.24619608     100.40005375      81.31705276
C      64.16204378      97.90750474      82.76836257
H      64.84234525      99.13393712      84.24990800
C      71.13513387      95.35826395      86.78403098
O      72.97950675      94.15450829      86.12262677
N      70.53042145      96.03667569      89.21610875
H      68.86935202      96.93429569      89.50334715
C      72.12157100      95.54534685      91.51590567
H      74.11712199      95.87793868      91.13229123
C      71.51685858      97.36137384      93.56814845
H      72.76974713      96.91161898      95.14040074
H      69.54020486      97.19507792      94.12372798
C      72.20660868      99.93140163      92.93697986
C      70.47561939     101.90238617      92.75367641
H      68.68226911     101.51688200      93.64940668
C      71.01230166     104.34769202      91.80503380
H      69.47784389     105.64971345      91.46677279
C      73.47083559     104.94106608      91.13040150
O      74.37412477     107.18228149      90.14585409
H      73.20249445     108.56745088      90.16853081
C      75.25662696     102.88882331      90.94331860
H      77.25973685     102.99842743      90.56537334
C      74.73128304     100.48131198      91.92975573
H      76.17881339      99.04134053      91.93353519
C      71.91181138      92.81658206      92.26045784
O      69.84445080      91.71109216      92.52501952
N      74.06987883      91.60148804      92.39840786
H      75.58921878      92.74477246      92.22455304
C      74.47994944      88.84626707      92.65541064
H      72.86801289      87.79368952      93.38484499
C      75.26607559      87.58204017      90.05325751
H      77.05186695      88.39840194      89.43531700
C      75.37001053      84.66430274      89.83026980
H      75.91425171      84.28824721      87.88007225
H      73.52563765      83.94620674      90.40096715
H      76.86289432      84.16730472      91.16063712
O      73.54075546      88.38517385      88.04636816
H      73.65413904      90.19553166      87.98022774
C      76.52463331      88.29068754      94.71143287
O      77.94948695      90.05569191      95.30669666
N      76.44337508      85.94175773      95.71109809
H      74.96371938      84.88918017      95.12339320
C      78.44270552      84.90051853      97.31736545
H      80.02062700      86.11561255      96.78824208
C      78.19326164      85.50901040     100.11605012
H      77.46760674      87.43842097     100.14817547
C      76.14290859      83.94620674     101.39728456
H      74.44782410      84.05770060     100.23321315
H      75.67614620      84.86272401     103.18118620
H      76.82321007      82.00545782     101.52956540
C      80.68014147      85.74144674     101.64483871
H      81.91035331      87.01701200     100.59415088
H      81.28863334      83.79691836     101.94152574
C      80.18314345      86.77890649     104.27344801
H      79.05875630      88.45509373     103.86526713
H      82.06720059      87.16252093     105.01044127
H      79.23261112      85.50901040     105.58680780
C      79.22694194      82.18687155      96.88083867
O      77.97594313      80.77902544      95.47488230
N      81.32453814      81.27980292      98.07325598
H      82.65112602      82.40796952      98.85371294
C      82.21081979      78.67764978      97.78979703
H      80.57620652      77.57027016      98.37750191
H      83.73015974      78.45466208      99.15984861
C      82.83065002      77.70822018      95.15929800
O      84.16479680      78.87040187      93.61728133
N      81.79508000      75.48023286      94.66796916
H      80.61778050      74.76024714      95.98888785
C      81.79885945      74.10829156      92.18108933
H      83.09143226      75.09094924      90.91497270
C      82.49805819      71.32472470      92.33604689
H      80.84265794      70.35529510      93.08815796
C      82.76828905      70.52159102      89.50523687
H      84.24227557      71.63841927      88.59816824
H      81.03352030      70.59906979      88.39596753
H      83.30686105      68.53359893      89.48444988
C      84.88478252      70.94677944      93.93286563
H      84.66935372      71.88597341      95.75267207
H      86.39278412      71.80282546      92.82170655
C      85.63122441      68.31250096      94.56214449
H      85.87877856      67.16543708      92.86705999
H      84.17802488      67.42432959      95.72054672
H      87.39622879      68.34651603      95.62606040
C      79.21938303      74.64119438      91.06993026
O      77.48650401      73.37129830      91.83715914
N      78.75262063      76.74823922      89.78680609
H      80.28896813      77.74979416      89.25390327
C      76.29597644      77.41720233      88.44699014
H      75.91047226      76.21722612      86.81804606
H      76.55108948      79.37873824      87.87629279
C      73.85822948      77.33594410      89.96255064
O      71.77764081      76.87674061      88.89863473
N      73.93759799      77.97845105      92.36628251
H      75.66858729      78.59639155      92.88406752
C      71.82299424      78.70221622      94.05569784
H      70.24885222      77.55893181      93.37917582
C      72.36534570      78.03514284      96.86383114
H      73.42170271      79.62251294      97.64617783
H      73.33477530      76.25880010      97.24177640
C      69.88980422      77.87640583      98.26222861
N      68.28731631      75.89786238      98.42096562
H      68.69549720      74.21222651      97.62728057
C      66.11035161      76.61028920      99.70031033
H      64.49085616      75.37062874      99.60204456
N      66.32389068      79.01780052     100.34470701
H      64.92360347      79.96455340     101.23287837
C      68.82966776      79.70377117      99.66629526
H      69.57988912      81.59727694      99.54157332
C      70.95560987      81.42909129      93.75901080
O      71.89858330      83.18842649      94.92497194
N      69.02241985      81.93742767      92.20754550
H      68.06999779      80.55981719      91.29480769
C      68.00196764      84.47910956      91.84849750
H      69.59878637      85.70932139      91.42708853
C      66.39192082      84.50178628      89.36350740
H      64.89714731      83.09960936      89.56003894
H      67.63536073      84.08415676      87.77424757
C      65.11446584      87.12094695      88.83816349
H      66.35790576      88.61761019      89.52035468
C      64.77431510      87.54424564      85.96955894
H      63.87291564      89.35271372      85.56704724
H      63.73685536      85.92286047      85.23634513
H      66.59790100      87.39495726      85.02469579
C      62.44239283      87.48755385      89.70176841
H      61.17627620      86.02301596      89.00067995
H      61.93972564      89.44908977      89.33327178
H      62.36302432      87.35527301      91.75590091
C      66.64136469      85.31058914      94.28057527
O      65.46028576      83.67219643      95.48811038
N      66.61301880      87.77479225      94.66985889
H      67.76197240      88.95776093      93.71365737
C      65.22406996      88.95398147      96.88650785
H      64.67793905      87.43086206      98.16018339
C      67.20072368      90.67363242      98.45120124
H      66.13491804      91.61660585      99.94219530
H      68.01330601      92.06258126      97.16807707
C      69.38335757      89.37728017      99.60771374
H      70.40758923      88.24722383      98.22443408
C      71.35812157      91.21976332     100.52801046
H      70.58144406      92.65595532     101.78278873
H      72.41447858      92.27045115      99.10504654
H      72.76029850      90.24655427     101.68074351
C      68.62935677      87.41574425     101.52767568
H      67.44260866      86.04002350     100.56013581
H      67.43504975      88.35115878     102.92229370
H      70.18649127      86.47466055     102.49332582
C      62.88836824      90.68308105      96.23077282
O      60.88714807      90.04813301      97.20398187
N      63.15104019      92.69941903      94.71710205
H      64.93305211      93.12271772      94.17853005
C      61.04588508      94.33970147      94.14073552
H      59.25820400      93.33625679      94.34860541
C      61.15548922      96.65083675      96.12305842