 %block lattice_cart
   142.669   0.000   0.000
   0.000 146.65   0.000
   0.000   0.000   162.396
 %endblock lattice_cart

 %block positions_abs
N      93.90161163      43.01284508      81.21784213
H      95.73086671      42.68025325      80.78698454
H      92.71297378      41.85066339      80.28431733
H      93.67106502      42.58576693      83.06221501
C      93.21753071      45.70003589      80.63013725
H      94.29656443      46.87922511      81.93026896
C      94.07924591      46.29718942      77.88814437
H      93.28934031      44.91957894      76.57856403
H      96.12959896      46.12711404      77.82578340
C      93.37626772      48.90879118      77.03965725
H      91.32402494      48.92201927      76.86580243
H      94.25876991      49.19225013      75.20095354
S      94.45530144      51.50905459      79.17315825
C      93.65027803      54.22081185      77.43272032
H      91.81724351      54.30773926      76.49730580
H      94.93718165      53.99971387      75.84157077
H      94.01310549      56.08408198      78.23396428
C      90.38483097      46.04585581      80.94572154
O      88.98076432      44.35266103      80.17660293
N      89.67618360      48.28518150      81.82444427
H      90.94796941      49.41901728      82.68238003
C      87.14584007      49.02595421      82.68993892
H      86.03090154      47.64834373      81.64114082
C      86.75088727      48.44769795      85.47161606
H      87.05513320      46.42380108      85.70216267
H      84.72510066      48.58942744      85.81554624
C      88.23810187      49.74216048      87.37834992
O      88.50644301      52.06841358      87.06087589
N      88.84092457      48.54596373      89.36634199
H      89.76122128      49.36988439      90.82332098
H      88.52534027      46.66379631      89.38901870
C      86.10838032      51.52039294      81.94538676
O      87.47276272      53.26838978      80.98729551
N      83.54969089      51.87566148      82.09278541
H      82.43664209      50.35254208      82.38002382
C      82.28924344      54.38143858      81.54665450
H      82.90151477      54.92379003      79.65692819
C      79.31292450      54.20947349      81.76964221
H      78.84616210      52.56730131      80.61879889
C      78.65152029      53.57263572      84.57399607
H      79.21087928      55.27338939      85.59444827
H      79.43008753      51.83786697      85.36201193
H      76.59360833      53.52350284      84.60612140
C      77.90696812      56.56785192      80.73785164
H      78.29247229      58.19490628      81.94160730
H      75.91897604      56.04439774      80.87391195
C      78.47199629      57.27271984      77.96184369
H      76.87895701      58.31962821      77.17949699
H      78.86316964      55.64377576      76.76375721
H      80.00078488      58.64088168      77.77665052
C      83.18308399      56.69257386      83.13024515
O      82.99222163      58.85253103      82.35356764
N      84.30747114      56.32218751      85.28075370
H      84.60793763      54.51371943      85.80609761
C      85.22020895      58.36876111      87.02686081
H      83.85393683      59.90888804      87.10056015
C      85.39595350      57.23681504      89.69326464
H      86.08003442      58.55773373      91.12000801
H      87.06269211      56.02927992      89.74806670
C      83.01300862      55.73637235      90.52852368
C      80.71132197      57.01571707      91.01607307
H      80.67541717      59.05662148      91.06898539
C      78.64963056      55.49637711      91.55086560
H      76.91297208      56.56407248      91.66802864
C      78.81970593      52.79973766      91.61133685
H      77.18131322      51.62054844      91.92314169
C      81.17997410      51.53551076      91.15969227
H      80.97399393      49.51728306      90.92536619
C      83.19253262      53.06051989      90.44537571
H      84.98210344      52.21203277      89.95026742
C      87.79023674      59.31740371      86.34844906
O      88.37227244      61.45090472      86.96827930
N      89.43429863      57.69223908      85.35445302
H      88.94108006      55.84975592      85.41681399
C      92.06101821      58.25348779      84.45872275
H      92.78478338      59.75393048      85.67003732
C      93.82602258      56.06140527      84.84044747
H      93.46508486      54.39088722      83.68960415
H      93.51232801      55.57763533      86.81899092
C      96.54911820      57.09697530      84.16581517
H      96.79667235      58.82985432      85.25051808
H      96.67761959      57.55995823      82.16459502
C      98.56734590      55.20346953      85.02942010
O      98.05900952      52.97359248      85.22973109
O     100.62903731      55.88566072      85.87412776
C      91.89283256      59.32874207      81.72239905
O      93.10225740      61.30161634      81.31988735
N      90.07302612      58.48781385      80.16526457
H      89.09036844      57.06673968      80.97973661
C      89.26611299      59.57818595      77.87302655
H      90.78356322      59.46669209      76.48596744
C      86.97576470      57.96435967      76.79210310
H      85.30713636      58.44812961      77.89759299
H      87.22142912      55.92345526      76.93950175
C      86.28790432      58.62387415      74.00286707
H      87.81291345      57.79239458      72.89737718
H      86.05357826      60.65532993      73.74586428
S      83.32103401      57.16500543      72.77832442
C      83.78212723      57.12721092      69.39760404
H      85.08603838      58.61253579      68.81745806
H      81.98121805      57.15555681      68.39793882
H      84.77801300      55.36976544      68.99320262
C      88.52534027      62.35608362      78.23963346
O      89.37004794      63.88109275      76.80722092
N      87.04946402      62.86253027      80.23140499
H      86.25199952      61.37720540      81.12524554
C      86.20286664      65.49869847      80.93816263
H      86.04790908      66.62497536      79.22229114
C      83.67819228      65.29082858      82.50474574
H      83.33615182      67.09551722      83.43260136
H      84.19219784      63.82818042      83.85967951
C      81.32359329      64.62375520      80.97973661
H      81.65807485      62.88142754      79.93282824
C      78.94631759      64.37620105      82.59167315
H      79.28457860      62.79450012      83.86723842
H      77.41941873      63.76770918      81.35012297
H      78.74600660      66.16766159      83.59133837
C      80.59982812      66.61741645      78.86702259
H      80.66407881      68.53926811      79.60590559
H      78.89718471      66.19978694      77.78609914
H      81.93208517      66.52859933      77.29854975
C      88.29857312      66.97646445      82.40647998
O      88.51211219      69.30271755      82.17404364
N      90.07302612      65.78404715      83.85212062
H      89.77822882      63.89999002      83.90692268
C      92.38416140      66.84985280      84.69304881
H      91.94763463      68.25202972      86.13679973
C      93.83169176      64.74847714      86.06499012
H      94.95796864      63.67889204      84.71383581
H      92.55045732      63.47480160      87.05520671
C      95.48709201      65.99758623      88.07754864
H      94.38538157      66.88764732      89.57232215
H      96.54533875      67.57928716      87.29142250
C      97.02721896      64.06439620      89.51185091
H      98.11192186      64.96579566      91.01040389
H      98.22341571      63.14032004      88.11156372
N      95.49843037      62.03294043      90.79119563
H      94.07924591      62.63765285      91.91369307
C      95.63827012      59.57440648      90.92914565
N      97.72452797      58.33474603      90.21671883
H      97.83791154      56.48848342      90.68348124
H      99.37425904      59.16622560      89.73483862
N      93.66917530      58.24403917      91.76062523
H      93.76744107      56.34108477      91.65858000
H      92.14038671      59.23425576      92.32754312
C      93.96586233      68.02715228      82.45183341
O      95.34158308      69.89609161      82.92615471
N      93.60681433      67.02937680      80.13691868
H      92.25943947      65.67633276      80.11802142
C      94.84836452      68.03849065      77.76909160
H      96.40360927      69.31405591      78.21317729
C      96.03322292      65.71034782      76.20250850
H      94.69529669      64.20990513      75.75464335
C      97.20674296      66.51159179      73.58334782
H      95.67039546      66.77804320      72.23786270
H      98.20829790      64.89965523      72.78399359
H      98.41427807      68.17455093      73.45106698
C      98.24609243      64.71068261      77.76153270
H      97.43162039      64.12675717      79.56244187
H      99.63882072      66.22057394      77.88625464
C      99.64448990      62.34663498      76.70139624
H     100.79155377      62.90977344      75.08756997
H      98.39349108      60.78194161      76.22707493
H     101.09013053      61.74003285      78.03743275
C      93.31201702      69.64475802      75.94361600
O      94.47041925      71.43810828      75.01009120
N      90.99521256      69.13831135      75.50519948
H      90.32813918      67.40921179      75.95873380
C      89.44941644      70.92977191      74.30711300
H      90.50766318      71.63086037      72.68383810
C      87.13072225      69.41421141      73.55122248
H      85.70964807      70.85796231      73.17894639
H      86.34081666      68.27470643      75.07245217
C      87.58803602      67.68889128      71.23630774
O      89.26800271      68.18588930      69.71696778
O      86.40506735      65.69523002      71.18339540
C      88.62549577      73.29381953      76.00030777
O      87.89417169      75.27425270      74.99497338
N      88.83336566      73.14831059      78.55710749
H      89.27556162      71.42865965      79.25819594
C      88.39683888      75.37818765      80.16148512
H      88.08692377      76.91642487      78.82922808
C      85.73043506      75.03047801      81.47295519
H      85.39217405      76.73123169      82.58978344
H      85.68508163      73.48846134      82.83922730
C      83.39095388      74.85851290      79.63614121
H      82.07381464      73.72278740      80.73785164
H      83.82370121      73.69822096      77.99018958
C      82.40829620      77.32649548      78.87647123
O      83.53079363      78.70788540      77.19083535
O      80.23322121      77.87451610      79.50763981
C      90.57002414      75.89408293      82.07955732
O      91.79456680      77.89152365      82.08144705
N      90.96875640      74.21222651      83.92581993
H      89.77255964      72.72879135      83.98818090
C      92.46541964      74.50702382      86.26341138
H      94.14538633      75.64652879      85.91192229
H      92.96808684      72.55871599      86.70371762
C      91.01222010      75.64652879      88.51029597
O      89.17540613      77.09972832      88.40069184
N      92.13849698      75.10417733      90.69104013
H      93.77311024      74.11962992      90.64190725
C      91.02166873      75.79770689      93.05886720
H      88.97131568      75.83361169      92.83965895
C      91.64716814      73.61318327      94.98260860
H      93.70508010      73.69822096      94.97504969
H      90.96308722      71.86707616      94.13034202
C      90.61915703      73.67932368      97.54696721
H      91.51677703      75.29314996      98.45403583
C      87.84881825      73.48468188      97.89278711
H      87.01166950      74.73190125      96.48305129
H      87.24599556      74.34639707      99.66535039
H      87.17796541      71.63841928      97.27295688
C      91.79267707      71.52692542      99.22126472
H      91.98353943      71.91431932     101.23571296
H      93.51421774      70.75402736      98.39923376
H      90.60970840      69.83939983      99.19480855
C      91.87015585      78.43954428      93.96026665
O      94.15483496      78.95543955      94.18136463
N      90.02389324      80.02313493      94.71615719
H      88.16629227      79.64518966      94.49505921
C      90.60403922      82.51946339      96.17313617
H      92.62793610      82.63662642      96.55108144
C      89.79145690      84.84382675      94.61789142
H      89.83303088      86.49544755      95.84810324
H      87.80535455      84.71532536      94.09254750
C      91.49599004      85.38428848      92.39746299
H      91.92873736      83.62306355      91.42047449
H      93.26288414      86.15718654      93.11744873
C      90.33569808      87.27779424      90.61545109
H      91.80590515      87.91652174      89.32287829
H      89.67807332      88.85949516      91.76062523
N      88.37605189      86.10049475      89.05264743
H      87.82047236      84.34871846      89.57232215
C      87.08725855      87.34582439      87.34244512
N      87.51622642      89.75711516      86.85678544
H      86.34837556      90.63016872      85.62846335
H      88.98454377      90.63961735      87.69960339
N      85.29957746      86.41040985      85.90436338
H      84.92163219      87.57826073      84.44171522
H      84.90462466      84.54336027      85.89113530
C      89.38894520      82.60639080      98.93024687
O      87.12127362      82.25301198      99.30630240
N      91.03678654      82.91630591     100.85209853
H      92.86415189      83.17141896     100.36265941
C      90.49443509      82.72733328     103.57141468
H      89.00533076      81.34027417     103.89833733
C      92.79423201      81.89396398     104.96414298
H      92.75643749      82.88984973     106.76694188
H      94.58569256      82.48922776     104.14022230
C      92.74698886      78.87040187     105.43657455
H      91.11048587      78.51702305     106.63655076
C      92.60525938      77.32460574     102.95914337
H      93.97720069      77.88585447     101.52673081
H      90.76088650      77.60617497     102.08420007
H      92.88871833      75.33661367     103.41267767
C      95.05623441      78.40930866     106.91245080
H      94.82001862      79.07638204     108.84753055
H      96.64360451      79.16708890     105.83908626
H      95.28678102      76.36084532     106.89544327
C      89.59870482      85.17641857     104.83186213
O      88.45919985      85.32948641     106.92756861
N      89.87649459      87.27968397     103.50338453
H      90.95174886      87.03401955     101.94625005
C      88.99777185      89.81380695     104.15534012
H      88.23243270      89.56814252     106.05262534
C      91.24843589      91.66195929     104.22148053
H      92.54100869      91.40873596     102.63600016
H      92.36526414      91.52589898     105.94680066
C      90.18640970      94.40017272     104.16289903
H      88.68407728      94.66851385     105.54617869
H      89.36815821      94.63071933     102.28640079
C      91.97975997      96.55635043     104.46714495
H      93.14572111      96.69430046     102.77583990
H      93.39327526      96.35226000     105.95058011
C      90.51144263      99.01299465     104.49738057
H      89.55902057      99.50243375     106.25671578
H      89.07714036      98.97897957     103.01961461
N      92.20274768     101.04067097     103.79251267
H      93.26099441     100.67028461     102.24860626
H      93.55201227     101.17484155     105.13421834
H      91.21442082     102.64693835     103.49771536
C      86.70742356      90.50166732     102.58497755
O      86.59970916      89.78357133     100.33431351
N      84.97643426      92.11171415     103.55251742
H      84.95753699      92.58792518     105.40255948
C      82.84104352      93.07547457     101.89711717
H      82.03602011      91.45219967     100.91634921
C      80.70187334      94.41340080     103.37866261
H      81.35760837      96.06502160     104.41990180
C      78.83860319      95.32424888     101.36232462
H      78.14885309      93.63483356     100.40612311
H      79.70031839      96.64327785     100.03573676
H      77.20021048      96.25966340     102.18813502
C      79.52079439      92.83925878     105.44791292
H      81.03446517      91.97187440     106.54584390
H      78.63640248      91.23866059     104.49927030
C      77.48744888      94.12616240     107.18835085
H      75.98322673      94.81024333     105.96002875
H      78.41341477      95.76644484     108.02172015
H      76.70510219      92.90350948     108.65288874
C      83.93708479      94.86693511      99.80141070
O      85.35248979      96.68485183     100.15289979
N      83.11694357      94.13939047      97.48649595
H      81.71098719      92.84870740      97.45248088
C      83.45142512      95.67573798      95.08465381
H      84.30747114      97.50877250      95.46259907
C      85.22020895      94.20553091      93.41602548
H      86.91340373      93.75955550      94.50261811
H      85.83248028      95.24488038      91.74361769
C      83.95409232      91.68652573      92.57509727
C      82.46120854      91.65062092      90.36222775
H      82.32514824      93.33814652      89.22083306
C      81.49177894      89.33948565      89.27374540
H      80.37873014      89.41885415      87.56543281
C      81.76578925      87.13795449      90.78930590
O      80.87194871      84.94965142      89.88979618
H      80.28991300      85.11027816      88.17959387
C      83.33426209      87.03968873      93.01540350
H      83.60827241      85.34460422      94.11522421
C      84.25644853      89.37539045      93.97916392
H      85.28634937      89.16563083      95.72905049
C      80.92675077      96.30501684      93.75050703
O      78.98222239      95.15795297      94.40435234
N      80.90596378      98.14561027      91.79464031
H      82.51223115      99.17362138      91.81731702
C      78.86316964      98.66339527      90.04664347
H      77.03958374      98.38938496      90.96505045
C      78.79513949     101.49420529      89.26618649
H      77.23989473     101.92506289      87.98873151
H      80.68486580     101.69451627      88.47628090
C      78.49656273     103.38960078      91.48472519
H      80.17841915     103.26298912      92.66580414
H      76.68242547     103.06267813      92.40313217
C      78.50790109     106.23552860      90.47939080
H      77.08682690     106.41316289      88.99784537
H      80.33715616     106.57378962      89.59877832
C      78.20743460     108.28777138      92.45793423
H      79.44142589     107.92116449      94.06609133
H      76.26101650     108.37847825      93.12311791
N      78.78002168     110.86913752      91.41291558
H      79.20709982     112.15226170      92.75840073
H      77.42508791     111.74030135      90.38679421
H      80.30881026     110.76898204      90.27530034
C      78.98600185      97.01744366      87.69015475
O      81.00233982      96.71130799      86.59411350
N      76.88273646      96.01021953      87.03630945
H      75.52024379      96.22375861      88.35722814
C      76.26857541      94.44930559      84.85367555
H      77.91641675      93.37027188      84.24896313
C      74.03869836      92.75989028      85.58499964
H      72.61006527      93.71987123      86.71505597
H      74.82671423      91.32369827      86.83410874
C      72.72911802      91.31424965      83.43827054
O      74.03680863      89.86860902      81.96617375
O      70.51057933      91.93596960      83.04709721
C      75.42197802      96.00455036      82.49529711
O      74.80025806      98.26466303      82.59734233
N      75.42008829      94.90095018      80.24652280
H      75.66008353      93.00744442      80.31266322
C      75.06859920      96.11604421      77.73507653
H      76.18353772      97.85081296      77.72184845
C      76.04747743      94.50410765      75.58456800
H      75.77157739      95.71353250      73.93861637
C      78.68553536      93.69719453      75.66582623
H      79.90818829      95.34503586      75.84346050
H      79.24300462      92.62571971      73.99719788
H      79.06914980      92.59548409      77.36280045
O      74.73600737      92.13628059      75.78487898
H      75.67520135      91.06291605      76.90737642
C      72.35684194      97.05145873      77.28343195
O      72.04881655      98.79945557      75.72251801
N      70.48034371      96.02155789      78.51175405
H      70.61073483      94.45308505      79.59078777
C      67.86685222      97.06090735      78.32656087
H      67.93677209      98.19663288      76.60879965
C      65.86941151      94.98031869      78.04499166
H      63.97023656      95.59447975      78.54765885
H      66.42499104      93.68018699      79.54354462
C      65.88074987      93.62349520      75.46929468
H      64.46723458      92.12683196      75.49764058
H      67.72890220      92.74855192      75.22174053
C      65.57461420      95.29212354      73.17894639
O      63.96645711      97.00988475      73.25642518
O      66.71978835      94.93118580      71.10591662
C      67.21678637      98.77110968      80.58289408
O      65.10029290      99.64227351      80.93438319
N      69.24257298      99.48353650      82.07955732
H      70.97545200      98.72953570      81.81121620
C      69.22934489     101.71719300      83.54409522
H      67.40008982     102.64315889      83.33433560
H      70.69010333     103.01921443      82.90536772
C      69.56382645     101.39216006      86.38057441
O      70.21578203     103.10047266      87.88290684
N      69.21422708      99.12637822      87.36134237
H      68.85328936      97.74876774      86.09144629
C      68.95722430      98.65016719      90.08443800
H      68.61707357     100.45296610      91.02174224
C      66.71789862      96.75666143      90.16947568
H      66.54404380      96.44485659      92.19904173
H      67.52103230      95.18629886      89.10178030
C      64.27448250      97.84514378      88.95060220
C      63.20489741      96.34281137      87.09867042
H      64.23101879      94.64961659      86.60356212
C      60.96368200      97.13082723      85.83255379
H      60.01503939      95.92707157      84.48517892
C      59.90732499      99.46274951      86.48828881
O      57.49414449     100.16005852      85.67003732
H      57.12186840     101.86081220      86.18404288
C      61.19989779     101.01799426      88.19282195
H      60.20401202     102.73764521      88.65580490
C      63.31828098     100.20163249      89.53263791
H      64.16109892     101.44129296      90.91780730
C      71.22111643      97.65617115      91.74172796
O      72.88596531      96.25399422      90.78552645
N      71.21544725      98.17962534      94.16057765
H      69.77736552      99.17740083      94.91835789
C      72.94265710      97.01555393      96.11455465
H      74.88151629      97.42751426      95.55141622
C      72.31715769      98.04734450      98.71670778
H      73.40375032      96.94374433     100.07542100
H      70.33861424      97.91317393      99.26661814
C      73.01257697     100.93295658      99.08331469
C      71.08505613     102.56756984      99.64078396
H      69.23123462     101.77577452      99.96203742
C      71.41764796     105.12247982     100.03573676
H      69.83027786     106.33001493     100.46092517
C      73.86295381     106.20340327      99.61054833
O      74.17475865     108.65248856      99.57275380
H      72.58549882     109.50097568      99.79574152
C      75.90763768     104.47808314      99.03985099
H      77.76523865     105.19617914      98.58631667
C      75.43898556     101.73986971      98.83387081
H      76.92997962     100.38304622      98.50883789
C      72.49668169      94.14316994      96.33376291
O      70.40853411      93.36649242      96.74572324
N      74.58104981      92.64650669      96.08431903
H      76.26668568      93.53467806      96.18636426
C      74.63585187      89.91774190      95.36622303
H      72.76691255      89.25633769      95.91613340
C      75.05159166      89.58703980      92.46360341
H      76.83927275      90.47332144      91.95337731
C      75.28213827      86.80536266      91.55653478
H      76.70132273      85.78113099      92.64312741
H      75.59205339      86.63906675      89.52696873
H      73.51146472      86.07403858      92.31053558
O      72.91431120      90.76055984      91.14835390
H      72.92375983      92.54068202      91.49039437
C      76.89407482      88.64784582      96.86288627
O      78.64585111      90.07836864      97.64901242
N      76.79958850      86.18742216      97.34665621
H      75.26702046      85.19342612      96.79674585
C      78.75167578      84.91563635      98.81497355
H      80.61116647      85.77546181      98.59009613
C      78.07326404      85.04791719     101.56074589
H      77.84649688      87.04535791     102.01239048
C      75.58260476      83.65518890     102.23537819
H      74.05192644      84.55658835     101.19224925
H      75.35772732      83.67408615     104.28195179
H      75.49189789      81.71443998     101.54751780
C      79.94976227      83.96321429     103.46747973
H      80.29747191      81.95065577     103.19913861
H      79.35449848      84.29580612     105.41200811
C      82.65018117      85.07248363     103.53173044
H      82.63506336      86.95276132     104.37454836
H      83.59315460      85.08571172     101.70058563
H      83.71976626      83.74400603     104.68824293
C      78.98789157      82.17553319      97.90790492
O      77.25501254      80.97555699      96.92335751
N      81.29902685      81.22878031      98.21404058
H      82.75978529      82.27190924      98.86410644
C      81.72988445      78.67009089      97.13122741
H      79.97243898      77.82160377      97.79263162
H      83.40418197      77.72522773      97.86633095
C      81.94909270      78.70788540      94.23616671
O      83.76322996      79.88707463      93.19303777
N      80.20109586      77.41909207      93.06075694
H      78.82726484      76.56493577      94.07176051
C      80.07826365      77.20744271      90.35277912
H      81.13651039      78.74567993      89.48161529
C      81.18753300      74.64875328      89.38334952
H      79.88929102      73.13130306      89.89357563
C      81.18753300      74.77158550      86.51474498
H      79.31481422      75.18165611      85.75696473
H      81.68264129      72.91587426      85.77397227
H      82.69175515      76.00179732      85.83255379
C      83.89362108      73.97034155      90.51718531
H      83.77078887      74.06860731      92.57131782
H      85.21831923      75.31015749      89.68759547
C      84.58337118      71.36062951      89.74806670
H      86.20286664      70.66898968      90.81954152
H      85.06147194      71.41354184      87.74684654
H      82.93552984      70.28159577      90.35088941
C      77.23800501      77.70255101      89.53452764
O      75.66764244      76.06226857      89.66491874
N      76.62006450      80.00045821      88.86934397
H      77.84271743      81.46499610      88.85422617
C      74.19743537      80.84516586      87.98306233
H      73.48311882      79.45621703      86.63568747
H      74.49979158      82.39663118      86.66025391
C      72.05637546      81.27602347      89.87278864
O      69.86996211      81.82215438      89.23973032
N      72.53069676      80.76012818      92.33510202
H      74.38073882      80.47477952      92.71682674
C      70.82427390      80.60517062      94.43080851
H      68.95722430      79.91731025      93.89601597
C      71.70299664      78.98378545      96.68714173
H      72.90864202      80.03447328      97.98538371
H      72.77636118      77.32649548      96.09943684
C      69.49390658      78.23923329      98.11955427
N      68.37140915      75.93754664      97.73971928
H      68.78714893      74.65631219      96.38478551
C      66.43066022      75.77503017      99.40834761
H      65.27225799      74.10073266      99.54818737
N      66.18121635      78.03136339     100.53084504
H      64.57872844      78.44143400     101.48515683
C      68.12574472      79.69243282      99.71826273
H      68.53392561      81.63696119     100.18313541
C      70.16097996      83.27913335      95.14323533
O      71.49134729      84.61139041      96.47738211
N      68.15409062      84.30336503      94.17380574
H      67.26213980      83.22811075      92.87367402
C      66.93710687      86.74678114      94.77095925
H      68.24668721      88.21698822      94.17191600
C      64.53526473      86.93953323      93.19492750
H      63.12174945      85.78302073      94.14545983
H      65.16454359      86.15151736      91.39968751
C      63.24269193      89.46798704      92.95871171
H      62.86852612      90.34670976      94.78418733
C      64.71100928      91.51834009      91.48283546
H      66.59695614      91.89061617      92.22549790
H      63.63953446      93.27578555      91.42992313
H      64.77714970      90.90039958      89.51752009
C      60.83518061      89.11649793      91.54330670
H      59.93756061      90.95331192      91.27685529
H      59.38009135      88.25289301      92.71304729
H      61.21879505      88.35493824      89.66680847
C      66.48735201      87.12094696      97.66224050
O      66.03381770      85.35216313      99.05118934
N      66.51947736      89.43019251      98.52395570
H      66.78970822      90.86827424      97.29563360
C      65.81649917      89.92341108     101.10910130
H      65.21367648      88.24344439     102.13900214
C      68.17298788      90.80024409     102.57741864
H      67.47756860      91.70164354     104.29706959
H      69.12352022      92.28556897     101.51350274
C      70.25357655      88.72154515     102.97615090
H      71.01702598      87.98833133     101.20736706
C      72.37007002      90.02167685     104.36132028
H      72.97856190      91.62983394     103.22559477
H      73.98200657      88.76122940     104.59753607
H      71.63118704      90.70197832     106.16033973
C      69.21422708      86.32915163     104.46525524
H      67.91787483      85.07626309     103.47314891
H      68.26558447      87.14362367     106.09986849
H      70.82616363      85.22744119     105.12099027
C      63.64898309      91.98132304     101.41712668
O      61.83484583      91.29346265     102.71725840
N      63.74724886      94.12616240     100.20203267
H      65.30249361      94.48898985      99.15701402
C      61.77437459      96.16328737     100.39667448
H      59.99425240      95.16740160     100.69147178
C      61.98602393      97.98498353     102.82119334