 %block lattice_cart
   142.669   0.000   0.000
   0.000 146.65   0.000
   0.000   0.000   162.396
 %endblock lattice_cart

 %block positions_abs
N      92.22258979      42.67552893      82.89497422
H      90.93379645      42.25411996      84.24045936
H      93.92523320      42.49411520      83.73968189
H      92.12054457      41.33571297      81.54193018
C      91.80873973      45.27201288      81.85751448
H      92.12621375      46.65529254      83.34850854
C      93.45847080      45.78979789      79.44055452
H      92.92745771      44.45187166      77.96656800
H      95.41244781      45.29279987      79.85251486
C      93.26760844      48.42974555      78.43144067
H      91.28906499      48.87005178      78.06105433
H      94.45435657      48.51478324      76.74769453
S      94.34664217      50.62560753      80.63864101
C      93.55862629      53.49232235      78.88308526
H      94.57718878      53.38838740      77.09540417
H      94.25593530      55.10236916      79.96211899
H      91.56685476      53.55279359      78.35585162
C      89.08564411      45.41185263      81.25280206
O      88.21637001      44.09282366      79.59740181
N      87.53039936      46.86316244      82.60206665
H      88.33920222      47.84959957      84.02125111
C      84.82242155      47.31669675      82.05026657
H      84.46148382      47.22787962      80.02259023
C      83.39378847      45.10571697      83.39386197
H      83.18591856      45.43074989      85.41586913
H      84.45581464      43.35016122      83.22000715
C      80.74817162      44.65218265      82.63230228
O      78.91513709      45.82381297      83.32394211
N      80.43258733      42.92497280      81.02792463
H      78.68836994      42.80592005      80.26258547
H      81.67035806      41.60972329      80.41565330
C      84.22337831      49.97743140      83.00079890
O      85.86932993      51.59881658      83.54126062
N      81.72138067      50.62371780      83.14063865
H      80.54408118      49.12516484      83.04804206
C      80.72927436      53.22020176      83.35606745
H      80.85966547      54.10648340      81.50224593
C      77.80964720      52.92540445      83.72645380
H      76.93659364      51.80101730      82.23734947
C      77.37312042      51.37015970      86.20199527
H      75.33599546      51.06213431      86.16042129
H      78.02885545      52.47375986      87.81393182
H      78.26696097      49.51633818      86.27380487
C      76.25629217      55.46330689      83.83605793
H      76.72683402      56.52344335      85.53681161
H      74.28530763      54.89260954      84.01558194
C      76.63423743      57.02989000      81.39264181
H      76.41124973      55.87148777      79.70511621
H      78.56742746      57.71208120      81.20177945
H      75.41347424      58.69095943      81.41153907
C      81.91602248      54.99276504      85.26847048
O      82.55663970      57.09414070      84.59383818
N      82.27507049      54.15372655      87.58149548
H      81.93869920      52.33392012      88.04636815
C      83.63756315      55.63149253      89.45421426
H      82.89868016      57.48342432      89.96821981
C      83.60165835      54.35214782      92.26423728
H      84.48605027      55.77889118      93.45665459
H      84.75628113      52.65328386      92.42486402
C      80.86344492      53.68507443      93.10138604
C      79.42914265      55.23465001      94.75678629
H      80.45337431      56.87115299      95.42196995
C      76.97249844      54.54867935      95.49944873
H      76.01629693      55.45952744      97.05469349
C      76.01251748      52.42462698      94.55269585
H      74.03775348      52.10148378      94.95898701
C      77.28052383      50.77300618      92.93131067
H      76.22416682      49.23287924      92.10739000
C      79.82409545      51.36071106      92.23211194
H      80.89368054      49.90751153      91.27968988
C      86.44191700      56.12282137      88.53580727
O      87.16190272      58.32624225      88.12384693
N      87.80063022      54.07813750      87.92353594
H      86.71214786      52.53801056      87.63629754
C      90.33664294      54.41828824      86.96733443
H      91.34953623      55.59180828      88.32415792
C      91.60842874      51.82369401      86.36451174
H      93.40177901      52.26966942      85.45366365
H      90.55774091      50.62938698      85.05682113
C      92.21314116      50.09837389      88.73233881
H      90.96214234      50.68985822      90.25545821
H      94.14633118      50.26655953      89.42397864
C      91.73693013      47.33370429      88.29581203
O      89.53539897      46.55702678      87.63818727
O      93.70224549      45.97499107      88.06904487
C      90.42357034      56.02644533      84.47289570
O      92.32463501      57.26232634      83.93432370
N      88.39022483      55.97542272      82.96111465
H      86.87277460      54.90394790      83.40331060
C      88.23526727      57.31334895      80.47612454
H      90.03239699      57.14516331      79.48401823
C      86.16034778      55.99431998      79.05694008
H      84.46337355      56.05101177      80.22290123
H      86.45514508      53.97609228      78.78481949
C      85.93169089      57.37759964      76.59462670
H      87.79496104      57.30012087      75.71968341
H      85.35721410      59.33724583      76.85540893
S      83.46370833      55.85448024      74.57639900
C      83.71882138      57.58169009      71.57929306
H      82.46404311      56.65005501      70.23569765
H      85.63689359      57.86325931      70.88009433
H      83.25016926      59.54322600      71.99314313
C      87.82330693      60.01376785      80.97879174
O      89.31997017      61.52554890      80.01314160
N      86.02239776      60.80556318      82.44899881
H      84.94336403      59.44684996      83.23890441
C      85.48193603      63.46818755      83.03481397
H      85.07186542      64.51131648      81.30760412
C      83.26339734      63.37559096      84.77147245
H      83.29363297      65.05933711      85.95822058
H      83.39378847      61.79955922      86.09617060
C      80.73872299      62.89182103      83.40142088
H      81.05241755      61.32901737      82.09561999
C      78.69025966      62.20207092      85.31571363
H      79.29875154      60.56745766      86.41553435
H      76.93848337      61.79200031      84.31226897
H      78.34821920      63.85180199      86.50246176
C      79.93558930      65.27098645      81.70633637
H      80.15857701      66.93016616      82.90631258
H      78.00428901      65.18405904      80.99579928
H      81.05997646      65.25964810      79.97912652
C      87.78551241      64.61903088      84.55982312
O      88.38266592      66.82812094      84.23101073
N      89.12910782      63.12803682      86.07160416
H      88.64911733      61.31200983      86.40797544
C      91.54984722      63.98786229      87.08638720
H      91.25127047      65.59035020      88.34305519
C      92.42290078      61.94884760      88.64352167
H      94.46947438      62.05467227      88.83816348
H      92.05251442      60.17439459      87.66275371
C      91.31930061      61.96963459      91.32126385
H      89.29729346      62.35135930      91.23622617
H      92.00149181      63.54944578      92.45320992
C      91.86165207      59.33157665      92.67997707
H      93.91011539      59.12748621      92.67052844
H      90.98292933      57.67050722      91.83715915
N      90.84686903      59.17472937      95.37472680
H      89.38989005      57.95963535      95.57692751
C      91.87488015      60.17817404      97.45342574
N      94.12365446      61.34980435      97.46476411
H      94.40522368      62.37403602      99.05024447
H      95.30473341      61.23075160      95.97188031
N      90.73726491      60.16305623      99.62094182
H      91.63866436      60.70540768     101.21587083
H      89.13099754      59.15394238      99.83448089
C      93.54161876      64.68328157      85.08894648
O      95.18001148      66.17427563      85.74090205
N      93.52272149      63.75731568      82.79670846
H      92.00527126      62.65182578      82.44899881
C      94.82096347      64.78532679      80.57628004
H      96.58029867      65.56767349      81.31138357
C      95.71480402      62.76709909      78.66954619
H      94.02916815      61.91861197      77.84751524
C      97.22091589      63.75353622      76.34707255
H      96.10975682      64.75320144      74.92977782
H      98.10530780      62.22474764      75.28693609
H      98.68734351      65.09902136      76.88375482
C      97.10564258      60.56556793      80.14164299
H      95.92456364      59.95140688      81.71200555
H      98.64954898      61.55200507      81.08650614
C      98.00515231      58.25632238      78.71678935
H      96.60486511      57.49098322      77.41665765
H      98.53994486      56.60092213      79.81661006
H      99.70401626      58.76087931      77.66232206
C      93.26004954      66.90182026      79.32528122
O      94.40522368      68.78209794      78.68844345
N      90.75049299      66.62025104      78.88686471
H      89.99838192      64.93839462      79.38575246
C      89.19902769      68.56288969      77.50547478
H      89.64122365      68.78398767      75.50614434
C      86.47404235      67.65015188      77.67932960
H      85.57264290      68.03187660      79.48968741
H      86.61010264      65.60546801      77.48657752
C      84.79974483      68.47785201      75.45134228
O      85.57075317      68.32478418      73.22902413
O      82.67569246      69.34901584      75.91810468
C      89.45792019      71.10457158      78.75647360
O      89.92090314      72.82233280      77.25414118
N      88.95525300      71.52220110      81.16020547
H      88.59242554      70.04821457      82.31860770
C      89.43524348      74.05065490      82.35073305
H      89.94735931      75.54164897      81.02603490
C      86.86899515      74.98228998      83.27102976
H      87.09198285      76.77752997      84.25935662
H      86.20381148      73.84467474      84.85273069
C      84.87344416      75.40558867      81.30382467
H      83.05930690      75.04276122      82.21089330
H      84.85643663      74.05065490      79.75424909
C      84.88856197      78.11545620      80.34195398
O      84.72415578      79.90691675      81.84050694
O      84.93580513      78.37245898      78.00247280
C      91.49504516      74.13002341      84.48423405
O      92.69313164      76.10289768      84.89241494
N      92.09597813      72.00219158      85.61806984
H      91.20969649      70.43749819      84.97934235
C      93.43579408      71.83589567      88.07282432
H      95.16678339      72.93760611      88.25801750
H      94.12176474      69.89514674      88.15219283
C      91.82385754      72.54832249      90.50301236
O      89.62988529      73.26074931      90.15152327
N      92.71580836      72.09856762      92.81981682
H      94.39577505      71.24252160      93.12784222
C      91.24938074      72.45383617      95.16307745
H      89.20847632      72.49918960      94.88150823
C      91.89944660      70.21451049      97.05280376
H      93.94790991      70.19750295      97.26634284
H      91.20780676      68.53643352      96.07581526
C      90.57663817      70.36757832      99.62850073
H      91.22103484      72.08156009     100.57336388
C      87.67968773      70.12002417      99.63228018
H      87.15623356      69.92727209     101.61649282
H      87.00505544      68.41549104      98.69119648
H      86.86521569      71.67715866      98.55891563
C      91.60086983      68.18305470     101.24799618
H      91.13032798      66.38970443     100.35415563
H      90.93568618      68.53832325     103.16417866
H      93.65689206      68.12069373     101.17051740
C      92.08275004      75.10134273      96.17786048
O      94.34286271      75.71361406      96.08337416
N      90.30262786      76.73784572      97.10382637
H      88.49227005      76.20683263      97.39673395
C      90.95080398      79.32299132      97.79357648
H      93.00682621      79.39291119      97.93152650
C      90.13444221      81.01429637      95.60149395
H      89.21036605      82.68481443      96.37628175
H      88.80218516      80.07699212      94.34104650
C      92.30762747      81.79286361      93.89885055
H      93.45658107      80.19415515      93.29413813
H      93.67389960      82.87567679      94.99489181
C      91.60464929      83.36700563      91.51590566
H      93.28461598      83.44448441      90.32537809
H      91.06229783      85.31531346      91.90140983
N      89.59020105      81.98183624      90.03058078
H      88.46392415      80.70627098      90.89985489
C      88.92690710      82.30308971      87.68920988
N      90.00972029      84.00384339      86.27947405
H      89.65256201      83.54652963      84.46155734
H      91.37977186      85.13012028      86.98623170
N      87.32630891      80.73083742      86.73489809
H      87.11843903      80.50973944      84.85084096
H      86.75939102      79.27007898      87.82338045
C      89.79618120      80.15069144     100.28423576
O      87.51906100      79.93904210     100.58281252
N      91.32496979      80.82721346     102.10593192
H      93.11265088      81.32610121     101.65995651
C      90.77694916      81.21271763     104.78745356
H      89.05729822      80.15069144     105.17295773
C      92.82541248      79.89557839     106.27466817
H      92.10731649      79.99762361     108.20218901
H      94.52427644      81.05964980     106.22742501
C      93.32618996      77.16681359     105.81735440
H      94.23892777      76.59800597     107.57291015
C      91.07174647      75.54164897     105.16728855
H      91.85976234      73.64058429     105.27122350
H      90.13444221      75.92526341     103.37582801
H      89.76027640      75.26574892     106.73198195
C      95.41244781      76.76808134     103.77267053
H      94.75860250      75.88179970     102.03412232
H      97.04517134      75.80432092     104.57580421
H      96.20991231      78.66347683     103.61771297
C      90.20058264      83.86589337     105.67373520
O      89.14422563      84.24572836     107.71463962
N      90.64088887      85.80286284     104.02400413
H      91.37788213      85.11311274     102.40639841
C      89.87365998      88.40312625     104.30935280
H      88.74549337      88.64501122     106.01766539
C      92.14322129      90.24560941     104.15439525
H      93.35075640      89.77317783     102.55568679
H      93.15800432      89.76183947     105.87971537
C      91.52339106      93.04429408     104.34525761
H      90.51616693      93.51861538     106.07813663
H      90.35365047      93.70569829     102.78434367
C      93.71736330      94.88677723     104.56257614
H      93.08052555      96.84075424     104.43218501
H      94.99859774      94.55418540     102.98654438
C      95.18190120      94.56930321     107.08347103
H      96.18912532      92.77406321     107.04189705
H      93.89499758      94.52961896     108.69351785
N      97.03950216      96.68390696     107.28567175
H      96.29683972      98.41300653     106.96819773
H      98.72135858      96.27005689     106.48820724
H      97.42311660      96.95602754     109.13760353
C      88.12566314      89.11555307     102.03412232
O      88.29762824      87.92502549     100.04801997
N      86.06019228      90.46481766     102.70686489
H      85.90523473      90.88244717     104.56257614
C      84.09487692      91.35298903     100.82091803
H      82.88923153      89.79207509     100.22943369
C      82.15601772      93.42979824     101.93774628
H      83.35977338      94.89622586     102.73899024
C      80.27007086      94.62032582      99.97243092
H      79.15135288      96.08675344     100.89083790
H      79.11544808      93.07452970      99.25055546
H      81.34154568      95.61810131      98.52679029
C      80.60644214      92.21281450     104.12793908
H      81.59854846      90.78607113     105.23531870
H      79.02285149      91.28495888     103.19063483
C      79.56898240      94.16301205     105.90050236
H      78.64490623      93.43168797     107.58991768
H      78.25184316      95.15700809     104.67029053
H      81.00328467      95.57841706     106.33513942
C      85.44036205      92.28273437      98.59104098
O      87.27339659      93.68491130      98.91040474
N      84.62022083      91.68936031      96.37628175
H      82.81364248      91.06953008      96.38950983
C      85.93736007      92.34131589      93.93097589
H      87.10521094      94.02506203      94.13884579
C      87.37922125      90.03962924      92.99934082
H      88.79462626      89.48404970      94.38828966
H      88.37888647      90.56686288      91.27591042
C      85.88255802      87.79841383      91.94676326
C      85.30052231      87.54896996      89.32004369
H      85.93736007      88.79240987      87.83282909
C      83.85866113      85.36066689      88.64352167
H      83.38056037      85.13956891      86.67253712
C      83.46370833      83.48983784      90.39718769
O      82.51506572      81.31287313      89.65452525
H      82.36766707      81.28830668      87.84794689
C      84.08164883      83.64101594      92.85005244
H      83.65646041      82.15380133      94.17853004
C      85.18335927      85.86333409      93.71554709
H      85.56319426      86.15057249      95.69975972
C      83.78118235      93.03295572      92.03180095
O      81.58721010      92.40934604      92.49478389
N      84.47093245      94.13088671      89.93042529
H      86.29451835      94.67134843      89.76412937
C      82.81175276      94.82819572      87.81204209
H      80.93336480      94.98126355      88.64541140
C      83.65268096      97.28295020      86.71222138
H      82.72671507      97.58530641      84.89619439
H      85.68791620      97.29239883      86.39096790
C      83.35410420      99.62810055      88.25234832
H      84.74305304      99.54117314      89.76979855
H      81.46437789      99.63188000      89.07248954
C      83.86055086     102.00726598      86.69710357
H      82.41868968     102.16600299      85.23634513
H      85.68980593     101.73514539      85.78625548
C      83.86244058     104.25981974      88.57360180
H      84.91879759     105.84718985      87.79503456
H      84.72037633     103.56251073      90.31215000
N      81.17902922     105.14232193      89.08949708
H      80.02440644     103.72691692      89.63940744
H      80.41746951     106.03994193      87.58716466
H      81.11666825     106.51993241      90.40852605
C      82.71348698      92.86099062      85.69176917
O      84.69014071      92.07486448      84.72989847
N      80.44203596      92.38855905      84.77903136
H      79.01340286      93.22570780      85.72767397
C      79.74283722      90.93724924      82.48112416
H      80.33054210      88.97193387      82.65308926
C      76.77785663      90.97126431      82.66253789
H      76.18070312      92.94224886      82.70600159
H      76.15424695      90.16246145      84.45210871
C      75.72905853      89.18547295      80.62919238
O      75.55520371      86.88945547      81.19044109
O      74.89190977      90.01128334      78.56561124
C      80.82754012      92.12966654      79.97534707
O      81.41335528      94.42379428      79.73346211
N      80.45904349      90.81063757      77.89853786
H      80.39668252      88.90390372      77.89853786
C      80.73494353      91.99738570      75.37008405
H      82.74561233      92.42068439      75.23024430
C      80.18314345      90.02073198      73.38398169
H      78.12901095      89.94325320      73.23658304
C      81.50595187      90.38166970      70.87064571
H      83.52984875      90.54229644      71.21835534
H      80.95604151      92.22037340      70.12420380
H      80.92958534      88.97382360      69.47980713
O      80.78974560      87.47527063      74.15121057
H      79.22883166      86.67213695      74.60285516
C      79.23261112      94.44269155      74.90332165
O      80.24928387      96.18123976      73.73547079
N      76.92147583      94.62788473      75.70456560
H      76.19771066      93.02539681      76.44911777
C      75.38890779      96.92390220      75.42866556
H      76.12401133      98.12765786      73.92822287
C      72.69604780      96.09809180      74.75970245
H      71.53008666      97.77994822      74.98457988
H      72.02708468      94.58820047      75.99180400
C      72.40880940      95.10409576      72.05928355
H      73.59933698      93.44491605      71.79283214
H      73.18170746      96.63855352      70.92355803
C      69.80098709      94.28773399      71.45268140
O      68.45550196      95.58030679      70.05050448
O      69.03375820      92.39044877      72.55817129
C      75.55520371      98.66434013      77.76814674
O      74.05665074     100.43312396      77.99491390
N      77.42414304      98.26560788      79.44811343
H      78.70348775      96.87854877      79.16276476
C      78.31420413     100.13454720      81.44744387
H      78.20837945     101.96947145      80.51958825
H      80.28140922      99.69802042      81.87641174
C      76.77785663      99.98147937      83.79826341
O      76.77974636     101.67656387      85.28736774
N      75.37945917      98.05017908      84.16676003
H      75.34544409      96.76516519      82.75324475
C      73.68248493      97.70435916      86.38529872
H      73.26485542      99.57140876      87.14307898
C      71.18237702      96.73492957      85.25713212
H      69.93137820      96.71414258      86.89363510
H      71.49229214      94.78284228      84.68265532
C      70.04476178      98.14466540      83.14063865
C      69.55154321      96.97114535      80.81060610
H      69.93515766      94.99638136      80.44966838
C      68.06432861      98.16734211      78.89631335
H      67.33489425      97.12610291      77.30138434
C      67.67693472     100.79406169      79.16843394
O      66.66215168     102.11687010      77.14264733
H      66.85868322     103.90077174      77.41287819
C      68.50085538     102.12631874      81.35106783
H      68.32700056     104.14265671      81.60996033
C      69.48162334     100.76193634      83.42598732
H      70.02208507     101.78994745      85.10595401
C      74.89946868      96.09998152      88.44699013
O      76.44337508      94.33686687      88.01613253
N      74.52152342      96.63855352      90.79403021
H      73.38768763      98.08230443      91.31370495
C      75.79897840      95.31763483      92.90107505
H      77.78886021      95.37243689      92.37006196
C      75.56087289      97.12610291      95.21221033
H      76.24495381      96.05273837      96.83359551
H      73.58988834      97.52672489      95.66763437
C      77.27107520      99.49959916      95.11772403
C      76.25818191     101.98080981      95.71487753
H      74.27018982     102.05261941      96.17030157
C      77.86633899     104.11431082      95.53724327
H      77.18792724     106.02671385      95.76212069
C      80.46093322     103.75337309      95.23866650
O      81.87633823     105.86230766      94.89095686
H      80.88045246     107.29849966      94.40151774
C      81.48894433     101.35531040      94.90607467
H      83.43536244     101.01326994      94.39395885
C      79.84110299      99.28039091      94.77568356
H      80.63667777      97.42278994      94.49222461
C      74.98261664      92.63989265      93.65318612
O      72.82076974      91.93313500      93.93664507
N      76.84021760      91.05063282      94.02168276
H      78.54853019      91.89156103      93.89318137
C      76.85344569      88.28974267      93.88562246
H      74.89568923      87.71337615      94.17097113
C      77.51296017      87.30330554      91.15685767
H      79.53496733      87.42424802      90.77702268
C      76.43770590      84.71815994      90.57104251
H      77.23517040      83.14023847      91.63117897
H      76.88179158      84.18714685      88.63218331
H      74.40436039      84.82587434      90.86961927
O      76.49817714      89.07208937      89.38429438
H      76.93281419      90.75205606      89.90963830
C      78.61845006      87.07842811      95.83204056
O      80.33810101      88.47304613      96.50100369
N      78.26318152      84.78430036      96.67485850
H      76.89312994      83.87912146      95.70542890
C      79.70693242      83.51251455      98.64395332
H      81.65524025      84.13423451      98.39639917
C      78.79041516      83.93203379     101.40295373
H      78.74128227      85.94459232     101.83192161
C      76.08243735      82.69804251     101.75633256
H      74.80309264      83.33110083     100.27289740
H      75.17725846      82.81898500     103.60259516
H      76.27707916      80.65335864     101.58058801
C      80.62722913      82.89268432     103.47976295
H      80.85210657      80.84800045     103.35315129
H      79.86000025      83.60889060     105.25232623
C      83.23883091      84.08699135     103.17929648
H      83.11221924      86.11844714     102.85615327
H      84.16290707      83.18748163     101.57491883
H      84.36510778      83.72416390     104.86682207
C      79.87889751      80.61178466      98.07703542
O      78.40680072      79.60833999      96.48777559
N      81.60988682      79.17370294      99.27323218
H      82.60388286      79.99195443     100.68296802
C      81.76862383      76.44115869      99.12394380
H      79.92803040      75.70227570      99.68141307
H      82.96482058      75.77786475     100.66218102
C      82.62466985      75.73629078      96.42352490
O      84.62966948      76.36745936      95.55425080
N      81.08265318      74.37757756      95.14606991
H      79.38567895      74.13758231      95.98510840
C      81.06942509      73.75963705      92.42864348
H      82.48483011      75.04087149      91.65574541
C      81.63634299      70.94772430      91.95432217
H      80.02251671      69.84412413      92.60627775
C      81.75728547      70.42049066      89.11784297
H      79.87700779      71.10268186      88.63029358
H      82.09365675      68.40226295      88.87028883
H      83.09143225      71.65259221      88.14841338
C      84.09298719      70.20128240      93.47555185
H      83.40701654      69.80821933      95.37850625
H      85.22304353      71.91715390      93.63806831
C      85.71626210      67.99597180      92.36061333
H      86.53262386      68.47407255      90.53135826
H      84.62211056      66.25175441      92.29447292
H      87.30174247      67.65393133      93.63050941
C      78.66002405      74.79331735      91.33449194
O      76.76651828      73.60278977      91.88629202
N      78.72994393      76.90603136      90.01924242
H      80.28896812      78.00207262      90.14018491
C      76.67581141      77.92648357      88.54525590
H      76.17314421      76.71138955      86.96166525
H      77.41658413      79.66881123      87.73267359
C      74.04531239      78.31765692      89.72633485
O      72.18582169      78.10222812      88.37895999
N      73.94704662      78.91481043      92.16219206
H      75.64969003      79.16803376      92.98422301
C      71.66803668      79.30598378      93.83082040
H      69.99940835      78.35923090      93.07870933
C      72.10645320      78.12490484      96.34793585
H      73.57099108      79.09055498      97.42885930
H      72.52597243      76.12746412      96.06825635
C      69.95027547      78.27608294      98.14128612
N      68.23251425      76.37501827      98.67796839
H      68.07566696      74.67993377      97.81247374
C      66.77742500      77.10067317     100.64139403
H      65.43949876      75.97250656     101.69397159
N      67.24418739      79.52519203     101.09114889
H      66.47695850      80.64391001     102.43474430
C      69.36446031      80.26029557      99.63983908
H      70.39625089      82.01774104      99.71164869
C      71.37512911      82.22750066      94.13317661
O      73.03619853      83.45960222      95.18575416
N      69.40792401      83.26118095      92.97099493
H      68.16070466      82.07065338      92.15652289
C      68.97895614      85.86333409      93.07115042
H      70.76474751      86.71749038      92.50234280
C      66.91726474      86.50584103      91.09071724
H      65.26564394      85.30586482      91.36850701
H      67.80921555      86.11277796      89.27657998
C      65.80421594      89.20437021      90.83371447
H      64.91793429      89.78640591      92.59682912
C      67.82055391      91.07708898      90.00601434
H      68.01519572      90.73126907      87.98400719
H      69.52697677      90.51961972      91.01323847
H      67.26686410      93.02917627      90.35750343
C      63.75386289      89.68625042      88.89485527
H      64.51731232      88.77351261      87.21299885
H      63.33056419      91.68180140      88.61517577
H      61.98318933      88.80374823      89.46744234
C      68.13802793      86.90646301      95.71676726
O      67.23095930      85.47216074      97.26067366
N      68.77864515      89.28562844      96.32336941
H      69.88035559      90.08309294      94.98544318
C      68.10212313      90.61221631      98.67229921
H      67.13269354      89.26484145      99.89306241
C      70.43215568      91.35298903     100.05935833
H      70.01641589      93.02539681     101.18941467
H      71.68882367      92.26572684      98.70820401
C      71.79653807      89.39145311     101.47665306
H      71.60378599      87.73794259     100.26344878
C      74.58766384      89.96781964     101.73554557
H      75.34544409      88.53918655     103.01300055
H      74.93537348      91.79518498     102.62560666
H      75.79519895      89.96781964     100.07069668
C      70.56632624      88.76595370     104.04668085
H      70.62679749      90.53095808     105.11059676
H      71.63780106      87.28062882     104.98965429
H      68.58967252      88.20659471     103.88416438
C      66.42593589      92.77784267      97.93908541
O      64.28298625      92.78918102      98.85182321
N      67.22340040      94.61465664      96.45942970
H      69.02619930      94.33308742      95.90007071
C      65.55099261      96.61398708      95.31614528
H      63.77276016      95.75416161      94.72655067
C      64.90848567      98.57174354      97.27012229