 %block lattice_cart
   142.669   0.000   0.000
   0.000 146.65   0.000
   0.000   0.000   162.396
 %endblock lattice_cart

 %block positions_abs
N      90.12593846      43.52685064      77.31272270
H      88.80879922      42.20404222      76.91399046
H      91.73598528      42.75584230      76.63809040
H      89.85192814      45.08587484      76.24313761
C      90.19207888      44.15046032      80.01125187
H      90.56624469      42.40057375      81.03359381
C      92.21975521      46.07798116      80.64053075
H      94.08869454      45.31453173      80.24179849
H      92.12148944      46.58253808      82.63419200
C      91.81157433      48.76706170      79.46890042
H      92.94541012      50.18246671      80.44399921
H      89.82169252      49.26594945      79.64275524
S      92.66006144      49.31508233      76.21479171
C      96.03889209      50.53773526      76.17132802
H      96.18440102      52.23093003      77.33539942
H      96.61147916      51.26905934      74.33262430
H      97.41083340      49.10910216      76.72501783
C      87.67307370      45.09343375      80.71989924
O      86.10649059      45.80019139      79.05882981
N      87.13072225      45.19358924      83.15197701
H      88.28723476      44.29030007      84.37274020
C      84.59659927      45.90223661      84.12707578
H      83.03757506      44.74761383      83.44299487
C      84.95375754      45.38634133      86.89552484
H      86.64884204      46.28207160      87.64952564
H      85.15406853      43.35299581      87.15819680
C      82.79191064      46.11388596      88.75879499
O      80.90596378      47.32142107      87.98400720
N      83.09237712      45.44303312      91.13796041
H      81.80169405      46.08365034      92.38895923
H      84.78746162      44.82131316      91.75779065
C      83.99566630      48.69903155      83.58661406
O      85.72098642      50.20514343      83.74913052
N      81.60138306      49.36232549      82.97056328
H      80.29558218      48.00550200      82.64930982
C      80.80202883      52.04762658      82.76647285
H      81.83759885      52.71469997      81.11674178
C      77.79925372      52.14589235      82.28837208
H      77.18698239      51.18024220      80.57439031
C      76.31392884      51.00260793      84.50313132
H      76.77502206      52.15723071      86.14530350
H      76.88651591      49.09209463      85.01335743
H      74.35995183      50.98182094      83.84928602
C      76.68620492      54.80473727      82.20522413
H      76.78825014      55.77227714      84.02125111
H      74.73978682      54.75560439      81.54004047
C      78.02413115      56.40533546      80.16809917
H      80.01968214      56.70580194      80.58194922
H      77.06226046      58.22514190      80.09628957
H      77.88996058      55.86487373      78.18388653
C      81.76200980      53.64633504      85.07571839
O      82.61427636      55.68157028      84.67131696
N      81.75445089      52.68257462      87.44921464
H      80.89084597      50.98937985      87.62495920
C      83.07347986      53.95625016      89.53169304
H      82.37239140      55.86298401      89.87562324
C      82.90718394      52.59753694      92.13195645
H      84.30747114      53.53484119      93.31681485
H      83.47410184      50.63600103      91.87684340
C      80.51101098      52.69202325      93.46043404
C      78.45120930      51.13299905      92.58738049
H      78.68553536      49.75349884      91.10016588
C      76.25156787      51.00827711      93.98010878
H      74.78702998      49.77050637      93.28468950
C      75.82637945      52.45769719      96.21376528
H      74.07082370      52.19502523      97.21720995
C      77.79925372      54.14144334      96.84304414
H      77.34949886      55.36976544      98.40773753
C      80.10283009      54.20569403      95.61283231
H      81.48044058      55.62487849      96.11927897
C      85.80602411      54.87276742      88.84572239
O      86.44664133      57.07618830      88.93076007
N      87.41040175      53.03973290      88.23912025
H      87.06647156      51.17268330      88.07282432
C      90.16562271      53.55940763      87.51157561
H      91.10103724      54.52883723      89.07059982
C      91.60181471      51.09898397      87.36039751
H      93.47264376      51.37488401      86.54592547
H      90.48498646      49.70436595      86.33616585
C      91.95708326      50.18246671      90.08349312
H      90.25066040      49.50783442      91.02079738
H      92.63171555      51.52984157      91.48755977
C      93.78633833      48.08109105      90.11183902
O      95.96330304      48.39100617      89.15563750
O      93.06257315      45.96459758      91.01890765
C      90.49254536      55.15244691      85.14752799
O      92.34825660      56.49982177      84.88107658
N      88.47242793      55.09953458      83.50535583
H      87.10804554      53.78239534      83.71700517
C      88.42896423      56.61887453      81.16398492
H      90.30357273      56.83430333      80.33817454
C      86.82836604      55.36976544      79.16654421
H      84.90651438      55.49637710      79.89786829
H      87.24599556      53.36287609      78.98324077
C      87.26489282      56.56785192      76.59273698
H      89.21320065      56.03683883      76.19211499
H      86.83403522      58.58041045      76.68911303
S      85.26556238      55.32441201      74.25514552
C      82.25144891      56.86075950      74.92221892
H      81.40296180      55.71180590      76.40565408
H      80.87572816      56.75871428      73.39343034
H      82.37617085      58.76938308      75.68188889
C      87.88094360      59.35141878      81.93688299
O      89.14139105      60.94823752      80.95800476
N      85.90051042      59.88621133      83.43165651
H      84.80446916      58.40088645      83.91731616
C      85.20887059      62.47891583      84.14219360
H      85.01989796      63.59952353      82.42443238
C      82.76545447      62.69434463      85.62184931
H      82.54813594      64.53493806      86.51946931
H      82.94119902      61.32051360      87.14496870
C      80.32770753      61.95924109      84.20644430
H      80.64518155      60.16400110      83.24835305
C      78.11105856      61.30917524      85.96766922
H      78.63640248      59.72180514      87.17142487
H      76.52368846      60.90855326      84.71667039
H      77.53091258      62.96646522      87.04481322
C      79.58504508      63.86219549      82.05593574
H      77.73311330      63.58251600      81.19611027
H      80.81147746      63.48613995      80.44588893
H      80.08393283      65.80105469      82.54159541
C      87.21198048      63.77715781      85.70121780
O      87.43685792      66.11474926      85.52169380
N      88.88438827      62.47891583      86.88040703
H      88.55746562      60.65344021      87.33583107
C      91.07269134      63.64487696      88.16164147
H      90.44530221      65.23791625      89.31059507
C      92.56368540      61.80806299      89.85483625
H      94.43640418      62.61875558      90.13829519
H      92.97186629      60.05250724      88.85517103
C      91.12560368      61.35830813      92.34927497
H      89.09603762      61.22791701      92.02802150
H      91.40717290      62.95134741      93.62295051
C      92.07613601      58.83741322      93.45476486
H      93.99420822      58.82796459      94.20687595
H      92.09503328      57.39366232      91.98644752
N      90.49632482      58.15144257      95.62228096
H      89.69886031      56.41667382      95.67897274
C      90.44530221      59.21157903      97.87294499
N      91.70763938      61.20335057      98.50600331
H      91.53189484      61.66822324     100.34848645
H      93.08902932      61.92522602      97.40051342
N      88.99021294      58.15144257      99.56425003
H      88.50833273      59.07929819     101.16106877
H      88.02267307      56.57919028      99.08614929
C      92.86415189      64.81461755      86.16986994
O      93.72586708      66.88575759      86.44199052
N      93.37437799      63.35574884      84.23667991
H      92.38227168      61.72491503      84.24612855
C      95.19607416      64.01148387      82.35073306
H      96.67195041      64.92233195      83.46189212
C      96.49431613      61.80806299      80.99201984
H      97.65649782      62.73024943      79.56527647
C      98.25176160      60.52871827      82.95922493
H      99.54055495      59.46291263      81.75924871
H      97.03855731      59.48747908      84.25935663
H      99.41016383      61.85530615      84.02692029
C      94.72553230      59.75015103      79.72401347
H      93.46886431      60.81595667      78.48624274
H      93.70696982      58.88276666      81.28870686
C      96.13715786      57.67901099      78.13664338
H      97.50342998      58.65222004      76.94233635
H      94.64994325      56.82107525      76.99713840
H      96.78722371      56.10108952      79.29315587
C      94.23042401      65.90876909      80.43833002
O      95.52110708      67.48858028      79.40842918
N      91.84936886      65.58940534      79.93188337
H      90.87804953      64.17966951      80.77470131
C      90.55679606      67.13520146      77.93633238
H      91.77566953      67.23724668      76.27715269
C      88.15684364      65.66121494      77.02170485
H      86.87749893      65.61775123      78.63364139
H      88.89194718      63.76581945      76.67966438
C      87.08158937      66.88953704      74.49325104
O      88.56124507      67.19945216      72.69801104
O      84.81391779      67.59629468      74.35530102
C      89.81035416      69.73168542      79.02670446
O      89.89728157      71.33606306      77.39209120
N      88.99210267      70.13608685      81.44933360
H      88.68029783      68.62808525      82.57938993
C      88.35337518      72.57950297      82.57372076
H      88.53856836      74.11774019      81.21689727
C      85.58114668      72.18077072      83.58094489
H      85.66240491      70.69922529      85.00957797
H      84.29613278      71.41543156      82.16365014
C      84.39439855      74.55426697      84.81871562
H      85.61705148      75.35173147      86.27380487
H      82.68797569      73.83050179      85.71633561
C      83.58559569      76.46289055      82.81371601
O      81.40485152      77.14319202      82.66064816
O      85.21831922      77.59105715      81.55137883
C      90.00310625      73.53759421      84.77714163
O      90.96497694      75.56527055      84.66186834
N      90.45097138      71.89353232      86.65930904
H      89.76311101      70.12096904      86.49112340
C      92.01755450      72.53037009      88.77391280
H      93.91672944      73.11051607      88.22211271
H      92.21030658      70.84095476      89.93231503
C      90.93474132      74.40119914      90.70521308
O      89.14517050      75.76747126      90.22711233
N      92.06101820      74.51458272      92.91430314
H      93.47831294      73.26925308      93.19776210
C      91.21064136      75.63330069      95.30291720
H      89.20186229      75.87140621      94.91741304
C      91.66984486      73.66420588      97.44775656
H      93.56713007      72.93855097      97.10949555
H      90.52467071      71.98990836      97.09248802
C      91.68118321      74.49757518     100.08959395
H      93.10603685      75.96967198     100.30502276
C      89.01288966      75.82416305     100.62627622
H      87.43685792      74.51080326     100.80202077
H      88.38739025      77.17342764      99.20520203
H      89.39461438      76.91642486     102.32891964
C      92.22353467      72.29037485     101.87916477
H      90.67962827      70.93922053     101.69775104
H      92.46352991      72.88185918     103.83881095
H      94.03011302      71.41543156     101.42185101
C      92.50132443      78.07671682      95.96999059
O      94.85214397      78.12395997      96.18352967
N      90.96119749      79.96833286      96.42352490
H      89.06958145      79.74345542      96.30825161
C      91.82669214      82.37206473      97.53468398
H      93.87326574      82.39096199      97.76334087
C      91.05946326      84.49044792      95.67141384
H      90.51333235      86.22521668      96.63706398
H      89.38138629      83.76668274      94.72088149
C      93.18540536      84.84760620      93.53224364
H      93.23642797      83.09960936      92.44187156
H      94.90127685      85.28791243      94.58104176
C      92.80746010      87.03968872      91.68976050
H      94.70663504      87.56314291      91.08693780
H      91.73598528      88.53068278      92.61950583
N      91.40906262      85.88317622      89.50901633
H      90.47175837      84.22588624      89.65074580
C      91.62449142      86.35560779      87.05615158
N      92.74320940      88.28501836      86.16042130
H      93.14005193      88.38517385      84.29526143
H      93.38382662      89.69664391      87.27347009
N      90.43585357      85.05547609      85.44232530
H      90.43396385      85.69798304      83.64330585
H      89.85381787      83.27346418      85.80137330
C      90.30546246      82.99945386      99.86093708
O      88.04534979      82.41363870      99.81936309
N      91.48654140      83.86872797     101.89995176
H      93.35737045      84.23911432     101.83759080
C      90.45286111      83.61550464     104.51533298
H      89.16784722      82.00734755     104.55879669
C      92.65628199      83.07315319     106.40694902
H      91.90795037      83.03535866     108.32691095
H      93.95452397      84.67186165     106.42773600
C      93.96208287      80.49745622     106.11782089
H      94.30223361      80.27824797     104.09959320
C      96.45652161      80.50123568     107.60503550
H      97.99853828      81.63129201     106.83780662
H      97.23319912      78.59261210     107.61826358
H      96.23731335      81.06059466     109.57602005
C      92.62037719      78.21466684     107.30267929
H      90.74198924      78.02191475     106.48442779
H      92.27833673      78.49245661     109.31523781
H      93.60870405      76.47989808     106.80001209
C      88.68407728      85.80758716     105.23720843
O      87.74677303      85.80002826     107.37070944
N      88.38739025      87.66140868     103.56480064
H      89.57224865      87.58581962     102.06813740
C      86.98143387      90.00655903     104.01077606
H      85.48288091      89.27901440     105.22209062
C      88.70297454      91.93785932     105.12193512
H      89.85003842      91.23110168     106.67906960
H      87.55402095      93.33436707     106.10459281
C      90.67584882      93.13027663     103.20197319
H      89.60815345      94.10348568     101.73365584
H      91.84180995      91.69030518     102.30246346
C      92.41250730      94.98031869     104.54556860
H      93.26099441      93.99766100     106.14427707
H      91.26733315      96.45808466     105.41295297
C      94.42695555      96.17651544     102.81457929
H      95.33780363      94.64583713     101.78089901
H      95.63449066      97.34436630     104.00510687
N      93.27233277      97.77711363     100.86060228
H      92.29156481      96.73020525      99.60204456
H      94.45530144      98.92606723      99.89495214
H      91.91550928      98.88260352     101.61838255
C      85.56224941      91.05913659     101.63350035
O      86.18585910      90.33537141      99.53968359
N      83.91818752      92.92429646     101.99254835
H      83.54969089      93.41373557     103.80101644
C      82.46309826      93.67640753      99.95542338
H      81.42185906      92.02478673      99.29779862
C      80.24644929      95.43952218     100.82847695
H      81.07036997      97.29145397     101.19697357
C      78.19609624      95.81557772      98.86694102
H      76.87895700      97.29523342      99.43007947
H      77.09816526      94.11293431      98.49655467
H      78.91797170      96.32391409      97.00556062
C      78.99167102      94.67040357     103.36071021
H      80.43731165      95.33558723     104.67029053
H      78.71577098      92.63516833     103.52322667
C      76.50857065      95.95352774     104.29990417
H      75.02702522      95.38283039     102.98843411
H      76.84494193      97.98309380     104.20919732
H      75.95677056      95.41495574     106.20852776
C      83.84448819      95.03323102      97.87483471
O      85.00855960      97.08547380      98.17152175
N      83.67441283      94.06758088      95.60527341
H      82.71254213      92.42351898      95.48622066
C      84.55880474      95.02945157      93.13540112
H      85.68508162      96.71886689      93.47744159
C      86.25577897      93.12460745      91.74456255
H      87.91873812      93.13594580      92.95965657
H      86.99655168      93.89183633      89.98333763
C      85.44697611      90.44308581      91.25134399
C      85.08603838      89.71554118      88.70399291
H      85.26556238      91.18007907      87.29236736
C      84.23944099      87.24377916      88.12006748
H      84.20353619      87.05102708      86.08861171
C      83.86905464      85.49389259      89.93231503
O      83.42685868      83.01835112      89.28413889
H      83.29835729      82.85205521      87.48322973
C      84.44731089      86.15340708      92.49856335
H      84.70998285      84.80603222      94.00656495
C      84.93108082      88.68753006      93.13162167
H      85.25800348      89.18452808      95.08370895
C      82.16641123      95.83258525      91.59905363
O      80.08015338      95.27889544      92.38706950
N      82.67285788      96.99665666      89.47689099
H      84.53801775      97.37271220      89.31248479
C      81.04580352      97.59192045      87.39252286
H      79.08615734      97.23287245      87.91786677
C      81.05903161     100.46241472      86.79536935
H      79.65118551     101.03311207      85.40642050
H      82.89017641     100.94807438      85.98845621
C      80.96454529     102.20663211      89.02902585
H      82.57648184     102.01199030      90.29514248
H      79.29591696     101.81167931      90.17042054
C      80.53368769     104.95429417      88.11250859
H      78.75167578     104.89949210      87.08260774
H      81.96043106     105.49475589      86.73111865
C      80.47132673     106.75142389      90.42553359
H      82.27790508     106.80055677      91.41386045
H      79.02946555     106.21474162      91.79180572
N      79.87228348     109.24208317      89.69609923
H      77.98633662     109.51798321      89.59594373
H      80.63384319     109.62380789      87.98778664
H      80.33715616     110.63481146      90.91497270
C      81.40107207      95.97809418      84.98312180
O      83.43441758      95.40739683      84.17431895
N      79.18253338      95.31857970      83.91353671
H      77.57248656      95.55857494      84.90942248
C      79.27701970      94.01655827      81.45500279
H      80.77557266      92.61816079      81.63452678
C      76.73344808      92.67674231      81.13374931
H      75.39741157      94.11482403      80.51391907
H      76.24778842      92.11171414      83.05371124
C      76.55014463      90.60938172      79.27236889
O      77.84838660      88.62138964      79.44811344
O      75.14418825      91.08748248      77.41854738
C      79.88551157      95.73809894      79.13252915
O      79.76456908      98.07002121      79.35551685
N      80.39762740      94.55701999      76.90265210
H      80.50912125      92.65217587      77.00658705
C      80.71132197      95.69652496      74.31372705
H      81.97365914      97.32168959      74.40821336
C      82.00011531      93.89372606      72.39376512
H      81.39729262      94.06191170      70.43222919
C      84.87627876      94.16773637      72.56573020
H      85.55091105      93.39861776      74.35341130
H      85.43752748      96.14627982      72.67344460
H      85.89484124      93.06602593      71.15410464
O      81.48422003      91.29913183      72.86619669
H      79.72677456      91.07803385      72.47502335
C      78.23389077      96.84169910      73.27248785
O      78.36806134      98.27978083      71.53204991
N      75.99834454      96.66595456      74.53482503
H      76.01157263      95.40550711      75.96912729
C      73.67587090      98.32324453      74.25325581
H      74.05381617      99.66872967      72.74147475
C      71.36662535      96.76422033      73.21768578
H      69.67154085      97.89805611      72.93800629
H      71.00757735      95.12771734      74.41577226
C      72.07338299      95.55479549      70.63631964
H      73.36217634      93.95608702      70.79694638
H      73.01068724      97.01744365      69.53082975
C      69.59595179      94.60426315      69.53460920
O      68.46589546      92.67863204      70.20735176
O      68.69077289      95.80990854      67.77905345
C      73.01824615     100.05990302      76.63053150
O      70.99812872     101.07279632      76.78926852
N      74.77947107     100.24887565      78.47490439
H      76.43487132      99.34558647      78.19333517
C      74.63396214     101.98175468      80.63297184
H      73.15808589     103.37070352      80.26069576
H      76.55392408     102.68284314      80.89186434
C      73.52280307     100.83280108      83.10095441
O      73.65697364     102.10647661      85.07571839
N      72.84061187      98.41395140      83.04048316
H      72.92375983      97.63727388      81.30004522
C      71.34961781      97.17618066      84.99068071
H      70.11940598      98.50465826      85.97333839
C      69.80949087      95.09181254      83.68299010
H      68.80982565      94.07513978      85.17020472
H      71.17009381      93.72176096      82.96678384
C      68.01614060      95.91384348      81.48334868
C      67.86874194      94.26411241      79.33095041
H      68.88919415      92.50477722      79.15898531
C      66.24546704      94.98598787      77.36374531
H      66.26436430      93.91640277      75.62708684
C      64.79604696      97.24610054      77.37886313
O      63.62441664      98.05490340      75.27937719
H      62.75703227      99.62148651      75.56472586
C      64.93210725      98.75032268      79.57850455
H      63.86819134     100.49076061      79.48023879
C      66.62152258      98.14749999      81.55515827
H      66.68577327      99.46841868      83.10851331
C      72.94076737      96.21997915      87.25268310
O      74.75679435      94.82725085      87.06182075
N      72.14330286      96.63571894      89.61295128
H      70.50491015      97.58247182      89.86617460
C      73.71177570      95.83636471      91.82393107
H      75.68087052      96.32391409      91.45354470
C      72.81982488      97.35192521      94.11049990
H      73.95177095      96.79067649      95.73755425
H      70.81671499      96.93429569      94.34104651
C      73.13918863     100.19407358      94.08026427
C      71.02269516     101.73042108      93.48122104
H      69.28603668     100.89138259      92.81414764
C      71.24757259     104.35336120      93.46799295
H      69.57327508     105.51176343      93.33949157
C      73.52658253     105.50798398      94.22577320
O      73.64752501     107.97218709      94.89473631
H      72.15275150     108.93027833      94.51490133
C      75.61095065     103.88848853      94.86639042
H      77.37217557     104.56312082      95.64495766
C      75.32182252     101.25232032      94.82103699
H      76.85439056     100.03155712      95.39362407
C      73.71744488      92.97909852      92.37951059
O      71.80315213      91.72054080      92.64029282
N      75.88685069      91.88683671      92.51179143
H      77.50067696      92.86004576      92.81225793
C      76.31392884      89.10704931      92.72722024
H      74.50924021      88.12061217      92.83115519
C      77.42130846      88.09793545      90.21577397
H      79.42063890      88.54769032      90.00034516
C      77.29658652      85.28035352      90.07215476
H      78.34349490      84.19187117      91.47244197
H      78.26412639      84.82492948      88.31281957
H      75.43709583      84.39029243      90.06270613
O      76.19487608      89.26956577      88.18998737
H      76.33660555      90.98165781      88.77202306
C      78.13562500      88.30391562      94.77001438
O      79.55291974      89.91585217      95.63172958
N      77.97310854      86.01167760      95.88117346
H      76.74289671      84.65296439      95.34638090
C      79.90440883      85.04980691      97.75578196
H      81.73744336      85.94931664      97.46665383
C      79.12395186      85.63373234     100.49210565
H      78.32081818      87.52723811     100.44486251
C      76.80525768      84.09360540     101.16484822
H      75.25001292      84.45076367      99.85904734
H      76.24967814      84.78335550     103.02244920
H      77.32304269      82.13017976     101.50310924
C      81.42185906      85.45987752     102.30435320
H      82.97521409      86.58804413     101.55602157
H      81.93775434      83.47188544     102.47253883
C      80.92486104      86.42930712     105.05201525
H      82.56514348      86.90551815     106.20285857
H      79.63984715      85.12728569     105.99876814
H      79.95543144      88.22643684     104.79123302
C      80.33526643      82.19820990      97.37027778
O      79.05403199      80.80926106      96.06636664
N      82.30625098      81.18909605      98.73088073
H      83.27946003      82.32293184      99.91951858
C      82.89584558      78.42631618      98.71198348
H      81.08359805      77.56082153      99.18063559
H      84.09204234      77.87073665     100.29368439
C      83.84826765      77.52113728      96.20242692
O      85.18619388      78.77402583      94.81725754
N      82.88450723      75.37818764      95.33126309
H      81.70153856      74.50702381      96.54824684
C      82.78813119      74.52592107      92.73288941
H      84.29235333      75.29503968      91.55370020
C      82.92419148      71.64030899      92.52879898
H      81.34249056      70.72379173      93.47744159
C      82.97899354      70.67087940      89.72255541
H      84.83659451      71.06772192      88.92698062
H      81.33304192      71.36062950      88.69265456
H      82.64640171      68.63753388      89.75279102
C      85.34115143      70.86363148      94.00845467
H      85.05013358      71.39653430      95.97754950
H      87.04190512      71.86140697      93.41319089
C      85.75311177      67.94589405      93.91207864
H      86.15751320      67.38275561      91.97132971
H      84.11282933      66.99158226      94.71143287
H      87.18930377      67.41299123      95.28779940
C      80.33715616      75.46511505      91.55370020
O      78.41908395      74.15553472      91.71432694
N      80.29936163      77.67042566      90.37451097
H      81.85838584      78.77024637      90.40474660
C      78.06570513      78.47922852      88.83627376
H      78.14318391      77.01658035      87.38685367
H      78.68175591      80.25179180      87.98778664
C      75.62228901      78.91575530      90.24034041
O      73.65130446      79.10472793      89.07437927
N      75.57504585      79.08583067      92.67997708
H      77.15296732      79.12173547      93.75145191
C      73.23745440      79.57904924      94.12561772
H      71.85984392      78.21466684      93.43208816
C      73.75712914      78.93465256      96.97343527
H      74.60939570      80.58816309      97.85404772
H      74.86072930      77.19988381      97.10571610
C      71.24568287      78.60961964      98.40017864
N      69.68287920      76.49690562      98.26978751
H      70.13263407      74.82260811      97.46854355
C      67.63630561      77.00146254      99.68708224
H      65.91098548      75.91298019      99.71731787
N      67.83283714      79.28236220     100.76989542
H      66.70278081      79.94754587     102.15884426
C      70.12507516      80.35383702      99.94786448
H      70.84884034      82.17553319     100.52234128
C      72.26235562      82.17175374      93.73822381
O      73.21099823      83.96510401      94.87961850
N      70.29892998      82.37773390      92.19998659
H      69.58461344      80.83004805      91.34016113
C      69.11407158      84.89106990      91.77668790
H      70.52569714      86.27245984      91.19465220
C      67.36796447      84.84760620      89.33894095
H      66.23412868      83.12984498      89.35972795
H      68.51691807      85.13295487      87.65330508
C      65.34973677      86.89229007      89.14051969
H      64.29715921      87.32125794      90.85828091
C      66.69711163      89.34704455      88.43376205
H      67.86307276      90.06703027      89.97199928
H      65.35918540      90.86260505      88.02747089
H      67.88197003      88.93697394      86.80103852
C      63.55449677      86.34048998      87.00512897
H      62.55294183      84.56414725      87.29614681
H      64.64864831      86.17419407      85.27036021
H      62.15043012      87.83904295      87.16953516
C      67.76102754      85.81514607      94.21632457
O      66.54971298      84.30336502      95.51645627
N      68.08795020      88.18108341      94.83237536
H      69.44855314      88.96154038      93.74389300
C      66.92198906      89.60593705      96.95264828
H      65.87886014      88.34737933      98.20742655
C      69.05549007      90.65284543      98.63828415
H      67.95377963      91.69597435     100.03101244
H      70.06082447      91.99077166      97.43641822
C      70.85639924      88.83303899      99.96676174
H      71.84094665      87.67463676      98.57970263
C      72.77636118      90.57158720     101.38783593
H      73.61350994      91.79612985      99.95731312
H      74.23334017      89.60971650     102.48198747
H      71.73323225      91.79990930     102.66907037
C      69.55059836      87.08315242     101.86215723
H      68.33739407      88.11872244     103.16417867
H      70.90553213      86.33104135     103.21709100
H      68.21645159      85.86994813     100.86438175
C      65.00958603      91.63739284      96.12683788
O      63.10663164      91.65440038      97.38161615
N      65.48012788      93.30224172      94.23333211
H      67.08261580      92.99610606      93.24500524
C      63.58095294      95.03134130      93.08059905
H      61.88964789      93.91262332      92.71777160
C      62.70978911      97.13838614      94.93631029