 %block lattice_cart
   142.669   0.000   0.000
   0.000 146.65   0.000
   0.000   0.000   162.396
 %endblock lattice_cart

 %block positions_abs
N      93.98948391      43.12055948      77.82483853
H      95.70724513      43.25850950      77.00847677
H      92.54762272      42.71804777      76.63998014
H      94.01971952      41.81475859      79.21756683
C      93.48681670      45.62255712      78.92654898
H      94.73214635      46.03640718      80.51580880
C      94.09152912      47.63133619      76.96312334
H      92.45313642      48.03384789      75.77826494
H      95.69779650      47.02095459      75.82739782
C      94.57151961      49.99160435      78.35207218
H      96.17589725      49.94058174      79.64275525
H      93.00871595      50.43569003      79.61818881
S      95.15733477      52.66556708      76.28282186
C      98.40010512      51.95314026      75.36441488
H      99.51504365      51.51283403      77.03871239
H      99.25615113      53.47248022      74.26648389
H      98.21680167      50.31096810      74.13420305
C      90.68057314      45.55830642      79.62007853
O      89.01194480      45.12177964      78.04404679
N      90.33097376      46.01750992      82.05971520
H      91.93157195      46.46537505      82.99890918
C      87.79685077      46.32931476      83.25213251
H      86.45136564      45.02540360      82.40364539
C      88.11432480      45.50728381      86.07160416
H      89.29729348      46.92268882      86.99001115
H      89.02517289      43.65913148      86.01302265
C      85.64256278      45.27484747      87.47567082
O      83.76795427      46.27451269      86.76702345
N      85.72760046      43.86889110      89.56192866
H      84.25172421      43.48716638      90.70899254
H      87.32063974      42.96749165      90.10050066
C      86.85198763      49.09209463      82.68521461
O      88.32786388      50.75694351      82.39230703
N      84.32920300      49.43413509      82.74568585
H      83.20481584      47.89211842      82.81560573
C      83.28229461      51.99849370      82.51702897
H      83.96070637      52.86398835      80.77470131
C      80.31164485      51.77172654      81.98412615
H      80.22471744      50.63978048      80.26447520
C      78.89057066      50.40167496      84.11762716
H      76.96682927      49.81397008      83.67732093
H      78.80364325      51.41267854      85.91097743
H      79.91102288      48.69336237      84.64486080
C      79.10977892      54.38143858      81.66854186
H      79.51795981      55.50015655      83.34850855
H      77.05186697      54.35309268      81.59673226
C      80.04330371      55.71180590      79.12685996
H      79.84866191      54.54395504      77.43933437
H      82.02751634      56.17100939      79.44433398
H      78.99639534      57.48247946      79.04560173
C      84.17991462      53.55562818      84.70911149
O      84.85832636      55.81952030      84.40486556
N      84.53896262      52.51438898      86.95032690
H      84.06086185      50.68135446      87.18087351
C      85.53295866      53.97892687      89.19910121
H      84.39534341      55.69479836      89.28791835
C      85.02084283      52.34620334      91.61795089
H      85.70492375      53.34964801      93.28091005
H      86.12633272      50.61710376      91.45732416
C      82.15601774      51.90589711      92.16030235
C      80.89557029      49.71948376      91.10394534
H      81.83854372      48.41557261      89.85105679
C      78.40680072      49.23571383      91.78424681
H      77.22194233      47.89589787      90.79969940
C      77.21249370      50.67379555      93.58893544
H      75.33221602      50.05963450      94.09538209
C      78.40491101      52.86965753      94.58293148
H      77.56965197      53.91656590      96.12494815
C      80.86911412      53.42523706      93.86672521
H      81.80074919      55.15811609      94.40718693
C      88.42423992      54.70836123      89.00823886
O      89.37666198      56.06707445      90.71088226
N      89.85098328      53.69735765      87.14874816
H      88.97226054      52.87910616      85.66720273
C      92.38132681      54.64411053      86.48545423
H      93.24682146      55.69101891      88.03502980
C      94.07074214      52.45013828      85.62373903
H      95.91133557      53.10020414      84.96611427
H      93.32618996      51.53929020      83.93243398
C      94.40333397      50.31474755      87.58905439
H      92.58352752      49.64956389      88.28447368
H      95.35953548      51.20858810      89.18020395
C      95.86220268      48.07920132      86.32671722
O      94.74348471      46.76584153      84.64675052
O      97.97491670      47.41401766      87.25268311
C      92.27550213      56.43368135      84.21778265
O      93.51138314      58.40277617      84.15353196
N      90.73915464      55.89510935      82.36018169
H      89.74326889      54.27939336      82.55293377
C      90.38955528      57.39366232      80.03959777
H      92.18290556      57.33130135      79.02670447
C      88.72659613      56.03683883      77.96467828
H      86.91056914      55.36031681      78.65820784
H      89.75838669      54.36065159      77.35240696
C      88.35998921      57.74326169      75.63842519
H      90.28939979      58.26671588      75.14331690
H      87.54173773      59.56117840      76.15432047
S      86.42868893      56.10297925      73.22713442
C      88.71903722      53.69924738      72.29171989
H      88.00850012      52.71469997      70.63065046
H      88.83808998      52.44635883      73.92255370
H      90.59175599      54.44946872      71.87409038
C      89.58453187      60.15644219      80.45344784
O      90.77883890      61.87042395      79.42732645
N      87.66834938      60.54572581      82.11073781
H      86.80663419      59.01126804      82.84584135
C      86.86710543      63.19890155      82.90820232
H      86.64411773      64.34596542      81.21311781
C      84.34243107      62.85686109      84.45021899
H      83.77551318      64.69934425      85.17398417
H      85.12477777      61.67011297      85.94310278
C      82.15034855      61.68523078      83.16709482
H      82.90623908      59.89377023      82.48679335
C      79.82409546      61.20901975      84.76769301
H      79.30253101      62.94378850      85.74846097
H      80.27385032      59.75959966      86.16042130
H      78.04019383      60.91233271      83.78503533
C      81.43792174      63.32173376      80.91454106
H      79.55008514      62.87197890      80.22290123
H      82.88356237      62.99670084      79.48590796
H      81.44359092      65.34563064      81.29437605
C      88.63588927      64.87697852      84.41242446
O      88.16345768      67.10118639      84.94532728
N      90.81096424      63.78093726      85.23256568
H      91.07741565      61.96113082      84.72044985
C      92.97092143      64.95445730      86.65363987
H      92.39833434      66.62497536      87.71188660
C      93.89688732      63.07040016      88.50368193
H      95.53339030      63.79038589      89.52791359
H      94.74915388      61.48491979      87.50212698
C      92.04495553      62.09719111      90.44821031
H      90.49160050      61.07484918      89.56192866
H      91.04718003      63.73180437      91.20599056
C      93.49059616      60.42289360      92.38895923
H      94.99859776      61.58885473      93.17130592
H      94.56962988      59.01504750      91.34205085
N      91.68590753      59.37031604      94.13884579
H      91.11521018      57.60153221      93.70798820
C      90.58608682      60.51360046      96.05880773
N      91.12843826      62.84741246      96.51423177
H      90.17412647      63.68267149      97.94097514
H      92.03928636      63.92077700      95.22354870
N      88.86076669      59.41566947      97.35138053
H      87.92535217      60.24903878      98.78946225
H      88.89478177      57.51271508      97.48555110
C      95.00993612      65.75003208      84.69210396
O      96.39132604      67.64353784      85.03414442
N      95.36142521      64.35352433      82.52269815
H      94.04995514      63.06662071      81.99924396
C      96.90911105      65.24925460      80.36463070
H      98.31128799      66.56072466      81.11296232
C      98.42467156      62.98536248      79.16843394
H      99.54527927      63.62408997      77.56216658
C     100.29361089      61.90443903      81.16398493
H      99.36953472      61.00681903      82.77025230
H     101.26115076      63.62975915      81.73846173
H     101.60508094      60.67800665      80.15676080
C      96.62565211      60.97847314      77.92121458
H      95.47669851      62.10097056      76.62864178
H      95.23859300      60.18856754      79.22701546
C      98.29805989      58.93189954      76.74580481
H      99.83818684      59.64054691      75.57606422
H      97.01304601      57.72058497      75.68377862
H      99.34496827      57.87176308      78.16876872
C      95.46536015      66.85363224      78.47490439
O      96.63510075      68.45800988      77.25981037
N      92.88399401      66.67788770      78.65631811
H      92.12621377      65.38531490      79.83739706
C      91.12276909      68.19533792      77.02737403
H      91.94291030      68.50903249      75.16410389
C      88.78328792      66.61363700      76.47746367
H      87.58709115      67.05016378      78.09695912
H      89.27272702      64.63320382      76.20156363
C      87.59653979      67.72290635      74.02459892
O      88.80029545      67.82495157      71.99503286
O      85.34398603      68.25202971      74.07562153
C      90.22514908      70.76536571      78.00814199
O      89.08942357      72.29982348      76.59840616
N      90.56718955      71.23590756      80.50824990
H      91.79551165      70.13230740      81.46256169
C      89.71870243      73.61885244      81.74791036
H      90.13633196      75.27992187      80.60084649
C      86.77450884      73.64152916      82.10695836
H      86.40790193      72.03904125      83.34850855
H      85.70492375      73.37696747      80.36841015
C      85.85043267      76.08683501      83.45433322
H      86.89923078      76.31171244      85.21177869
H      83.98905226      75.56716027      84.17053949
C      85.88255802      78.44332372      81.91798573
O      83.81141799      79.44298894      81.45689251
O      87.79307132      79.51857799      81.07516779
C      91.30607255      73.94577509      84.18565730
O      92.52305628      75.90920073      84.58816901
N      91.54039861      72.00313645      85.90341852
H      90.47081352      70.42710470      85.81082193
C      93.29784408      72.20911661      88.06904488
H      94.71324909      73.61129354      87.55125987
H      94.18034626      70.46489923      88.71533128
C      92.12054459      73.41854145      90.43687195
O      90.44435735      74.97945539      90.32159864
N      93.05784884      72.64186394      92.61761611
H      94.51482782      71.40598293      92.56092432
C      92.19613363      73.38263665      95.21976925
H      90.18546484      73.70577985      94.91174386
C      92.67234466      71.13953152      97.03768596
H      94.70002100      71.23212811      97.39862368
H      92.33597339      69.38208605      96.01912348
C      91.17190197      71.33228360      99.56047059
H      91.11332045      73.22956882     100.36171454
C      88.38644539      70.57828281      99.22409930
H      88.49793924      68.91532365      98.01278474
H      87.35087536      72.20533716      98.49655467
H      87.58520144      69.82050255     100.96075778
C      92.54951245      69.69956007     101.59570583
H      91.63866438      69.97357038     103.42307117
H      94.38443670      70.58395198     101.89806204
H      92.80462551      67.73991388     101.01555985
C      93.21280640      75.89408292      96.13061733
O      95.51638277      76.26446928      96.27423653
N      91.57252395      77.71010991      96.78068318
H      89.74515861      77.19421463      96.56525438
C      92.36242954      80.10628288      97.92963678
H      94.20302297      80.01368629      98.85182322
C      92.31896584      82.37017500      96.14006596
H      91.97503565      84.14840746      97.12083392
H      90.66545532      82.11884140      94.94008975
C      94.69246209      82.54780927      94.51301160
H      94.60742441      80.85650422      93.34138129
H      96.49337128      82.56670653      95.51645628
C      94.35042164      84.98744594      92.78580175
H      96.11731574      85.35783230      91.78991599
H      93.77216538      86.69953798      93.77412862
N      92.39455489      84.44887394      90.89229599
H      91.41756639      82.81048123      90.96032614
C      92.17156719      85.32381723      88.51879974
N      93.04084130      87.60093743      87.88763115
H      92.68179330      88.30391562      86.14908294
H      93.84775443      88.65540472      89.25768273
N      91.25882938      83.89707386      86.77458235
H      90.96403208      84.46021230      84.97367318
H      90.66167587      82.13206948      87.18276324
C      90.51427722      80.41997744     100.12171930
O      88.26739262      79.90030271     100.04046107
N      91.65567191      81.39885567     102.21553606
H      93.53972905      81.61617420     102.00010726
C      90.85253823      81.51601870     104.90461660
H      89.34642636      80.14407740     105.21264199
C      93.06540773      80.70721584     106.73387167
H      92.25471515      80.50123567     108.61603908
H      94.61309359      82.06025988     106.83780662
C      94.28428122      78.06159900     106.32002161
H      95.48047797      77.95577433     104.64950355
C      95.78094445      77.18854545     108.56690619
H      94.49404084      76.71422414     110.10136396
H      97.11509123      78.67764978     109.05823504
H      96.78816858      75.41409244     108.27966780
C      92.18668501      75.88463429     106.13671816
H      90.79962588      76.19643913     107.63149167
H      93.22792420      74.11396074     106.28222708
H      91.29284445      75.97723088     104.28478637
C      90.10231687      84.27879857     105.67940439
O      89.23682222      84.64540548     107.82802321
N      90.46703405      86.11183310     103.93329728
H      91.07930538      85.33704531     102.29868401
C      90.01727920      88.80847255     103.97298153
H      89.12532837      89.53979663     105.67940439
C      92.58730698      90.14450905     103.82369315
H      92.24337680      92.16084703     103.57802873
H      93.80051128      89.30358084     102.38750115
C      93.89877705      89.81569667     106.50521479
H      94.20869215      87.78991006     106.72820249
H      92.69691110      90.63961734     107.96030405
C      96.51604799      90.86071532     106.43718464
H      96.30061919      92.89028138     106.71497441
H      97.70090638      90.17852412     104.89516797
C      98.05050576      89.70798227     108.72564320
H      97.90121738      87.65762922     108.61225963
H      97.31729194      90.34482004     110.54355992
N     100.80194726      90.39962210     108.38171302
H     102.00381320      89.70420282     109.69129335
H     100.87942605      92.30824568     108.41761782
H     101.40854941      89.78735078     106.67717988
C      88.30518715      89.66262884     101.81869353
O      88.15967822      88.43430674      99.91951859
N      86.92190749      91.81880656     101.91506957
H      87.30174249      93.04901839     103.32291568
C      84.92257706      92.59359435     100.04424052
H      83.81519744      91.01000370      99.32803425
C      83.14623432      94.55701999     101.20453248
H      84.20070161      95.87226950     102.38939088
C      81.87066907      96.30312710      99.38850549
H      80.54975036      97.51444167     100.40328852
H      81.06375592      95.05023856      97.96554158
H      83.23694119      97.45963961      98.36427383
C      81.19981621      93.23421157     103.03000810
H      82.23160678      92.30446623     104.54934805
H      80.26062224      91.77912231     101.91506957
C      79.17780907      94.83858921     104.53800970
H      77.75673488      95.53967767     103.22087046
H      80.19070237      96.24265586     105.65294822
H      78.46538225      93.43452256     105.86648729
C      86.33042316      93.73876850      97.66318537
O      87.92157271      95.21275502      97.94097514
N      85.58965045      92.88272248      95.40685215
H      84.10999474      91.67707709      95.42008024
C      86.68380197      93.64617191      93.01634836
H      88.01983848      95.20519612      93.16941620
C      88.41857074      91.56558324      91.97132971
H      89.55429625      91.01378315      93.59838407
H      89.63555449      92.46887241      90.57482197
C      87.00883491      89.43586168      90.72788980
C      86.68191226      89.25255823      88.09361132
H      87.01828353      90.90228930      86.94276799
C      85.89956555      87.03590926      86.94087827
H      85.58020181      86.60694139      84.97178345
C      85.53106892      84.76823769      88.43376206
O      84.86021609      82.72355382      87.19221187
H      84.46904274      83.20732375      85.48767873
C      85.98838269      84.88918017      91.02835628
H      86.17924505      83.16197032      92.09983110
C      86.57797731      87.30047095      92.19431742
H      86.82742117      87.22110244      94.21821430
C      84.44825576      94.41151106      91.13796041
O      82.33176228      93.92963085      91.75590091
N      85.08887298      95.72298113      88.97044433
H      86.94836367      95.94596883      88.60194770
C      83.22560282      96.32958327      87.04103376
H      81.33965597      96.09714694      87.83849827
C      83.74149811      98.93551586      86.06971444
H      82.21459925      99.42495497      84.77903137
H      85.46114906      98.85425763      84.93776838
C      83.70748303     101.03878124      88.01991199
H      85.14745448     100.69863051      89.45421426
H      81.83476427     100.98964836      88.87406829
C      84.07031048     103.55967615      86.52324875
H      82.83820893     103.54455834      84.87162796
H      86.04318475     103.55211724      85.93365414
C      83.39756793     105.83868608      88.04258871
H      84.63155921     106.06167378      89.67531224
H      81.48138544     105.57601412      88.75123608
N      83.68858578     108.20273370      86.44765970
H      83.02151238     109.64648460      87.50023726
H      82.90812881     108.33123509      84.70911149
H      85.49705386     108.66571664      86.04892745
C      83.08765281      94.40584189      84.79792863
O      85.02084283      93.41184585      83.94188261
N      80.78596615      94.02978635      83.91731617
H      79.34599470      94.77055906      84.92643002
C      80.31731403      92.58414572      81.56082746
H      81.57398203      90.95142219      81.56460691
C      77.52240882      92.05124290      81.77247680
H      76.33944014      93.72176096      81.53815074
H      77.25406768      91.07614412      83.56771680
C      76.64557581      90.32025360      79.68999841
O      75.69504346      91.06669549      77.61129946
O      76.78163609      87.99966968      80.13408409
C      81.03541003      94.12805212      79.27614834
O      81.88011769      96.21053051      79.54071003
N      80.61400106      93.10759991      76.97257197
H      79.84677217      91.36905170      76.80060687
C      81.17902922      94.45875422      74.58206818
H      82.73427399      95.79857018      74.73135656
C      82.05586224      92.70508820      72.37675757
H      82.51506573      93.79546029      70.69112170
C      84.34054135      90.98165781      73.00792616
H      83.40890628      89.51900964      74.11908523
H      85.73326965      91.88305726      74.23057909
H      85.20225654      89.92719052      71.46401977
O      80.09243659      91.11582837      71.73991981
H      80.40046199      90.30702551      70.14688053
C      78.91702684      96.17273599      73.83373656
O      79.20615496      97.87348967      72.28416099
N      76.68714979      95.77022428      74.99591824
H      76.51329497      94.20553090      76.07873142
C      74.55742822      97.60136908      74.99780797
H      74.67270154      98.81646310      73.34051799
C      71.89858331      96.21242024      75.10174292
H      70.33200020      97.54845674      75.04694085
H      71.85700933      94.98220841      76.75525344
C      71.77953055      94.38127544      72.86052751
H      73.21761227      92.93941427      73.17800153
H      72.29731555      95.50377287      71.21457589
C      69.27942264      93.15484307      72.44478772
O      68.15314575      93.68774589      70.47380318
O      68.54431910      91.59959831      74.18144620
C      74.78419539      99.53077965      77.13130898
O      73.63713152     101.49609501      77.05194047
N      76.61911964      99.15094466      78.87174691
H      77.81909585      97.70530403      78.53726535
C      77.39768688     101.21641552      80.69911226
H      76.46416208     102.99464798      80.24557794
H      79.44615020     101.40349842      80.57061087
C      76.59077375     100.57201885      83.47889966
O      77.27296494     102.14049168      85.16642526
N      74.85789472      98.73331514      83.83227848
H      74.33066107      97.83191569      82.23545975
C      73.48784314      98.02844723      86.11317814
H      72.85667455      99.69896529      87.13552008
C      71.14458251      96.56390934      85.26280130
H      69.86145835      96.45430521      86.87095840
H      71.77197164      94.67796247      84.72044985
C      69.56855076      97.74120883      83.05182152
C      68.45361224      96.09525721      81.30949386
H      68.57266499      94.08269869      81.62507815
C      67.24985657      96.89839089      79.10985243
H      66.56766537      95.46786807      77.82294881
C      66.85868322      99.50621320      78.78104005
O      65.53776454     100.49831952      76.81194523
H      65.24107750     102.28033143      76.99335896
C      67.55221278     101.15783400      80.78037049
H      67.16292917     103.14771581      80.54793415
C      69.16036988     100.33202360      82.74946531
H      69.83878162     101.77010533      84.02692029
C      75.02230090      96.51666618      88.02936062
O      76.82698953      95.33369751      87.14307898
N      74.38357341      96.67918264      90.36884180
H      72.63746629      97.32546904      90.77702268
C      76.14857779      95.81179826      92.28691401
H      78.08176780      96.16706681      91.67464268
C      75.89535446      97.52011085      94.71521232
H      76.76840802      96.64138811      96.36116394
H      73.89224456      97.72231157      95.13851101
C      77.28430330     100.05801329      94.62261573
C      75.78197087     102.38048693      94.89095687
H      73.80720688     102.30489787      95.39551379
C      77.04430806     104.71807838      94.65852053
H      75.97472296     106.42072178      95.01000963
C      79.65213037     104.74264482      94.16908142
O      80.72738465     107.11803079      93.89696083
H      79.30820017     108.23296932      94.10105127
C      81.06753538     102.50142941      93.86861493
H      82.99505622     102.56756983      93.20154154
C      79.95070712     100.19974276      94.28624445
H      80.96549015      98.44418702      94.06703619
C      75.79141952      93.02823140      93.02390727
O      73.67114659      92.17218538      93.65129641
N      77.93814860      91.65251065      92.88217780
H      79.55575432      92.61060189      92.54958597
C      78.35199866      88.94264311      92.65919009
H      76.52841278      87.99966968      92.48722500
C      79.78252149      88.30202589      90.27813494
H      81.69492451      89.04657806      90.43309250
C      79.62945366      85.55814329      89.66964306
H      81.03729976      84.39218215      90.61828567
H      80.02629617      85.22177200      87.67598180
H      77.77752186      84.86650346      90.24789932
O      78.41435963      89.55302471      88.25801751
H      78.42758772      91.30858046      88.71344155
C      79.79008038      87.90896282      94.96843565
O      81.34910460      89.29224248      95.98699813
N      79.33276663      85.59971727      95.74133371
H      78.00239930      84.50934518      94.91363358
C      80.74817164      84.35627735      97.70664907
H      82.61333151      85.22933091      97.71798743
C      79.57654132      85.00445348     100.30502275
H      79.23261113      87.02646063     100.47320840
C      77.03296970      83.59471765     100.54501800
H      76.08999626      84.09927457     102.30435319
H      77.30509029      81.55381323     100.66407075
H      75.97283323      84.28446775      98.92174309
C      81.10910936      84.02179580     102.54056898
H      81.12611689      81.96388384     102.61804776
H      80.15857702      84.57737533     104.28289664
C      83.72827003      85.06114527     102.75221833
H      84.76950922      84.82492948     100.99099341
H      84.77517841      84.26934994     104.33769871
H      83.49772341      87.10015996     102.94119096
C      80.96737988      81.52168788      97.13973118
O      79.51607008      80.27635824      95.90762962
N      82.92891579      80.37840346      98.19230874
H      84.22526805      81.43287075      99.11638490
C      83.39945764      77.65530785      97.73877442
H      81.61177656      76.90886595      98.43608343
H      84.96415104      76.85028444      98.81024924
C      84.12700227      77.03547762      94.89473632
O      85.44414151      78.55292785      93.66263476
N      83.29363297      74.91709442      93.98010878
H      82.20704034      73.82483261      95.10638567
C      83.31253023      74.27836693      91.38740428
H      85.03407091      75.00591156      90.52001991
C      83.61677617      71.45700554      90.80536858
H      81.96515537      70.47812731      91.54992075
C      84.00039062      71.06394247      88.05203734
H      82.40168216      71.91053986      87.06371048
H      83.88511730      69.04382504      87.66086399
H      85.71815184      71.93132685      87.31693380
C      85.95058816      70.37986154      92.20943523
H      85.28162506      70.63119514      94.14262525
H      87.52284047      71.68377270      91.94487355
C      87.03151162      67.69456045      91.81826188
H      88.93446601      67.66621456      92.60627776
H      87.53795827      67.24291586      89.87373351
H      85.81074842      66.23191229      92.60060858
C      80.91824700      75.42543080      90.02491161
O      79.04363849      74.09506347      89.76034993
N      80.93525453      77.87451610      89.23122656
H      82.62844931      78.72300321      89.46933208
C      78.96238026      79.02535942      87.59661330
H      78.60711172      77.54381399      86.20955419
H      79.68992490      80.79225353      86.83127414
C      76.45282373      79.56960060      88.98556214
O      74.48750836      79.91731024      87.74401195
N      76.27896890      79.39763551      91.52535430
H      77.73027871      78.89685803      92.66107982
C      73.77697127      79.92675888      92.93509013
H      72.28786693      78.76835665      92.10739001
C      73.97161307      78.96299846      95.63739876
H      75.19615572      80.17998220      96.75800646
H      74.65002481      77.02224953      95.50511792
C      71.33544486      78.63229635      96.81280853
N      69.87846588      76.51580288      96.82981606
H      70.21672688      75.14008212      95.55236108
C      67.89425325      76.78603374      98.17152175
H      66.54687838      75.41787189      98.86127185
N      67.94149641      79.12929437      99.26000410
H      66.78687362      79.70566090     100.66407075
C      70.16192482      80.33305003      98.34537657
H      70.95560987      82.16230510      98.78001362
C      72.99273485      82.75945862      92.86705999
O      74.34010971      84.26934994      94.15207388
N      70.94427151      83.57393066      91.60283308
H      69.68004461      82.42497706      90.75245624
C      70.00885700      86.24978312      91.71810639
H      71.60000654      87.43653124      91.16819603
C      68.13613822      86.67119209      89.51090605
H      66.70750512      85.20476447      89.74523212
H      69.03186848      86.24411394      87.70621743
C      66.45428179      89.00689381      89.14807860
H      64.99163363      89.16374109      90.58993978
C      67.91126078      91.50889145      89.10461490
H      69.18493632      91.66006955      90.71466172
H      66.70939485      93.16618142      89.33138205
H      69.10556782      91.49566336      87.42464820
C      65.17871654      89.00122463      86.53836656
H      63.47418340      87.85794021      86.71978029
H      66.59790100      88.45698345      85.14563827
H      64.62124728      90.94386328      86.14908294
C      69.08478082      86.76378868      94.39962803
O      67.47851346      85.41074464      95.40685215
N      69.64791926      88.99555545      95.42952887
H      70.90269754      90.09537617      94.50167325
C      68.48951704      90.14639878      97.67641345
H      67.58433813      88.69130952      98.81969787
C      70.50207556      91.09504139      99.54535278
H      69.75185422      91.79990930     101.32925442
H      71.61512436      92.46509296      98.48521631
C      72.37857379      89.17130000     100.54312827
H      73.31587805      88.01856695      99.11449518
C      74.58766384      90.33348168     101.94908465
H      75.85378047      88.77067802     102.39506006
H      73.94326718      90.95331191     103.80668561
H      75.53063728      91.79801957     100.85115366
C      71.10489825      87.42330316     102.42907513
H      69.43438020      86.58615440     101.56169075
H      70.55876736      88.54580059     104.06746784
H      72.27841829      85.85672005     103.07347180
C      66.41081809      92.16651620      96.93753046
O      64.25653010      92.09281688      97.91073952
N      67.17804698      94.10348568      95.43897750
H      69.06399383      94.05624252      95.14795965
C      65.57744879      96.29367847      94.99300209
H      63.64425877      95.66817906      94.65852053
C      65.81555431      98.22686849      97.18508461