 %block lattice_cart
   142.669   0.000   0.000
   0.000 146.65   0.000
   0.000   0.000   162.396
 %endblock lattice_cart

 %block positions_abs
N      90.81285397      43.76306643      78.22451564
H      92.47770285      43.25473005      77.43838951
H      89.77161477      44.67013506      76.90926613
H      89.87932917      42.17947578      78.74230066
C      91.37977187      45.55830642      80.29943514
H      92.98981869      44.80241590      81.33878462
C      92.37754736      48.07731160      79.28276239
H      90.83931014      49.12988916      78.40403965
H      93.82507772      47.64645400      77.88058545
C      93.73059140      49.88766941      80.96839826
H      95.12520942      48.87666583      82.09656487
H      92.36998845      50.92134970      82.12113131
S      95.46536016      52.31596772      79.12969455
C      97.51382348      53.55184873      81.66948672
H      99.24103333      54.09608991      80.69060849
H      97.54027965      52.37454924      83.36079176
H      96.56707060      55.33386064      82.08711623
C      88.99682699      45.88333935      81.78664975
O      87.07497533      46.31419695      80.75107973
N      89.25949894      46.01373047      84.29620629
H      91.02639305      45.79263249      84.98406667
C      87.26961714      46.31986613      86.09711547
H      85.77106417      44.98193990      85.63980169
C      88.29573852      45.56019615      88.65391517
H      90.07964016      46.48805177      89.09422140
H      88.95714273      43.61188832      88.57454666
C      86.44380674      46.08176061      90.65324560
O      86.16979642      48.17557737      91.62456493
N      84.75817087      44.32431514      91.20126623
H      83.59032000      44.74194466      92.64879659
H      84.72793525      42.68025325      90.22994691
C      86.28318000      49.05052065      85.77964145
O      87.82708640      50.81930448      85.29209206
N      83.84354333      49.44547345      86.21994767
H      82.82498085      47.91101568      86.72072515
C      82.51128628      51.91345602      85.70972158
H      83.10277062      52.37454924      83.79164937
C      79.68992489      51.59787172      85.70216267
H      79.34410498      50.00294271      84.44738440
C      78.55419938      50.70214145      88.26652128
H      76.77596692      49.66468170      88.17959386
H      78.36900620      52.36132115      89.47216667
H      79.92425096      49.38122276      89.05453715
C      78.11011370      53.85231521      84.78375568
H      78.86978367      55.76282851      84.93682351
H      76.23928465      53.77105698      85.64169143
C      77.48839374      53.70113711      81.98696073
H      79.09088165      53.86743302      80.70383657
H      76.10889353      55.19591062      81.66381753
H      76.84588679      51.83786696      81.38980722
C      83.50339259      53.92979399      87.41614444
O      83.99850089      56.02361075      86.47506073
N      83.84165360      53.35153774      89.86145028
H      83.40512683      51.58653336      90.44348598
C      84.84320855      55.31496338      91.51118135
H      83.72827003      57.03839378      91.34677516
C      84.78651676      54.55529340      94.29474821
H      85.20036682      56.23148064      95.41346620
H      86.11310463      53.01705618      94.64623730
C      82.18814308      53.70113711      95.26228808
C      81.29619226      51.18591138      95.08087435
H      82.47160203      49.82152899      94.11711394
C      78.81120216      50.64733939      95.90290530
H      78.02129656      48.83509185      95.39456892
C      77.25784713      52.52005816      96.94981369
H      75.35867219      52.00794233      97.49405487
C      78.17058494      55.02772498      97.24839045
H      76.87990187      56.25415736      98.24616593
C      80.64234696      55.71936481      96.24305605
H      81.15446279      57.67901100      96.47927183
C      87.56630417      56.11053816      90.74962165
O      88.21825975      58.43112207      90.80253398
N      89.20847633      54.22081184      90.21860856
H      88.82675162      52.36888006      90.47561133
C      92.01849936      54.55907285      89.61956531
H      92.68746248      55.93101416      91.00473471
C      93.41689683      52.15156153      89.81420712
H      95.42945536      52.42557185      89.46271803
H      92.60431452      50.90623189      88.38935348
C      93.25249064      51.11410178      92.58076644
H      94.40333397      49.42468646      92.83210005
H      91.36087460      50.51127909      93.12689736
C      94.26349422      52.90556233      94.59899415
O      93.12020980      52.95091576      96.70792872
O      95.91700474      54.50993997      93.95648721
C      92.42290079      55.83085866      87.06465533
O      94.28239148      57.13476982      86.77741694
N      90.63521970      55.56251753      85.28642287
H      89.09131330      54.49671189      85.63035307
C      90.57474846      56.98548144      83.02442049
H      92.43612888      57.15555681      82.15703611
C      88.98359890      55.41322915      81.08178183
H      87.12221848      55.08252704      81.90192305
H      89.79240176      53.52161311      80.95894963
C      89.08942358      56.67367660      78.57978420
H      90.86009713      56.32407723      77.58389843
H      89.07808522      58.69379403      78.98607535
S      86.21326013      55.81763058      76.72596268
C      83.84165360      57.11776228      78.64781435
H      82.05775196      57.26138148      77.62358269
H      84.30652628      59.07173929      79.10323838
H      83.56197411      56.05384637      80.39014201
C      89.42390513      59.71991541      83.37968903
O      90.79395671      61.46791225      82.78631497
N      87.31119112      60.06006615      84.78375568
H      86.28695945      58.57096182      85.39413727
C      86.29262863      62.61308640      85.31665850
H      86.07719983      63.64865642      83.54976440
C      83.77173373      62.39198842      86.60923130
H      83.32764805      64.19667705      87.49740267
H      83.90590430      61.08051836      88.19093223
C      81.55319504      61.69089996      84.66092346
H      81.89334578      59.99014628      83.54976440
C      79.18725770      61.37342594      86.31821344
H      77.55642389      61.07484918      85.09367080
H      78.79986380      63.15354812      87.28008414
H      79.35166388      59.91833668      87.76574380
C      80.88423192      63.77904753      82.80521223
H      81.03163058      65.61397178      83.72739867
H      78.96426999      63.62597970      82.07388815
H      82.10499512      63.45023516      81.18004760
C      88.08786863      64.45745928      86.64702582
O      88.18235495      66.66654934      85.92704009
N      89.72437162      63.52582421      88.32321307
H      89.53161953      61.63987735      88.54809049
C      91.63677465      64.85997099      89.86522973
H      90.67112450      66.47001780      90.70993739
C      92.52872547      63.00425975      91.84566291
H      93.13910706      61.18256358      91.10489019
H      90.94702454      62.48080556      93.05886721
C      94.69057237      64.06439621      93.59743921
H      94.20113325      65.86908484      94.46293385
H      96.12676437      64.49903326      92.18581364
C      95.76204719      62.12931646      95.62322582
H      96.98092066      63.33307212      96.76651023
H      96.97147203      60.67800665      94.80308460
N      93.78917292      61.03894438      97.22760346
H      92.98792896      59.33819070      96.89312190
C      93.28650572      61.92522602      99.57653325
N      94.16900790      64.09274210     100.46092517
H      94.06885241      64.39698804     102.34309258
H      95.03828201      65.25870324      99.22504416
N      91.90889523      60.57029226     101.03918143
H      91.66134109      61.06918000     102.86465705
H      91.50638353      58.76938308     100.54974230
C      93.74759894      65.97490951      88.10211509
O      95.01749502      68.01392420      88.51596514
N      94.26916340      64.56706341      85.96672435
H      93.34319751      62.98347276      85.44327017
C      95.91889447      65.38720463      83.94660692
H      97.01682546      66.96323637      84.68926937
C      98.11664617      63.59196463      83.18693694
H      99.14276756      64.34785515      81.56744149
C     100.04794646      63.47102215      85.40925509
H      98.99725863      63.15543785      87.15158275
H     101.21201787      65.16799637      85.45082906
H     101.26493021      61.84585752      85.06154545
C      97.21902617      60.93311971      82.30065530
H      95.92267392      60.31706893      83.77842129
H      98.84041135      59.67645171      82.48206903
C      95.92267392      60.78761078      79.60779530
H      97.24170289      61.13909988      78.06577863
H      94.27483258      61.97813836      79.27898293
H      95.06284845      58.92812009      79.38102815
C      94.56585043      66.66654934      81.76019357
O      95.88487940      67.89676117      80.27864815
N      92.16778774      66.27537599      81.35390243
H      91.30229309      64.98280320      82.45750258
C      90.74671355      67.36763780      79.32811581
H      92.11109595      67.57550770      77.79932722
C      88.51872623      65.68578138      78.60624036
H      87.13166712      65.88420265      80.11424196
H      89.16690235      63.72991465      78.60813008
C      87.36977263      66.68922606      76.01164614
O      88.62455090      66.69300551      74.01420543
O      85.12288804      67.49047001      76.14203725
C      89.88877781      70.13797658      79.94416660
O      89.62610585      71.67810352      78.21506701
N      89.01572425      70.54615746      82.32144229
H      89.04218042      68.97012572      83.39858630
C      88.50171869      73.14453114      83.46283698
H      87.90456518      74.53914916      82.07010869
C      86.02617722      72.87052083      85.05020709
H      86.44002728      71.56471994      86.58844430
H      84.67313318      71.86140698      83.86912814
C      84.83942910      75.33283421      85.94971681
H      86.12444299      76.42698575      87.13268548
H      83.35788367      74.97189649      87.33299647
C      83.66212960      76.91642486      83.93337883
O      81.30942034      76.94666048      83.59511782
O      85.15501339      78.03136339      82.46884095
C      90.57096900      74.50135463      85.02942010
O      91.31930062      76.74445977      84.57777551
N      91.53661915      73.15775923      86.95316149
H      91.03206223      71.32283498      87.08544233
C      93.33563860      73.90987030      88.91091794
H      94.33152437      75.41976162      87.92259108
H      94.67545456      72.38297144      89.24917895
C      92.36242955      74.94544032      91.42236421
O      90.09853743      75.44054861      91.72472042
N      93.93657157      75.06260335      93.41602547
H      95.70724512      74.45222175      93.04374939
C      93.37910231      76.15297543      95.93125120
H      91.32119035      76.25124120      95.91802312
C      94.42034150      74.22167514      97.81341861
H      96.38376714      73.88719358      97.28996441
H      93.25060092      72.57383380      97.41468635
C      94.40144424      75.00780129     100.76328138
H      94.33908327      77.05437488     100.55541149
C      92.01283018      73.87396550     101.93680142
H      90.26105389      74.88307935     101.54562807
H      92.33408366      73.71333876     103.96636749
H      91.57252395      71.97857001     101.26027941
C      96.59919594      73.77003055     101.99349322
H      96.40455413      71.73101586     101.78373360
H      96.31951645      74.27080802     103.97203666
H      98.22247085      74.54292861     100.98437936
C      94.23514833      78.90630667      96.32998345
O      96.35731098      79.78691913      96.01439916
N      92.31329667      80.31793223      97.42224526
H      90.80529507      79.25401631      97.91168437
C      92.58352753      83.03535866      98.47671254
H      94.53183536      83.60794574      98.82064274
C      91.71047397      84.80603222      96.28840948
H      92.25660488      86.66363319      96.99138766
H      89.67334901      84.94209251      96.01439916
C      92.84430976      84.19376089      93.62956456
H      92.25660488      82.31159349      93.03808022
H      94.88521418      84.20509925      93.90735431
C      92.21692062      85.97199335      91.43937175
H      90.29317924      85.84916114      90.71371686
H      93.38477149      85.56948165      89.79153041
N      92.55896109      88.70453760      92.25006434
H      92.52683574      88.98043764      94.13979066
C      92.23203843      90.64339680      90.86111550
N      91.55929587      90.29379743      88.45360418
H      90.99993688      91.80746821      87.43504169
H      91.41945612      88.57981567      87.62212461
N      92.60809397      92.89028139      91.84755263
H      92.45124669      94.43985696      90.74395247
H      92.90289128      93.17563006      93.70893305
C      91.21914513      83.38117858     100.98437936
O      88.90234067      83.17330868     101.23949242
N      92.74793372      83.88762523     102.80985498
H      94.62065249      84.11061294     102.51316794
C      91.97314593      84.00478826     105.48003826
H      90.71080875      82.41741816     105.84286571
C      94.23514833      83.59093820     107.34897759
H      93.39610984      83.75534439     109.22169636
H      95.44457317      85.25956653     107.28094744
C      95.47669851      81.17208852     106.79339805
H      96.13999245      80.93398300     104.85642857
C      97.74814954      80.96043917     108.56218187
H      97.29272550      81.43287075     110.51426915
H      99.29205594      82.08104688     107.79117354
H      98.44923800      79.02535943     108.62454285
C      93.79295237      78.98189572     107.36220567
H      94.90411144      77.28114204     107.02583438
H      92.13188294      79.04614642     106.14333219
H      93.04084130      79.01213134     109.27838815
C      90.67679368      86.55024961     106.24348769
O      89.06485713      86.63717702     108.02738934
N      90.94891427      88.35871769     104.58052853
H      91.99771237      87.91085255     103.04985023
C      89.97570522      90.96654000     104.72603746
H      88.93635574      91.42007431     106.44757813
C      92.06952197      92.88839166     104.45580660
H      91.26071911      94.78189743     104.42557097
H      92.84619949      92.62382998     102.56608028
C      94.19924353      93.03201086     106.36631991
H      94.91922925      91.15173318     106.80095696
H      93.44524273      94.08458842     107.96880781
C      96.41967194      94.48143094     105.25705056
H      95.85086432      96.39761342     104.76005253
H      97.07918643      93.50255271     103.56763524
C      98.61175447      94.54946109     107.09197481
H      99.52638200      92.70319848     107.06929808
H      97.87476120      94.66095494     109.01193674
N     100.45990680      96.44485658     106.27561303
H      99.67756011      98.17206643     106.48726239
H     101.28949665      96.06313187     104.59942580
H     102.02837964      96.36548808     107.36031594
C      88.02550766      91.18574825     102.60198508
O      88.30140770      90.03490493     100.58186765
N      86.11310463      92.64083751     103.11410091
H      85.91090392      93.23988075     104.91689981
C      84.10999474      93.39105886     101.35287600
H      83.08387335      91.73754834     100.68013343
C      82.16735609      94.91606799     102.98370980
H      81.73460877      93.76333494     104.63722032
C      83.04985828      97.39538892     103.97959557
H      85.08131407      97.41428618     104.31785658
H      82.00483963      97.78278281     105.71247460
H      82.80230413      99.12070904     102.87977485
C      79.62567420      95.68140715     101.87633019
H      79.04741795      94.32458366     100.43824846
H      79.75228586      97.54656702     101.00894580
C      77.45626839      95.73242976     103.85109417
H      75.66858730      95.54156740     102.84575978
H      77.29186220      97.54278757     104.82052377
H      77.52807799      94.22064871     105.24760192
C      85.22493327      94.90095018      99.12677840
O      87.28095549      95.94218938      99.38945036
N      83.85299196      94.92362690      96.94414450
H      82.18247390      94.01088909      96.79296640
C      84.62589002      96.01588871      94.49883865
H      85.30808122      97.89427666      94.99961612
C      86.50238825      94.29245831      93.14012543
H      88.25227482      93.88427743      94.14545983
H      87.16757192      95.24110092      91.43748203
C      85.79563061      91.48810446      92.53919246
C      85.43847234      90.88339204      89.92192152
H      85.63878333      92.07202989      88.27596991
C      85.14556476      88.31903344      89.26807622
H      85.00761474      87.77101280      87.30654030
C      85.13233668      86.45198384      91.05953676
O      84.66179482      84.03313416      90.40947091
H      84.23093722      83.18653677      91.95526703
C      85.61421689      87.08882161      93.65602072
H      85.84287377      85.64507070      95.07898464
C      85.89578611      89.60404733      94.33632220
H      86.21514985      90.04624329      96.30352729
C      82.43569723      96.24643532      92.73194456
O      80.37967500      95.68707633      93.50862206
N      82.78718632      97.48231633      90.50773668
H      84.48794000      98.11537464      89.91247290
C      80.85021685      97.87348967      88.47439116
H      79.03041041      97.47286770      89.35500364
C      80.71982574     100.59091611      87.46149787
H      79.66157900     100.44918664      85.70027294
H      82.53207327     101.49987447      87.09678068
C      78.96238026     102.32001569      89.02619125
H      79.96771466     102.83024179      90.74962165
H      77.06320532     101.66617038      89.48917420
C      78.34821921     104.78799825      87.67692666
H      77.33721564     104.61792288      85.89113529
H      80.05464207     105.86892170      87.27063551
C      76.59077374     106.34891219      89.33421664
H      77.61122595     107.11803080      90.94804292
H      75.00718309     105.17728187      89.94081879
N      75.41158452     108.60902486      88.16825550
H      74.59522275     108.20840288      86.48828882
H      76.68714978     110.00553260      87.90180409
H      74.11712200     109.41782772      89.31153993
C      80.85588603      95.72298113      86.44860457
O      82.89301100      95.08236391      85.46594687
N      78.70537749      94.66662412      85.86278941
H      77.16525054      95.35826395      86.75474023
C      78.30286578      93.65184109      83.34945340
H      79.53118788      92.02100728      83.08300199
C      75.48150440      92.69563958      83.10945817
H      74.27963846      94.12805212      82.25152242
H      75.00340364      92.14572922      85.03697901
C      75.34544410      90.40718101      81.47484490
O      74.44215492      90.62827899      79.34890280
O      76.17314423      88.33982042      82.25341214
C      79.00773370      95.47542698      81.17626814
O      78.96993917      97.78089308      81.58633875
N      79.27607483      94.46631313      78.91048629
H      79.26284675      92.57658682      78.66104243
C      79.17402961      95.91384349      76.48596743
H      80.30219622      97.63349443      76.38392222
C      80.20959963      94.31135557      74.34301780
H      79.77874203      95.07102555      72.47407847
C      83.00639457      94.11671376      74.70206580
H      83.74149811      95.96675582      74.17294244
H      83.76606455      92.80146425      73.30744778
H      83.61866590      93.51389107      76.57478457
O      79.16647071      91.83014492      74.56978495
H      80.48360995      90.63772762      74.19939860
C      76.48872852      96.93429570      75.76787144
O      76.34321959      99.04323026      74.87403090
N      74.43648574      95.54912631      76.53510033
H      74.76529812      93.87293907      77.38547716
C      71.88913467      96.68863128      76.74674967
H      71.59433737      97.97553489      75.16693847
C      69.86145834      94.61560151      76.74297021
H      67.85456900      95.04267966      76.57478457
H      69.98240082      93.64806164      78.55521776
C      70.16381455      92.67863204      74.66427128
H      69.22273085      90.92118657      75.18394602
H      72.15936554      92.19297238      74.52065207
C      68.90336710      93.67073835      72.22274487
O      70.01263645      95.37149204      70.99442278
O      66.84356542      92.98665743      71.49897970
C      71.40536474      98.59158567      78.83111780
O      69.19438495      99.41550635      79.32622609
N      73.41414381      99.15283439      80.28053787
H      75.10355913      98.38560550      79.83078302
C      73.34989311     101.03878125      82.23451489
H      71.95905455     102.42206091      81.60901548
H      75.14702284     102.02521838      82.44805396
C      72.35211762     100.25643455      84.79320431
O      72.01385661     101.73609026      86.59978266
N      71.80787644      97.79790062      85.26374616
H      71.88535522      96.50343810      83.86156923
C      70.37735362      96.92295734      87.62968351
H      69.55721240      98.57457814      88.54809049
C      68.24196289      94.91039881      87.08544233
H      67.28198192      94.82725086      88.90524877
H      69.08667055      93.10759991      86.55631897
C      66.31066260      95.67006879      85.16359066
C      65.75697279      93.99388155      83.09434035
H      66.72640239      92.20620046      82.94316226
C      64.15448488      94.86504538      81.23107021
H      64.16204378      93.75577604      79.51708845
C      62.73719014      97.11004024      81.47862435
O      60.91549398      97.78656226      79.77598095
H      60.05566850      99.34747620      80.11424196
C      63.09056896      98.53678361      83.58377948
H      62.12869827     100.31312634      83.88046650
C      65.12013502      98.03033696      85.36012221
H      65.30910765      99.07346588      87.10622932
C      72.27463884      95.92140239      89.48728447
O      74.17381379      95.02000294      88.65202544
N      71.97039291      96.25777368      91.96849513
H      70.58333379      97.35192521      92.68470139
C      74.08688638      95.53022905      93.85822143
H      75.92559008      96.09714694      93.11555899
C      73.69193358      96.90028062      96.35266017
H      75.14513311      96.63004976      97.78507272
H      71.85700933      96.25210450      97.02540274
C      73.48406368      99.66495022      95.74038885
C      71.16725922     100.81012436      95.84999297
H      69.62335283      99.65928104      96.52462526
C      70.86868247     103.39338023      95.29630316
H      68.99974314     104.21352145      95.28496480
C      72.99651429     104.84280032      94.85410720
O      72.76218823     107.36180549      94.57442771
H      71.03497838     107.88714941      94.76340034
C      75.40213589     103.64093438      94.87867364
H      77.04619778     104.82012360      94.61789142
C      75.67803593     101.01610453      95.37567166
H      77.56965197     100.25454483      95.45504016
C      74.11145282      92.67485259      94.17380572
O      72.07810731      91.50133255      94.65001677
N      76.49628743      91.69408463      94.25884342
H      77.98539176      92.87894303      94.12467284
C      76.96304983      88.98610682      94.19270299
H      75.17158928      87.96943407      94.26073314
C      78.16869521      88.39651221      91.59243958
H      80.07542906      89.13917466      91.83243483
C      78.57687610      85.62995289      91.11433883
H      79.23450085      85.30114051      89.19059745
H      76.83265871      84.69642809      91.68314645
H      79.96582494      84.68886919      92.30675614
O      76.86478406      89.42074388      89.58743996
H      77.56776225      91.02134206      89.09989057
C      78.76017955      88.44942455      96.30730673
O      80.19070237      90.15773714      97.24650071
N      78.80931243      86.00978788      97.18980892
H      77.46193757      84.78902468      96.61155268
C      80.69336957      85.06681445      99.00394618
H      82.38656434      86.16663516      98.59576530
C      79.74661668      85.30869942     101.63066577
H      79.33654607      87.26078670     102.14467132
C      77.44115058      83.67219643     102.12955350
H      77.71705062      81.63507147     101.97081650
H      75.86889829      84.33171091     100.97493073
H      76.79297446      84.06336978     104.04384626
C      81.57209230      84.60761096     103.88510926
H      82.12011293      82.62339833     103.81329966
H      80.69525929      84.72288426     105.74648967
C      84.09865638      86.08159748     104.02305928
H      83.38622956      87.89006556     104.70336074
H      85.08509352      86.16474544     102.21648092
H      85.48193604      85.18964666     105.26271973
C      81.56264367      82.44198460      98.28585018
O      80.14723866      80.91697547      97.10666097
N      83.91157348      81.70310161      99.06630716
H      85.19847710      82.89929837      99.81085932
C      84.85454691      79.06504368      98.80552492
H      83.62433508      77.86695720      99.94502988
H      86.66490472      79.11984574      99.78629287
C      85.13233668      78.14663669      96.05786287
O      85.94113954      79.45243757      94.33632220
N      84.29518792      75.74290482      95.70448404
H      83.81141798      74.84528482      97.31831031
C      84.03440569      74.44466285      93.35366451
H      85.65957032      74.97000676      92.20282119
C      84.41990986      71.47023363      93.70893305
H      82.79474523      70.68221776      94.69725991
C      84.68069209      70.05293889      91.24661968
H      83.83220497      68.23880163      91.72094097
H      86.61577183      69.74491350      90.61356136
H      83.31253024      70.36285401      89.74050779
C      86.95025339      70.99969178      95.16213260
H      86.76506021      72.04660015      96.92524725
H      88.64533789      71.67810352      94.20593107
C      87.33764728      68.40509755      96.08242931
H      85.96570598      67.87030500      97.52618021
H      89.27839621      68.17077149      96.73438488
H      87.15623356      66.91410349      94.67458321
C      81.76106493      75.33850339      91.96849513
O      79.86566944      73.96656209      91.62078548
N      81.56075394      77.86695720      91.48661491
H      83.02529184      78.91575530      92.12156296
C      79.79763929      79.05937450      89.59499887
H      79.45181938      77.55893181      88.22872674
H      80.58943462      80.63162679      88.52541378
C      77.07076422      79.72644789      90.76284974
O      75.37001054      80.35005757      89.41169543
N      76.56242785      79.11795602      93.12311790
H      78.01373766      78.36206549      94.10577559
C      74.11523227      79.48456292      94.45537495
H      72.73195261      78.42064701      93.36122342
C      74.29475627      78.35639631      97.06886644
H      75.71583046      79.30692865      98.21970977
H      74.91080705      76.40619876      96.83454037
C      71.75307438      78.38285248      98.39356459
N      70.35278718      76.21722613      99.01906400
H      70.73451190      74.47300874      98.34065225
C      68.22873481      76.86729198     100.15667924
H      66.85679350      75.55582192     100.90879030
N      68.17204302      79.31637728     100.34943133
H      66.75474828      80.41052882     101.00705608
C      70.43782487      80.32360140      99.44803186
H      71.18237703      82.21710717      99.28551541
C      73.26863488      82.31348321      94.58009688
O      74.11712200      83.75723412      96.21093070
N      71.48284352      83.01079222      92.90201992
H      70.91214617      81.58971803      91.76062523
C      70.07499741      85.38050902      92.84532813
H      71.36945994      86.93008460      92.43147806
C      68.29487523      85.13862405      90.58899492
H      67.10056820      83.46621626      90.73072439
H      69.59122748      84.88540072      89.01107344
C      66.56766538      87.58204017      89.99373113
H      67.68071418      89.21854316      90.57009766
C      65.80232622      87.85416076      87.12701631
H      64.57022466      86.33671053      86.47884018
H      67.55599224      87.69353403      86.06121067
H      64.98785418      89.68530556      86.65080528
C      64.03165267      87.44597988      91.44126149
H      63.11702513      89.28846303      91.53196834
H      64.30944243      86.59749276      93.29886244
H      62.73341069      86.25167285      90.37923530
C      68.63502596      85.69798304      95.30008262
O      67.71283952      83.71188068      96.13912110
N      68.44605333      87.92219091      96.48305128
H      69.82366381      89.14673356      95.97849436
C      67.30654837      88.23399575      99.02095372
H      66.76608664      86.51623453     100.02250867
C      68.97895615      89.64562131     100.86154716
H      67.81677447      90.38261457     102.39222546
H      69.97673165      91.08748248      99.77873397
C      71.13324415      88.05069230     101.81585893
H      72.11590183      86.98866611     100.34943133
C      73.12123623      89.84404257     102.88733375
H      72.46739093      90.94953246     104.49549085
H      73.98484116      91.00433453     101.41901641
H      74.68781934      88.63650746     103.46747974
C      70.10712276      86.04947213     103.54495851
H      69.01864041      84.61705959     102.54340357
H      68.77297598      87.03968872     104.76005253
H      71.66992642      85.21421310     104.59564635
C      64.82533772      89.69097474      98.78284820
O      63.14915048      89.65695966     100.40045394
N      64.59857056      91.30102156      96.88367326
H      65.85145910      91.27456539      95.44181209
C      62.22696404      92.73532383      96.22793824
H      60.86447136      91.19519688      96.11833411
C      61.38036665      94.58536589      98.29529881