 %block lattice_cart
   142.669   0.000   0.000
   0.000 146.65   0.000
   0.000   0.000   162.396
 %endblock lattice_cart

 %block positions_abs
N      93.86948628      43.33315369      81.34634352
H      95.67795437      43.29724889      80.73029274
H      92.93596149      41.99144801      80.35990638
H      93.72775681      43.12150434      83.23795956
C      92.89627724      45.72743693      80.33722966
H      93.74098489      47.00489192      81.71484015
C      93.95263425      46.08648493      77.65003885
H      93.24965606      44.60682922      76.40092975
H      95.98975921      45.90318148      77.89570327
C      93.13816221      48.60549010      76.56722567
H      91.09158860      48.64328463      76.34045851
H      93.82413286      48.60360038      74.62269729
S      94.12270961      51.38527751      78.32278141
C      92.68273816      53.87215734      76.47840853
H      93.30634785      53.63972100      74.52632125
H      93.44429787      55.64661035      77.19461481
H      90.67962827      53.51499906      76.16471397
C      90.02578296      45.91640956      80.39581118
O      88.82391703      44.25722986      79.49252200
N      89.01288967      48.03857221      81.35201269
H      90.23932204      49.20075389      82.23640461
C      86.24066117      48.54123941      81.25941611
H      85.44697612      47.97243179      79.44716857
C      85.05958222      46.93686177      83.47606507
H      86.01767345      45.11894506      83.62346372
H      83.18686343      46.33403907      82.87135265
C      85.07281030      48.28045718      86.10656410
O      83.14717918      49.42941078      86.75662995
N      87.17040651      48.07636674      87.41992389
H      87.54646204      48.70753532      89.18303854
H      88.82391703      47.45275705      86.69804843
C      85.63783847      51.34370353      81.37279968
O      87.50299834      52.82146951      81.17626815
N      83.19253262      52.00321801      81.40870448
H      81.90940846      50.58970273      81.46350655
C      82.32325851      54.57702525      81.20461404
H      83.18875317      55.41228428      79.53220626
C      79.38662383      54.61104033      80.97595716
H      78.82537511      53.25988601      79.52464735
C      78.16586062      53.48476344      83.41937328
H      78.96332513      51.59692686      83.62157400
H      76.10605895      53.50366071      83.44582945
H      78.59104905      54.47686976      85.17303930
C      78.27735448      57.18295784      80.48462832
H      78.08649213      58.33569089      82.17971282
H      76.24967814      57.14327359      80.11991114
C      79.32237313      58.70607725      78.22451565
H      80.56392332      60.21596857      78.87080205
H      77.83704825      59.66794794      77.17004836
H      80.15574244      57.33602567      76.92816340
C      83.11694357      56.08313712      83.48740343
O      83.95976151      58.33191144      83.11701707
N      83.27001140      54.86048420      85.77775172
H      82.69553459      53.04256749      85.70027294
C      84.30936087      55.93573847      88.13613016
H      83.15095863      57.61570516      88.42147883
C      84.00133548      54.16695464      90.37545584
H      85.14273017      52.45486260      90.27152089
H      82.01334339      53.65483881      90.24317500
C      84.33014786      55.35181304      92.99461651
C      82.87694833      57.47586542      93.76562484
H      81.60327279      58.19774087      92.34644038
C      83.01489835      58.43395666      96.22415878
H      82.03224066      60.12148225      96.82131229
C      84.85927123      57.33791540      97.89467684
H      85.21642949      58.11459291      99.74849835
C      86.41640571      55.48031443      97.07075617
H      87.90173060      54.84536639      98.31797553
C      86.12349814      54.34836837      94.68025238
H      87.38394558      52.77044690      94.38923453
C      87.10804554      56.77288723      87.76952325
O      88.05290870      58.25632238      89.39090843
N      88.44408205      55.92062066      85.75507500
H      87.43307846      54.67151157      84.72706389
C      90.99143312      56.52155363      84.99918448
H      91.65094759      57.60814626      86.61867993
C      92.59392103      54.19907999      84.72328444
H      94.55167748      54.73576226      84.38502343
H      92.14983535      53.14650243      83.00930267
C      92.68840735      52.44730370      87.03064027
H      90.82513719      52.00888719      87.78653079
H      93.65972666      53.39027713      88.58210557
C      93.86003766      49.91884989      86.46750182
O      92.35581552      48.29368526      85.57555100
O      96.19007020      49.38405734      86.72261488
C      91.19930300      58.20341005      82.58222452
O      92.64116419      60.01376785      82.62379850
N      89.55146167      57.70452230      80.74352082
H      88.80313005      55.96597409      80.97217771
C      89.02611774      59.34291501      78.44372390
H      90.77600431      59.07646360      77.39303607
C      86.61671670      58.33569089      77.03776752
H      84.98777262      58.66639299      78.25286154
H      86.84726331      56.28911729      76.93950175
C      86.46742832      59.17850882      74.23908285
H      88.03212171      58.33002171      73.20351283
H      86.58270162      61.23642078      74.26553902
S      83.54591143      58.14671826      72.88414909
C      84.47565679      57.75932436      69.57334859
H      84.89517603      59.63393287      68.82879642
H      82.95442711      56.70485708      68.67005941
H      86.19530774      56.63115775      69.44673692
C      88.75966633      62.25876271      78.97473699
O      90.28845492      63.83857391      78.13758824
N      87.13639144      62.85969568      80.82666878
H      86.06302688      61.46318794      81.55799286
C      86.58270162      65.45806936      81.57122095
H      86.34459610      66.52387500      79.82322411
C      84.08070399      65.48074608      82.91670608
H      84.00322521      67.01142439      84.29053711
H      83.86716491      63.85936090      84.17337408
C      81.81681187      65.67349816      81.22162158
H      82.38561949      64.45651442      79.65881792
C      79.46221288      64.55478018      82.50663547
H      77.96177019      64.97051997      81.15548116
H      79.13529023      65.51476115      84.30187547
H      79.70409785      62.54411139      82.88647046
C      81.12895149      68.40604241      80.43360571
H      80.94753776      69.69294603      82.03042444
H      79.46977179      68.53454380      79.22040141
H      82.63506335      69.14303567      79.23740895
C      88.67651838      66.89615109      82.92237526
O      88.37038272      69.11468978      82.89024991
N      90.79868103      65.81333791      83.77275210
H      90.92718242      63.91794242      83.95038638
C      92.84903407      67.33456759      84.73840225
H      92.25943947      68.83690001      86.01585724
C      94.35325622      65.52609951      86.52419361
H      96.11448115      66.33301265      87.22150262
H      95.02221934      63.90093488      85.45082907
C      92.84147517      64.71540692      88.85044670
H      90.81190911      64.86469530      88.52163433
H      93.09469850      66.07978932      90.37356611
C      93.51610747      61.99042158      89.68948519
H      95.31890637      62.04333391      90.67781205
H      93.78444860      60.84902688      87.99629041
N      91.56402019      61.15138310      91.62834438
H      90.61537757      59.61503560      91.01229361
C      91.48654140      61.77877223      94.06231188
N      92.60903884      63.60046840      95.14512505
H      92.51266280      63.73652869      97.04618972
H      94.16050413      64.22596781      94.22860779
N      90.09570285      60.36525695      95.50984223
H      89.83492061      60.87359333      97.33153840
H      89.64594798      58.65127518      94.80119486
C      94.67639942      68.40415268      82.64269577
O      96.10314279      70.18805432      83.13024516
N      94.32302061      67.32511896      80.32778103
H      92.84147517      66.12892220      80.19550019
C      95.83291192      68.16604717      78.01664575
H      97.51287862      69.12980759      78.72151367
C      96.57935382      65.76987420      76.34234824
H      94.82757753      64.80611378      75.85290912
C      97.99286911      66.69206064      73.80633553
H      99.72385841      67.65771079      74.37325342
H      96.74942918      67.88447795      72.67816892
H      98.41994725      65.12736726      72.54021890
C      98.45774178      64.02754654      77.82389367
H      97.83980128      64.03699518      79.78920903
H     100.37581399      64.76642953      77.97507177
C      98.76198772      61.27043585      76.71273460
H     100.04511188      61.16272145      75.10646723
H      96.92895319      60.42005901      76.31589207
H      99.76354266      60.18573295      78.15081632
C      94.43451445      70.35435024      76.68249898
O      95.54000434      72.00408131      75.53543510
N      91.83803051      70.33167352      76.78076474
H      91.10670641      68.84634864      77.73129708
C      90.20719669      72.11179571      75.61102416
H      90.99332284      72.74107457      73.81389443
C      87.63716891      70.89292224      75.00253228
H      86.44097215      72.42738000      74.32978972
H      86.83403523      70.01042005      76.68438870
C      88.00188608      68.90681988      72.80100113
O      89.65728634      69.24697062      71.08890909
O      86.60726806      67.05299837      72.98241485
C      89.71208839      74.59678581      77.04721615
O      89.53067468      76.69060257      75.91338037
N      89.40595273      74.36812893      79.53220626
H      89.67807333      72.62202181      80.24841253
C      88.57258344      76.42226143      81.24429829
H      87.88094360      78.10600758      80.28242760
C      86.08948306      75.29409482      82.52742246
H      86.76600508      73.91270489      83.89558431
H      84.93297055      74.16403849      81.25374693
C      84.49455405      77.27263827      83.84834115
H      85.42996858      78.62757204      85.08611189
H      83.16418673      76.29942922      85.08422216
C      82.93364012      78.79386795      81.91137168
O      83.61583132      80.95382513      81.22918048
O      81.01556791      77.86412261      80.99485442
C      90.38105151      77.07232728      83.41559383
O      90.04656995      79.14913650      84.26030149
N      92.18951960      75.47361882      84.00329871
H      92.27833674      73.92215352      82.89591909
C      93.98286986      75.80999011      86.11790246
H      95.00521181      77.59389174      86.00451888
H      95.45496667      74.38324674      85.92892982
C      92.63360528      75.31866126      88.72950422
O      90.35648507      74.87268585      88.91280767
N      94.04334110      75.37157360      90.77796754
H      95.92739825      75.61345857      90.57954628
C      93.08147042      75.32055099      93.48594535
H      91.03300710      75.16370371      93.34610560
C      93.77688969      72.91681912      94.98449832
H      95.74787424      72.31777588      95.03552093
H      93.22697934      71.34456683      93.77507348
C      92.66762035      72.95083419      97.67546859
H      91.08025025      74.26419398      97.67357886
C      91.93062710      70.19561323      98.57119886
H      91.01033037      69.99341251     100.40234366
H      93.50854857      68.86902536      98.58442694
H      90.33947754      69.52853984      97.44681170
C      94.43640419      73.88057954      99.81841823
H      95.34347282      75.60400994      99.15134484
H      95.92361879      72.48785125     100.11510526
H      93.22697934      73.97128640     101.48326711
C      93.95263425      77.77719520      94.62922977
O      96.27132844      78.03986715      94.88434282
N      92.22731412      79.33243995      95.38701002
H      90.37349260      79.01496593      95.07142573
C      92.69218679      81.71727456      96.67013419
H      94.67828915      81.83632732      97.20114728
C      92.15928397      83.89612900      94.67458320
H      92.03834148      85.74995051      95.56275457
H      90.30168301      83.28574740      94.02451735
C      94.10192263      84.20982357      92.47305205
H      94.49309598      82.38812740      91.59054986
H      95.82724275      84.96949354      93.30453162
C      93.04934507      85.86522382      90.35088940
H      94.46097063      87.21448840      89.69326464
H      91.47709278      86.92158083      91.15402308
N      91.95519354      84.58398938      88.29486717
H      91.69252158      82.69804252      88.41580965
C      91.09347834      85.75561969      86.29364700
N      91.26166398      88.18013855      85.82499488
H      90.20530697      88.96626470      84.44360494
H      91.96464217      89.35365859      87.15536220
N      89.71586785      84.56131266      84.72895362
H      88.90517526      85.50239636      83.28142326
H      89.83870007      82.66024799      84.60234195
C      91.05190436      82.16702942      99.06063797
O      88.83147594      81.79286361      98.90757014
N      92.18574015      83.04197270     101.22059515
H      94.04145139      83.47094058     101.11288075
C      91.13883176      82.70371169     103.77361540
H      89.50610823      81.45649233     103.61676811
C      93.35170128      81.70215675     105.47058963
H      93.08713959      82.17269860     107.45858171
H      95.12426455      82.64890963     105.01327586
C      94.14160688      78.86945701     105.03784230
H      94.18696031      78.53119600     103.00827624
C      96.77588536      78.05498496     106.00160272
H      96.97052716      76.01408055     105.78806365
H      97.36359024      78.65024875     107.88188040
H      98.06089925      78.84300084     104.59942580
C      92.05156958      77.08555537     106.08286095
H      90.23743232      77.48239789     105.19279986
H      91.53567430      77.64302463     107.99715371
H      92.52211142      75.08055575     106.00538217
C      90.02767270      85.00917780     105.09642382
O      88.65573138      84.76918255     106.97859123
N      90.69285636      87.17480415     104.03439763
H      91.66039622      87.01606714     102.39789464
C      89.47776233      89.63333808     104.50871893
H      88.35715464      89.41601956     106.22459043
C      91.43551880      91.81030280     105.26460946
H      92.94541012      92.04273913     103.88321952
H      92.48998607      91.17346503     106.91434053
C      90.43396386      94.52394978     105.43846428
H      88.68407729      94.59575938     106.52316718
H      89.79712609      95.07574987     103.56007633
C      92.56179568      96.31541033     106.22270070
H      91.94385518      98.26938734     106.01483081
H      94.16428360      95.94691370     104.98115051
C      93.38004718      95.89022191     108.90044289
H      94.46475008      94.14411479     109.03650318
H      91.67929349      95.84864793     110.05884512
N      95.01655016      97.87632426     109.97758688
H      96.11448115      96.98059399     111.25693160
H      94.18885004      99.40322312     110.76560276
H      96.22219555      98.49993395     108.63399148
C      87.94330457      90.47237657     102.35632066
O      88.70675400      90.05852651     100.17935595
N      85.85704673      91.77061854     102.83064197
H      85.31847473      91.99360625     104.65044841
C      84.12416770      92.55296524     100.75761220
H      83.24355522      90.93535951      99.83353604
C      81.89807010      94.10632027     101.93491170
H      82.89206613      95.58786570     102.96670226
C      80.45620891      95.65211639      99.76361616
H      81.56169881      97.35664953      99.43291406
H      78.64207165      96.25682881     100.53462450
H      80.21243423      94.39544839      98.14790016
C      79.97243898      92.45658920     103.37866260
H      80.86627953      91.36810684     104.88099502
H      79.43008753      90.99394103     102.03506719
C      77.80303317      93.82286132     104.58241826
H      78.36050244      95.67668283     105.28539645
H      77.15296732      92.68902553     106.17356782
H      76.03235961      93.91545791     103.53550988
C      85.60193366      94.04206957      98.81308383
O      86.79813043      95.99604658      99.29496404
N      85.36949734      93.21059000      96.49061019
H      84.14117523      91.76305964      96.30919646
C      86.52223039      94.10065109      94.21537971
H      87.88094360      95.58597597      94.65001676
C      88.02456281      91.87077404      92.95115280
H      89.24721572      91.13000132      94.43458796
H      89.20375203      92.68335635      91.47149710
C      86.65073177      89.61633055      91.90613415
C      86.01578374      89.57097712      89.43626186
H      86.57136327      91.15834722      88.28163908
C      85.03501578      87.40724049      88.19471167
H      84.33581703      87.59054394      86.28608810
C      84.73454929      85.13012028      89.68570573
O      83.87094437      83.08165696      88.37990485
H      83.68953064      83.41991797      86.60734157
C      85.31847473      85.12256138      92.35210956
H      84.88005821      83.50306593      93.51618097
C      86.45042079      87.37889459      93.44059192
H      86.89450647      87.37322541      95.43236345
C      84.39628828      95.04740397      92.47305205
O      82.03224066      94.50316279      92.99839596
N      84.98399317      96.56107475      90.60789218
H      86.84159413      96.94279946      90.39057365
C      83.10371549      97.19035361      88.53486241
H      81.17997410      96.81807753      89.17358990
C      83.33993127      99.98525883      87.81109723
H      82.17774959     100.23659243      86.12924081
H      85.35437953     100.24415133      87.47094650
C      82.29680235     101.84474952      89.71405163
H      83.53079363     101.88443377      91.36189297
H      80.49589317     101.12854325      90.40758119
C      81.80169406     104.38265196      88.51596515
H      80.57904113     104.45257183      86.85867517
H      83.56291898     105.45034732      88.46116308
C      80.28046438     106.00781659      90.37545584
H      80.92297132     107.93911688      90.05231264
H      80.72455006     105.40877335      92.29730750
N      77.47422080     105.99647823      89.89168590
H      76.67486657     107.37219898      90.94615319
H      76.53313710     104.41855676      90.41136064
H      76.88273646     106.16844332      88.08510755
C      83.54024226      95.55196090      86.31821345
O      85.53957270      95.64077803      85.21272355
N      81.52012483      94.19891686      85.55287429
H      79.84204787      94.38033058      86.44104566
C      81.16107684      93.06319134      83.01308212
H      82.56703321      91.55896920      82.92048553
C      78.47199629      92.07675421      82.83544785
H      77.12273171      93.60365307      82.53876082
H      78.03357979      91.03740474      84.55887825
C      78.09783047      90.28907312      80.67927013
O      77.61406055      91.30952532      78.56844584
O      78.61750521      87.97604811      80.83611741
C      81.48610976      95.14755947      80.82855851
O      81.13273094      97.39066460      81.17437842
N      82.18341876      94.33875660      78.49663624
H      82.40451674      92.46981728      78.17538276
C      82.65396062      96.07541509      76.42549620
H      83.98621768      97.55318106      76.95461956
C      83.86527519      94.63733336      74.22018559
H      82.51034141      93.42601879      73.25075599
C      85.23910621      96.30974115      72.41171751
H      83.83503957      97.64955710      71.72007768
H      85.82492138      95.30062730      70.71096383
H      86.81891742      97.23759677      73.35091149
O      85.68697135      93.11988313      75.22363026
H      86.73576945      94.14411479      76.29132563
C      80.39006850      97.41712077      75.46929468
O      80.46187810      99.46180464      74.18428079
N      78.04869759      96.43257336      76.07400710
H      77.94287293      94.70914296      76.88280996
C      75.66575271      98.00293592      75.90393173
H      75.67898080      98.73048056      73.97830062
C      73.34894826      96.15100414      75.86802693
H      73.00879751      95.35731909      77.73885598
H      73.78925449      94.60520801      74.58301304
C      70.80348692      97.10909538      74.87970007
H      70.29326081      98.79473125      75.94928517
H      69.80193196      95.31007593      74.97418639
C      71.04537188      97.89522153      72.04133115
O      71.79370350      96.29084389      70.49931448
O      70.51435879     100.00982527      71.32890433
C      75.45032392     100.21391571      77.88625464
O      73.80059285     101.92789748      77.54043472
N      77.12840088     100.39154998      79.80432684
H      78.54569561      99.11409500      79.84401110
C      76.94887689     102.07907558      82.00774773
H      75.67709107     103.66266623      81.66192781
H      78.81403675     102.68000855      82.63891631
C      75.70165751     100.90933499      84.25274259
O      75.77157739     101.80695499      86.39758195
N      74.42987171      98.83063605      84.00707816
H      74.07460316      98.24671062      82.22317652
C      72.99178998      97.73081534      86.10089492
H      71.68598909      99.07630047      86.95127176
C      71.24568286      95.71636709      85.09745025
H      70.11373681      95.03417589      86.67726144
H      72.33605496      94.14033534      84.34344945
C      69.44855315      96.35698431      83.05654583
C      68.44132902      94.33875660      81.63736137
H      69.28225722      92.48304536      81.74507577
C      66.75191370      94.80740873      79.70795080
H      65.94689028      93.36554755      78.50797459
C      65.67287998      97.20169197      79.26575485
O      64.08550987      97.50404818      77.32122647
H      63.48457691      99.21425049      77.34579291
C      66.59317669      99.29361900      80.62635779
H      65.85240398     101.15499941      80.24085362
C      68.45455710      98.85142304      82.60868069
H      69.08950515     100.40666780      83.76897265
C      74.77380189      96.81996725      88.13990961
O      76.93375908      96.07730481      87.69960338
N      73.70421681      96.56674393      90.43403735
H      71.84661583      96.90878439      90.71182712
C      75.11773209      95.61810132      92.63745824
H      77.12084197      96.09998153      92.59966371
C      74.18042784      96.97681454      95.05441819
H      74.66608749      95.69369037      96.59076568
H      72.15464123      97.32830363      94.93914489
C      75.27646910      99.57707794      95.45881962
C      73.84594628     101.78427828      95.44748126
H      71.80693159     101.83152144      95.37189221
C      74.98734097     104.17667179      95.43614291
H      73.67587091     105.73758572      95.54385731
C      77.56492765     104.56973486      95.64590253
O      78.62128466     106.87331124      96.13723137
H      77.59516328     108.21312719      95.47393743
C      78.94064841     102.33796809      95.55330594
H      80.95131722     102.64221402      95.73282994
C      77.88807085      99.85297799      95.45881962
H      78.98789157      98.14844485      95.21315520
C      74.80781697      92.76839404      93.03241104
O      72.63841117      91.84242814      93.04374939
N      76.92620017      91.36432739      93.15713297
H      78.63829220      92.20147614      93.07209529
C      77.12084197      88.64879068      93.16469188
H      75.37095540      87.71526588      93.71838169
C      77.90507840      87.89667960      90.59277437
H      79.80614307      88.52595847      90.11467361
C      77.78224618      85.22271687      89.96916468
H      79.26190189      84.20226466      90.97827853
H      78.06381541      85.05453123      87.93581917
H      76.00968291      84.34399413      90.53797230
O      76.42164324      89.11933253      88.72950422
H      75.95866030      90.69536427      89.50240228
C      79.05214227      87.70014807      95.05630792
O      80.59415893      89.12311198      95.93503065
N      78.75167579      85.47782992      96.22415878
H      77.19454131      84.52729759      95.65913061
C      80.32203835      84.45548799      98.04207549
H      82.19097767      85.32098264      98.07798029
C      78.88017718      84.57265102     100.59887519
H      78.25278804      86.51906912     100.85020879
C      76.55203435      82.88701515     100.58942656
H      75.29914580      83.31031384      99.00961536
H      75.33505060      83.28007822     102.20136311
H      76.98856113      80.88012580     100.43446900
C      80.48077535      83.53897073     102.93079746
H      80.66029936      81.48483822     102.94402555
H      79.33938066      83.66558239     104.63911005
C      83.08859768      84.75595447     103.30118382
H      82.75222639      86.77607190     103.07819612
H      84.47376705      84.05297628     101.95002951
H      83.49299910      84.48572361     105.30240399
C      80.98155284      81.49995603      97.35799457
O      79.48299987      80.29997982      95.97093545
N      83.15851754      80.64391001      98.18569469
H      84.39250882      81.90246774      98.92079823
C      84.11282934      78.06065414      98.27829128
H      82.60671747      76.95327452      99.14378593
H      85.78145767      77.72995204      99.43858324
C      84.85549177      77.28586636      95.59865937
O      86.52600983      78.24962678      94.30986602
N      83.38528471      75.39991950      94.63300922
H      81.94153379      74.97473107      95.80841899
C      83.31536483      74.82355297      92.09510678
H      84.90084520      75.75518804      91.16725116
C      84.07881425      71.96439706      91.39212860
H      82.50089278      70.73985441      91.89479579
C      84.18463894      71.61290796      88.47250144
H      85.58492613      72.81288417      87.55976363
H      82.39884757      72.21951011      87.64291159
H      84.44731090      69.60790835      88.07565892
C      86.67340849      71.38992026      92.66391440
H      86.64506260      71.48440657      94.72182636
H      87.94708403      72.96973146      92.31809449
C      88.02078335      69.03721100      91.64913137
H      86.76222563      67.40637719      91.68503617
H      89.84436924      68.54210271      92.46927259
H      88.16629227      69.53420902      89.65735984
C      80.70943225      75.66259145      90.93292510
O      78.85561073      74.40970291      91.14079500
N      80.66407882      77.82821781      89.74617698
H      82.36105305      78.69371246      89.67058792
C      78.82915457      79.04520155      88.08132810
H      78.46065794      77.66570134      86.59789294
H      79.50189712      80.89524361      87.47094650
C      76.25723705      79.28897625      89.40035706
O      74.47333542      80.06565376      88.30053635
N      75.98889592      79.05842964      91.90991361
H      77.50823587      78.67670492      92.99839596
C      73.72689352      79.56487629      93.31775971
H      72.23212001      78.44993776      92.44281643
C      73.72878325      78.44237886      95.91046421
H      75.17253415      79.38346256      97.03863082
H      74.36373129      76.48273267      95.87455941
C      71.10962258      78.27797267      97.20492673
N      69.66209222      76.05565453      97.51295212
H      70.32916561      74.44371798      96.73816434
C      67.37930284      76.55265255      98.52773515
H      65.81649918      75.24118248      98.55230160
N      67.45678162      78.97339195      99.23827225
H      66.07728141      80.09210993      99.93936071
C      69.64886413      80.08077157      98.28018101
H      70.12129572      82.05364584      98.50505844
C      72.78392009      82.35033287      93.29886245
O      73.35839688      83.88857009      94.99394695
N      71.14741710      82.99095009      91.49984300
H      70.63908073      81.61711906      90.27530034
C      69.76224772      85.38901279      91.33732653
H      71.09828422      86.93291918      91.06898540
C      67.90275702      85.02051615      89.14713374
H      66.92387880      83.21960698      89.36067281
H      69.00068801      84.94303738      87.40480608
C      65.73335121      86.95181645      88.71060696
H      64.29904895      86.92725000      90.18837293
C      66.76136232      89.60121274      88.61990009
H      67.66087205      90.25316832      90.35466885
H      65.24202238      90.86354991      88.03975412
H      68.04826594      89.78451619      87.02497109
C      64.42944006      86.66646777      86.03853395
H      63.45245156      84.86744832      86.26908056
H      65.83350671      86.64379106      84.53242208
H      62.79104735      87.89856933      85.83444351
C      68.38652695      85.85010601      93.85255226
O      67.19977884      84.25706672      95.05063874
N      68.34117353      88.21793308      94.63300922
H      69.20099899      89.59176411      93.62389537
C      67.25080145      89.09665581      97.08398425
H      66.45144722      87.58298503      98.22537894
C      69.37296410      90.37600053      98.69970025
H      68.43943929      91.37566575     100.23982719
H      70.37262932      91.86888431      97.69625558
C      71.24001369      88.34832419      99.65212231
H      72.33416522      87.57920558      98.08553920
C      73.23556468      89.66546343     101.25461022
H      72.48345360      90.28718339     103.06685776
H      74.13696412      91.27551025     100.33809296
H      74.74923545      88.41824407     101.88766854
C      70.04192721      86.29230196     101.35476572
H      68.70211126      85.03941342     100.41935119
H      68.83817154      87.12756099     102.80229607
H      71.46678085      85.08854630     102.22970900
C      65.26091963      91.04118419      96.47360265
O      63.13875699      90.83520402      97.32208977
N      66.02814851      92.81941665      94.83143049
H      67.78937344      93.04429408      94.13412148
C      64.26503387      94.83008545      93.95270775
H      62.55483155      93.79262570      93.46704809
C      64.00992082      96.79540081      96.00684025