 %block lattice_cart
   142.669   0.000   0.000
   0.000 146.65   0.000
   0.000   0.000   162.396
 %endblock lattice_cart

 %block positions_abs
N      91.65756164      43.91046507      77.51303369
H      90.93568619      42.14546070      77.61318919
H      93.37532286      43.59299105      76.74202536
H      90.41601145      44.85721796      76.41699243
C      91.98637402      45.01784469      80.10384847
H      93.27705709      43.69314655      81.01469655
C      93.30729271      47.65779235      80.10195874
H      95.18946012      47.48582726      79.28559697
H      93.53217014      48.25683559      82.05971520
C      91.88054934      49.62877690      78.57883933
H      90.02861756      50.00861189      79.39898055
H      91.62165684      48.95414460      76.64942877
S      93.35453587      52.74493559      78.40687424
C      92.34731174      53.96191933      75.31339226
H      90.30640732      53.70302683      75.18678060
H      93.31674134      52.80162738      73.91499479
H      93.01816458      55.89510935      75.07528675
C      89.49004556      45.19925842      81.51358430
O      87.54929663      45.14823581      80.19833478
N      89.40878732      45.56019615      84.04203810
H      91.10765128      45.79830166      84.87729713
C      87.04473971      46.43891888      85.43854585
H      85.42146480      45.28807556      84.90375330
C      87.52284046      45.76995577      88.17109010
H      89.12532838      46.84898949      88.88729637
H      87.81385832      43.73283080      88.26368669
C      85.36855247      46.18380583      89.88318214
O      83.63756317      47.66724098      89.36539713
N      85.37233192      45.34287762      92.34171607
H      83.75661592      45.46004065      93.35082992
H      87.01072463      44.63423025      93.01823809
C      86.32853343      49.18658094      84.91131221
O      88.00661040      50.61899349      84.18376758
N      83.88889676      49.83097761      85.01524716
H      82.60766232      48.48549248      85.44799448
C      82.84765757      52.32919580      84.43510118
H      83.44859053      52.84509108      82.53592623
C      79.93558932      52.31029854      84.46722652
H      79.45559883      50.81552502      83.13307975
C      78.69592886      51.55818746      87.01079814
H      78.99828507      53.01894590      88.42998260
H      79.75417559      49.85554405      87.47756054
H      76.69848814      51.05174081      87.01079814
C      78.72049530      54.83875234      83.54126063
H      79.01529260      56.36754093      84.89052522
H      76.69470869      54.58363929      83.81149149
C      79.40835568      55.86109428      80.96934312
H      81.36233268      56.50927040      80.90131297
H      78.18759248      57.50893562      80.79170885
H      79.02285151      54.37198994      79.60118127
C      83.83598443      54.38899748      86.27758433
O      84.37077697      56.52438821      85.52169381
N      84.30841601      53.75971862      88.68887511
H      83.84921251      51.97959643      89.20477039
C      85.44414152      55.59653259      90.46521784
H      84.10810502      57.08563693      89.97010955
C      85.17202093      54.89733386      93.22988744
H      85.35154493      56.60942590      94.35805405
H      86.74994240      53.58208434      93.40563199
C      82.49427875      54.07719264      94.22577321
C      81.47571626      51.76605736      93.54547173
H      82.67569247      50.28073248      92.82548601
C      79.02096178      51.01016683      94.39206912
H      78.19515138      49.31697206      93.60405325
C      77.72838898      52.52950679      95.90007072
H      75.85378048      51.81896969      96.27990571
C      78.69403913      54.89544413      96.79202154
H      77.46004785      55.93101415      98.04491008
C      81.12422717      55.66456274      95.95487278
H      81.77807247      57.56184796      96.32525914
C      88.12944261      56.34108476      89.73011431
O      88.87588450      58.53694674      89.71499650
N      89.64500311      54.49104270      89.03847448
H      88.83620025      52.76761230      89.20099094
C      92.33408366      54.64600026      88.14085448
H      93.48681671      55.72125453      89.46555262
C      93.49437561      52.01928068      87.82149073
H      95.30095397      51.98904506      86.83505359
H      92.24148707      50.83442229      86.69332412
C      94.06885241      50.91190106      90.49734319
H      92.19235418      50.62277294      91.29669742
H      94.79828677      52.42557184      91.68976049
C      95.90377666      48.64800894      90.58427060
O      94.81718403      46.54474355      90.99623094
O      98.18278660      48.78784869      90.65041102
C      92.66289604      56.01038266      85.55759861
O      94.42412096      57.38610341      85.13996909
N      90.74671355      55.63432712      83.91353672
H      89.38989006      54.38143857      84.39730665
C      90.22703882      57.28783764      81.62318842
H      91.77094522      57.42956712      80.26636493
C      87.94802889      56.22203200      80.18132725
H      86.28129028      56.42423272      81.37563428
H      88.05763301      54.21325293      79.73724156
C      87.48882539      57.51649453      77.62641727
H      89.24438114      57.57129659      76.55116300
H      87.34520619      59.57062703      77.74358030
S      84.97548939      56.10864842      75.79905193
C      85.37800110      57.57696577      72.75092338
H      85.65201141      59.60653183      72.96068300
H      83.74716729      57.12343145      71.57362389
H      87.05796779      56.69635331      71.94967943
C      89.76783532      60.09030177      82.44899882
O      90.90356084      61.77971709      81.37941373
N      88.41101183      60.64021212      84.40864501
H      87.15434383      59.45535372      85.22311705
C      87.85354257      63.22724745      85.12485128
H      87.38678017      64.18155923      83.36173663
C      85.34965520      63.52204475      86.86528922
H      85.34398603      65.19256281      88.06904488
H      85.17580038      61.91766711      88.14463393
C      83.05552746      63.84707768      85.09461566
H      83.30308161      62.87008917      83.29748594
C      80.59321407      63.06284126      86.28514324
H      80.26062224      64.13242635      88.01424281
H      80.95226207      61.08429781      86.72922892
H      79.06820494      63.11197414      84.90375330
C      82.82120140      66.65332125      84.38407857
H      84.55030097      67.62653030      83.82660930
H      81.97649374      67.77581868      85.88830071
H      81.60043820      66.45867944      82.73623722
C      90.18735457      64.59351957      86.24356926
O      90.50104913      66.78560209      85.67665137
N      91.82952673      63.29905705      87.64385646
H      91.42890475      61.45657389      87.94054349
C      94.23514833      64.36675241      88.54336618
H      93.98381473      66.16577186      89.51279578
C      95.54850812      62.42978294      90.36506235
H      97.38721182      63.19701182      90.88851654
H      95.92645338      60.64777103      89.40319165
C      94.00460172      61.77971709      92.68564626
H      92.34353229      60.72902926      92.06581603
H      93.38666121      63.43700707      93.73822382
C      95.35386631      59.96557983      94.46954790
H      97.08863506      60.47391621      95.45598503
H      95.78850336      58.48025495      93.10894495
N      93.42634547      58.85064130      96.27612625
H      92.82352277      57.04595268      96.12872760
C      92.90289128      59.85030652      98.40773754
N      93.59831056      62.01971233      99.28079109
H      93.40555848      62.15766235     101.17429686
H      94.82096349      63.09307688      98.28301560
N      91.58953149      58.50482139     100.03101244
H      91.51394244      58.97725297     101.87727505
H      91.00371633      56.80406771      99.39228494
C      96.03227805      65.13020184      86.44954943
O      97.80106188      66.35285477      87.11851254
N      95.56551565      64.44234146      84.09684017
H      94.22003052      63.17055566      83.64141613
C      97.08296588      65.27382104      81.75924872
H      98.62687228      66.48135616      82.39419676
C      98.35475169      62.87575835      80.50069099
H      99.45268268      63.61464134      78.92465925
C     100.35597186      61.98380753      82.45088855
H      99.32040184      60.93122998      83.88708055
H     101.48035901      63.55794955      83.16142564
H     101.54460971      60.72524981      81.33406030
C      96.57651923      60.71013200      79.61629908
H      95.20079847      61.60586227      78.37474889
H      95.57496428      59.90321886      81.22445617
C      97.94468108      58.47080632      78.23868860
H      99.00103809      59.13032080      76.59840616
H      96.59541649      56.96280472      77.85318443
H      99.19567990      57.49381781      79.55204838
C      95.54850812      66.61741645      79.58795318
O      96.66533637      68.03093173      78.09884885
N      92.96336252      66.49647397      79.69188813
H      91.97881511      65.55916972      81.02981436
C      91.37032324      67.67188373      77.75680839
H      92.57785835      67.75125224      76.09006978
C      89.04973933      66.03916020      77.27303845
H      87.61543705      66.29427325      78.73001744
H      89.52972981      64.03605031      77.28059736
C      88.02172821      66.49080479      74.61608326
O      89.61098804      66.67977742      72.81895353
O      85.70303403      66.65710070      74.16065921
C      90.55018202      70.29482386      78.62230304
O      90.12310387      71.97290082      76.99902814
N      90.75994164      70.87685956      81.12996986
H      91.13032800      69.43310866      82.32238716
C      90.36120939      73.30515787      82.29215154
H      90.11176551      74.59206149      80.70478144
C      87.69102611      72.94422015      83.47889966
H      87.97637478      71.39086512      84.79981836
H      86.30396699      72.30549265      82.09750973
C      86.51750607      75.14953075      84.73178821
H      87.95180834      76.06415829      85.89396989
H      85.21359491      74.40875804      86.13963431
C      85.32697849      77.14886119      83.00835781
O      83.04229938      77.31137766      82.62285364
O      86.73860404      78.68520869      81.87641175
C      92.42101107      74.21033678      84.30282034
O      93.66445098      76.13974734      83.85306547
N      93.04084130      72.62485640      86.17931856
H      92.07519115      70.97512533      86.18120829
C      94.69435182      73.39019556      88.26746614
H      96.03605750      74.80182111      87.59661330
H      95.48992660      71.72912613      89.18587313
C      93.39044067      74.82827728      90.50679182
O      91.19268896      75.47456368      90.48600483
N      94.84175047      75.40653353      92.38895923
H      96.71446925      75.54637328      92.03935986
C      93.81184963      75.67298494      95.11394457
H      91.82007810      75.19110473      94.89095687
C      94.91356007      73.39208528      96.66540988
H      96.95446449      73.40342364      96.37250230
H      94.06129351      71.69511105      95.86605564
C      94.33530382      73.63963943      99.52078633
H      95.31796151      75.32527530     100.17652136
C      91.59331094      74.14230663     100.24266179
H      91.58008286      74.51269299     102.27033812
H      90.48215187      72.44911185      99.86660625
H      90.78828753      75.79014797      99.29968836
C      95.37465330      71.40598293     101.01933930
H      95.59764100      71.98990836     102.98087521
H      97.11698096      70.80882941     100.09715286
H      93.96869692      69.91876832     101.25933454
C      94.55262235      78.31482233      96.00589539
O      96.77683022      78.85528405      96.21943447
N      92.68557275      79.85116982      96.69753522
H      90.93757591      79.34850262      96.11738924
C      93.00682622      82.44765378      97.74066415
H      94.92300871      82.82748876      98.38884027
C      92.26038433      84.63406712      95.99455703
H      91.75015823      86.19309133      97.23988667
H      90.77505945      83.89140468      94.77190411
C      94.41467233      85.02901992      94.23711156
H      94.98347995      83.22244156      93.42830870
H      95.75259856      86.17986324      95.29724802
C      93.57185439      86.83370855      92.11683864
H      95.24993136      87.51212029      91.13607068
H      92.72525700      88.60627183      92.73477914
N      92.03928635      85.69987276      90.09105203
H      91.56874450      83.85361015      90.17986917
C      90.95080400      87.05480653      88.29770176
N      91.01316496      89.47554593      88.15408256
H      89.92279288      90.30891524      86.82560496
H      92.17534665      90.37694538      89.37295603
N      89.75271751      85.93986800      86.50813094
H      88.35432004      87.07748324      85.88263153
H      89.68279764      84.03313415      86.40986517
C      91.33630816      82.72733327     100.10471176
O      89.13288728      82.06592906     100.13116793
N      92.06385279      84.01423689     102.07380658
H      93.90066677      84.49044792     101.85837778
C      90.97159099      83.98022182     104.67406999
H      89.43335377      82.63662641     104.93863167
C      92.92556799      83.09960935     106.65261344
H      92.16022884      83.80447727     108.43084590
H      94.67923401      84.16163554     106.45797163
C      93.40177902      80.20454864     106.94363129
H      91.58764176      79.41464304     107.51432864
C      94.36364972      78.92331420     104.50966380
H      92.91611936      78.80426144     103.05079509
H      95.14599641      77.08083105     104.99154401
H      96.10408765      79.83983146     103.89928220
C      95.40110946      79.82282393     109.09791929
H      94.80773540      80.72611310     110.85347503
H      97.18123165      80.65430350     108.47997878
H      95.66378142      77.81215513     109.45885701
C      89.74326888      86.69197907     105.21075226
O      88.71903722      87.12472640     107.31590738
N      90.04751482      88.58359511     103.44574789
H      90.76939027      88.26423137     101.70908940
C      88.86643587      91.14984345     103.72920683
H      87.86488093      91.43519212     105.50743929
C      91.00182661      92.97342934     103.73865546
H      92.18290555      92.77878753     102.06057850
H      92.26227406      92.55202037     105.31090776
C      90.44435734      95.86471060     103.55724174
H      89.55807570      96.81335321     105.15783993
H      89.15367427      96.29745792     102.01333534
C      92.78950770      97.51255194     103.02433892
H      92.01849936      99.35503510     102.51978199
H      93.99704281      96.68485182     101.57302911
C      94.39577507      97.40483754     105.50743929
H      95.01560530      95.45463999     105.73798590
H      93.35453587      97.93207118     107.20441352
N      96.74848432      98.91472887     105.34681256
H      98.25648592      97.91884310     104.74210014
H      97.30973304      99.86337148     106.90583677
H      96.53305553     100.32635442     104.07880620
C      86.97481983      91.61849557     101.54657294
O      87.28851440      90.61883035      99.54724250
N      85.03596064      93.21909376     101.97743054
H      84.75061196      93.54034723     103.83503151
C      83.35032477      94.06947060      99.92140831
H      82.34310064      92.36871692      99.34126233
C      81.14123471      95.81746744     100.85871256
H      82.06720060      97.43696289     101.73365585
C      79.45748856      96.57902714      98.61371770
H      80.48738940      97.86971022      97.38350587
H      77.82854448      97.68640676      99.21654040
H      78.63167816      95.01433376      97.55736069
C      79.36111252      94.51922546     102.80324094
H      80.54030174      93.88049797     104.36604460
H      78.62600898      92.67107313     102.26277921
C      77.11611766      96.18029489     103.86526713
H      77.81153694      98.11348491     104.01455551
H      76.67581143      95.46030917     105.74365508
H      75.48150440      96.04423460     102.61804776
C      84.82809074      95.37338176      97.81814293
O      86.14711971      97.18373956      98.29435396
N      84.33487217      94.65717548      95.55991998
H      83.18402885      93.17374033      95.21787952
C      85.15690312      95.73431948      93.27335114
H      85.99216215      97.60703826      93.47555186
C      87.26205823      93.94096921      92.02424205
H      88.90423040      93.75766576      93.25067443
H      87.85921175      94.59103506      90.16286163
C      86.36065878      91.35960307      91.52346458
C      85.05107845      90.86071532      89.18587313
H      84.63722838      92.43296761      87.95188185
C      84.26873175      88.37005604      88.53958673
H      83.31630969      88.05825120      86.76324400
C      84.70903798      86.34237971      90.26112740
O      84.16101735      83.89896358      89.45232454
H      83.92291184      83.76857247      87.65708454
C      85.95058817      86.71276606      92.58927022
H      86.51183689      85.06114527      93.64373750
C      86.75561158      89.34704454      93.27713060
H      87.87810901      89.87049873      94.89851577
C      83.05552746      96.31824491      91.31181523
O      81.15446279      94.97275978      91.00945902
N      83.55630493      98.28356028      89.72255540
H      85.31752986      99.00165628      89.56003894
C      82.06720060      98.49143017      87.47189136
H      80.14345921      97.93963009      87.96133048
C      82.03696498     101.31846074      86.73111865
H      83.97771390     101.96474714      86.49301313
H      81.03352031     102.16316840      88.32037848
C      80.75762026     101.94396015      84.14786278
H      79.04930768     100.80067573      83.99290522
H      81.84988207     101.24287168      82.54915432
C      79.93936877     104.69162221      83.71889490
H      79.05119740     104.93350717      81.87452202
H      81.80830809     105.55711686      83.74724080
C      78.33499113     105.90860595      85.79948358
H      79.34788443     105.36814423      87.50779616
H      76.45471345     105.08279555      85.93554387
N      78.10633425     108.61658376      85.20799924
H      77.15769164     109.65593323      86.49868231
H      77.16714027     108.98319066      83.58850379
H      79.88834616     109.26853934      85.00957798
C      82.99883567      96.64516756      85.34405953
O      85.13989558      96.62060112      84.78659027
N      81.23761075      95.44141190      84.02692029
H      79.39890705      95.59070028      84.52013886
C      81.61366628      93.92585140      81.78948434
H      83.50150287      93.10382045      81.82916859
C      79.89968452      91.68841545      82.01058232
H      77.91925134      92.24399498      82.14853234
H      80.64423669      90.80969271      83.71889490
C      80.15479757      89.92341107      79.74291074
O      78.27074044      89.61160623      78.23490914
O      82.30530611      89.00122463      79.52559222
C      81.28296418      95.34692559      79.27992780
O      80.42124898      97.48042660      79.34039904
N      81.92358140      94.31513502      77.00469731
H      82.56797807      92.51800530      76.97824115
C      81.81775673      95.61526672      74.59529627
H      82.83253976      97.40105809      74.75025382
C      83.23316173      94.00899936      72.50525896
H      83.24450009      95.10504062      70.76104158
C      85.92791146      93.54223696      73.48602692
H      87.16946164      92.89784029      71.97235614
H      86.05830257      92.19675182      75.04127168
H      86.94269449      95.18629885      74.20034347
O      82.15223828      91.62416475      72.28227126
H      82.99127677      90.64906597      71.00292654
C      79.08899193      96.18407434      73.72791189
O      78.65813433      98.02088832      72.29360962
N      77.05375669      94.91039881      74.68033395
H      77.37312044      93.35137460      75.73480123
C      74.43081657      95.48487561      74.55561201
H      74.08877611      96.21808942      72.66021652
C      72.90958689      92.94130399      74.66332641
H      71.05198592      93.80301919      74.44222843
H      73.15147185      92.02478673      76.49258148
C      73.60122672      91.09126193      72.48636170
H      73.46894587      89.09949040      72.99280835
H      75.49284276      91.66573873      71.91188490
C      71.64535998      91.41818458      70.42089084
O      71.72661821      93.40617666      69.12831804
O      69.93326794      89.76467406      70.12420381
C      73.53886575      97.64294306      76.37163900
O      71.28442226      98.08702874      76.39998489
N      75.32654684      98.99976655      77.72657277
H      77.02730052      98.13616163      77.77192620
C      74.78986457     100.89894150      79.63519634
H      73.45193834     102.36347939      79.07583735
H      76.58699429     101.87781973      79.87897104
C      74.03208432      99.97108588      82.27892345
O      73.94704663     101.41105733      84.17809840
N      73.50674040      97.52955948      82.41309402
H      74.05098158      96.46564357      80.92398969
C      72.46361148      96.22753805      84.66753751
H      70.85734411      97.34247657      85.31949309
C      71.57355038      93.54601641      83.98345659
H      70.47750912      93.03201085      85.65019520
H      73.21761228      92.31202513      83.86818328
C      69.77642066      93.13594580      81.73279255
C      69.55532268      90.79835435      80.67454581
H      70.69671737      89.28846303      81.43988497
C      67.99440875      90.37316593      78.59395714
H      67.84323064      88.54580059      77.70011660
C      66.63758525      92.37627582      77.44689327
O      65.21273161      91.95297713      75.31906144
H      64.74785894      93.54412669      74.57639900
C      66.69994622      94.80268441      78.71300990
H      65.85712829      96.45052575      77.85129470
C      68.30621359      95.15795296      80.78414994
H      68.61990816      96.99665666      81.61185007
C      74.23617476      96.01399898      86.84828168
O      76.60211210      95.89494622      86.57427136
N      73.14958213      96.05935241      89.11784298
H      71.24473800      96.02344761      89.00256968
C      74.31743299      95.58125165      91.57637691
H      76.29408671      96.12171338      91.35905839
C      73.19493556      97.30657177      93.61917106
H      73.81854524      96.69619018      95.48433093
H      71.15970032      97.02122310      93.49444912
C      74.15302680      99.97486533      93.27146142
C      72.60156150     101.85136356      92.30392154
H      70.67593038     101.52633063      91.71243721
C      73.56154246     104.37036873      92.31525990
H      72.34644844     105.80089155      91.51401595
C      75.98417160     105.20940722      93.36783746
O      76.91013749     107.65849252      93.23933607
H      75.70071265     108.82634338      92.55903460
C      77.57910061     103.27432747      94.15585333
H      79.50095227     103.74108987      94.65474108
C      76.63423745     100.69485105      94.08404373
H      77.88901572      99.16606247      94.59238011
C      74.35900697      92.82603069      92.27557565
O      72.40502996      91.67329764      92.74044832
N      76.60022238      91.67140791      92.50612226
H      77.99484039      92.82603069      91.90140984
C      77.18225808      88.98988627      92.74233805
H      75.47961467      87.90896282      93.15618811
C      77.94192806      87.90707309      90.23467123
H      79.70126326      88.95587120      90.02491161
C      78.16302604      85.06870417      89.94365338
H      79.46882692      84.90429798      88.36006273
H      76.39424221      84.34871845      89.17264504
H      78.76206928      84.04825196      91.62928925
O      76.25062301      88.71965541      88.25045860
H      76.93470393      88.36816631      86.60639671
C      79.34977416      88.56469785      94.68875615
O      80.92769563      90.19364193      95.26323295
N      79.44426048      86.28190846      95.82637139
H      78.24050482      84.94209251      95.19898226
C      81.50595188      85.29547133      97.52145589
H      83.23316173      86.28190846      96.98855307
C      80.61022161      85.91530156     100.18408027
H      79.89401534      87.84849158     100.20486726
C      78.22160755      84.03880333     100.55824608
H      78.82631997      82.08671605     100.82847694
H      76.75517993      84.24100405      99.12394381
H      77.42225332      84.31470337     102.43663404
C      82.67380275      85.56003301     102.22120524
H      84.52195508      86.03435432     101.44641745
H      82.74183289      83.57771011     102.77867450
C      82.31097529      87.27590450     104.49265626
H      80.84076822      86.51812425     105.72286809
H      82.19003281      89.29035275     104.08447538
H      83.91157348      86.89795924     105.73231672
C      82.11444376      82.43253596      97.08114966
O      80.72360519      81.02468986      95.82826112
N      84.28195984      81.68609407      98.00900528
H      85.57075318      82.98244632      98.55702591
C      84.79029622      78.92709365      98.38695055
H      83.12544733      77.77247088      98.75922663
H      85.97893407      78.64174498     100.04801998
C      85.90334501      77.65341812      96.13439678
O      87.62488569      78.61906827      94.89473632
N      84.89801062      75.45755614      95.64495767
H      83.68858578      74.80749029      96.96776609
C      84.87155445      74.33127926      93.06548125
H      86.30963617      75.24779652      91.90896875
C      85.54996619      71.48724116      93.08437851
H      84.15723790      70.58017253      94.30136226
C      85.76161554      70.33639784      90.43876167
H      84.02495706      69.98679847      89.38807384
H      86.65734581      68.48068660      90.51435073
H      86.93135613      71.47590280      89.18398340
C      88.32030497      71.26614318      94.35238487
H      88.13511179      72.04660015      96.24967009
H      89.62043667      72.30171320      93.13540112
C      89.30296265      68.64887224      94.74922739
H      91.05851840      68.77359417      95.81881249
H      89.79429149      67.67944264      92.99934083
H      87.97070560      67.49235973      95.81503303
C      82.36766708      74.86418208      91.65952487
O      80.57809626      73.68310314      92.25289893
N      82.34121091      76.82193854      90.05325751
H      83.97015500      77.74223526      89.67909170
C      80.19637155      77.70255100      88.54525591
H      79.73338860      76.33249943      87.07693856
H      80.84265795      79.39196633      87.55881877
C      77.72271981      78.39419083      89.83215953
O      75.86322911      78.57749429      88.43376206
N      77.71516090      78.62662717      92.29825237
H      79.25339812      78.47166961      93.41697034
C      75.27363450      79.05937450      93.61728133
H      73.89791375      77.74034553      92.83682437
C      75.60622633      78.34883740      96.46698861
H      76.94793202      79.61117458      97.39106478
H      76.46227235      76.48178781      96.62761535
C      73.09666979      78.19954902      97.75389223
N      71.86834769      76.07927610      98.20931627
H      72.25196213      74.38419160      97.41752095
C      69.86145834      76.54981795      99.74755349
H      68.47817868      75.16086911     100.32203029
N      69.89925287      79.02913887     100.51667210
H      68.54620883      79.88329517     101.55980103
C      71.88724495      80.08171643      99.19764313
H      72.35022790      82.06970851      99.18630478
C      74.11712200      81.73333723      93.13351140
O      74.82576937      83.60038683      94.42419447
N      72.14802718      81.95443521      91.72188584
H      71.34867295      80.34816784      91.06804054
C      70.91214617      84.44131504      91.41197073
H      72.33133063      85.83215360      90.86772955
C      68.95061026      84.41674859      89.28980808
H      67.06844285      84.30714447      90.11939793
H      69.29265072      82.75756889      88.12195721
C      68.96194862      86.63339756      87.31126463
H      70.86868247      86.97732775      86.61395562
C      67.06844285      86.12506118      85.24957322
H      67.48229292      84.22966569      84.55982311
H      67.11946546      87.38361890      83.61873941
H      65.25619532      86.13073036      86.22656172
C      68.14558685      89.09949040      88.46966686
H      67.48607237      90.34293031      86.96733444
H      69.65358845      90.19553166      89.35027932
H      66.53176058      88.83114926      89.72066567
C      69.65169872      85.33326586      93.92152727
O      68.62368761      83.77991083      95.24433569
N      69.80098710      87.73132855      94.61505683
H      71.26363527      88.74422185      93.92341699
C      68.34211839      88.71398623      96.83359552
H      67.13836273      87.21543326      97.57058878
C      70.08822550      89.99333094      98.87449994
H      68.90336710      90.93441465     100.27289741
H      71.05765510      91.60715721      98.04113063
C      71.90236276      88.02990530      99.98565901
H      72.64691493      86.79591402      98.51356221
C      74.15302680      89.56247334     100.91162490
H      74.89946869      90.56591802      99.27512191
H      75.81220650      88.43808619     101.38405648
H      73.51240958      90.81725162     102.41395732
C      70.75529889      86.49166809     102.06057850
H      69.08478083      85.46176724     101.43885854
H      70.09011523      87.81447650     103.49299104
H      72.05732032      85.17074939     102.95630877
C      66.37113384      90.64717625      95.90951935
O      64.25653010      90.60560227      96.74666811
N      66.80199144      92.33848130      94.01601358
H      68.54053965      92.23454635      93.23555662
C      64.65148290      93.54601641      92.67997708
H      63.28899023      92.03612509      92.35494416
C      63.39670463      95.60392837      94.22010403