 %block lattice_cart
   142.669   0.000   0.000
   0.000 146.65   0.000
   0.000   0.000   162.396
 %endblock lattice_cart

 %block positions_abs
N      95.12898888      41.91869354      82.62474337
H      96.92989804      42.22860866      83.17087428
H      94.77183060      40.24628576      81.77625625
H      94.17467708      41.71271337      84.26313607
C      94.22192025      44.09754798      80.98824038
H      94.57151960      45.80208112      82.08806110
C      95.74314993      43.92180344      78.45789684
H      95.38599164      42.08876892      77.58673301
H      97.77271598      44.06353291      78.78481949
C      94.96458269      46.03451745      76.70801029
H      92.93879607      46.04396609      76.33762393
H      95.82818761      45.68302836      74.87308604
S      95.90377666      49.17902204      77.91743512
C      93.78539346      51.14433741      76.19778417
H      94.29750929      53.13610894      76.29793967
H      91.87865962      51.05741000      76.96690279
H      93.74570922      50.67568529      74.19089483
C      91.37221296      43.90479591      80.75958350
O      90.42168062      41.86011204      80.43833002
N      89.88310863      45.92113388      81.33972947
H      90.50860804      47.71259442      81.55704799
C      87.06363697      45.90223661      81.75924871
H      86.23971629      44.72115766      80.28526220
C      86.02806695      44.78729808      84.19699565
H      86.61010265      42.81442381      84.30471006
H      83.97015500      44.83076180      84.29337170
C      86.84631845      46.05152500      86.80481797
O      88.17668577      47.92802322      86.99568032
N      86.20192177      44.87233577      88.93642925
H      86.94269449      45.50917354      90.57671170
H      85.22493327      43.26039923      88.63029359
C      86.08097929      48.64989868      81.36240618
O      87.56252471      50.43380031      81.19611027
N      83.52606930      49.02784393      81.54948909
H      82.43758696      47.46881972      81.37563427
C      82.18436363      51.53929021      81.40209044
H      82.47160203      52.45202801      79.57661482
C      79.22694194      51.09331479      81.85373503
H      78.38412401      50.06152422      80.28337246
C      78.44270553      49.66468170      84.34439432
H      76.42258810      49.25839054      84.35951212
H      78.84143778      50.54718389      86.16042129
H      79.48016527      47.88644925      84.30659979
C      77.80775748      53.79373370      81.81405077
H      78.86222477      55.11276266      82.99135028
H      76.08243737      53.44980350      82.88930505
C      77.46382729      54.86898797      79.05127090
H      76.86856350      53.36098637      77.78326456
H      79.35166388      54.99559963      78.23490915
H      76.26574081      56.54517520      79.10418325
C      83.40512682      53.43090625      83.39764143
O      83.66590905      55.66078330      82.90253313
N      83.90212485      52.53139651      85.77680686
H      83.44670081      50.69458254      86.03191990
C      84.76761949      54.11120771      87.85928526
H      83.39378847      55.64566549      87.90085923
C      84.84887772      52.66178763      90.42175414
H      86.02050804      53.51594393      91.88440230
H      85.83153541      50.90623189      89.98144790
C      82.29396776      51.93613274      91.58960500
C      80.68392094      53.95247070      92.40218731
H      81.13556553      55.84408674      91.78424680
C      78.28963770      53.34019938      93.57759707
H      77.18225807      54.94646675      94.17097114
C      77.54697526      50.70970036      94.04624920
H      75.81787568      50.28640166      95.04780415
C      79.21371386      48.80296651      93.24500525
H      78.64301651      46.86410730      93.52279501
C      81.59287929      49.36232550      92.04880848
H      82.70592809      47.81274991      91.32315359
C      87.28851439      55.29984556      87.04292349
O      87.90078572      57.58074523      87.17142487
N      88.96659136      53.77672616      85.97333839
H      88.35620976      51.97770671      85.79570411
C      91.51961162      54.44002010      85.09272594
H      92.43801860      55.43779558      86.64419123
C      92.96714196      51.86243340      84.52958750
H      92.16211856      51.04607163      82.81938517
H      92.71580836      50.62466267      86.15664184
C      95.75070883      52.21392249      84.05337645
H      95.93779173      53.56507681      82.50947007
H      96.49904044      50.32230645      83.73590243
C      97.23603371      53.24193362      86.46466723
O      98.99347919      54.81418591      86.30781995
O      96.56896033      52.61454448      88.65108057
C      91.46103010      56.19935529      82.72300913
O      92.92178853      58.03616926      82.76080366
N      89.73570997      55.58519424      80.93721776
H      88.81163380      53.97136797      81.36807536
C      89.12532838      57.12910064      78.70923045
H      90.90923001      57.04406296      77.68121933
C      87.29418358      55.52472299      77.28815626
H      85.62744496      55.35653736      78.48246328
H      88.06897137      53.63877614      76.99524868
C      86.43246837      56.59997728      74.65198806
H      88.04818438      56.32974641      73.40476868
H      86.22648821      58.64844059      74.70301066
S      83.58654055      55.30173530      73.40098923
C      84.18558379      54.89355441      70.05428394
H      84.52762426      56.74359647      69.20957628
H      82.41113079      54.12632552      69.34374683
H      85.69169566      53.53106174      69.71413320
C      88.11621453      59.79928391      79.17221339
O      89.24816058      61.44901499      77.98546527
N      86.34554096      60.26604631      80.92021023
H      85.43091344      58.70324265      81.52681237
C      85.57642236      62.64899120      82.06160492
H      85.03218118      63.89621056      80.51391908
C      83.02907128      62.28049456      83.53370173
H      82.60766233      64.06250649      84.47856488
H      83.34465558      61.00870876      85.12107183
C      80.82376068      61.30539580      81.90853709
H      81.43981146      59.77282776      80.68210471
C      78.79986381      60.29628193      83.69243873
H      77.00840325      59.66511336      82.89497422
H      78.33121167      61.86853423      84.93776837
H      79.54630570      58.92245091      85.03225468
C      79.58787968      63.27638033      80.23801903
H      78.09310615      62.41844458      79.11174216
H      81.00328469      63.90376947      78.87741608
H      78.83198914      64.73335933      81.48145894
C      87.61165759      63.89999002      83.61684968
O      87.86866037      66.29616298      83.56393734
N      89.11587975      62.54127680      85.09083621
H      88.58297692      60.71391146      85.23445540
C      91.39111023      63.47291188      86.33994529
H      90.91489920      65.22846761      87.30748517
C      92.21125144      61.64176707      88.36762163
H      94.10286748      62.36175281      88.75879498
H      92.29250967      59.67267226      87.76668867
C      90.69002177      61.75137120      90.92064188
H      89.15934344      60.37187100      90.86583982
H      90.08908880      63.62975916      91.51401594
C      92.40589325      60.98603205      93.10327578
H      91.72748150      62.00648425      94.75678629
H      94.24648669      61.86475478      92.80091957
N      92.53061519      58.21947273      93.63239914
H      91.06985675      57.48625892      94.62072600
C      93.99704281      56.60186700      92.39084895
N      95.66567115      57.31618355      90.75056652
H      96.65210827      55.94046279      89.86806432
H      96.27794246      59.11709272      90.60316787
N      93.67200988      54.16600978      92.67808736
H      94.74348470      53.17957265      91.44031662
H      92.09219868      53.39500144      93.42263952
C      93.34508723      64.36486269      84.51069022
O      94.61876276      66.18844859      85.06815948
N      93.84208526      63.05528236      82.38852757
H      93.19390913      61.26004235      82.32994607
C      95.64110471      63.86597494      80.46667591
H      97.13020904      64.89776552      81.44744387
C      96.91100078      61.46035335      79.45378261
H      95.56929511      60.14510384      78.60718522
C      98.75537367      62.03671988      77.21445694
H      97.96924752      63.27260089      75.76692657
H      99.06528879      60.36431209      76.05227525
H     100.52037805      62.87764808      77.86641251
C      98.50970925      60.02416135      81.31705275
H      97.52894129      59.47236126      83.04048316
H     100.15377113      61.10508480      81.92743436
C      99.54149982      57.52216371      80.39864576
H     100.75281437      57.69412880      78.74135580
H      97.93145300      56.36754094      79.82983814
H     100.46368625      56.48470397      81.91798572
C      94.49593056      65.81617250      78.59962631
O      95.99259380      67.35629944      77.63964535
N      92.00338154      65.89365127      78.16120981
H      90.83175123      64.44423120      78.56939069
C      90.71647794      68.07250572      76.72123836
H      91.68023836      68.34462630      74.92221892
C      87.91590354      67.38464534      75.84251563
H      86.48349099      68.73768939      76.44722805
H      87.60787815      65.43066834      76.41510270
C      87.43024388      67.16732681      72.93989602
O      88.41857074      68.61674690      71.43189442
O      85.95058816      65.52704438      71.99881231
C      90.72781628      70.63497459      77.99491389
O      91.29851364      72.48123720      76.73824590
N      90.31396623      70.60662870      80.45722729
H      89.99838193      68.98524352      81.41153907
C      90.50860804      73.06516264      81.80649187
H      91.51205271      74.63363548      80.92776913
C      87.77228433      74.11585046      82.25435701
H      87.87243982      75.70133085      83.56582708
H      86.81230336      72.54359817      83.17276399
C      86.36443823      75.01347047      79.77503608
H      84.40101259      75.11929513      80.38919714
H      86.54963141      73.72656685      78.17632762
C      86.91623831      77.79136815      79.18922093
O      89.11965919      78.71544432      79.27614834
O      85.13044694      79.21244233      78.47679410
C      91.78228358      72.84028520      84.32549704
O      93.52272150      74.34072789      84.90753275
N      91.10765127      70.99024314      85.80515275
H      89.65823119      69.92254777      85.17020471
C      92.23770762      70.63497459      88.30337094
H      94.25026614      70.99969178      88.06148597
H      91.95802811      68.63564415      88.70588265
C      91.10009238      72.15620429      90.45198975
O      90.32341486      74.28025665      89.98333763
N      90.96592180      70.99213288      92.72155105
H      91.91645414      69.36696825      93.03524563
C      89.76783532      72.18643990      94.96465620
H      87.86866037      72.70233519      94.36372323
C      89.54862707      70.35718483      97.29468873
H      88.20503167      71.26992264      98.55891563
H      91.43268420      70.39497936      98.12427858
C      88.80407490      67.53015426      96.74855782
H      89.85665245      66.98213363      95.06481168
C      89.61854694      65.53271356      98.71387319
H      88.89289203      66.07884445     100.56202552
H      91.68023836      65.54783137      98.69497594
H      88.77950845      63.70912766      98.25089024
C      85.94491899      67.33362272      96.02101319
H      85.46870795      65.52326493      95.16118772
H      85.34587575      68.71501266      94.61694654
H      84.88100307      67.57361797      97.76901003
C      91.20213760      74.68465808      95.59204533
O      93.31674133      74.79993139      96.66163041
N      89.89255725      76.69721662      94.91741303
H      88.04818438      76.38541176      94.54135749
C      90.57285874      79.24078822      95.82259193
H      92.61187342      79.49212182      95.95298306
C      89.75082778      81.24956729      93.91585808
H      90.25349499      82.99000524      94.89095686
H      87.70992337      81.26846456      93.63050941
C      90.89978139      81.01713097      91.27968988
H      90.79395670      79.10094849      90.53324799
H      92.91045017      81.40641458      91.49700841
C      89.71303325      82.82748876      89.46555261
H      90.10609633      84.55847808      90.51057128
H      87.66834938      82.57237571      89.39185330
N      90.79017726      82.87662166      87.01646731
H      92.30762749      84.01612662      86.79536934
C      89.91334424      81.97900165      84.98312180
N      88.01038985      80.37462401      84.84706151
H      87.31497057      79.95132532      83.12174138
H      87.16190274      79.82093420      86.46466723
N      90.77316971      82.64040586      82.78914955
H      90.09853742      81.47633445      81.43421578
H      92.47959259      83.48133408      82.61340501
C      89.53161954      79.50346018      98.54757727
O      87.32819865      79.42220195      99.09937736
N      91.35898488      79.65274856     100.42407550
H      93.19957830      79.73022735      99.92518777
C      90.72970602      79.76991159     103.29645951
H      88.99115781      78.68520870     103.49677049
C      92.93501663      78.59450183     104.80257137
H      92.17345692      78.40363948     106.70741549
H      94.49593056      79.91731025     105.03878717
C      93.78161402      76.00368706     103.71786848
H      94.76616141      76.26635902     101.92829765
C      95.73181156      75.13441295     105.72097836
H      96.67478500      73.54893258     104.80446111
H      95.04395118      74.35017652     107.49732110
H      97.03194326      76.71800359     105.92128935
C      91.82574727      73.90609084     103.28323142
H      92.80840495      72.25069060     102.55190733
H      90.65411696      74.74323960     101.81113462
H      90.96214235      73.59050655     105.12760430
C      90.32341486      82.54591955     104.15250552
O      90.29506896      83.15063197     106.43718463
N      90.02861756      84.34493900     102.37994224
H      90.27806143      83.94431703     100.52990019
C      89.28784483      86.90929761     102.88638889
H      88.15778850      86.80914211     104.60415011
C      91.68212808      88.58170540     103.21898072
H      92.98037006      87.78424089     104.60792956
H      91.11332046      90.41096046     103.98054043
C      92.82352277      88.89728969     100.45431113
H      91.78228358      89.99522068      99.05591365
H      92.85186867      87.03779900      99.56991921
C      95.48614714      90.10860425     100.55635635
H      96.24203766      90.20687003      98.64206359
H      96.91855968      88.88595133     101.38783592
C      95.85275405      92.63516834     101.85270861
H      97.81806941      93.11326909     102.24955112
H      95.00426694      92.37816556     103.71030957
N      94.75293333      94.57969672     100.25777960
H      95.15355532      94.11671376      98.45120123
H      95.29339506      96.37682643     100.60359950
H      92.86698648      94.44174668     100.52801046
C      87.36410345      87.84660185     100.97209614
O      87.40189797      86.79402430      98.91796363
N      85.97515462      89.93474943     101.40295373
H      86.14145053      90.76622901     103.11126633
C      84.01550843      90.78134682      99.72298704
H      82.79852468      89.17130001      99.32236506
C      82.44136640      92.83358960     101.01367011
H      83.58843028      94.39450354     101.71097912
C      80.52518392      93.92018222      98.93497118
H      79.13812481      92.47265187      98.45687041
H      81.48138543      94.72331592      97.29468873
H      79.63512284      95.59825919      99.72676649
C      80.93903399      92.06825044     103.33425404
H      82.32798282      91.02323179     104.43596447
H      79.45559883      90.78701600     102.69930598
C      80.01306809      94.07702951     105.15595020
H      78.99828507      95.59825919     104.21108703
H      81.63256355      95.10504062     105.90239209
H      78.87167340      93.40617668     106.73387166
C      85.34020656      91.61660585      97.19453323
O      87.32063974      93.07547457      97.24366613
N      84.25928311      90.91929684      95.04591442
H      82.55286025      90.08592753      95.21410006
C      85.01517365      91.70731272      92.58927021
H      86.46081427      93.16429171      92.74989695
C      86.44758619      89.40940552      91.46488306
H      87.83086585      88.71209651      92.82548601
H      87.62866514      90.28245907      90.02113216
C      85.09832160      87.09260105      90.45576920
C      84.45392492      86.93575377      87.91408732
H      85.21737436      88.31903343      86.62529397
C      83.29552269      84.82870894      86.78592070
H      83.16135213      84.94587197      84.75446492
C      82.68892056      82.79158397      88.34305518
O      81.76862383      80.66753159      87.19221187
H      81.76862383      80.88485012      85.39319242
C      82.91001854      83.06748401      91.05103299
H      82.33743146      81.51979816      92.25289893
C      84.17235571      85.22555146      92.18486878
H      84.47660164      85.42019328      94.19364785
C      82.69458973      92.45186488      90.79214049
O      80.57809626      92.38950392      91.70865776
N      83.12544733      92.94886290      88.32982710
H      84.95281267      92.95831154      87.77991674
C      81.22816212      93.57814176      86.46655696
H      79.40646595      93.85971098      87.38874340
C      81.82153618      96.13494146      85.48389927
H      80.31164485      96.52044563      84.13652441
H      83.66590905      95.97620445      84.57494092
C      81.83665398      98.29678836      87.50212699
H      83.52228985      97.99065271      88.64541139
H      80.17558456      97.98309381      88.67753674
C      81.98216292     100.86681616      86.42120352
H      80.51195584     101.17295182      85.00768824
H      83.82086661     100.91405932      85.49523763
C      81.49083408     102.99653771      88.51691001
H      83.19347748     103.06645758      89.67153278
H      80.11133387     102.22552938      89.83593897
N      80.86911412     105.47585864      87.44732491
H      78.99261588     105.68750797      87.16953514
H      81.90468413     105.95206967      85.91475687
H      81.35099432     106.68906293      88.83816348
C      80.84076821      91.47487638      84.47100597
O      82.63222877      90.46009334      83.45622294
N      78.44081580      91.20653524      83.83038876
H      77.08588203      92.06069153      84.86784850
C      77.44681976      89.89506518      81.58728362
H      78.20082056      87.98077242      81.65531377
C      74.58388439      89.81569667      81.99924395
H      73.82988359      91.68841546      81.59295280
H      74.17381378      89.43586168      83.98345658
C      73.20438419      87.71999020      80.62541292
O      73.78075072      85.50712068      81.17721301
O      71.73417711      88.40407111      79.01347639
C      78.06098081      91.25566812      79.08528598
O      79.01718232      93.39294858      79.07394763
N      77.36367180      90.07269945      77.10485280
H      76.26007164      88.54580060      77.40909874
C      77.60744650      90.98354753      74.50458939
H      79.55197487      91.44653049      74.01326056
C      76.76462857      88.99177600      72.58273773
H      77.32587728      89.77034324      70.76104157
C      78.02507601      86.32537218      72.70179049
H      80.01117837      86.58804413      72.22935891
H      77.25217796      85.21232338      71.15032519
H      77.61122595      85.37483983      74.48380241
O      74.24751312      88.58170540      72.71879803
H      73.28753215      89.96498505      72.04227601
C      76.17125449      93.49121436      74.09829824
O      76.78730527      95.06157692      72.53738431
N      74.15680624      93.93341032      75.73480122
H      73.68815413      92.50855667      76.91588017
C      72.35589708      96.10470585      75.42110666
H      72.65636355      96.90217035      73.54649815
C      69.74051585      95.01244403      75.58929231
H      68.51975265      96.54123262      74.94678536
H      69.34934250      94.70252892      77.58673301
C      68.92037464      92.69186013      74.13798250
H      66.90025721      92.28934842      74.20034347
H      69.87846587      91.17818934      75.15465525
C      69.67059599      92.91106838      71.36197454
O      71.68504423      91.97943330      70.42278056
O      68.09645396      94.02978635      69.92578255
C      73.02108073      98.18907397      77.37886312
O      71.26930444      99.83124613      77.88342004
N      75.27552422      98.13427190      78.58639824
H      76.43203673      96.78878678      77.88530977
C      76.19582095      99.49865431      80.90131297
H      75.83677295     101.51310255      80.67454582
H      78.24050482      99.27377688      81.01280682
C      75.06954405      98.82969119      83.43732568
O      75.73472772      99.90494546      85.33839036
N      73.32343694      97.02878201      83.64708530
H      72.80376220      96.08580858      82.07294328
C      71.90047304      96.82091211      86.05837607
H      71.48473325      98.71252816      86.75379537
C      69.39091648      95.45275026      85.64830546
H      68.61801843      94.91984744      87.48133999
H      69.87279670      93.59892876      84.89430466
C      67.49552099      96.93051625      84.00802302
C      66.74718938      95.75321676      81.74602063
H      67.53142579      94.01088910      81.02792463
C      64.86124252      96.97020050      80.16054026
H      64.13558761      96.15383872      78.43899958
C      63.83701085      99.25110015      80.95989448
O      62.03043249     100.46052499      79.52937166
H      61.79799617     102.17072730      80.09062038
C      64.69116715     100.47186336      83.19544072
H      63.84834921     102.18017595      83.92487506
C      66.45617153      99.23220290      84.75068547
H      66.93427228     100.08257973      86.54214602
C      73.33477530      95.39794821      88.08794213
O      74.65002481      93.56113422      87.50401670
N      73.03052937      96.11037502      90.56159388
H      71.80787645      97.51822112      90.97166449
C      74.65002481      95.13905569      92.61005721
H      76.59077375      95.22031394      91.92408656
C      74.63112756      96.69996964      95.03079661
H      75.40780506      95.60392838      96.59171054
H      72.70360672      97.21019574      95.54291244
C      76.31676343      99.04134053      94.87772879
C      75.18859682     101.48853611      95.04402469
H      73.19115611     101.64349366      95.43330831
C      76.57187648     103.68817753      95.04780415
H      75.68748457     105.52499152      95.14606991
C      79.17969878     103.40471859      94.86639042
O      80.73116409     105.35491615      95.05725277
H      79.61433584     106.75142389      95.36905762
C      80.31353458     101.05389905      94.39017940
H      82.35254926     100.94429493      94.33159787
C      78.92269601      98.79567611      94.43742255
H      79.77874203      96.98909775      94.03491084
C      73.92625964      92.37060665      93.13918057
O      71.67370587      91.67329764      93.29224840
N      75.73472772      90.68686050      93.37539637
H      77.50351155      91.30858047      93.02012781
C      75.42670233      88.01478750      93.17508537
H      73.51807876      87.44975934      93.70231902
C      75.84055240      87.18519764      90.45198975
H      77.47516566      88.14517861      89.64696634
C      76.04086338      84.39029243      89.86806432
H      76.43014701      84.07470814      87.87062361
H      74.37412477      83.42275255      90.59371923
H      77.84933147      83.94809647      90.75056652
O      73.89224456      88.06958957      88.88729636
H      74.20026996      89.81758640      88.51502028
C      77.64902047      86.78457567      94.85127261
O      79.62378448      87.99400051      95.40685215
N      77.45059922      84.42052806      95.65440630
H      75.80086815      83.54558477      95.26134322
C      79.36111252      82.96732851      97.04902431
H      81.24327992      83.66841697      96.58793110
C      79.03418987      83.37361967      99.93463639
H      78.32932195      85.28224325     100.27100767
C      77.20304506      81.55003379     101.16484823
H      77.12367657      81.93553796     103.18496565
H      77.69437390      79.56204171     100.95508861
H      75.23395024      81.80136738     100.61304814
C      81.61933545      83.05047648     101.33870305
H      83.16135213      84.02368552     100.38061181
H      82.12011294      81.06059466     101.51822705
C      81.80074919      84.29769584     104.01077605
H      82.05019305      86.33482080     103.85392876
H      83.56575356      83.69676287     104.88382961
H      80.18314347      83.67408615     105.12004539
C      79.33843580      80.14218768      96.33659749
O      77.99295066      79.36362044      94.54324723
N      81.09399154      78.58505320      97.40996203
H      82.61333150      79.40708414      98.23010326
C      81.48327517      75.87518567      96.80335989
H      79.80519820      74.80560057      97.32870381
H      82.96860004      75.12685404      98.02034364
C      82.18247390      75.18165611      94.05191838
O      84.39723313      75.65408769      93.28846895
N      80.57620654      73.90231139      92.52312980
H      79.00395424      73.24279691      93.38106554
C      80.54030173      74.06482786      89.78302664
H      81.92925057      75.51802739      89.33705124
C      81.55319503      71.54582268      88.63218331
H      80.25117360      70.02459300      89.10839434
C      81.46059844      71.87463505      85.68798972
H      79.47071665      72.14864538      85.22878622
H      82.21270953      70.14742520      84.85651015
H      82.58120615      73.49602024      85.08516703
C      84.25550366      70.65576158      89.43153754
H      84.54463179      71.24724592      91.38173511
H      85.77862307      71.63086036      88.44132095
C      84.84131883      67.88164337      89.07437927
H      83.83409470      66.73646921      90.45576920
H      86.84064926      67.61330223      89.49578824
H      84.62777974      67.31661519      87.10339473
C      77.82665474      74.63741493      88.83438403
O      76.22605656      73.01602976      88.95532651
N      77.53941635      77.07327215      88.35250382
H      78.88112204      78.34883741      88.81548677
C      75.28686258      77.94065653      87.21299885
H      74.45538300      76.55737687      85.93176442
H      75.72338937      79.74345543      86.31726858
C      73.02486018      78.46977989      89.06115118
O      70.87624138      78.60772991      88.29581203
N      73.51240957      78.67764978      91.54614129
H      75.26418587      78.14474696      92.09038246
C      71.56977093      78.89307859      93.46421349
H      69.83500217      78.11073189      92.67241818
C      72.20471897      77.28303177      95.76590015
H      73.57477055      78.07671681      97.07925993
H      72.90202798      75.55582191      94.88528768
C      69.93893712      76.75390839      97.43641820
N      68.57833417      74.56182588      97.58003740
H      68.67848967      73.10295716      96.35549475
C      67.00041271      74.48056765      99.49055071
H      66.15948450      72.85918247     100.39950907
N      67.26119493      76.70477551     100.62060704
H      66.54876812      76.95988856     102.37049362
C      69.09611918      78.07293737      99.39417466
H      69.77642065      79.91164106      99.96487201
C      70.94994070      81.72010915      94.00845467
O      72.37101488      83.00701277      95.22543842
N      69.00163287      82.62906750      92.62328528
H      68.45172252      81.35350224      91.31370495
C      67.93960667      85.19909530      92.51368116
H      69.17548769      86.60127221      91.64818651
C      65.51508782      85.40129601      90.76757405
H      64.26030954      83.97455264      91.56503856
H      66.06877764      84.91374662      88.84572239
C      64.13558761      87.92408063      90.87150899
H      63.80110605      88.57792595      92.79714010
C      65.43949876      90.12183233      89.31248478
H      67.38402715      90.48088033      89.88507187
H      64.22251503      91.77912231      89.45988345
H      65.73996526      89.30547057      87.44354546
C      61.48052214      87.49133331      89.96821981
H      61.35768993      87.11338804      87.94621267
H      60.31078155      89.07681368      90.57671170
H      60.80966930      85.78113100      90.89985490
C      67.30087918      86.03624404      95.24622541
O      65.75130361      84.93075415      96.62950507
N      68.30621358      88.30958480      95.95109333
H      69.77831038      88.90673832      94.89473632
C      67.68260391      89.53223772      98.31892039
H      66.94183118      88.14517861      99.65117745
C      70.05798988      90.74733174      99.27134245
H      69.39847539      91.87927780     100.86060228
H      71.13324414      91.89817508      97.94097514
C      71.85322988      88.68941979     100.30880220
H      72.13290936      87.24377917      98.86883075
C      74.43837547      89.86482956     100.66218102
H      75.71960992      88.51934442     101.54468321
H      74.23239531      91.36338252     102.06057850
H      75.23583998      90.33915086      98.82158759
C      71.00663249      87.84471214     102.89961698
H      69.12635481      87.00945311     102.83158683
H      70.96127906      89.43397197     104.20919731
H      72.30298473      86.38395370     103.55913146
C      65.54154399      91.39361815      98.17719092
O      63.68961220      90.80780298      99.38850548
N      65.89492280      93.56680341      96.81280852
H      67.52386689      93.65751027      95.82448166
C      63.97685060      95.46219890      96.46698860
H      62.16082361      94.49087958      96.36872284
C      63.77087043      97.38594029      98.70442456