 %block lattice_cart
   142.669   0.000   0.000
   0.000 146.65   0.000
   0.000   0.000   162.396
 %endblock lattice_cart

 %block positions_abs
N      91.19741328      43.67424929      79.39803570
H      92.68840734      43.60243969      78.20750811
H      89.53256440      43.86322192      78.47962870
H      90.85726254      42.05475384      80.34856803
C      91.30323795      45.88333935      81.09312019
H      92.90761559      45.49027628      82.32333202
C      91.94385517      48.33242465      79.60023641
H      90.36593370      48.77462061      78.35301704
H      93.38949580      48.07353215      78.15648551
C      92.49565526      50.75316406      81.01564142
H      94.13404797      50.37143934      82.20427926
H      91.16339821      51.65078406      82.30632449
S      93.31579648      53.37421446      78.88403014
C      94.36081513      55.94046279      81.06477430
H      96.40360927      55.81007167      81.30287981
H      93.56901980      55.68534974      82.94883144
H      93.78822806      57.72058498      80.20116938
C      88.94485952      45.94570032      82.70505673
O      87.07025101      44.55108230      82.24774297
N      88.76722524      47.59165194      84.55320907
H      90.31680082      48.68391375      84.76485842
C      86.79435097      48.03951707      86.29742646
H      85.23721649      46.69970112      86.12735109
C      87.64283809      47.89400815      89.07532414
H      88.98265404      49.40956865      89.45515912
H      88.62738550      46.11577569      89.41358514
C      85.45453502      48.10943695      90.85166688
O      84.96320617      50.01239134      92.10455542
N      83.83314984      46.29340996      91.04441895
H      82.25144892      46.68269358      92.04030472
H      84.26022799      44.52840558      90.45860380
C      85.48666036      50.59064760      85.83444352
O      86.78301261      52.39344650      85.11445778
N      82.90907367      50.70214145      86.20105041
H      81.95476188      49.09398436      86.58277514
C      81.55602963      53.06240961      85.81554625
H      81.97176942      53.84853576      83.95794528
C      78.68175591      52.65422873      85.84956132
H      78.31703873      51.31252305      84.33022136
C      77.44209545      51.47503951      88.25329319
H      78.43609149      49.81585981      88.95816111
H      75.61661983      50.79662776      87.58433007
H      77.14162896      52.92823905      89.68192629
C      77.20021048      54.95402565      85.09178108
H      77.09627553      56.32407723      86.62812856
H      75.22544648      54.39655639      84.92737489
C      78.09783048      56.58108001      82.80143277
H      79.93275473      57.47114110      83.07733282
H      76.77502206      58.05695626      82.24207379
H      78.12995583      55.36031681      81.14036336
C      82.26845645      55.36598599      87.53897665
O      82.90718395      57.37287533      86.72828406
N      82.57837157      54.77261193      90.06554073
H      82.27034618      52.96414385      90.59655383
C      83.66496420      56.70958140      91.84944237
H      82.41396538      58.34041521      91.70960261
C      83.73677380      55.81196140      94.65001677
H      84.54179721      57.29350683      95.83298543
H      84.95375754      54.15467142      94.79741542
C      81.23099671      54.83119344      95.69503542
C      80.81336719      52.22148140      95.93503066
H      82.20231603      50.79095859      95.49283469
C      78.40396614      51.35598675      96.80619449
H      77.95421128      49.36421522      96.86099655
C      76.64085149      53.24949252      97.49027541
H      74.75112518      52.80162738      98.12144400
C      77.18320294      55.82707921      97.35610485
H      75.87929179      57.18579243      98.14601045
C      79.49055877      56.67556632      96.52084582
H      79.93086500      58.66922758      96.56619925
C      86.25577897      57.48625891      90.99150662
O      86.80379960      59.69912842      90.68915042
N      87.93763539      55.71936481      90.56253874
H      87.36693804      53.97514742      91.08977239
C      90.60025977      56.39210738      89.87278864
H      91.28245096      57.74515142      91.26929639
C      92.20841686      54.06774401      90.16002705
H      94.20018839      54.57797012      90.05420236
H      91.87393530      52.60887530      88.74273231
C      92.02889286      52.93768768      92.73005482
H      93.39138553      51.43913471      93.10422064
H      90.20908642      52.03628823      93.06831584
C      92.53911896      54.97481264      94.91268872
O      94.61214873      55.98770595      95.09599218
O      90.65128238      55.50015656      96.14101082
C      91.13316259      57.51460481      87.20449509
O      93.32524511      58.18923710      86.49017855
N      89.04879446      57.52972262      85.59633799
H      87.36315859      57.06862940      86.36356688
C      89.07147118      59.00370914      83.19638558
H      91.05001463      59.25504274      82.68426974
C      87.76944975      57.53161234      81.08556128
H      85.81925219      57.01949651      81.50508052
H      88.65006221      55.68912919      80.81344069
C      87.84314908      59.09063655      78.61379928
H      87.56346958      57.75837950      77.06800315
H      89.71964730      59.75204076      78.07900672
S      85.43752748      61.59263419      78.27553826
C      82.41585510      59.88999078      77.89192381
H      80.85683090      61.23547592      77.99396904
H      82.17585986      58.31584876      79.19772470
H      82.65585035      59.11331327      75.99841806
C      88.31369093      61.72491503      83.72172950
O      89.80279526      63.45779406      83.44016027
N      85.97609948      62.06317604      84.63635702
H      84.90462466      60.54005663      85.04831737
C      84.88383767      64.52926888      85.34878384
H      84.70809312      65.57239781      83.58000003
C      82.31947906      64.33651680      86.68482035
H      81.79791460      66.09018282      87.62968351
H      82.48010580      62.94000905      88.19093222
C      80.03857940      63.62220025      84.98595640
H      80.46565755      62.09908084      83.66692744
C      77.81059208      62.48647474      86.36923606
H      76.92053099      63.84896741      87.63157324
H      78.30570037      60.72147036      87.31031977
H      76.28747267      61.95546164      85.08422216
C      79.04269364      65.90121018      83.41748356
H      79.44142589      67.67566319      84.38691316
H      77.03580429      65.73491427      82.99040541
H      80.12172736      66.16577187      81.68271481
C      86.73199000      65.99191705      87.13079577
O      86.80379960      68.28415506      86.63001829
N      88.17763063      64.73146960      88.68981998
H      88.01133472      62.83040493      88.70493778
C      90.11271038      65.85963621      90.42080927
H      89.12627324      67.10496585      91.73038960
C      91.63016061      63.83195987      92.01951773
H      92.62982583      62.62631448      90.68159151
H      90.10704120      62.94945768      93.08721311
C      93.37248827      65.00170046      94.03396598
H      92.17440178      66.09396227      95.30575180
H      94.79734191      66.28482463      93.27996518
C      94.85025424      63.04394400      95.52684978
H      96.02944346      63.97935852      96.93091643
H      96.16928321      62.20301579      94.18892354
N      93.34225265      61.08807726      96.76084106
H      93.93184726      59.28149891      96.57375814
C      91.42795989      61.33752114      98.36332896
N      91.37693728      63.39165364      99.71637300
H      90.41695631      63.18378375     101.35098627
H      92.67706898      64.72769014      99.30819213
N      89.72153703      59.58385512      98.84520918
H      88.45731013      59.83707845     100.25116556
H      89.69886031      58.02861036      97.73593983
C      91.92306819      67.56038989      89.07154469
O      92.68462789      69.41799085      90.10522497
N      92.55234705      66.94055966      86.68104091
H      91.94574490      65.25492378      86.01774697
C      94.20585757      68.57517292      85.05776599
H      94.64427408      70.29293414      86.10656411
C      96.84391550      67.13520147      84.76485842
H      98.14026775      68.26147835      83.62724318
C      98.31979175      66.84985279      87.23284098
H     100.21140779      66.36230340      86.57899568
H      97.41083340      65.49869848      88.49517816
H      98.49742603      68.66965923      88.17770415
C      96.62092780      64.53871751      83.42693218
H      95.11481593      63.29905705      84.09778504
H      98.38971163      63.49936804      83.60645618
C      96.38849146      64.83351482      80.56966601
H      96.54155929      63.03449537      79.57755968
H      97.87192662      66.02971157      79.78920903
H      94.64616380      65.70467865      79.90826180
C      93.06635260      69.45200593      82.51041493
O      94.30979252      71.04126576      81.19138596
N      90.81568857      68.64131334      81.67326617
H      90.24121177      67.00670008      82.47262041
C      89.58169728      69.63341965      79.50763982
H      90.82702692      70.10585123      77.93916698
C      87.70708878      67.59818441      78.37758349
H      86.14428512      67.52637481      79.71928917
H      88.72943072      65.84640812      78.01664575
C      86.55624546      68.34084685      76.06455847
O      87.76944975      67.54338235      74.16916298
O      84.47187733      69.50302854      76.05133038
C      87.83559017      71.98045973      80.20494883
O      87.89984086      73.86829632      78.92182465
N      86.43152352      71.70833914      82.27041969
H      86.44097215      70.12285877      83.33244588
C      85.27312129      74.01191552      83.53653632
H      84.50967186      75.20244310      82.04176281
C      83.17363536      73.13886196      85.35067358
H      83.96543068      72.07116660      86.92481559
H      81.67319266      71.98423919      84.54187072
C      82.00767422      75.44054861      86.68293062
H      83.58559569      76.43832411      87.55031501
H      80.62439456      74.64875329      87.98495205
C      80.83037473      77.28681122      84.83099884
O      79.32237313      76.54225905      83.24551847
O      81.31792412      79.62440267      84.94060296
C      87.26111337      75.45377670      84.98595640
O      87.90362032      77.65719758      84.52864263
N      88.54234781      74.13852718      86.80387312
H      88.21920461      72.25635977      86.83599845
C      90.65506183      75.23078899      88.29297745
H      91.82858187      76.45911109      87.12701632
H      91.94952435      73.84561960      89.09233167
C      89.84247951      76.82760773      90.67970177
O      87.72598604      77.75357362      90.67970177
N      91.56590991      77.13752284      92.51273631
H      93.28745058      76.33249943      92.35210957
C      90.78923240      78.25057164      95.00339559
H      88.77289442      77.88207501      95.21315521
C      92.30857235      76.68776798      97.05374864
H      94.34002814      77.02224954      97.00839520
H      92.04590040      74.66009164      96.79674585
C      91.61882225      77.12996394      99.82597714
H      92.11204082      79.04236696     100.40801283
C      88.94296979      76.70099606     100.53273477
H      88.44975122      74.70922453     100.71414850
H      87.71653741      77.67231539      99.19291881
H      88.81257867      77.37751808     102.47348369
C      93.13438275      75.38007737     101.75538769
H      95.10536730      75.97534116     101.64200412
H      92.83202654      73.38830584     101.32264038
H      92.43518402      75.67487467     103.66968046
C      91.34859139      81.02846932      95.51551142
O      93.44807732      81.91853041      95.03363121
N      89.54390276      82.23411471      96.75139243
H      87.83747990      81.50279062      97.19169865
C      89.90295076      84.64918494      98.04774468
H      91.84747913      85.32192750      97.97782480
C      88.34959573      86.66741264      96.80430476
H      88.45919985      88.48532935      97.77184464
H      86.36916255      86.09860502      96.84965820
C      89.29067943      87.22677163      94.08687833
H      88.01511417      88.49855743      93.08910282
H      88.83147594      85.45609807      93.14012544
C      92.07991547      88.04124367      93.50106317
H      93.39327526      86.65229483      94.26829204
H      92.72431214      89.72121036      94.50072839
N      92.41250730      88.51178552      90.78174700
H      90.93663105      88.98232737      89.67058793
C      94.57813365      88.29824645      89.55720435
N      96.65116342      88.18864232      90.83465933
H      98.37837327      88.53068278      90.10333526
H      96.60580999      87.92597036      92.72438564
N      94.64238435      88.50044716      87.09678068
H      96.36203529      88.61005129      86.27663947
H      93.09091905      88.19998068      86.02530587
C      89.11871434      84.37706435     100.71414850
O      87.45764491      82.97677715     101.63633495
N      90.39805905      85.77168237     102.34120286
H      91.39394482      87.18141819     101.53051027
C      90.22231450      86.08915639     105.11721082
H      89.23587737      84.53013218     106.03561780
C      92.82824709      85.83026388     106.27561304
H      92.58069294      86.26112148     108.27683321
H      93.93751643      87.31558876     105.38177250
C      94.19262949      83.31314843     106.01294108
H      94.28900553      83.05803538     103.97203667
C      96.94218127      83.28291281     106.99559876
H      97.81901428      84.97988704     106.22836989
H      97.78310948      81.48956254     106.42868087
H      96.86659222      83.44353955     109.04784154
C      92.74320940      81.02091041     107.28850635
H      92.53156006      81.38940705     109.30484431
H      93.74098490      79.23322932     107.05984946
H      90.84781391      80.75256928     106.52694664
C      88.87871909      88.56469786     105.90522669
O      87.07025101      88.56847731     107.43023582
N      89.30201779      90.70386804     104.56352100
H      90.49065564      90.59426392     103.07441667
C      87.89795114      93.01122387     104.92634845
H      86.95686743      92.89406084     106.75560352
C      89.71775758      95.19763721     105.06240874
H      90.94230023      95.08803309     103.40889823
H      90.54545770      95.08614336     106.94457616
C      88.63683413      97.91506365     104.55407236
H      87.15906815      98.27411165     105.94491093
H      87.86015661      98.14372054     102.66056660
C      90.61726730      99.98620369     104.53517511
H      89.47398288     101.64160394     104.09297915
H      92.01755450      99.58369199     103.07630640
C      91.83425105     100.06746192     107.21669675
H      92.49376553      98.13616163     107.49448652
H      90.32058027     100.52099624     108.53572571
N      93.97153151     101.79089232     107.25638100
H      93.41784170     103.59558095     106.96914259
H      95.26410431     101.40349843     105.90711640
H      94.67828915     101.75687725     109.02894428
C      85.97609948      93.37783078     102.76072210
O      86.50333312      92.67296286     100.59320602
N      83.61583131      94.15828774     103.36543452
H      83.35693881      94.23009734     105.25516083
C      81.50878647      94.66851385     101.65334248
H      80.83793363      92.78445671     101.15445474
C      79.43575671      95.85337225     103.39378041
H      79.43008753      94.75355153     105.13421835
C      80.27857464      98.60859321     104.39344564
H      80.85683090      99.88415847     102.88166458
H      82.04168929      98.34214180     105.42334648
H      78.93497924      99.56479472     105.62743692
C      76.86761865      95.83258526     102.16356859
H      76.66730766      94.04301444     101.16201363
H      76.68242547      97.39538892     100.83698071
C      74.80214779      96.22942778     104.21581135
H      72.96911327      95.76455511     103.40133932
H      74.72277928      98.14561026     104.97170189
H      74.71144093      94.84992757     105.74459995
C      82.07759409      96.14061064      99.21937499
O      83.73488407      97.78845199      99.17780101
N      80.85872062      95.54723658      97.14823494
H      79.55669919      94.15639802      97.24272127
C      81.28201932      96.80957376      94.60844278
H      82.18719822      98.61993157      94.99205722
C      83.29268811      95.27889545      93.06453638
H      84.92919110      94.83103031      94.23427698
H      84.15440331      96.57524770      91.71527180
C      82.57837157      92.80146425      91.97794375
C      82.03224066      92.56146901      89.34366528
H      81.80358378      94.28678913      88.28163908
C      81.70531801      90.18797276      88.20038086
H      81.45776386      89.98199259      86.18593261
C      82.02090230      87.88628611      89.62712423
O      81.83759885      85.56570220      88.63123846
H      82.61049691      84.32226228      89.70082355
C      82.48199553      88.11683272      92.30675614
H      82.61049691      86.39907150      93.40279740
C      82.89017641      90.54324131      93.37823096
H      83.40985114      90.69063996      95.34543604
C      78.83293401      97.11381970      93.00973432
O      76.75234534      96.39194424      93.86389062
N      79.22977654      98.39127468      90.93103538
H      80.97777338      98.99976656      90.46616271
C      77.12840088      99.05267889      89.19626663
H      75.39174240      98.10970546      89.77263315
C      76.58982888     101.79278205      89.65169067
H      76.29314185     102.14427114      91.65858001
H      74.89285465     102.40316365      88.65391517
C      78.66096892     103.63148575      88.76729875
H      78.83293401     103.52566108      86.71694571
H      80.46376782     103.08724457      89.60066805
C      77.91074757     106.35836082      89.49862284
H      78.73466825     106.84213076      91.32409845
H      75.85661507     106.42261151      89.62712423
C      78.87450799     108.34635290      87.65047050
H      78.33782572     107.57912402      85.81554625
H      80.91919186     108.14415218      87.81298697
N      78.23767023     111.12047113      88.03597466
H      78.94253814     112.06533428      86.53553197
H      79.18064366     111.62880751      89.61578587
H      76.35550282     111.42849652      87.99062124
C      77.66319343      98.64827746      86.33900044
O      79.81181225      98.65961582      85.69271403
N      75.71110615      98.11726437      84.90280843
H      73.98578602      98.09269793      85.71728049
C      75.79425410      97.28578479      82.22695599
H      77.68775987      97.35381494      81.41626340
C      75.02135604      94.47765149      82.08144705
H      73.15241672      94.41529052      82.94505197
H      76.37628981      93.42885339      83.22851092
C      75.25568210      93.13405608      79.57944941
O      77.44020572      92.35737857      79.04276714
O      73.56059760      93.44586092      78.06388892
C      74.36184156      99.23787207      80.62446807
O      72.71211049     100.48320171      81.59200793
N      74.87395739      99.50054403      78.14703687
H      75.96432947      98.17395616      77.30988812
C      73.64941474     101.44318268      76.45762154
H      73.61917912     103.36503434      77.20217372
C      75.27646909     101.66428066      73.95751363
H      74.11239769     102.59780546      72.53832918
C      77.68964960     103.18551034      73.91782939
H      78.95387650     102.35781021      75.31622685
H      77.34949886     105.14515653      74.45073220
H      78.54947507     103.03244251      72.04889006
O      75.97188838      99.37960155      72.95973815
H      76.45376859      99.50432348      71.21552076
C      70.80726636     100.93862575      75.84535023
O      69.67909975     102.62048217      74.76820623
N      69.50335521      98.97331039      76.77509557
H      70.54648413      97.96797599      78.01664575
C      66.82561302      98.86937544      76.96217848
H      65.85051424      99.76132626      75.38425700
C      66.03570742      95.95541747      77.10957713
H      64.09684823      96.09147776      77.79554778
H      66.92765824      94.95008307      78.66860134
C      65.80516081      94.38883435      74.75308842
H      65.09651345      92.54635120      75.34646247
H      67.64197479      93.80868837      74.02932324
C      63.97590574      95.46030917      72.83123676
O      62.04838490      96.50910728      73.59846563
O      64.54282364      95.32991806      70.51821175
C      65.84106561     100.31123662      79.30921856
O      63.52048170     100.57768803      79.62291312
N      67.56638574     101.28633539      80.95139072
H      69.42209698     101.00854563      80.60179136
C      67.07505690     102.66016642      83.25307736
H      65.33083951     103.72786179      83.00174377
H      68.59817630     104.01510019      83.55354386
C      66.87663563     100.96508192      85.49996196
O      65.78815328     101.73986971      87.43693142
N      67.61740835      98.56701923      85.25051808
H      68.69833180      97.90939447      83.82377471
C      67.01458565      96.51288673      86.98528683
H      65.26469909      97.03067174      87.93770890
C      66.71222944      94.02600690      85.57555100
H      66.47034448      92.61060189      87.04953753
H      68.50746944      93.74821713      84.60234195
C      64.49558048      93.56113423      83.88802541
C      64.15542974      91.16874072      82.76363826
H      65.51981214      89.69286446      83.12457597
C      62.13153286      90.65851461      81.12713527
H      62.11830478      88.76311912      80.37502419
C      60.41377164      92.66729368      80.58478381
O      58.55239122      92.43863680      78.83300752
H      57.29383350      93.65940000      79.30165965
C      60.72935594      95.00866458      81.72239905
H      59.26670777      96.36548808      81.29532090
C      62.78915762      95.50566260      83.32488697
H      62.92899736      97.40294782      84.05621106
C      69.02525445      96.40517233      89.06209605
O      71.19466026      96.90217035      88.41391993
N      68.37329887      95.46219890      91.27496557
H      66.62530203      94.80646387      91.66424919
C      70.29704026      95.23354201      93.30264191
H      72.15464122      95.89494622      92.71115757
C      69.62429769      96.81713266      95.65913061
H      70.64852935      96.00832980      97.25216989
H      67.58150355      96.71697717      95.89912585
C      70.39341630      99.60447898      95.42102510
C      68.81738456     101.30145321      94.21915917
H      66.99379866     100.63815927      93.58421112
C      69.51280384     103.81856865      94.06987079
H      68.25613584     105.16783324      93.19303778
C      71.82015967     104.72941674      95.21693466
O      72.64785979     107.14448697      95.21126548
H      71.35906645     108.25186658      94.57631744
C      73.62484830     102.87181577      95.99928134
H      75.50512598     103.39526996      96.59643487
C      72.82171461     100.27722154      96.14668001
H      74.13318467      98.92417750      96.93280615
C      70.94521638      92.47076214      93.98294338
O      69.31060312      90.93063520      94.62356060
N      73.32060236      91.68652572      93.98861256
H      74.65285941      93.04523894      93.82042691
C      74.17286893      89.06925478      94.31742494
H      72.71966939      87.74077718      94.92213736
C      75.31426362      87.75967445      91.98739239
H      76.70888164      86.25923175      92.21982872
C      73.30548455      86.42552767      90.45482435
H      73.16564480      84.47155066      91.08788266
H      73.84027710      86.24789340      88.47250145
H      71.41197878      87.22866135      90.57198738
O      76.50857065      89.56625280      90.57954629
H      78.22255242      89.78735078      91.13323610
C      76.29125212      88.91618695      96.45848485
O      77.50067696      90.87205368      97.09532262
N      76.78258097      86.65607428      97.53373912
H      75.68842943      85.15374186      97.10855070
C      78.94253814      86.21954750      99.29496404
H      80.50723153      87.40440590      98.66568518
C      78.54191616      87.14740312     102.14845078
H      77.76334892      89.04846779     101.99538295
C      76.56526244      85.33704531     103.44480302
H      75.88118151      86.21765778     105.17579233
H      77.48744888      83.53991559     103.84353528
H      74.91742109      85.10838843     102.22781928
C      80.99667064      87.33448603     103.68668799
H      82.37995030      88.45131428     102.64355907
H      81.99444614      85.62428371     104.25738533
C      80.65840963      88.73288350     106.30395893
H      82.35727359      88.93886367     107.45291253
H      79.40174164      87.54235592     107.42078718
H      79.95921090      90.63205844     105.92601368
C      79.72110538      83.35472241      99.08898387
O      78.51734972      82.01868591      97.49405486
N      81.37839536      82.27757841     100.56297040
H      82.58593047      83.37928885     101.54562807
C      81.71098719      79.44865812     100.50438888
H      79.76645881      78.78158473     100.64044918
H      83.02056752      78.88551968     101.99160348
C      82.90151477      78.54158949      98.13656180
O      84.57392255      79.84739037      97.12744795
N      82.23255165      76.15864461      97.38256102
H      81.12895149      75.19866364      98.60710366
C      82.37995030      75.13252322      94.94481407
H      83.80291422      76.17376242      93.87900842
C      83.26245249      72.41131733      95.05441819
H      81.69208993      71.16409797      95.51929087
C      83.99755603      71.58739666      92.45604452
H      82.34026605      71.89920150      91.27496557
H      84.49644377      69.61452239      92.12912187
H      85.51689598      72.70611464      91.63023412
C      85.65106655      71.74802340      96.54730199
H      85.24666512      72.52470091      98.41246186
H      87.23465720      72.83839548      95.80841899
C      86.26144815      68.89453666      96.93658561
H      87.85637716      68.65832087      98.21782004
H      86.97009552      68.11407970      95.16591204
H      84.58337119      67.84006938      97.49972405
C      79.82693006      75.48779177      93.78074265
O      78.05436677      74.16498335      94.35144001
N      79.47355124      77.53625509      92.38234519
H      80.98722201      78.60961964      91.93070060
C      77.18887212      78.11829080      90.88946139
H      77.05092210      76.61595838      89.48539475
H      77.51957423      79.93998696      89.98995168
C      74.71899983      78.37718330      92.14234995
O      72.81793516      77.70255101      91.08221348
N      74.70199229      79.22000124      94.49883866
H      76.46132749      79.62818212      95.11488943
C      72.42676181      79.09527930      96.19392317
H      71.29859520      77.43043042      95.75928611
C      73.34894825      79.03669779      98.93402631
H      74.71711011      80.52769185      99.31764075
H      74.17475865      77.16208928      99.14567566
C      71.06048969      79.05181560     100.62911082
N      69.25202161      77.10350777     100.87855468
H      69.24635243      75.57660891      99.73149082
C      67.20733774      77.99545859     101.98026513
H      65.60484982      76.76713648     102.29018025
N      67.63441588      80.45966170     102.60765427
H      66.31349719      81.49901117     103.51283317
C      69.96444843      81.10783782     101.76294660
H      70.79592801      82.93709290     102.11632542
C      70.98868009      81.46121665      95.66479980
O      71.75590897      83.45109845      96.42258005
N      68.75124414      81.30814881      94.54608181
H      68.06149403      79.57715951      94.12845230
C      67.38308228      83.55881285      93.65224127
H      68.51313862      85.17074940      93.04374940
C      65.97712591      82.88984974      91.21827378
H      64.77714970      81.22500086      91.39023887
H      67.56827546      82.49867639      89.97294414
C      64.13653248      85.02901992      90.29419762
H      62.44144798      85.30114051      91.43181286
C      65.63697517      87.52912784      89.58932970
H      67.38875146      87.12094695      88.58777475
H      66.16042936      88.67619171      91.21638406
H      64.39164553      88.85949516      88.62745901
C      63.18411042      84.21076843      87.65047050
H      61.94822941      85.60727618      86.77174777
H      61.91421433      82.62339833      87.98495205
H      64.84329012      83.86116906      86.47695046
C      65.65587243      84.32604174      95.85566216
O      64.16109892      82.86150384      96.74383352
N      66.23034923      86.57859550      96.90257053
H      67.69866658      87.47810523      96.07864985
C      64.92643808      87.76534363      98.96048248
H      64.46156540      86.32159272     100.35510050
C      66.79537740      89.63617268     100.32864434
H      66.01869989      90.62260981     101.96325760
H      67.26025007      90.89662013      98.76584068
C      69.47122986      88.60816156     101.33964792
H      70.31593752      87.20976409     100.08675937
C      71.25135205      90.86260505     101.70814454
H      71.14552737      92.22509772     100.16612787
H      73.09383520      90.05947137     102.16167886
H      70.75057457      91.99266139     103.35409617
C      68.95911403      87.48755386     103.93991132
H      68.35629134      88.94075339     105.26838892
H      70.75246430      86.68253045     104.55407236
H      67.57961382      85.96254472     103.80952020
C      62.56428019      89.22043289      98.20459195
O      60.53660385      88.80280337      99.26283869
N      62.79860625      91.09693112      96.50572800
H      64.45400650      91.45975857      95.62889499
C      60.52148604      92.40651145      95.71393267
H      58.92466731      91.12527701      95.50228333
C      59.60685851      94.45875423      97.49972405