 %block lattice_cart
   142.669   0.000   0.000
   0.000 146.65   0.000
   0.000   0.000   162.396
 %endblock lattice_cart

 %block positions_abs
N      88.72848586      45.12177965      77.62830700
H      88.51683651      46.31608667      76.15432048
H      87.61354732      43.59299106      77.37319394
H      90.52561558      44.50572887      77.80594127
C      87.74582816      46.27829215      79.90731693
H      87.96314669      44.94414537      81.46067195
C      89.18013043      48.72170827      80.39108687
H      91.18135060      48.24171779      80.30604919
H      88.59620501      49.34342823      82.26758510
C      88.70013995      50.87032709      78.67710510
H      89.63933393      52.62210338      79.21945655
H      86.71781705      51.34275867      78.98702022
S      89.23304278      50.41868250      75.42299639
C      92.61376316      50.87032709      75.22457513
H      93.60020028      50.13711328      76.87619593
H      93.12020981      52.85453972      75.00536687
H      93.22792420      49.79318309      73.57673379
C      84.81864210      46.79229771      79.89408884
O      83.63567344      47.79574238      78.16309954
N      83.68669604      46.19703392      82.14664262
H      84.98115857      45.85688318      83.50535582
C      80.93336480      46.69025248      82.50002143
H      80.03574482      46.06097362      80.75958350
C      80.10944414      45.12177965      84.85839986
H      80.88801137      46.09876815      86.49490286
H      80.71037710      43.17536154      84.54659503
C      77.22572178      44.90068167      85.05304168
O      75.87645720      44.67013506      83.20677908
N      76.28085862      44.87800495      87.33394134
H      74.39869121      45.11422074      87.53614205
H      77.26729577      44.79674672      88.96477515
C      80.51573529      49.53995976      82.69088378
O      82.28451913      51.08386616      83.00079890
N      78.16680548      50.29585029      82.79103928
H      76.91580666      48.88044528      82.52458787
C      77.38823824      52.90934178      82.89119478
H      78.21593837      53.75215972      81.20366918
C      74.48561863      53.26461033      82.25813646
H      74.13601927      52.68257462      80.31549782
C      72.73384233      51.71125530      84.03069974
H      72.91147661      52.37265951      85.97333839
H      72.92092524      49.66090225      84.04014838
H      70.75151943      52.02306014      83.56771679
C      73.92625965      56.17856830      81.94066245
H      74.07365830      57.01382733      83.81716067
H      71.93070866      56.32029778      81.45689250
C      75.60244688      57.49948700      80.07172311
H      74.80498237      59.21724821      79.26103054
H      75.68181538      56.45068889      78.29915983
H      77.42225331      58.03427954      80.86918762
C      78.31609386      54.17734814      85.37051571
O      79.33843581      56.25037790      85.39886159
N      78.02507601      52.79028902      87.47189137
H      77.23517041      51.05740999      87.35094888
C      78.88301175      53.80129260      89.87184378
H      77.95893559      55.56629698      90.39718769
C      78.28774798      51.76416764      91.88440230
H      79.35922279      52.17045879      93.59460461
H      78.99828506      50.00672216      91.08504808
C      75.55898317      51.57897446      92.65730036
C      74.43837548      49.22248574      92.75556613
H      75.36056191      47.63700537      91.86739477
C      72.11968128      48.99382886      93.76656970
H      71.19560511      47.18725051      93.54169228
C      70.97261742      50.99882848      94.97032538
H      69.03375821      50.88922435      95.59582477
C      72.25763131      53.33075075      95.13095211
H      71.62835245      54.87654687      96.30636187
C      74.61978919      53.60665079      93.93664508
H      75.70449210      55.33575037      93.99522660
C      81.82153617      54.31151871      89.93042530
O      82.56986779      56.10297925      91.28724879
N      83.53173848      53.16823429      88.40352644
H      83.08198362      51.60165117      87.41519958
C      86.20381149      53.98648578      88.22778188
H      86.51939579      55.22236679      89.84538760
C      88.06141247      51.75282928      88.32604765
H      88.04251519      50.77584077      86.51380011
H      87.45858976      50.41490305      89.77357801
C      90.82041288      52.55029378      88.96855460
H      90.74293411      53.60098161      90.73733843
H      91.39677941      53.63121723      87.31504408
C      92.70258028      50.17868726      89.15941695
O      91.89944660      48.08487050      90.12506710
O      94.97781077      50.36199071      88.46966685
C      86.62522046      55.61542986      85.89774934
O      88.24660565      57.25382257      86.09806033
N      85.05485789      55.47936957      83.86818329
H      83.74149811      54.09231045      83.87007300
C      85.31186067      56.90422321      81.56082745
H      87.16190273      56.62832317      80.70100199
C      83.55819465      56.14266350      79.42921617
H      81.68925533      56.85320060      79.92054502
H      83.35221449      54.09420018      79.38575246
C      84.37266669      57.18012325      76.83462194
H      86.16034779      56.28061352      76.33762393
H      84.21770915      59.20590986      77.16721377
S      82.32798282      56.58674919      74.10207770
C      83.67535768      53.62365833      73.15343508
H      82.73805343      53.05485071      71.41110742
H      83.26906653      52.20825332      74.59529627
H      85.73137991      53.68035012      73.01926452
C      85.06619625      59.78605583      82.14097344
O      86.56285949      61.26382181      81.21311782
N      83.25961790      60.60808678      83.70944628
H      82.07853895      59.33252152      84.49746215
C      82.97426923      63.29527760      84.41809364
H      82.97426923      64.39509831      82.67576598
C      80.54219147      63.52582421      85.79948357
H      80.34565992      65.39665326      86.64230151
H      80.47227159      62.03294042      87.21677831
C      78.24050481      63.42377899      83.85117575
H      78.51829458      61.77971709      82.64364063
C      75.77063252      63.06095153      85.12674100
H      75.55898317      61.38476429      86.30970967
H      74.27207955      62.97402412      83.71700517
H      75.25284751      64.60674766      86.38718846
C      78.35010893      65.74436290      82.06349465
H      76.42825727      66.19978694      81.47956923
H      79.38189950      65.29460804      80.33817452
H      79.27040565      67.35818917      82.95544548
C      85.10588051      64.38187023      86.09995005
O      85.34776548      66.67788770      86.46655696
N      86.83498008      62.70190353      87.00134950
H      86.51183688      60.82351558      87.07126938
C      89.27461675      63.31417486      88.17864900
H      88.84186942      65.00736964      89.27091081
C      89.84153464      61.54728076      90.40096714
H      91.34008762      62.31261991      91.59149473
H      90.60309435      59.79928392      89.62239990
C      87.64378294      60.68367583      92.03369068
H      86.30396699      59.53850169      90.96977476
H      86.80474446      62.37120143      92.86328054
C      88.51116733      59.08685710      94.19175812
H      89.93791069      60.11108876      95.26701241
H      89.56563460      57.67523154      93.12217304
N      86.30585672      58.19301655      95.65062685
H      84.78462703      57.47681028      94.74733767
C      85.88444775      58.56907209      98.02034364
N      87.51717129      59.63676746      99.63605963
H      86.90112050      59.69912842     101.44263799
H      89.19146879      60.37376072      99.09748763
N      83.69236523      58.03050009      99.02378832
H      83.59787891      58.30262068     100.90973517
H      82.38845407      56.86642868      98.25844915
C      91.47047874      63.94156400      86.46844669
O      93.19768858      64.97713402      87.48511944
N      91.31741089      63.22913718      84.06093537
H      89.80185040      62.14443427      83.65464420
C      92.97281114      63.78849616      81.80460215
H      94.48459219      64.90154496      82.65497898
C      94.18979489      61.41877937      80.49502182
H      95.26126971      62.03483015      78.84718046
C      96.02282942      59.91833668      82.06727410
H      96.80517611      58.33474603      81.00713765
H      94.89277309      58.91867146      83.46567158
H      97.48547758      61.04272383      82.98757081
C      92.15455965      59.58574484      79.32528122
H      91.22859376      60.71391145      77.87208170
H      90.60309435      59.11142354      80.59328758
C      92.77438988      57.05162186      78.07428241
H      91.41567666      56.46958615      76.63809040
H      93.25815982      55.67968056      79.52937166
H      94.45813603      57.66011373      77.05760964
C      91.79740139      65.61397178      79.90353747
O      93.14666597      66.91221376      78.55238316
N      89.35209554      65.76892934      79.89030940
H      88.33164333      64.65588054      81.06004999
C      87.91401380      67.51314673      78.21790160
H      88.97037081      67.92510706      76.49636093
C      85.42524425      66.06183692      77.66610153
H      84.19692215      66.03160130      79.32150178
H      85.89200666      64.12486745      77.14642679
C      84.08920776      67.36952753      75.57606422
O      84.96982021      67.27882067      73.38020225
O      82.08798758      68.57706264      75.89731769
C      87.41701579      70.25891906      79.26669970
O      87.15812329      72.12407893      77.99491391
N      87.68913638      70.64442323      81.80082269
H      88.37888648      69.20634150      82.84773107
C      86.79340611      72.93099207      83.19355099
H      86.89734105      74.57316423      81.95578025
C      83.96070636      72.56060571      83.81338121
H      83.51662067      71.14142125      85.23823486
H      82.85143702      72.12785838      82.13341453
C      82.63033903      75.03236773      84.71856012
H      83.44670080      75.69566166      86.49112340
H      80.70659765      74.38608133      85.07571839
C      82.82498084      77.20744271      82.71356051
O      81.20359568      77.33216465      81.03737326
O      84.66368456      78.67576006      82.88174614
C      88.32597415      73.32594487      85.53492189
O      89.53728872      75.28370133      85.95066168
N      88.75305230      71.36818841      87.05048240
H      87.70425418      69.79215666      86.81804605
C      90.37632720      71.53259460      89.32949233
H      92.29439940      72.06927687      88.79847924
H      90.68435258      69.67877308      90.17608972
C      89.27083731      73.28248116      91.33827140
O      87.02584244      73.85695796      91.14551932
N      90.83364097      73.99112853      93.29413813
H      92.68179329      73.51680722      93.25445387
C      89.77350450      74.89630743      95.59393506
H      87.72315145      75.07205198      95.52023573
C      90.27617170      72.84973384      97.58381687
H      92.24526651      72.26580841      97.72743607
H      89.38800034      71.08661919      96.99800170
C      89.56563460      73.56971956     100.31258166
H      90.56907927      75.26858352     100.89839681
C      86.67624308      74.12907855     100.39383989
H      85.43469289      72.59084133      99.80802474
H      86.18491423      75.84306032      99.36204933
H      86.28884919      74.27080802     102.41017786
C      90.08152990      71.28315072     102.01711479
H      91.90889524      70.50080403     101.48421197
H      88.69069133      69.76381077     101.94719491
H      90.10042715      71.85573780     103.99565825
C      90.93190673      77.42665097      96.26856734
O      93.27516735      77.79892705      96.15518377
N      89.40689760      79.31070810      97.02823733
H      87.54173773      78.94599092      96.87327977
C      90.11554496      81.56326187      98.31703067
H      92.02794799      81.38184814      99.06158283
C      90.14389085      83.92730948      96.53312904
H      89.57319351      85.48633369      97.75011278
H      88.64533789      83.69109369      95.13851102
C      92.81974331      84.43753559      95.40874188
H      93.50193452      82.60639079      94.75300685
H      94.08774967      85.09893980      96.89028731
C      92.83297140      86.59749276      93.48311077
H      94.80395594      87.09449078      93.14296002
H      91.91078496      88.24722383      94.29569308
N      91.48748627      85.93230910      91.16630631
H      91.60086984      84.08982595      90.68253637
C      90.22514909      87.43275179      89.56759784
N      90.28751005      89.89695491      89.71121704
H      89.22548387      90.92496602      88.50557165
H      91.10576156      90.85882560      91.14740903
N      88.87021533      86.30080573      87.86495444
H      87.89133709      87.29291205      86.56293301
H      88.58108719      84.41863832      88.01424282
C      88.24471592      81.96388384     100.59037143
O      86.08286901      81.20799332     100.52612074
N      89.24438113      83.14307306     102.63127585
H      91.07552594      83.67786561     102.55001762
C      88.09353780      83.16197033     105.16917829
H      86.54585196      81.80514683     105.25610570
C      90.35931965      82.28135786     107.02488953
H      89.75460723      82.52513256     108.97697681
H      91.72748151      83.79502864     106.73576139
C      91.43646365      79.55826225     106.61670863
H      92.59864534      79.90219244     104.94997002
C      93.31674134      78.77402583     108.78044526
H      92.41534189      78.53592031     110.61725924
H      94.50348947      80.40485964     109.19240561
H      94.45435657      77.19421463     108.10581298
C      89.45414075      77.56838044     106.40694901
H      88.07842000      78.07104764     104.95941867
H      88.56596939      77.33027492     108.24943217
H      90.54829229      75.96022335     105.73231673
C      87.24316097      85.86049950     106.09136473
O      86.19625260      85.95498582     108.22675546
N      87.81574804      87.93730872     104.62115766
H      88.85131807      87.82959432     103.02055947
C      86.42113002      90.27301044     104.77233576
H      84.96982021      89.89317545     106.18207159
C      88.29573853      92.20620046     105.88727429
H      89.40500787      91.41440513     107.43118067
H      87.11654930      93.81057810     106.41450792
C      89.85098328      93.18885814     103.53267530
H      88.40156319      93.85026235     102.22687441
H      90.99993688      91.60715722     102.88260944
C      91.52717053      95.51133178     104.40950831
H      93.02005431      94.68930084     105.56791053
H      90.48404159      96.87193473     105.55090300
C      92.65911658      96.64894702     102.09081412
H      91.17001224      96.44107713     100.68296802
H      94.41278261      95.63416399     101.72420721
N      93.15800432      99.40794744     102.39128061
H      94.15955927      99.76132626     103.97676098
H      91.51205271     100.36036950     102.54434844
H      94.20869215     100.16383796     100.98910367
C      84.96982021      90.83992834     102.32136073
O      85.67846758      89.94230834     100.28045631
N      82.92702606      92.29501760     102.58025324
H      82.70970755      93.15295334     104.26966855
C      81.16391142      92.97342934     100.53178990
H      80.19637154      91.21220442     100.08014533
C      79.11355837      94.94630361     101.59759555
H      80.23038662      96.57146824     102.19852852
C      77.16714027      95.74943730      99.57369866
H      75.99362023      97.30657178     100.23699260
H      76.03708393      94.10159595      99.06914174
H      77.88334654      96.73587443      97.91451896
C      77.57532115      93.78412193     103.83314178
H      78.98127752      92.85437659     105.01800017
H      76.38101412      92.30257650     103.04512591
C      75.87267775      95.48865507     105.38460708
H      76.96682927      97.12326833     105.99687841
H      75.25473723      94.26978159     106.92662375
H      74.28152818      95.89116677     104.14116716
C      82.48671984      94.16395692      98.37561218
O      84.03440568      95.66062016      98.91229445
N      82.11822320      93.29090336      96.09849198
H      80.69714903      92.02289701      95.93975497
C      83.42969326      93.97687402      93.68720120
H      84.32353381      95.83069553      93.72877519
C      85.50461277      91.87549836      93.37161690
H      86.68569170      91.81691684      95.05914250
H      86.73293487      92.84492795      92.03369068
C      84.65045646      89.26389659      92.76501477
C      83.90968376      88.72721432      90.22522260
H      83.77740291      90.18986248      88.80792786
C      82.91568772      86.43875575      89.46744234
H      82.46026367      86.02112624      87.52291397
C      82.61711096      84.51123491      91.22866728
O      81.45681899      82.23033525      90.77513296
H      81.03352030      82.26435033      89.01201830
C      83.50717205      85.09705007      93.65885531
H      83.27473571      83.66652725      95.09693703
C      84.46904274      87.38172918      94.53379859
H      84.95848186      87.63117306      96.49911395
C      81.70059369      94.09025759      91.35149949
O      79.46315773      93.42696366      91.36094811
N      82.50750682      95.28078517      89.37862521
H      84.18936324      96.13494146      89.67720196
C      80.99572577      96.03856542      87.20355023
H      79.06064603      96.39950315      87.81204209
C      81.86122042      98.51977607      86.02058155
H      80.73116409      98.61993157      84.29904088
H      83.83409469      98.56890896      85.43098695
C      81.47949571     100.78177847      87.72889414
H      82.77206852     100.48509144      89.30681562
H      79.50473171     100.88382369      88.30148121
C      82.09743622     103.15716444      86.05270690
H      80.70659765     103.34046790      84.54659503
H      84.07408994     103.09858293      85.47634038
C      81.98027319     105.52877097      87.91030786
H      83.58843027     105.55522713      89.19721148
H      80.29652704     105.36247505      89.08193818
N      81.89712522     108.00620216      86.59316863
H      81.69681423     109.38570237      87.89330032
H      80.37778527     108.24808713      85.46689174
H      83.59787891     108.58256869      85.94688222
C      80.88801137      93.85215208      85.54437053
O      82.81931167      93.06035675      84.40864500
N      78.69214940      92.89784029      85.00390880
H      77.16336082      93.65751027      85.85995481
C      78.28018907      91.60715722      82.62285365
H      79.15702208      89.74199735      82.59450775
C      75.41158452      91.22732223      82.51135978
H      74.61978919      93.12082800      82.35640224
H      74.83521799      90.26545154      84.23856964
C      74.44404465      89.86482956      80.23423958
O      74.05098157      87.51212030      80.44399920
O      74.26263092      91.07803385      78.13853310
C      79.24394949      93.18696842      80.24746767
O      79.70315297      95.47920643      80.47612455
N      79.36489196      91.95675659      78.10640776
H      78.41058019      90.32970223      77.83050771
C      80.26062224      92.91295810      75.68944780
H      81.95003757      94.04301444      76.02203963
C      81.28107445      91.02701124      73.78649341
H      81.71004233      92.04179427      72.04605546
C      83.56575356      89.31302947      74.30994759
H      83.70748303      88.78957529      76.29793967
H      85.34965520      90.28056935      73.94712014
H      83.66968852      87.86738885      72.84729943
O      79.29308237      89.49255347      73.06083849
H      79.38567896      89.01445272      71.31095194
C      78.44459525      94.87827347      74.20601265
O      79.35733306      96.36170862      72.55439184
N      76.18448258      95.11259953      75.18867033
H      75.44748932      93.70286370      76.24313761
C      74.42514739      97.12515805      74.71623874
H      75.30575984      98.42717948      73.38776114
C      71.85700932      96.15194900      73.81861874
H      70.51530365      97.69585540      73.57862350
H      71.07088318      94.81969195      75.17922169
C      71.97795181      94.63827822      71.31851083
H      73.35367256      93.10948964      71.44890195
H      72.45416284      95.92140239      69.77838390
C      69.57610967      93.18318896      70.54750250
O      68.75218899      91.68841545      72.17833631
O      68.19471973      94.12049321      68.91477896
C      74.11901172      98.77488912      77.19366994
O      72.23873405     100.13738180      77.33917886
N      75.93692843      98.74654323      79.01536610
H      77.50351156      97.66184033      78.91332089
C      75.88212637     100.57390857      81.09028561
H      75.75551472     102.47119379      80.29660055
H      77.63957184     100.25454483      82.11073781
C      73.72216919     100.35847977      82.99701946
O      72.89635880     102.23875746      84.04203811
N      72.59211287      98.17206643      83.23323525
H      73.09289033      96.70185936      82.12018645
C      70.88569001      97.55790538      85.23445541
H      69.72917750      99.20385700      85.68610000
C      68.98840479      95.64928180      84.01558194
H      67.52008743      95.48676534      85.45177394
H      69.84634053      93.79168084      83.76991752
C      67.69961143      96.45619494      81.50602539
C      67.72984707      94.83103031      79.46512098
H      68.58022390      92.98098825      79.61251963
C      66.52042223      95.43385300      77.19933912
H      66.76986609      94.14694938      75.63464574
C      65.31099737      97.87537940      76.97068223
O      63.71228892      98.50276853      75.00536687
H      62.81844838     100.06557220      75.22268539
C      65.29021040      99.63660432      79.03048392
H      64.51353287     101.51877173      79.10796269
C      66.54120921      98.91283914      81.31705276
H      66.92104420     100.28100100      82.78159066
C      72.28219774      96.39005452      87.54748041
O      74.23050557      95.27322627      87.17142487
N      71.19182566      96.58658605      89.70365813
H      69.41737265      97.24421081      89.95121228
C      72.48439846      95.95730719      92.04880850
H      74.52719260      95.94974829      91.76534955
C      71.89669358      97.81301843      94.26923690
H      72.47117037      96.93996487      96.04368992
H      69.84445080      97.91695338      94.42986364
C      73.06265471     100.39816403      94.21443484
C      71.61512436     102.57890819      93.58326625
H      69.66303707     102.37670748      93.02957645
C      72.75084988     105.02421404      93.58137654
H      71.74173602     106.70796019      93.02012781
C      75.22828107     105.30767299      94.35427459
O      76.36022714     107.69817677      94.28246499
H      75.23017079     108.97752149      93.66641422
C      76.76651829     103.17039253      94.90985412
H      78.74695146     103.24031240      95.40307270
C      75.59488797     100.76099148      94.90040550
H      76.54731003      99.10370150      95.61472204
C      72.34833817      93.15106362      92.92375177
O      70.31310294      92.04179427      93.21665936
N      74.56120768      91.80935793      93.14862921
H      76.15613670      92.71831629      92.62328528
C      74.83143854      89.06358560      93.32059430
H      73.02297047      88.23588548      93.85538684
C      75.80275787      88.11494299      90.67686719
H      77.70382254      88.80658282      90.29325275
C      75.91047226      85.18586721      90.29325275
H      77.15013273      84.24478350      91.64440706
H      76.50195661      84.63406712      88.40163671
H      74.03964321      84.45454312      90.74867679
O      74.41380902      88.88595133      88.65486003
H      74.29286654      90.69252968      88.57549153
C      76.80998200      88.23210602      95.44464668
O      78.45782334      89.71365145      96.03235156
N      76.50951552      85.95120636      96.50667286
H      74.92214540      84.98177677      96.06825636
C      78.33499113      84.80603222      98.19419846
H      80.15668729      85.57704055      97.62350111
C      78.07420889      85.68475495     100.91540435
H      77.91358216      87.73321828     100.82091804
C      75.80653732      84.57359588     102.20041824
H      74.06420966      84.48666847     101.10437699
H      75.30953931      85.80569744     103.77267054
H      76.36022714      82.69142847     102.83158683
C      80.56675791      85.46176725     102.25144085
H      81.85555125      86.74300169     101.28579070
H      81.43225255      83.59471765     102.31947100
C      80.27385032      86.25734203     104.93107276
H      79.45370911      84.54147053     105.72664755
H      79.30253100      88.04502312     105.25421597
H      82.11633348      86.46332219     105.83058250
C      78.49750760      81.96955302      97.64617782
O      77.09155121      80.84138641      96.22510365
N      80.32676267      80.69398776      98.92174309
H      81.57965120      81.56137214     100.06880696
C      80.29085786      77.99167913      98.89150747
H      78.26696098      77.64207977      99.03512666
H      81.11288880      77.42287151     100.69052692
C      81.37745049      76.73690086      96.53501875
O      82.97615896      77.71577909      95.16307745
N      80.54408118      74.58261286      95.91140907
H      79.16836043      73.85884769      97.01878869
C      80.82942986      73.52058668      93.43397787
H      82.39412325      74.41820668      92.43998183
C      81.21871348      70.69733557      93.43775734
H      79.46126802      69.87341489      94.12750743
C      81.43225255      69.76759022      90.65608020
H      81.43981146      67.70967826      90.68820555
H      83.25205899      70.41387662      89.93609448
H      79.72016052      70.26836769      89.62617936
C      83.59976864      69.79593611      94.91174385
H      84.34998998      71.33795279      96.05313854
H      85.22115381      69.41421140      93.70042928
C      82.94781305      67.51125700      96.67107905
H      81.30375116      68.10274134      97.76145114
H      84.65423592      67.15409873      97.76901003
H      82.35443899      65.83318004      95.63361930
C      78.39735210      74.29348474      91.86739477
O      76.49061824      72.97445577      91.97888862
N      78.36711648      76.53092069      90.69576446
H      80.08298797      77.36240027      90.66930828
C      76.16369559      77.48712221      89.21232930
H      75.74228662      75.96589253      87.88574143
H      76.58132511      79.32582591      88.38651889
C      73.67681577      77.89908254      90.59371923
O      71.58488873      78.01435585      89.44476563
N      73.52563766      78.30726343      93.11083468
H      75.17347901      78.60017101      94.03113140
C      71.23528937      79.19543479      94.34671569
H      69.62902200      78.21088739      93.51523610
C      71.29765034      78.22789492      96.99044279
H      72.50140600      79.65085884      97.86349635
H      72.03653332      76.33627888      97.34193190
C      68.63124652      78.22222574      98.15451420
N      66.91348530      76.22478503      98.15262449
H      67.21017233      74.55804642      97.27012229
C      64.84801443      76.99768309      99.22598903
H      63.37591764      75.62385206      99.56047059
N      65.10501722      79.37306907     100.01211518
H      64.08267527      80.45966170     101.19886329
C      67.49741072      80.26124044      99.27323218
H      68.31755194      82.02813454      99.88550351
C      70.73640162      82.02624481      94.15396361
O      71.73228740      83.58148957      95.59582477
N      69.27375345      82.57237572      92.25289894
H      68.65770269      81.20232414      91.07370971
C      67.96795257      85.07248363      92.07148521
H      69.37768841      86.55213933      91.81637215
C      66.34656739      85.07059390      89.72066568
H      64.65715207      83.90085331      89.84727734
H      67.61457375      84.42808696      88.22967162
C      65.63036113      87.72754910      88.77391278
H      64.84801443      89.03334998      90.16097190
C      67.88669434      89.08815204      87.66464344
H      69.30398908      89.44342059      89.11595325
H      67.39347577      90.92118657      86.86339949
H      68.51597320      88.00533887      86.03003019
C      63.77087044      87.37983946      86.47978504
H      61.96429208      86.72410443      87.22244749
H      64.41904657      86.13073036      84.97556291
H      63.31922585      89.25255823      85.75413015
C      66.35601603      85.86616868      94.38828967
O      65.55666181      84.17864308      95.79802550
N      66.23696328      88.36060741      94.92497194
H      67.25930521      89.65129048      93.96121152
C      64.88580896      89.60593705      97.07170104
H      63.90882045      88.24155466      98.26600806
C      67.04198668      90.81347217      98.76867526
H      66.25586053      91.96809494     100.28234604
H      68.04354163      92.35359911      97.83892991
C      68.92982326      88.88217188      99.93085695
H      69.88980423      87.57637099      98.65718141
C      70.99718386      90.32592278     101.21965029
H      72.30865391      91.01189343      99.78723774
H      72.14235800      89.26200686     102.56135597
H      70.29420566      92.03234564     102.13616755
C      67.78464913      87.37606000     102.03034288
H      69.20383358      86.25923175     103.02433892
H      66.31822150      86.17608380     101.22342973
H      67.20450315      88.49477798     103.65928695
C      63.07356142      91.62794421      96.13817624
O      60.81911793      91.19708661      96.39328928
N      64.05054992      93.74821713      95.09693703
H      65.90815090      93.80679865      94.65852053
C      62.59168121      95.79290100      94.16719169
H      60.82856657      94.85748648      93.65507585
C      62.17594143      97.85459241      96.13628651