 %block lattice_cart
   142.669   0.000   0.000
   0.000 146.65   0.000
   0.000   0.000   162.396
 %endblock lattice_cart

 %block positions_abs
N      91.25788452      43.54385817      83.90597780
H      90.50010427      41.84499422      83.47323048
H      90.74576869      44.09376853      85.66153356
H      93.12871356      43.21315607      84.10250934
C      90.32624945      45.55074752      82.23545974
H      90.96119748      47.41023821      82.85340025
C      91.06891189      45.10288238      79.49724632
H      90.31680082      43.41913624      78.58261878
H      93.11737521      44.99894743      79.68810867
C      90.45286110      47.45181219      77.97601664
H      88.41762587      47.57842385      77.70200633
H      91.15961875      47.28929572      76.04849580
S      91.69063184      50.38655715      79.34228877
C      89.99365762      52.63533146      77.36374531
H      90.59459057      52.55218351      75.39654022
H      90.62671592      54.48159407      78.02514952
H      87.94708402      52.47092527      77.54326932
C      87.44063737      45.45248175      82.38852758
O      86.16507211      43.84810411      81.20744863
N      86.37294200      47.13055871      83.95133125
H      87.31402571      48.54785345      84.81682589
C      83.54024226      47.14378680      84.37651966
H      82.54435649      46.00050238      82.98190164
C      83.04702368      45.85499345      87.03725432
H      84.04857863      44.05597400      87.01646733
H      81.03068570      45.46570983      87.20166049
C      83.83692928      47.35732587      89.28791835
O      83.70842789      49.70814540      89.18398340
N      84.84982258      46.21404145      91.23433646
H      85.39028432      47.27795737      92.72155105
H      84.67029858      44.32053569      91.39307346
C      82.47254688      49.84609543      84.17620867
O      83.93330533      51.53551075      83.78503532
N      79.95921089      50.10687766      84.25746691
H      78.82915456      48.57808907      84.40864501
C      78.64396138      52.50871980      84.08928127
H      79.20521009      53.29106649      82.26947483
C      75.69787806      52.20069441      84.15542168
H      75.31804306      50.78150995      82.71167077
C      74.69821284      50.89111408      86.50624121
H      74.77758135      52.07975193      88.18620791
H      75.94354248      49.34153850      87.04481322
H      72.80092762      50.09364957      86.40419600
C      74.25034770      54.71969959      83.64141613
H      74.37129019      56.02361074      85.23256568
H      72.23023027      54.36632077      83.83416820
C      74.56215255      56.05951554      81.10729314
H      74.06515452      54.80662700      79.54826894
H      76.49912201      56.58485946      80.64619992
H      73.35083798      57.72247470      80.97879176
C      79.54725056      54.51938860      85.98467676
O      80.05180748      56.54706493      85.00768826
N      80.15574242      53.98081660      88.43376205
H      79.79858416      52.33675471      89.33705123
C      81.23666587      55.89888881      90.06270614
H      79.87984239      57.42011849      89.76790883
C      81.17997408      54.81607563      92.72722024
H      81.72799472      56.54328548      93.70798820
H      82.61427637      53.35531719      92.94642849
C      78.69309426      54.06774401      93.83082040
C      76.85439056      55.90266826      94.50167325
H      77.33627077      57.86420417      94.19553759
C      74.53947582      55.08441677      95.54480218
H      73.18265234      56.49415259      96.12872760
C      74.03869836      52.47848418      95.61094260
H      72.26613508      51.98148616      96.49155505
C      75.78858492      50.64355993      94.77568357
H      75.17820332      48.70092128      94.93064111
C      78.05814622      51.44480389      93.73066492
H      79.38473409      50.12766465      92.91052369
C      83.99755603      56.49415259      89.18776285
O      84.38683965      58.87142830      89.06493065
N      85.59815421      54.66489752      88.54147646
H      84.90084520      52.89233424      88.62462441
C      88.17574090      55.20535925      87.67031263
H      89.18107529      56.22959091      89.14618888
C      89.49665959      52.71281024      87.23000640
H      91.45252633      52.88477534      86.60450699
H      88.48565602      51.33331003      86.08105280
C      89.93696583      51.33897921      89.70176842
H      88.11715939      51.02717437      90.61450622
H      91.11993450      52.41045403      91.00190012
C      90.87427007      48.57619934      89.48256015
O      91.77377979      47.60110057      91.42897827
O      90.93285159      47.37622313      87.34338998
C      88.37227243      56.77572182      85.32894172
O      89.81602333      58.59552825      85.26280131
N      86.69986465      56.10864843      83.48645856
H      85.70586861      54.50616051      83.78692506
C      86.45608995      57.34263971      81.20933837
H      88.22865323      57.35019861      80.16054026
C      84.37172184      56.02739020      79.70322648
H      82.64640171      56.65855878      80.63297184
H      84.40762663      53.96947824      79.74857993
C      84.04857863      57.14232872      77.07272746
H      85.69830970      56.59619782      75.96534784
H      84.17896975      59.16433588      77.43933437
S      81.13084120      56.23714982      75.43244502
C      81.09871586      58.34986383      72.73958502
H      82.13050643      57.66200346      71.09363340
H      81.60327279      60.28116413      73.24981113
H      79.19954092      58.44623988      71.94778970
C      85.62838982      60.06384560      81.67043158
O      86.69797492      61.90632876      80.78414994
N      83.58937513      60.64966076      83.13307975
H      82.57081265      59.20779958      83.86251411
C      82.64829144      63.31606458      83.65653393
H      82.42908318      64.29683254      81.86129393
C      80.20298559      63.14032004      85.12674100
H      79.80614306      64.88831688      86.14152404
H      80.49778289      61.75515065      86.62151453
C      77.92964484      62.24458977      83.56960653
H      78.27546475      60.37942989      82.76836256
C      75.62795818      62.00081507      85.22311705
H      73.93098396      61.65310543      84.11006825
H      75.37851430      63.58251599      86.51946931
H      75.83204862      60.48336484      86.60072754
C      77.34382968      63.97368934      81.22067671
H      77.47233107      65.95601224      81.76869734
H      75.48622871      63.46913242      80.48935263
H      78.68742509      63.53149338      79.72401347
C      84.62305543      64.97335456      84.96800400
O      84.88005820      67.21834942      84.30093060
N      86.16318238      63.91888728      86.61962479
H      85.87783371      62.08396303      87.06560021
C      88.14739501      65.46468340      87.80637291
H      87.35748941      67.19000353      88.60950661
C      89.24343626      63.80172425      89.86806433
H      90.25632957      62.21813360      89.03091557
H      87.80157508      62.83040492      90.97544394
C      91.02733790      65.13587102      91.87873312
H      89.92562747      66.49080479      92.97477438
H      92.48053744      66.16010269      90.84127337
C      92.52967032      63.54661119      93.72688546
H      93.61815268      64.92422168      94.80591918
H      93.68240338      62.12175755      92.78580175
N      90.87993925      62.29561238      95.56180971
H      90.40561795      63.16866593      97.19075380
C      90.11837954      59.98258737      95.55047136
N      90.97442557      58.29884122      94.05380812
H      90.69663580      56.42990190      94.31836979
H      92.57691349      58.67111731      93.09004770
N      88.66895947      59.10575436      97.23232777
H      88.36849299      57.22736640      97.08870856
H      88.24188133      60.09975040      98.80458007
C      90.20530695      66.11474925      85.99034593
O      91.51110784      67.88920226      86.42498298
N      90.71742280      64.61997574      83.96266959
H      89.81980280      62.95701659      83.69243873
C      92.33502852      65.39665326      81.69877747
H      94.05467945      66.33584723      82.33750496
C      93.22131015      63.05528235      80.19077587
H      91.59047634      61.97813836      79.54071003
C      94.61403845      63.97557907      77.85885361
H      96.04834072      65.35696900      78.38230780
H      93.35737045      64.72013124      76.40565408
H      95.59291667      62.31073019      77.14453707
C      95.08835975      61.63609789      81.91231655
H      94.51766240      61.50192732      83.88708055
H      96.97052715      62.45434939      81.71011584
C      95.28111184      58.94890708      81.05816025
H      93.47264376      58.00593365      81.35862674
H      96.68328877      57.92845487      82.16931933
H      95.80456602      58.79017007      79.07205791
C      91.00277147      67.30527683      80.03770804
O      92.15361479      68.90398529      78.84340102
N      88.46108958      67.02748706      79.66921142
H      87.60693328      65.46468340      80.35329234
C      86.98143386      68.45423043      77.83806662
H      87.98676827      68.59029072      76.04471635
C      84.38117046      67.18055489      77.12752952
H      82.86749968      67.38464534      78.51080918
H      84.55313555      65.12831212      77.04627129
C      83.32103401      68.19722765      74.65009832
O      83.95220259      67.38464534      72.54494321
O      81.46154331      69.71278815      74.72946684
C      86.64506259      71.18488495      78.76592224
O      87.12694280      72.89697699      77.33161996
N      85.85137753      71.60440419      81.07327807
H      85.63972819      70.02648272      82.12396589
C      85.05580276      73.99301825      82.23357003
H      84.86494040      75.46511505      80.80493694
C      82.41774482      73.94199564      83.26158114
H      82.21176465      75.14764103      84.91887112
H      82.17963931      72.12596866      84.20266484
C      80.37684040      74.45222175      81.38130345
H      78.56648259      74.28214638      82.34695361
H      80.55636440      73.14831059      79.79582307
C      80.50345207      77.15453037      80.47612456
O      79.75512045      78.82504844      81.88586039
O      81.35571864      77.67420511      78.27270368
C      86.83970439      75.10984650      84.23667991
O      86.53356874      77.24901669      85.20233007
N      88.55179643      73.35240103      85.00579852
H      88.42140532      71.74046449      83.99101549
C      90.41128713      73.69066204      87.08827693
H      91.63394005      75.29126023      86.65930904
H      91.84369967      72.21289607      87.19032215
C      89.31524587      73.96656208      89.79436501
O      87.07403045      74.49757518      90.13073629
N      90.74387895      73.49413051      91.89385093
H      92.50888334      72.79493177      91.71432694
C      89.94641446      74.10829156      94.48088626
H      87.89039222      74.21222651      94.58293148
C      90.95930775      72.06549741      96.28179543
H      92.94918956      72.00313645      95.75267207
H      90.29790354      70.19655809      95.72054672
C      90.28089601      72.27903649      99.12583353
H      91.08969887      74.07238676      99.73999459
C      87.47843189      72.34706663      99.50188908
H      87.05513319      72.34139746     101.51633732
H      86.60537833      70.65009241      98.72521155
H      86.54112764      73.92120865      98.56269510
C      91.58669690      70.11529986     100.63005567
H      91.29000987      70.64631295     102.59726077
H      93.55768144      70.22301426     100.04046107
H      90.55490633      68.49202496      99.89117269
C      90.88749816      76.64808372      95.41063160
O      93.14005193      76.98445501      95.75078233
N      89.18485476      78.61906827      95.58259670
H      87.34804078      78.33560932      95.13662128
C      89.77444936      81.10594810      96.66918932
H      91.81913324      81.27224401      96.87327977
C      88.49888410      83.19031622      95.10071648
H      87.96976074      84.80414249      96.26478790
H      86.65640095      82.48166885      94.51301161
C      90.05601859      83.84038207      92.75556614
H      90.40183850      82.12829003      91.66897350
H      91.83614076      84.61139041      93.44909570
C      88.81068895      85.76790291      90.86206036
H      88.64628276      87.56692236      91.85038722
H      86.93985989      84.91941579      90.70332336
N      90.29790354      85.68664468      88.52068947
H      91.97409079      86.57859550      88.29959149
C      90.06357748      83.87817660      86.79158989
N      88.13227720      82.36072637      86.87095840
H      88.08314431      80.65430351      86.01491237
H      87.00411059      82.28513731      88.41108533
N      91.71708801      83.69865260      84.87162796
H      91.62260170      82.36261609      83.50913529
H      93.34414236      84.69075891      84.80359781
C      88.63116495      81.27980292      99.30724727
O      86.44097215      80.53147130      99.63228019
N      89.99743706      82.15852565     101.28768043
H      91.63582978      83.06559428     100.91918380
C      88.95997732      82.13395921     103.96353289
H      87.19686266      81.06815357     103.99943770
C      90.91206460      81.03035904     105.68507357
H      90.14105627      81.12106591     107.59180742
H      92.62604637      82.17175374     105.70586055
C      91.79078734      78.33182987     104.91028578
H      93.02288890      78.46789016     103.26622388
C      93.59547597      77.25090642     106.86048333
H      95.10158784      78.59450183     107.27244366
H      94.47986787      75.48023286     106.29167571
H      92.62604637      76.92776322     108.65005415
C      89.62894044      76.31171244     104.66273164
H      88.44408204      76.85784334     103.06969234
H      88.51400191      76.35895560     106.39561066
H      90.36404397      74.41253749     104.36037543
C      88.31747037      84.77768632     104.87627070
O      87.11938389      84.99122539     106.82835798
N      88.91651361      86.65040510     103.34370266
H      89.84814868      86.21198859     101.73554558
C      88.25510940      89.35460345     103.74054520
H      87.48221134      89.76845351     105.60381534
C      90.75899677      90.82858998     103.37960746
H      91.63582978      90.25411318     101.60704419
H      91.96086270      90.19175221     104.92540358
C      90.62860566      93.74254795     103.48165269
H      89.12816297      94.23954597     104.80257137
H      90.12215901      94.17907473     101.53523459
C      93.26099441      94.87449401     104.19785895
H      94.52144186      93.76333494     103.00733138
H      93.67862392      94.45875422     106.17073322
C      93.27989168      97.77522390     103.76133218
H      91.41284208      98.47064319     104.29234528
H      93.67106501      98.02844723     101.75822228
N      95.36048034      99.14905493     105.10492759
H      94.75576793     100.95752301     105.14083239
H      97.09146965      99.16984192     104.29801445
H      95.60425504      98.78433775     106.96441828
C      86.21420499      90.09726589     101.79790654
O      86.46931804      89.32625756      99.60771375
N      84.21298483      91.42952294     102.45175184
H      84.26589716      91.97565385     104.28100692
C      82.33837632      92.48210050     100.71509337
H      81.35949808      90.80024408     100.04613025
C      80.49778289      94.24899460     102.15128537
H      81.67130293      95.54912631     103.23787799
C      79.01623747      96.04045515     100.34659673
H      77.88240167      94.93874471      99.02756776
H      80.00645404      97.27822588      99.02945750
H      77.83326879      97.22720327     101.54279349
C      78.94064841      92.93941427     104.19407950
H      80.27668492      91.80368875     105.27500295
H      77.71421604      91.70542298     103.08858961
C      77.14729813      94.38127544     105.99876814
H      78.04491814      95.77400374     107.22142106
H      75.82448971      93.03579031     106.82457854
H      75.97188836      95.41684546     104.66273164
C      83.49299910      93.70475342      98.46820877
O      85.15595826      95.33747696      98.44931152
N      82.41018591      92.95075263      96.28935434
H      80.82092608      91.89817507      96.38950984
C      83.15851754      93.67073835      93.76090053
H      84.22432318      95.42251464      93.95743207
C      84.88194793      91.61471612      92.72910996
H      86.39183926      91.25566812      94.08215401
H      85.75500150      92.14572922      90.94331859
C      83.98432793      89.09004177      92.36061334
C      83.21331961      88.19053204      90.02302188
H      83.67630254      89.39050825      88.43754151
C      82.30247152      85.65262960      89.63373827
H      82.01334340      85.05358636      87.70432769
C      81.99444612      83.99533963      91.68220159
O      81.18564326      81.63696119      91.43275772
H      81.10438504      81.14941180      89.68665061
C      82.70498323      84.80225276      94.11805881
H      82.47821606      83.41519365      95.59582478
C      83.68008201      87.35905247      94.43742256
H      84.29991224      88.09982518      96.23644200
C      80.80013910      93.94852812      92.15463317
O      78.62506412      93.63105410      93.09004770
N      81.13462066      94.56835835      89.84349789
H      82.88072777      94.98220841      89.18965259
C      79.05781144      94.75922071      88.00101473
H      77.25501254      94.76677961      88.99501077
C      79.15040803      97.37271220      86.69521385
H      77.27957898      97.62593552      85.86940344
H      80.44487056      97.29334369      85.09461566
C      80.07448419      99.71030365      88.22400243
H      82.04735847      99.28322550      88.63407305
H      78.76301414      99.83313586      89.80759309
C      79.75512045     101.94962933      86.44576997
H      77.74445166     102.06679236      86.02436101
H      80.90407405     101.87970945      84.73745738
C      80.48077536     104.52343657      87.60795165
H      79.52079439     104.93350718      89.38429440
H      79.95354172     105.93695185      86.20388500
N      83.21331961     104.54044410      88.08605242
H      84.22999236     103.89415770      86.60261726
H      83.82370121     103.53510970      89.59027456
H      83.76700942     106.30544848      88.55659427
C      79.00111965      92.75422109      86.01491237
O      81.03257543      91.97943330      85.20421978
N      76.82793439      91.87171890      85.24390403
H      75.21599785      92.35926829      86.13774459
C      76.61628504      90.12750151      83.05182152
H      77.96365991      88.57036703      83.10851331
C      73.89696887      89.08437259      82.98190164
H      72.64408033      90.51678513      82.19199604
H      73.38296333      88.87461297      84.96422455
C      73.69098872      86.61072085      81.49090759
O      73.76468804      84.49989655      82.56805159
O      73.19399069      86.65418455      79.21000793
C      77.12840087      91.53345789      80.55738278
O      77.51201531      93.85404180      80.41754303
N      77.24556390      90.14450905      78.50325029
H      76.64274122      88.35682796      78.79993731
C      77.23611528      91.23677086      75.81983891
H      78.94631759      92.35926829      75.56850532
C      77.33060158      89.04657806      73.95089960
H      77.01312757      89.60782678      71.99503286
C      79.78724580      87.68408539      74.28349142
H      81.42374879      88.91240749      74.03026809
H      80.01212322      86.10427419      72.98335972
H      79.96676980      86.82237019      76.14487185
O      75.32371224      87.31747849      74.19278457
H      74.94765670      86.88095171      75.91243550
C      74.84372176      92.89406084      75.19244979
O      74.93064917      94.27356104      73.41421732
N      72.97289272      92.93563481      76.85918839
H      72.86517832      91.56747296      78.18199681
C      70.75435402      94.61938096      76.61919314
H      70.60695537      95.37716121      74.71056957
C      68.33361462      93.10571018      77.30894326
H      66.77648013      94.41151107      76.98580005
H      68.19755432      92.56524846      79.29126615
C      68.01047141      90.67552214      75.65921217
H      66.35885062      89.77790215      76.50203011
H      69.51847301      89.30358084      75.95778893
C      67.58150355      91.21220442      72.78115901
O      68.76825167      89.81380695      71.27126768
O      66.69900136      93.21909376      72.02526847
C      70.88285541      97.06468681      78.01192144
O      69.12352021      98.56701923      77.81916935
N      72.99178998      97.60703826      79.32150178
H      74.36184155      96.29934765      79.54448948
C      73.25635166      99.68006803      81.18099247
H      72.32849604     101.37326280      80.46667593
H      75.24245402      99.94462971      81.66287267
C      72.12251588      99.04700971      83.76991752
O      72.66675704     100.33580306      85.63129793
N      70.48979234      97.07224571      84.02125112
H      69.60162097      96.42029014      82.46222690
C      69.36540518      96.59225523      86.39663709
H      68.53014615      98.41584112      86.86528921
C      67.35662611      94.62505014      86.04325826
H      66.75947260      94.11293431      87.94810240
H      68.41676258      93.08492319      85.18343279
C      65.02659356      95.37338176      84.42565254
C      63.51103306      93.36271296      83.44299487
H      63.99669273      91.40306677      83.75102025
C      61.34918615      93.90695414      81.97845698
H      60.43455862      92.44052652      80.89375406
C      60.49502987      96.47887165      82.05782547
O      58.31428571      97.08547380      80.79737803
H      57.54516709      98.61048293      81.40964935
C      61.74602868      98.42528975      83.23134551
H      61.13942653     100.35281059      82.95922493
C      64.15165029      97.86593077      84.24234910
H      65.51981213      99.29456386      84.74690602
C      71.29670547      95.60203864      88.46210795
O      72.85572968      94.17529528      87.91597705
N      70.84884034      96.42217986      90.84127337
H      69.32005175      97.51822112      91.16063712
C      72.44754880      95.34692559      92.84438328
H      74.35806210      95.38094066      92.07715439
C      72.34739330      97.01366420      95.18386445
H      73.03525368      96.01021953      96.84682360
H      70.34050396      97.25743889      95.57692751
C      73.50768525      99.55534609      94.83993426
C      72.10172888     101.84758411      94.74922739
H      70.07783199     101.96096769      94.99678155
C      73.28658728     104.22863926      94.25789855
H      72.06771380     105.86514225      94.29380335
C      75.87929179     104.44595779      93.91396836
O      76.97155359     106.79677732      93.63239914
H      75.64307600     108.02320970      93.48500050
C      77.25123309     102.10458689      93.89885055
H      79.22221762     102.07246154      93.36216827
C      76.14007401      99.74620845      94.37317186
H      77.30414543      98.08702874      94.60182875
C      72.03936791      92.43107789      93.60027379
O      70.03247857      91.35771334      93.40752172
N      74.03869836      91.20275579      94.37695131
H      75.64874518      92.19297237      94.62639519
C      74.41475388      88.57792594      94.27679581
H      72.58171936      87.68597512      94.56592395
C      75.51079515      87.85416076      91.74267282
H      77.45910298      88.47966017      91.48755977
C      75.51079515      84.95154114      91.10205561
H      76.45565831      83.68542451      92.42297430
H      76.44620968      84.80414249      89.27280053
H      73.50957499      84.53202190      90.85072200
O      73.98578602      88.83303899      89.71688622
H      73.74201133      90.58292556      90.12506710
C      76.28180348      87.86171966      96.43297354
O      77.67075233      89.49822265      97.34571135
N      76.37440007      85.38050902      97.10760583
H      75.01757659      84.22588624      96.42541464
C      78.55703397      84.24289377      98.59293071
H      80.33715616      85.14996241      98.08648407
C      78.20743460      84.75689933     101.36893867
H      77.98066745      86.80536266     101.37082839
C      75.80181300      83.39440666     102.38183198
H      75.76590821      84.19565062     104.27911719
H      75.92275548      81.35161252     102.63127585
H      74.03302917      84.03124443     101.53901404
C      80.54691578      84.38084380     103.05268481
H      82.16263178      84.95721032     101.91695929
H      80.64518154      82.42308734     103.68385341
C      80.73021922      85.99278034     105.43373997
H      81.62972896      84.87595209     106.91150594
H      78.79136003      86.55213933     105.85325921
H      82.00011531      87.59715798     105.19563446
C      78.81970593      81.45743719      98.10160188
O      77.09249607      80.40863909      96.84115443
N      80.74155759      80.04959109      99.11260545
H      82.25522837      81.00579260      99.77589939
C      81.09682614      77.36240027      98.71009374
H      79.27324024      76.47800835      99.07859038
H      82.52356950      76.39863985      99.83826035
C      81.65051595      76.50635425      95.95865223
O      83.39851278      77.44554823      94.79647056
N      80.21621366      74.62796629      95.10638567
H      78.70254290      74.25380048      96.20998583
C      80.20487532      73.81916343      92.48155582
H      81.80358378      74.51458272      91.38551455
C      80.83604390      71.02992739      92.27179620
H      79.15607721      69.91687860      92.69887435
C      81.62594950      70.28915468      89.72444512
H      81.65807485      68.23502218      89.56570812
H      83.32292373      71.16598769      88.95154706
H      80.03102050      70.62741569      88.46777712
C      83.04702368      70.56883417      94.06136702
H      82.22877220      70.48190676      95.95109332
H      84.36416293      72.14675565      93.90263000
C      84.76100546      68.18399957      93.77223889
H      86.14617483      68.40887700      92.26423729
H      83.73866351      66.43033355      93.42074980
H      85.90617959      67.92888651      95.46543367
C      77.72555439      74.67520945      91.25701316
O      76.10038976      73.15964895      90.58049114
N      77.42508790      77.19610435      90.92442134
H      78.88395662      78.34127850      91.37228648
C      75.59583283      78.28269698      89.15752724
H      75.04970193      76.95799884      87.67976125
H      76.60872613      79.88707462      88.35817300
C      73.15808589      79.15575054      90.43876167
O      71.49701647      80.00990683      89.08571764
N      72.91242147      78.80804090      92.93697986
H      74.58104981      78.97244709      93.84971766
C      70.57294030      79.27102385      94.31081088
H      68.97990101      78.33938877      93.39429362
C      70.83183279      78.36206549      97.05847295
H      72.30770905      79.38629715      98.06569708
H      71.40253015      76.39486040      96.83359552
C      68.33928380      78.23734355      98.39261973
N      66.90120207      76.10195282      98.89339720
H      67.20544801      74.30482309      98.32269985
C      65.14375659      76.75768785     100.62249678
H      63.73024132      75.63519042     101.57680856
N      65.23635318      79.25590603     101.12516397
H      64.19322426      80.22533563     102.39694979
C      67.33016995      80.07982671      99.87794461
H      68.33739406      81.82404409     100.20864671
C      69.73768127      82.07537769      94.41852528
O      71.12096093      83.60605601      95.67141384
N      67.66465150      82.79158397      93.34894020
H      66.73679587      81.49145226      92.30203181
C      66.64041984      85.38806792      93.54358200
H      68.00858169      86.77512703      92.87272917
C      64.28393112      85.65640906      91.87873312
H      62.93088708      84.10683348      92.00912424
H      64.85273874      85.41263436      89.91341776
C      62.76837063      88.25667246      92.24345031
H      62.92143846      89.02012189      94.15207388
C      63.65465226      90.31647414      90.36128289
H      62.75703226      92.11360387      90.82048639
H      63.63764473      89.85727065      88.35439356
H      65.63508543      90.76244955      90.70899253
C      60.00181129      88.14895806      91.65385570
H      59.07584540      89.98766177      91.75590092
H      59.12686801      86.83181882      92.97288466
H      59.63520440      87.39495727      89.77168829
C      66.05271495      86.22332695      96.31770023
O      65.17588195      84.80792194      97.95987239
N      66.79726713      88.54013141      96.85627224
H      67.65331314      89.63617267      95.54858162
C      66.15476017      89.83459394      99.19386368
H      65.42532581      88.51178552     100.59415087
C      68.58116876      91.23299141     100.15006519
H      67.81582961      92.23265663     101.77900927
H      69.39753053      92.59548408      98.83859513
C      70.61073482      89.45286922     101.17807631
H      71.28158767      88.07336901      99.80424529
C      72.90486257      90.98921671     101.94719492
H      74.34861346      89.76656379     102.76544641
H      72.55526320      92.38572446     103.41740200
H      73.76090859      91.71298189     100.22187479
C      69.63374631      88.39651221     103.64038970
H      68.03692759      87.12472640     103.35693074
H      69.01013664      89.81947612     104.98965429
H      71.08883558      87.34015520     104.64572409
C      64.00992080      91.68652572      98.60426907
O      62.03515681      91.59392913      99.82881173
N      64.39731470      93.52522942      96.77690373
H      66.21523142      93.83514454      96.27801598
C      62.42444043      95.32046942      95.99266730
H      60.72179703      94.16206719      96.02857210
C      62.18822465      97.55979510      97.77845867