 %block lattice_cart
   142.669   0.000   0.000
   0.000 146.65   0.000
   0.000   0.000   162.396
 %endblock lattice_cart

 %block positions_abs
N      95.53055571      42.95520842      84.52108373
H      94.87671041      42.52246110      86.26152165
H      97.43539983      42.88528855      84.55509879
H      94.94663028      41.54358287      83.37590958
C      94.33246923      45.34382248      83.77275210
H      94.95040973      46.84048572      85.04453792
C      95.23764813      45.85404859      81.02131059
H      94.58191310      44.17219217      80.02731456
H      97.27666282      46.04869040      80.80777151
C      94.10192262      48.20486812      79.71550970
H      92.05534902      48.07447700      79.87802618
H      94.53844940      47.99321877      77.71239981
S      94.97686590      51.15284117      81.05154622
C      93.06635260      53.34870314      79.06733359
H      93.81468422      52.86871266      77.20973262
H      93.67484447      55.30834933      79.24685758
H      91.06135298      53.11059763      79.48118364
C      91.39772426      45.02256901      83.83511308
O      90.29223437      43.52968522      82.59734234
N      90.09948229      46.66852063      85.21839274
H      91.24465643      47.80046669      86.24262440
C      87.42362983      47.12205494      85.41492426
H      86.70364410      46.10916164      83.77086238
C      86.47687694      45.65751705      87.69582392
H      87.26678254      43.76212156      87.51629992
H      84.43030335      45.44019852      87.66180886
C      87.30835652      46.74788913      90.21104966
O      88.10771075      48.93619220      90.40758118
N      87.04379484      45.46665469      92.40880136
H      87.60504355      46.30002400      94.03396599
H      86.02901181      43.85282842      92.34266093
C      86.48065640      49.80357658      85.13146532
O      87.94708402      51.44763847      84.60990086
N      83.98810739      50.13238896      85.37146057
H      82.94686819      48.55446749      85.63602224
C      82.71632158      52.62493797      85.13713451
H      82.92419148      53.32035725      83.20961367
C      79.83448895      52.47564959      85.40358592
H      79.36016765      50.94875073      84.10534394
C      78.95387649      51.89739334      88.08699727
H      79.43197725      53.36571068      89.45137967
H      80.11038900      50.35726639      88.81832135
H      76.93564879      51.49866108      88.20605004
C      78.53435725      54.89827872      84.41336932
H      78.83104428      56.40250087      85.78909007
H      76.51046037      54.58458415      84.18471243
C      79.28457860      55.98865080      81.83011346
H      80.91541241      57.15272221      82.29687585
H      77.84082769      57.30390032      81.17626814
H      79.37150601      54.51466428      80.39392145
C      83.85204710      54.66017320      86.79442447
O      83.89740053      56.89193998      86.09522574
N      84.78935135      53.94963611      89.04319879
H      84.91218356      52.08258651      89.42114405
C      85.93263577      55.69952268      90.93481482
H      84.88383766      57.46263733      91.10866965
C      86.02712208      54.28978685      93.38767959
H      87.06458183      55.35748221      94.80875377
H      87.17418595      52.58147426      93.33098779
C      83.44575594      53.79089910      94.41191124
C      82.31003042      51.51188917      93.91491322
H      83.46087375      50.04357182      93.08721310
C      79.84204786      51.10559801      94.94670379
H      78.70821207      49.41051351      94.87867364
C      78.70065317      52.94619144      96.43958757
H      76.79580904      52.67785030      97.11610960
C      79.80047388      55.38582811      96.68714173
H      78.82348538      56.74832078      97.85310287
C      82.20420575      55.83936242      95.57409293
H      83.12450246      57.64783051      95.79897035
C      88.73509989      56.31179400      90.16947568
O      89.50421850      58.52844297      90.30175651
N      90.09192338      54.58080470      88.71627613
H      89.22453900      52.92162500      88.34966923
C      92.62982582      55.17606849      87.76385407
H      93.52744582      56.26077139      89.26996594
C      94.05278973      52.64005578      87.56165336
H      95.99542838      52.87060239      86.91914642
H      92.76588611      51.33992407      86.61301076
C      94.52711104      51.58180904      90.20915992
H      92.81501900      51.35126243      91.32976762
H      95.83858110      52.83469759      91.18614842
C      95.69496190      48.93430248      89.83121467
O      97.87192661      48.30691334      90.53797231
O      94.28522607      47.18063646      89.01296317
C      92.58258266      56.82013038      85.48106469
O      94.47608843      58.12782099      85.03130982
N      90.46230974      56.89760916      84.10723366
H      89.04690473      55.71086103      84.58911388
C      89.85192814      58.44340528      82.10223404
H      91.24276671      58.69662861      80.60368107
C      87.51622642      57.41728390      80.61690917
H      85.81925219      57.66105859      81.75830386
H      87.61260246      55.36504112      80.45628242
C      87.11560444      58.17317442      77.84468065
H      88.49510465      56.96185985      76.90926613
H      87.40095311      60.20085075      77.61035459
S      84.08070398      57.43051198      76.97540656
C      84.12038823      57.81223669      73.54366358
H      85.02367741      59.61503560      73.12036488
H      82.23066192      57.86703876      72.73108125
H      85.48855008      56.65005501      72.53454971
C      89.10548625      61.12870637      82.99796431
O      90.48498645      62.89182102      82.45183342
N      87.19875240      61.41972423      84.58722414
H      86.19152827      59.83991303      84.95383104
C      86.56758381      63.74219787      85.84578186
H      86.35026528      65.06500628      84.28297821
C      84.00700465      63.39070877      87.28953277
H      83.85393682      65.21996384      88.21927812
H      84.21487455      61.84113319      88.63312819
C      81.55602963      63.01087378      85.84200241
H      81.58815497      61.14949336      84.95572078
C      79.47166150      62.92394637      87.85078148
H      79.44709506      64.68328157      88.92225630
H      79.80992251      61.32523791      89.10178031
H      77.67831123      62.66505387      86.87568271
C      80.86061034      64.95918161      83.92393021
H      82.49144415      65.11980835      82.67293138
H      80.60549729      66.76198051      84.88958035
H      79.11450323      64.31856439      83.04142802
C      88.59903959      64.97618915      87.45393896
O      88.78234305      67.23441209      87.54086638
N      90.34514671      63.55133551      88.51974460
H      89.98231925      61.68050646      88.59344393
C      92.58258266      64.36202810      90.00317975
H      91.72842637      65.71129268      91.30520118
C      93.85814792      62.27199079      91.63968274
H      95.80078657      62.81812170      92.04786362
H      93.77311024      60.48808915      90.60978191
C      92.28589563      61.89593526      94.17569546
H      90.35837479      61.47641602      93.58232140
H      92.48242717      63.54377660      95.39267921
C      93.34414237      59.62826368      95.82731625
H      95.14694127      60.32935214      96.53218416
H      93.80523559      58.08624701      94.54608182
N      91.59803525      58.72875396      97.76239599
H      90.94230022      56.96185985      97.45059115
C      91.12938313      59.71330137     100.00550114
N      92.02889285      61.88648663     100.71225878
H      92.14416616      62.16994557     102.59631591
H      93.38760607      62.56489837      99.55385655
N      89.74232401      58.30923472     101.58720206
H      89.49288014      58.99331564     103.35220643
H      89.22642873      56.54423034     101.07319649
C      94.48553706      65.80955845      88.37234595
O      95.73086670      67.50086350      89.42114405
N      94.66695078      65.40326729      85.90625311
H      93.62193213      63.91416296      85.33555577
C      96.34313802      66.82245176      84.07321859
H      97.24075802      68.18872388      85.32610714
C      98.40671916      65.06122683      83.05276638
H      99.86558787      66.29521811      82.28175805
C      99.67661524      63.65527045      85.25807699
H     100.30211465      64.98563778      86.70182789
H     101.31500795      62.54978056      84.67226182
H      98.29333558      62.36647711      86.07254903
C      97.38248750      63.34346561      80.86824276
H      96.05212017      64.29021850      79.61535421
H      96.23164417      61.82790511      81.65814836
C      99.49898097      62.14159968      79.24307813
H     100.86336337      61.07957349      80.36179610
H     100.71029553      63.65338073      78.53821021
H      98.60891987      60.98886663      77.78609915
C      95.22630977      68.44761638      81.91893060
O      96.52833120      69.70428438      80.52053312
N      92.78289365      68.36257870      81.69783262
H      91.89850174      67.17772030      82.90536772
C      91.25788452      69.54743710      79.63803093
H      92.55045731      69.90837482      78.07522726
C      89.40217328      67.53865803      78.41348827
H      88.00188608      66.88481272      79.77409123
H      90.43018439      65.80199955      78.00719713
C      88.28723475      68.69894998      76.07778655
O      89.46453425      69.23941171      74.17861161
O      85.92318713      68.88981234      76.25920028
C      90.24877066      72.07211145      80.18416183
O      89.87460485      73.67270964      78.53065132
N      89.83303088      72.62958072      82.65403413
H      90.44341248      71.42393533      84.00140898
C      88.74076907      74.98606943      83.67637606
H      88.35526490      76.20305317      82.05877033
C      86.06302688      74.50796867      84.73273307
H      86.06491661      72.82611225      85.91948120
H      84.70998284      73.89380762      83.30598971
C      84.87060958      76.83044231      86.08010794
H      85.98554810      77.08555536      87.79408969
H      82.98466272      76.31832648      86.72261488
C      84.83470478      79.35133721      84.70060772
O      84.58904036      79.41747763      82.37435464
O      85.12761236      81.24106352      86.10278464
C      90.70608443      75.81943873      85.68326540
O      91.50354894      78.02285961      85.65302979
N      91.89094283      73.92593297      86.91536697
H      90.95552831      72.28754025      87.20260537
C      93.98098013      74.38513646      88.63123845
H      94.94285083      76.12368467      88.08132810
H      95.23386868      72.75241293      88.58777474
C      93.25721496      74.46261524      91.40535668
O      92.21219630      72.71083895      92.45982396
N      94.06601782      76.49596075      92.75840073
H      95.52488653      77.47483898      92.01006910
C      93.15139028      76.97784096      95.30386207
H      91.09347833      76.98351014      95.33787713
C      94.36459457      74.86323722      97.10288152
H      96.34124830      74.70827966      96.55297115
H      93.45374649      73.09445339      96.56619925
C      94.17751167      75.16937288      99.96959634
H      95.23008923      76.77752997     100.71036904
C      91.53945374      75.39802976     101.30374310
H      91.73220582      75.92148395     103.28606601
H      90.26199875      73.83522610     100.89178277
H      90.53789879      77.03642248     100.56297040
C      95.49087146      72.77131019     101.13177802
H      97.29556009      72.41226219     100.20581212
H      94.37215348      71.09323322     100.70847932
H      95.65905710      73.06421777     103.16323381
C      93.93940615      79.58755300      96.50005882
O      96.12959895      80.26974420      96.35643963
N      92.03456203      80.98784020      97.47137814
H      90.28467546      80.23383940      97.35421511
C      92.11959971      83.62589813      98.41246186
H      94.04712055      84.22683110      98.82253246
C      90.89694679      85.50050663      96.57375814
H      90.43963302      87.41290966      97.18225003
H      89.22453900      84.53674621      95.85755187
C      92.67517925      85.52696280      94.19648244
H      92.53344978      83.65991320      93.33854669
H      94.63104598      85.68947926      94.82009213
C      92.00810586      87.28629800      91.95526703
H      92.48431689      89.24783391      92.35021983
H      89.97665008      87.21070895      91.60944713
N      93.33847319      86.53229720      89.67247765
H      92.47675799      85.19059152      88.62556928
C      95.30378855      87.41668911      88.73328367
N      96.75698809      89.09287635      89.85578111
H      98.41427806      89.58987437      89.05264743
H      96.24298253      89.60499218      91.62078548
N      96.25999007      86.58520954      86.62434910
H      97.95696430      87.31464389      86.14813807
H      95.41528240      85.40602032      85.38090919
C      90.95741803      83.80164268     101.09587322
O      88.73509989      83.82998857     101.60043014
N      92.52400115      84.03596874     103.01016596
H      94.36837403      84.26840508     102.57741864
C      91.68496266      84.40068592     105.72948213
H      90.21286586      83.00606790     106.10175821
C      93.70130064      83.52007346     107.52283241
H      92.81312927      83.79408377     109.36153610
H      95.32835499      84.77863118     107.39055157
C      94.76899601      80.70438125     107.30362415
H      95.28678102      80.44548875     105.32697042
C      96.90249701      80.09966883     109.02894427
H      98.50876438      81.16736420     108.30517909
H      97.44862792      78.11545620     108.93823742
H      96.47163941      80.65902782     110.96213429
C      92.60903883      78.88835426     107.88754958
H      91.89661201      79.39291119     109.75081972
H      93.01721971      76.87201629     107.79117354
H      91.22953862      78.94882551     106.35876100
C      90.71364334      86.86488903     106.37198908
O      89.66862469      87.07275893     108.56785106
N      90.44719193      88.71682082     104.61265388
H      91.02922763      88.47682558     102.81174470
C      89.13761159      91.02795610     105.31752180
H      87.77700865      90.64245193     106.81418504
C      91.10103723      93.02917626     106.02238972
H      92.37849222      93.41279071     104.45391688
H      92.11582026      92.34887479     107.68345915
C      89.88972267      95.63321912     106.64410967
H      88.40061833      95.31385538     108.03116879
H      89.06580199      96.49493432     104.96603271
C      91.83614077      97.47192283     107.80062218
H      93.41595197      97.33775226     106.48537265
H      92.51266279      96.83130561     109.63554643
C      91.11237559     100.21769516     107.64188516
H      89.06580199     100.40288834     107.50582486
H      91.90984009     101.22302956     106.03183835
N      91.94196544     101.54239330     110.03994786
H      91.54323319     103.40377372     110.16655951
H      93.84303011     101.66144606     110.18923624
H      91.22575917     100.70146509     111.59708234
C      87.43874764      91.87833294     103.04229131
O      87.88283332      91.27173079     100.85587797
N      85.45642474      93.46003386     103.60354004
H      85.09548701      93.60176334     105.47436909
C      83.60260322      94.21403466     101.64389385
H      82.62372499      92.49816317     101.05996841
C      81.28957822      95.81841230     102.43002000
H      81.86594474      97.68546190     103.08764475
C      79.38284437      96.51005213     100.32864434
H      78.09594075      94.91890258     100.10187717
H      80.21810340      96.83319533      98.47482282
H      78.29058256      98.22970308     100.63478000
C      79.80047388      94.64678199     104.61076415
H      81.13273093      94.15923260     106.10364795
H      78.74789632      92.92902077     104.18179628
C      78.00712361      96.47225761     105.96380819
H      76.66541793      96.97114535     104.48415249
H      78.93875868      98.16734211     106.67434529
H      77.07926799      95.58219651     107.57385501
C      84.88572739      95.36109853      99.50661339
O      86.44853105      97.04673441      99.58787162
N      84.22243345      94.32930797      97.31831031
H      82.79757981      93.08775778      97.57342336
C      85.25611375      94.96803546      94.85788665
H      86.24633033      96.76894464      95.01662366
C      87.08536882      92.84587281      94.21348998
H      88.26644776      92.40745631      95.84243406
H      88.54801698      93.42223934      92.88123293
C      86.01200427      90.26261694      93.34988505
C      85.97987892      89.69758877      90.79875454
H      86.64506259      91.08086844      89.45515912
C      85.27690074      87.22960621      89.95404687
H      85.12383290      86.89512465      87.94715752
C      84.47943623      85.38901278      91.63590329
O      83.79724503      83.11567203      90.90079976
H      84.39817800      82.70749114      89.23973033
C      84.53612802      86.04852726      94.19648244
H      83.94086423      84.63312226      95.54196759
C      85.07281029      88.45792831      95.09977162
H      84.98210343      88.83965303      97.10288152
C      83.11505383      95.43290813      93.06075694
O      80.90974323      95.38188552      93.78830156
N      83.73488406      96.11320961      90.74773193
H      85.52256516      96.56863365      90.25073391
C      81.63917758      96.35698430      88.79186519
H      79.85149649      95.86565546      89.69326464
C      81.54658099      99.09519773      88.01896712
H      80.36361232      99.42212038      86.36545660
H      83.47788129      99.57329849      87.48417459
C      80.84549253     100.96980623      90.21671883
H      82.13239615     100.78650278      91.81542730
H      78.93686896     100.54461781      90.86300522
C      81.00989872     103.69290185      89.10933922
H      79.29780668     104.10297246      88.03786439
H      82.83726407     104.16344370      88.28352882
C      80.52045961     105.65632749      91.21827378
H      81.64484676     105.19334454      92.88123293
H      78.60616685     105.52782610      91.96849513
N      81.33115219     108.27926761      90.52474421
H      80.21432394     108.81406016      89.07154468
H      83.19820179     108.46446079      90.17514485
H      81.03068571     109.44900820      92.00439993
C      81.91318790      94.66945870      86.49773744
O      84.00511493      94.45591963      85.57744074
N      79.84960676      93.66979348      85.50563113
H      78.25656748      93.76427980      86.55253950
C      79.66441359      92.48115563      82.98095678
H      81.18942272      91.11110406      82.78253552
C      77.32115296      90.80685812      82.81277113
H      75.75456984      91.98604734      83.44393973
H      77.36272694      89.22137774      84.12991038
C      76.78447068      89.29129762      80.41659817
O      74.87962656      89.88278195      79.07300276
O      78.29814146      87.68880970      79.91960015
C      79.84582731      94.39166894      80.83233796
O      79.54158138      96.75571655      81.27453392
N      80.22188285      93.40712153      78.47395952
H      80.13495544      91.53251302      78.13380878
C      80.59037948      95.12677247      76.24975166
H      81.62028032      96.72359121      77.04154697
C      82.05869682      93.91167845      73.95373419
H      82.47632634      95.50282801      72.71596344
C      84.38683964      92.31863917      74.77198567
H      85.60949257      93.39200372      76.03432285
H      85.57736722      91.73471374      73.19595392
H      83.63661830      90.73315879      75.85290912
O      80.28991300      92.16557134      72.86903127
H      81.10060558      90.98449239      71.75598247
C      78.08082294      96.54217748      75.29355014
O      78.35105380      98.28450514      73.74586429
N      75.71299587      95.94691369      76.16660369
H      75.51079515      94.23671138      76.98863464
C      73.60595103      97.71191807      76.01164614
H      73.56437705      98.35253529      74.05577941
C      71.18332189      96.22281373      76.97540656
H      69.65453331      97.57396805      77.25697578
H      71.53859044      95.10031630      78.66671160
C      70.27814299      94.48615525      74.83812610
H      69.22745516      93.08397833      75.92093927
H      71.79937267      93.37121673      74.00853624
C      68.53392560      95.65400611      72.90682581
O      68.58305849      97.99348729      72.41738668
O      66.81238493      94.28017508      71.99975717
C      73.93665313     100.13265747      77.66704638
O      72.46644606     101.99403789      77.47051484
N      75.62984791     100.09486295      79.43394048
H      76.65218984      98.53205929      79.82889328
C      75.84905616     101.98836871      81.62224356
H      75.28969717     103.82707242      80.88147084
H      77.78035645     102.23025368      82.29876558
C      74.06326479     101.48759124      83.84078225
O      72.99934888     103.27716206      84.93115434
N      73.68720926      99.01582922      84.59289333
H      74.55648336      97.67034409      83.55354385
C      72.27180425      98.12009895      86.72639434
H      71.36851507      99.79817592      87.51441020
C      70.36696013      96.08864316      85.78720036
H      69.20288872      95.80140477      87.46149786
H      71.53292126      94.40111757      85.60767635
C      68.51124889      96.60075900      83.60645618
C      67.61740834      94.45025045      82.27419914
H      68.04070703      92.50005290      82.70316701
C      65.94500055      94.88299778      80.34289885
H      65.25714018      93.25405370      79.32433636
C      65.05116001      97.43412830      79.82511383
O      63.23891247      98.05395853      77.99774849
H      63.12552889      99.86242661      77.92404916
C      65.89397794      99.44479710      81.36335106
H      65.37430321     101.32696450      80.76430781
C      67.70433575      99.04984430      83.18126777
H      68.38652695     100.62587604      84.28486793
C      73.81382092      97.00327070      88.80131382
O      75.65252462      95.74282325      88.29297744
N      72.95588517      97.15066935      91.15780254
H      71.24946231      97.83852973      91.65858001
C      74.47711486      96.10943015      93.28374464
H      76.46132749      96.65367133      93.19303777
C      73.39808113      97.20925087      95.84054434
H      74.25412715      96.15667331      97.39011991
H      71.39686097      96.72170148      95.90101559
C      74.01035246      99.98336910      96.20526151
C      72.15275149     101.68601250      96.88934245
H      70.21578202     101.17389667      97.28618496
C      72.79903789     104.13320808      97.26539797
H      71.31938219     105.47302404      97.68680695
C      75.34260951     104.98169519      96.88745271
O      75.96055001     107.38164761      96.99705685
H      74.54514500     108.36430529      97.57153364
C      77.21154883     103.25637507      96.14856972
H      79.15796693     103.86108749      96.03518615
C      76.53691654     100.71658291      96.01439916
H      77.99578525      99.42778956      95.39834838
C      74.50546075      93.14633930      93.58232140
O      72.46833579      92.00494460      93.18547886
N      76.81659603      92.09376174      94.16813655
H      78.31703872      93.26539205      94.28529958
C      77.45343380      89.52184423      94.60088387
H      75.76779793      88.41635433      95.03174147
C      78.50034218      88.42202351      92.15368831
H      79.41685944      86.65323968      92.67147331
C      76.37062062      87.74739122      90.29986679
H      75.17631359      89.38578393      89.93514962
H      75.03080467      86.33009648      90.96694017
H      77.31548378      86.97260343      88.64446653
O      80.35416369      90.07175458      91.09166211
H      81.93208516      89.42735791      91.71338207
C      79.07481898      89.05886128      96.91957806
O      80.02535131      90.81630675      98.22348922
N      79.05592171      86.70048284      97.85310287
H      77.94287291      85.41168950      96.98949794
C      80.65463017      85.70648680      99.91668399
H      82.32703796      86.90457328      99.81274905
C      79.21465872      86.03529918     102.41490218
H      78.52301889      87.97604810     102.45080698
C      76.87517755      84.44037017     102.57363919
H      75.60717119      85.18681206     104.01550037
H      77.27768925      82.52607742     103.21425641
H      75.78669519      84.36856057     100.82753207
C      80.84927198      85.75372996     104.78461898
H      81.29335767      83.75439952     105.00949640
H      79.97810815      86.54741501     106.47403431
C      83.19442234      87.46960145     104.74115528
H      82.58593047      89.42924764     104.53328537
H      84.42274444      86.90835274     103.18780025
H      84.35282457      87.34676924     106.43812951
C      81.50311729      82.94370693      99.45181132
O      79.96299034      81.48105877      98.43891801
N      83.76511969      82.25017737     100.51005806
H      85.10682537      83.45960221     101.12988828
C      84.31691977      79.57054546     100.88233414
H      82.59159964      78.65213847     101.53239999
H      85.78901657      79.30220433     102.29773915
C      85.18052469      78.48962201      98.40868239
O      86.86994002      79.57054546      97.21626510
N      83.88228272      76.57721898      97.56019528
H      82.91663257      75.66826063      98.93402632
C      84.15818276      75.59834075      95.02040311
H      85.49988844      76.88902382      94.13979065
C      84.90084520      72.71272867      94.82198185
H      83.37583606      71.38992025      95.22827301
C      85.74933231      72.54643276      92.01006910
H      85.43563775      70.56222013      91.55842451
H      87.70141960      72.91870884      91.46771764
H      84.63250406      73.66326101      90.68915040
C      87.28567981      71.98707377      96.70981844
H      86.63183450      72.38202657      98.62222148
H      88.90895471      73.20405751      96.36399852
C      88.33447791      69.36413365      96.66824446
H      89.70452949      69.11846923      95.14890450
H      86.72443109      68.19439306      96.13534165
H      89.37004793      68.78776712      98.35199060
C      81.68831047      75.95360930      93.65035155
O      79.83448895      74.54009402      94.06231188
N      81.42941796      77.98695481      92.13668076
H      82.96009628      79.11134197      91.94581841
C      79.38662382      78.35545144      90.27152090
H      78.83482373      76.46383540      89.67625710
H      80.18975750      79.04709127      88.50651651
C      76.97911250      79.72172357      91.25039913
O      75.56559721      80.76674222      89.64413175
N      76.64274121      79.82187906      93.74105840
H      77.98255717      78.96772277      94.79552569
C      74.22767098      80.00329279      94.94481407
H      73.00879751      78.64080012      93.99806119
C      74.23334016      79.12834951      97.76428573
H      75.46166227      80.41147367      98.80930438
H      75.10450399      77.26507936      97.85121313
C      71.67654046      79.17559266      99.10032222
N      70.19877448      77.02508412      99.68991683
H      70.38018821      75.30165372      98.88678315
C      68.15598034      77.91703494     100.87666497
H      66.95033495      76.84178067     102.12577405
N      68.14653171      80.42659148     100.90501086
H      66.73490615      81.44515397     101.68546782
C      70.35373204      81.26562997      99.75983672
H      70.76380265      83.24228369      99.46503940
C      73.05982012      82.61489455      94.78796679
O      73.91775587      84.37422975      96.09943684
N      71.17198354      83.17992272      93.11366926
H      70.64286017      81.81176087      91.89479579
C      70.03058884      85.58365459      92.77351853
H      71.59150278      86.86488903      92.36344793
C      68.12196527      85.39090251      90.50206750
H      66.40042459      84.44225990      91.12000800
H      68.77770030      84.05675573      89.07532413
C      67.61173916      87.72471450      88.94871248
H      66.07161222      87.00283905      87.78842051
C      66.49113146      90.12088747      90.24695446
H      67.91220565      91.09787597      91.37512107
H      65.02659357      89.44625517      91.52818889
H      65.83539643      91.35109930      88.73328367
C      69.90397718      88.43903105      87.37457045
H      69.16320446      89.68058124      85.90625311
H      71.08694585      86.93480890      86.61679021
H      71.04915132      89.51428532      88.70682751
C      68.71533933      86.45859787      95.07331545
O      67.49268640      84.97516272      96.48116155
N      68.88541470      88.81508659      95.87833886
H      69.69421756      90.10576966      94.72749554
C      67.96511798      89.75050111      98.21593032
H      67.08828497      88.22360225      99.28173595
C      69.87941074      91.38700410      99.82597713
H      68.97801129      92.75138650     101.07886568
H      70.98868008      92.47926591      98.47671254
C      71.69921718      89.59554355     101.38122189
H      72.74045638      88.24060979     100.23415801
C      73.97066820      91.22259791     102.16923776
H      73.33383044      92.81563719     103.30874273
H      74.82671422      91.79896443     100.38533613
H      75.35583759      90.23805050     103.33519889
C      70.52947659      88.05541661     103.50716399
H      72.09039052      87.05575139     104.40478398
H      69.32383120      86.66079859     102.58686728
H      69.57894425      89.24216473     104.89800256
C      65.75224847      91.39834246      97.03296165
O      63.65654199      90.49316355      96.96871094
N      66.40420405      93.70191883      96.10132656
H      68.18999541      94.34631550      96.32053483
C      64.38786607      95.49526910      95.23583192
H      62.88931311      94.28017508      94.51584619
C      63.35418578      96.90878438      97.53940829