 %block lattice_cart
   142.669   0.000   0.000
   0.000 146.65   0.000
   0.000   0.000   162.396
 %endblock lattice_cart

 %block positions_abs
N      95.91417015      44.59265628      82.01719637
H      94.93907137      44.13912196      83.59322810
H      97.75476359      44.92902756      82.39136217
H      95.82724275      43.06386769      80.87769139
C      94.61970763      46.59009699      80.56966601
H      95.20363306      48.41179316      81.32933599
C      95.50409955      46.49939013      77.76720189
H      95.01277071      44.81942344      76.67871953
H      97.55634233      46.62033261      77.64436968
C      94.33435895      48.89556309      76.49163662
H      92.29723399      48.68013429      76.27998727
H      95.01466043      49.32264124      74.59435140
S      94.93907137      51.83030806      78.09790399
C      91.80590516      53.28539732      77.28910113
H      91.27489205      52.96603357      75.32378576
H      91.98731887      55.32252228      77.53854499
H      90.47931727      52.36699033      78.57033557
C      91.80968461      46.24238735      80.70761603
O      90.86482144      44.41691173      79.68905355
N      90.48120700      47.96392802      82.10412378
H      91.56213045      49.35665631      82.84111703
C      87.88661278      47.84676499      83.03953829
H      86.79246124      46.76206209      81.67326617
C      87.89228195      46.30285859      85.50941058
H      88.85226292      44.51139805      85.18059820
H      86.06680633      45.56586533      86.11034356
C      88.87304991      47.87700061      87.74495681
O      88.86927046      50.09175985      87.90936301
N      89.84436923      46.47671341      89.58743997
H      90.18451998      47.19102996      91.32220872
H      89.68563223      44.58131792      89.42114405
C      86.53167902      50.26372494      82.88836020
O      87.63905863      52.22148140      82.23829434
N      84.09582180      50.36010099      83.43638083
H      83.30969565      48.72737745      84.03542407
C      82.57837156      52.69013353      83.18126777
H      82.90340449      52.99815892      81.17059898
C      79.56803754      52.24415812      83.24929791
H      78.95387650      50.79851749      81.91515114
C      78.76301413      51.40134018      85.88546613
H      78.63640247      52.96603357      87.21583345
H      80.08393283      49.98215572      86.58088541
H      76.87517755      50.57930924      85.84389214
C      77.83704825      54.52694751      82.74852044
H      78.30570037      56.03872856      84.06565968
H      75.84905617      54.14900224      83.12457599
C      78.08082293      55.57952506      80.02731456
H      80.08960201      56.00471348      79.85534945
H      76.94131798      57.29350683      79.95928441
H      77.46477216      54.01672140      78.83489725
C      83.44764566      54.92379003      84.86123446
O      83.68386145      57.04217323      83.97684254
N      84.22810263      54.39466666      87.21016427
H      84.27345607      52.57674995      87.79597942
C      85.23154730      56.30517997      89.05453716
H      83.99377657      57.94357268      89.20382552
C      85.76067068      55.26394077      91.65480055
H      86.33136802      56.61698481      93.10044118
H      87.13261198      53.72948300      91.58110124
C      83.37394635      54.08097210      92.70737811
C      81.29146794      55.59464287      93.69381524
H      81.52768373      57.62042948      93.61633647
C      79.05403200      54.62143382      94.58198662
H      77.54603040      55.87999155      95.14134560
C      78.64585110      51.93424300      94.38545507
H      76.82037548      51.29740524      95.04307984
C      80.64329181      50.36010099      93.51618097
H      80.35794315      48.33998356      93.59177003
C      82.94308874      51.42968608      92.61478152
H      84.47565678      50.18813589      92.09510678
C      87.74677303      57.33697053      88.21360895
O      88.37227244      59.54795032      88.86178507
N      89.29256915      55.77794632      86.87379298
H      89.04879446      53.89199946      86.71127653
C      91.62260169      56.71903003      85.62090443
H      92.70163543      57.90388843      86.91536697
C      93.31390674      54.48159407      84.74407143
H      94.85403369      55.21102843      83.58755892
H      92.25754973      53.03784317      83.72361923
C      94.62915627      53.30429458      86.93615395
H      93.35170127      52.48037391      88.32699252
H      95.60992422      54.80851673      87.94337807
C      96.46785997      51.31819223      85.98184217
O      95.47008447      49.32264124      85.28264343
O      98.84513566      51.75849846      85.98184217
C      90.99332283      58.29884123      83.22662121
O      92.31424152      60.15833192      82.75418962
N      89.01477938      57.60531167      81.86790799
H      88.08692376      55.95747032      82.12869022
C      88.55935535      58.81473651      79.28087265
H      90.26010902      58.59741798      78.14136769
C      86.43152351      57.35586780      77.90893136
H      84.76289518      57.19335133      79.10323838
H      87.17796541      55.44157504      77.77476078
C      85.78523712      58.27238506      75.29166041
H      87.02867703      57.33319108      73.94428556
H      85.81736247      60.32840729      75.17071793
S      82.61616609      57.22736641      74.24286231
C      82.81836680      57.96058022      70.82245769
H      84.20731564      56.71525058      69.95129386
H      83.45331484      59.91644695      70.70151519
H      81.11950286      57.73759251      69.68106298
C      87.86204634      61.54539103      79.61724394
O      89.02800747      63.28204951      78.69694723
N      86.05735770      61.94223356      81.35957160
H      85.18430416      60.37754017      82.01341690
C      85.00289043      64.40832640      81.91893060
H      84.37172183      64.96957511      80.04054263
C      82.97143464      64.08329347      83.84645144
H      82.52923868      65.91254854      84.68360019
H      83.85015737      62.91922206      85.29965096
C      80.50534179      62.77182341      82.95072115
H      81.00989872      61.06351082      81.91704087
C      78.81214703      61.94034383      85.03508928
H      78.18475788      63.69778930      85.90814284
H      79.63228824      60.61753541      86.38624359
H      77.13595978      61.02571630      84.26219122
C      79.01434774      64.53682779      81.15359143
H      78.54758534      66.31317052      82.08522650
H      77.33438104      63.62408998      80.38258310
H      80.26156710      65.34563065      79.72684806
C      86.99844142      66.08262391      82.98284650
O      86.90962427      68.41454618      82.49718685
N      88.98454376      64.90532442      84.25085286
H      89.02989719      63.02504674      84.58344469
C      91.11804477      66.27159654      85.12390642
H      90.28845492      67.90243035      86.07443876
C      92.65061281      64.68800589      86.98150739
H      94.58191310      65.40043271      87.07788342
H      92.71297379      62.82284602      86.10656411
C      91.64149896      64.48202572      89.70082355
H      89.73665483      63.71668657      89.85956056
H      91.59803525      66.39064930      90.47561133
C      93.47453348      62.78505149      91.16347172
H      95.43417967      63.02882619      90.57576683
H      93.19107453      60.80650804      90.66458397
N      93.32146565      62.82662547      93.82798582
H      94.61592817      63.86975440      94.76151062
C      91.52433593      62.00081507      95.24150110
N      89.54012331      61.03327520      94.25695370
H      88.23621214      60.18478809      95.36244358
H      89.64972742      60.72902926      92.37478628
N      91.53378456      62.35986307      97.74160901
H      90.23932203      61.49814787      98.84898863
H      93.26666359      62.63198366      98.49372009
C      92.78100392      67.23346723      82.96394924
O      93.55579171      69.39720386      83.14914242
N      93.18540536      65.76703962      80.94950099
H      92.57124430      63.97935852      81.22729077
C      94.68773777      66.38875957      78.77631573
H      96.37526338      67.32606382      79.49630145
C      95.40394405      63.85463659      77.43649978
H      93.61437323      62.92489124      77.01698054
C      96.65872232      64.35352433      74.99308366
H      97.16138953      62.78883095      73.75531292
H      98.38593217      65.44767587      75.24441726
H      95.49087146      65.38342517      73.64381907
C      97.16705870      62.22380278      79.07867194
H      96.33368939      62.22191305      80.96272907
H      99.09268981      62.94189878      79.21095279
C      97.11036691      59.40433112      78.35112731
H      97.80767592      58.30073095      79.94416659
H      98.20451844      59.00748859      76.65037363
H      95.20930225      58.96780434      77.69350255
C      93.34792182      68.35218521      77.04910589
O      94.56490557      70.07183616      76.01353586
N      90.84025500      68.45612016      76.99997300
H      89.88972266      66.96701582      77.72184845
C      89.37949656      70.67087940      76.21573657
H      90.25632957      71.15086988      74.41671713
C      86.67151875      69.84128955      75.63559061
H      85.53768297      71.52692542      75.28977069
H      86.02712209      68.98524353      77.39492580
C      86.35215501      67.99880639      73.39248547
O      88.19085871      67.88920226      71.89393250
O      84.37550128      66.87630896      72.91249498
C      89.52500549      73.07083182      77.82389367
O      90.04090077      75.11740541      76.76375721
N      89.20753147      72.83839548      80.34856803
H      88.55746561      71.19433359      81.06666402
C      88.99210267      74.98323484      82.00963746
H      89.90295076      76.47422890      80.91737565
C      86.24066115      75.82038360      82.60112179
H      86.03279126      77.56460099      83.67448633
H      85.38839459      74.61473821      84.03542407
C      84.44353143      75.73156646      80.36368583
H      84.05424781      73.73979493      80.01408647
H      85.07092058      76.60273029      78.60624037
C      81.99633586      76.94288103      81.13469418
O      79.96110063      75.82038360      80.99863387
O      82.06247629      79.29181084      81.82255455
C      90.61537757      75.09850815      84.37935425
O      91.93062708      77.02035981      84.71761527
N      90.59648032      73.08028045      85.75507500
H      89.67618359      71.55149186      85.07288381
C      91.98920860      72.90831535      88.27785963
H      93.62382186      74.12151965      88.58777475
H      92.78100392      71.00914041      88.16825551
C      90.20719669      73.25035581      90.67025315
O      88.24755050      74.52970053      90.71560657
N      91.05001462      72.27903649      92.81509252
H      92.73754023      71.38708567      92.84721787
C      89.57224865      72.55115708      95.19425795
H      87.62394083      73.00658112      94.70670856
C      89.45319589      70.07750534      96.77406914
H      91.46386469      69.66932445      96.96871094
H      88.65006220      68.45234071      95.79141146
C      88.11904911      70.39119990      99.32330993
H      88.90139580      71.96156247     100.40234365
C      85.18619387      70.88252874      99.17213184
H      84.72888011      72.02392344      97.51862130
H      84.52667940      71.51369733     101.01839444
H      84.23188208      69.09673738      98.79607630
C      88.66140057      68.17455094     101.10154239
H      90.70797416      68.23124273     101.32075065
H      88.06424705      66.41521574     100.21526076
H      87.77889837      68.30494205     102.95914337
C      90.44152275      74.95110950      96.54541226
O      92.70541488      75.19677392      97.08398426
N      88.68407729      76.64808373      97.21815482
H      86.87938865      76.06982747      96.98949794
C      89.12627323      79.20110397      98.26506319
H      91.16339820      79.44865812      98.44647692
C      88.28156558      81.51034953      96.56619925
H      88.32124982      83.16386005      97.79263162
H      86.52789956      81.07760220      95.57976211
C      90.05412885      82.00923728      94.28340986
H      90.00877542      80.39352128      93.00595488
H      91.94007572      82.49489694      94.94670380
C      89.10926570      84.32982119      92.79241579
H      89.03367664      86.07781803      93.87711871
H      87.21575993      84.04258279      92.03463555
N      90.87427007      84.87973154      90.76851892
H      91.97975998      86.38773314      91.15213336
C      91.27867151      83.74589576      88.56509804
N      90.39238986      81.64640982      87.96416507
H      90.33947753      81.12106591      86.13113055
H      89.10170679      80.92075492      89.16792073
N      92.95296902      84.74745070      87.07410397
H      93.51232802      83.75534439      85.54153593
H      93.44807732      86.56536742      87.37834992
C      88.05857787      79.43354031     100.93335676
O      86.34837555      78.03136339     101.65145275
N      89.20564175      81.17964742     102.50182960
H      90.55679606      82.31726266     101.77806442
C      88.87682936      81.18531660     105.29862454
H      87.32347433      80.01935547     105.98648492
C      91.22953863      79.99100957     106.59686652
H      91.31835577      80.50501513     108.59052777
H      92.81123955      80.80359189     105.55562731
C      91.67740377      77.07327215     106.65544802
H      90.02011379      76.32494053     107.62109818
C      92.11582026      75.81093497     104.22148053
H      93.60303487      76.60462002     103.03851187
H      90.29601382      75.62196234     103.27472766
H      92.64305390      73.84750933     104.55407236
C      93.95641369      76.73879059     108.42234213
H      93.45752594      77.39452562     110.31017872
H      95.57968859      77.56460099     107.46047144
H      94.33246923      74.71678343     108.53194625
C      88.32691901      83.84227180     106.40978361
O      87.40284284      84.06336978     108.50737982
N      88.68785673      85.82459470     104.88099503
H      89.64972742      85.29736106     103.31819137
C      87.78078810      88.48343962     105.02650395
H      87.04946402      88.82736981     106.92189944
C      90.05601859      90.30513579     104.71658883
H      90.46608919      90.33915086     102.70025086
H      91.61504279      89.43019251     105.74271022
C      89.88216377      93.00744442     105.50082525
H      88.98643349      93.02445195     107.35464676
H      88.62738549      94.17529528     104.36132029
C      92.40683811      94.40962134     105.82963763
H      91.97031134      96.39761342     105.52161225
H      93.58413762      93.95986648     104.20069355
C      94.03389247      93.89939524     108.01605097
H      94.09058426      91.90951343     108.54895380
H      93.36681909      95.09559199     109.55617793
N      96.65305315      94.85937620     107.89321877
H      96.64360451      96.74343334     108.19935442
H      97.55256286      94.17340555     106.35687128
H      97.58657794      94.26411242     109.44468407
C      85.68697134      89.04090889     103.23504340
O      85.56035969      87.83904295     101.22626433
N      84.22432319      90.91740712     103.83975582
H      84.42652390      91.84148328     105.49893553
C      82.29302290      91.85282164     101.97270622
H      81.46532276      90.08025836     101.32641983
C      80.26534656      93.60837738     103.25583040
H      81.26312205      95.14472488     104.20069355
C      78.44365039      94.69874947     101.27917666
H      77.85594550      93.16240197     100.03762649
H      79.39607245      95.90061540      99.90345591
H      76.87706728      95.69841469     102.16545831
C      78.76301413      92.21564909     105.44224374
H      80.12550681      91.74699697     106.91623026
H      78.00901333      90.46387280     104.66556623
C      76.71455081      93.88049797     106.47970349
H      75.05348138      94.13561103     105.28728618
H      77.27013035      95.82313662     106.86520766
H      75.97755756      93.15106362     108.25793594
C      83.57614706      92.82414096      99.48015722
O      85.12572263      94.42851860      99.72960110
N      82.75789556      92.06258126      97.28429524
H      81.50878647      90.61694063      97.25972880
C      83.78212722      92.87327385      94.75773116
H      84.80824861      94.64961658      94.93536543
C      85.66240490      90.80591326      93.74105841
H      86.92663182      90.22765701      95.26039837
H      86.81891741      91.51078118      92.19148282
C      84.50211296      88.34171015      92.75084182
C      84.39061910      87.99966969      90.08065853
H      85.43185829      89.28468358      88.88446178
C      82.82403598      85.98333171      89.13012620
H      82.84671270      85.51278986      87.14402385
C      81.91318791      84.13139993      90.85166688
O      81.01178845      81.90908178      90.05420236
H      80.97966310      81.99600919      88.24384457
C      82.09271190      84.59060342      93.49350426
H      81.33115219      83.09016073      94.64812704
C      83.38528471      86.62961811      94.43269824
H      83.68575118      86.79402430      96.44525676
C      81.76389952      93.40050749      92.56942810
O      79.55480947      92.61627107      92.87178431
N      82.58970992      94.45875423      90.39435311
H      84.47754650      94.65339604      90.18837294
C      81.11761312      94.89339128      88.15691716
H      79.17119503      95.09559199      88.80509328
C      81.38406453      97.63349443      86.85300600
H      80.50156234      97.52766976      84.99540504
H      83.27568057      98.11348491      86.19349152
C      80.30692053      99.77455434      88.41580966
H      81.35760837     100.16194824      90.14490924
H      78.37184079      99.36826319      88.99028646
C      80.25778765     102.21419101      86.85867518
H      78.57215178     102.31245678      85.67759623
H      81.85082693     101.93640125      85.58688937
C      80.36739177     104.65193796      88.42336857
H      82.07570437     104.74075509      89.57043244
H      78.88017716     104.85035922      89.83499412
N      80.41085548     106.87236638      86.83032927
H      78.92742032     106.96118351      85.63413252
H      82.04735847     107.01409585      85.85900996
H      80.38628904     108.41438305      87.95660616
C      81.24233506      92.64461697      86.34466962
O      83.15851754      92.01911756      85.29965096
N      79.06159089      91.58637023      85.82688461
H      77.57815575      92.18919292      86.86812380
C      78.49089355      89.63239322      83.85023089
H      79.76078963      88.03935394      84.14880765
C      75.87551233      88.47210127      84.33400083
H      74.44121007      89.94986724      84.38880289
H      75.78291574      87.45353878      86.12168191
C      75.03647384      86.64095647      82.22695599
O      76.20243498      84.59060342      82.05310117
O      73.16753453      87.18708737      81.01375169
C      78.73277852      90.67930160      81.21406267
O      78.61939494      93.02067250      80.82099960
N      78.96521485      89.07303423      79.30921856
H      78.98222240      87.27212506      79.94416659
C      78.66285865      89.62294459      76.61446883
H      80.21999313      90.82670025      76.01164614
C      78.94820731      87.18708737      74.94206105
H      77.10950361      86.30458518      75.22551999
C      78.98600185      87.62550388      72.20195790
H      80.12361709      89.26200686      71.68795234
H      77.13407005      88.21509849      71.51787696
H      79.45465397      85.85105087      71.26843310
O      80.97777337      85.59782754      75.35213165
H      80.62817401      84.48855820      76.74485995
C      76.30070076      91.22732223      75.78865844
O      76.44431995      92.48776968      73.86302733
N      74.18798673      91.20086606      77.28154222
H      74.11995658      89.83081449      78.61190955
C      71.85984391      92.71831629      76.91493531
H      71.35906644      93.00177524      74.93639187
C      69.44477369      91.44464076      77.98829987
H      67.89519811      92.80146425      78.00152795
H      69.97011760      90.74166257      79.85157000
C      68.72289824      89.12405684      76.40470921
H      67.09584388      88.26234165      77.33067510
H      70.35184231      87.87872720      76.61257910
C      68.01236114      89.60404733      73.56823001
O      68.42999065      87.75211554      72.07912568
O      67.01647537      91.52211954      72.79722168
C      72.10361861      95.49999342      77.82389367
O      70.36884985      97.02311283      77.46484568
N      74.10861822      96.03100652      79.13536373
H      75.23111565      94.49654875      79.32244664
C      74.69065394      98.41962058      80.36557557
H      73.88752025      99.98431396      79.29599047
H      76.72588917      98.73331515      80.39392145
C      73.71177571      98.74276378      83.05465611
O      73.56437705     100.83469081      83.93526857
N      72.80281734      96.69807991      84.21872751
H      73.24690304      95.08425364      83.30409997
C      71.59339250      96.77933814      86.69237926
H      71.24190341      98.72008706      87.29142250
C      68.85517907      95.44141191      86.62623883
H      67.97456661      95.07291528      88.45171446
H      69.25580105      93.53656778      85.95349628
C      67.27725760      96.67918264      84.65525430
C      66.09617866      95.13905570      82.76552799
H      66.40420405      93.13027663      82.93182389
C      64.50502910      96.27478121      80.89847839
H      63.63008582      95.13905570      79.44527885
C      63.73968995      98.89772133      81.11390719
O      61.99169311      99.83502559      79.49441173
H      61.87453007     101.64160394      79.59267750
C      65.12674906     100.37359759      82.87891156
H      64.93588671     102.40694310      82.85812458
C      66.74057533      99.24921043      84.73651252
H      67.59662135     100.46241472      86.13491000
C      73.00312833      95.53778795      88.94115358
O      74.80403752      94.06947061      88.59344393
N      72.13952341      96.03856542      91.35244434
H      70.79403827      97.34814576      91.69826427
C      73.34138934      95.18629886      93.68436662
H      75.38418350      95.12204816      93.41602549
C      72.95966463      96.96831077      95.93881011
H      72.72533856      95.75132702      97.58287200
H      71.03592324      97.66184033      95.67613816
C      74.91175191      99.08858369      96.43580812
C      73.98389629     101.57924297      96.75517188
H      71.99779394     102.01954920      96.59076568
C      75.53725132     103.62581657      96.89690135
H      74.80592723     105.51743261      97.11610961
C      78.24900858     103.13448773      96.86666573
O      79.75134101     105.22263530      96.62478076
H      78.99922993     106.81567459      97.04807946
C      79.26190188     100.63060036      96.50005882
H      81.27446040     100.51910651      96.18258481
C      77.53280230      98.54623224      96.18258481
H      78.31703873      96.68485182      95.89156696
C      72.76880227      92.40651145      94.46671332
O      70.56727111      91.79612985      94.48372085
N      74.73600737      90.94008383      95.04874901
H      76.49156311      91.59014968      95.42480455
C      74.74734573      88.20753958      94.85032775
H      72.80848653      87.59337853      95.18291959
C      75.32560197      87.57448127      92.14990886
H      77.13973924      88.46643209      91.76251496
C      75.53914105      84.72477399      91.51874027
H      77.04903237      83.74589576      92.52218493
H      76.24778842      84.59627260      89.58932970
H      73.70610652      83.80069782      91.68125672
O      73.25446193      88.45131428      90.54364148
H      73.80626201      90.09537617      90.01640785
C      76.57849053      87.04913735      96.75895132
O      78.23389077      88.25667247      97.68302750
N      76.12495620      84.68697946      97.42413500
H      74.57349090      83.74211630      96.84398902
C      77.72177494      83.21488266      99.04363045
H      79.50945603      84.23155542      98.95481331
C      76.64274122      83.29236144     101.71381372
H      76.34794392      85.30114051     102.05963363
C      74.17475866      81.92042014     102.24482681
H      72.69510295      82.81048123     101.12232939
H      73.68720927      82.46844077     104.17045792
H      74.39396690      79.87573627     102.34309258
C      78.41152504      82.56292709     103.74904897
H      79.37717520      80.76957681     103.45236193
H      77.52713313      82.37773391     105.60098075
C      80.35416369      84.55847807     104.18935520
H      81.35382892      84.12573075     105.93735204
H      79.61717043      86.39907150     104.74493473
H      81.86783447      84.51879382     102.79284745
C      78.17719898      80.53336103      98.03262686
O      76.80525768      79.52991635      96.55675061
N      80.21432394      79.39574578      98.93024687
H      81.53146319      80.23289454     100.02817785
C      80.91919186      76.94666048      98.17057689
H      79.48488959      75.58416781      98.74694340
H      82.71632159      76.31549189      98.95103386
C      81.29713713      76.66509126      95.29819289
O      82.76734419      78.13718806      94.23427698
N      80.00834377      74.90953552      93.98483311
H      78.54569561      74.18766007      94.98071887
C      79.98566707      74.89819716      91.32976763
H      81.28579876      76.39675013      90.78174700
C      80.99667064      72.40942761      90.04853320
H      79.52268412      70.97512533      89.92003180
C      81.70909746      73.22200992      87.43504171
H      83.23221686      74.60717931      87.41614444
H      80.04235886      74.09884293      86.60167239
H      82.02090230      71.52314596      86.31254428
C      83.17930453      71.12252399      91.53196834
H      82.21365438      70.47812731      93.23461176
H      84.50967185      72.47556803      92.33132258
C      84.79502052      69.24791548      90.08065853
H      83.88417244      67.71345772      89.05642687
H      85.85326726      68.29549342      91.56787315
H      86.11404949      70.15309439      88.78241657
C      77.42319818      75.62574179      90.39057365
O      75.74512121      74.09128402      90.72883466
N      77.09627553      77.87262638      89.44948994
H      78.61183603      79.00079299      89.18303853
C      74.85694985      78.81371008      88.17203496
H      74.33538538      77.30003930      86.87568271
H      75.22166702      80.46533088      86.99473547
C      72.53636593      79.21433206      90.02018729
O      70.51624850      79.99289930      89.19248717
N      72.74801529      78.69654705      92.46360341
H      74.47333541      78.24490246      93.14390490
C      70.51057932      78.95166010      94.13034203
H      68.84006127      78.14663669      93.23461176
C      70.96411364      77.62885168      96.59076568
H      72.16408985      78.80048200      97.78885216
H      71.82015967      75.77503017      96.32431428
C      68.57549958      77.44365850      98.12333372
N      67.41709735      75.23078899      98.66379545
H      68.10306800      73.49224078      98.27262210
C      65.39886965      75.73534592     100.07731073
H      64.01370026      74.39552996     100.75194303
N      65.24013264      78.14096751     100.50627861
H      63.94189066      79.17086835     101.45303148
C      67.22056581      79.31637728      99.29685376
H      67.65520287      81.31003854      99.28740514
C      69.95311007      81.84672081      94.52907427
O      71.14930682      83.07693264      96.01628888
N      67.99346388      82.67820039      93.19114805
H      66.80482602      81.32893580      92.55431028
C      67.05993908      85.28035352      93.34988506
H      68.61896329      86.52946262      92.84910758
C      64.72801681      85.54113575      91.51118136
H      63.14820561      84.48477875      92.30675614
H      65.24391209      84.68508973      89.71027218
C      63.91354477      88.27556973      91.18614844
H      63.72835159      89.08815204      93.06831584
C      65.94878001      89.64751103      89.73483862
H      66.15853963      88.95209175      87.80542806
H      67.76669673      89.87049874      90.67592233
H      65.12107989      91.49188391      89.34744473
C      61.48146700      88.09226628      89.48728447
H      60.43077917      89.85538093      89.33232691
H      60.03582637      86.82992910      90.23561609
H      62.04271572      87.65573950      87.55598418
C      66.30593828      86.04191323      95.95770737
O      64.94155588      84.72666371      97.18791921
N      66.96167331      88.33604097      96.76462050
H      68.42054203      89.17696918      95.86511078
C      66.25491567      89.59270897      99.05685852
H      65.46878952      88.25667247     100.41368202
C      68.55471259      90.89473040     100.43257929
H      67.80827070      92.15895730     101.87444045
H      69.52603192      92.17596484      99.14189620
C      70.53514577      88.84815680     101.23193351
H      70.92064994      87.80502788      99.49716476
C      72.93887764      90.10293507     102.03128775
H      74.59049844      88.88784105     101.82908703
H      72.67620568      90.86827423     103.92668323
H      73.24312357      91.53723735     100.58753683
C      69.50335520      87.01134283     103.30685300
H      70.90931158      85.70554194     104.05518462
H      68.01236114      85.87750704     102.44891725
H      68.83628181      88.19620122     104.85453886
C      64.10440712      91.40684623      98.26695292
O      61.86886090      90.76622901      98.64867765
N      64.76014215      93.49310408      96.92335752
H      66.62152258      93.75766576      96.60210405
C      62.82884186      95.26188791      95.90101558
H      61.31895054      94.02600690      95.23961137
C      61.98980338      97.23098273      97.97782480