 %block lattice_cart
   142.669   0.000   0.000
   0.000 146.65   0.000
   0.000   0.000   162.396
 %endblock lattice_cart

 %block positions_abs
N      91.74354418      44.11266580      76.79304796
H      93.52555610      44.18069595      76.11463622
H      90.48498646      44.44525763      75.39842995
H      91.53567429      42.28719018      77.31272270
C      91.70952911      45.52807081      79.18922093
H      93.08524987      44.78162891      80.53092661
C      92.08936410      48.42313152      78.93977707
H      90.34703644      49.44925291      79.33472986
H      92.90194641      48.90312200      77.10863226
C      93.91672944      49.20358848      80.98824038
H      95.39449542      47.78251430      81.20744864
H      92.70163542      49.18847067      82.65308927
S      95.23197896      52.45202802      80.39486632
C      97.81334510      51.91156629      78.22923997
H      99.19095558      50.69836200      79.16276477
H      98.83379731      53.65389395      77.82105909
H      97.32768544      50.81741476      76.55305273
C      89.23587737      45.15957418      80.48368346
O      87.39150448      44.91957893      79.19489012
N      89.18863421      45.54507834      82.96300439
H      90.87615981      45.36366462      83.83605793
C      86.76411535      45.99672293      84.36896076
H      85.38461514      44.73249603      83.50913528
C      87.10237636      45.25783994      87.15252761
H      88.77856360      46.22726954      87.85739553
H      87.39150448      43.21882525      87.15819679
C      84.90084520      45.74160988      88.96666488
O      83.07159013      46.96993198      88.43754150
N      84.81769725      44.54352340      91.10772479
H      83.32859291      44.65312752      92.29636265
H      86.28979404      43.39079035      91.48755977
C      86.15373375      48.84831994      84.00424358
O      87.95842238      50.36388044      83.93054426
N      83.64228748      49.55885703      83.81905040
H      82.48766470      48.08676023      83.45055376
C      82.75789556      52.12321564      83.89652917
H      83.90495944      53.00571783      82.43010157
C      79.97810816      52.44068966      83.12741057
H      79.75512045      51.34842785      81.39453155
C      78.15641199      51.34275867      85.10217456
H      76.26857541      51.41078882      84.27825390
H      78.42664286      52.35187252      86.87851731
H      78.62506412      49.35854604      85.39886159
C      79.29402723      55.16378528      82.45088856
H      79.74378210      56.49415260      83.95700043
H      77.26824063      55.11276267      82.08239192
C      80.86816925      56.14644296      80.17376834
H      79.98944652      57.84341719      79.40653946
H      81.11383367      54.69513315      78.73190716
H      82.74466748      56.46769643      80.95800476
C      83.70464845      53.69357820      86.26057680
O      84.63439379      55.70235728      86.14530349
N      83.53079363      52.48793282      88.42242370
H      82.62939418      50.81363530      88.23156135
C      84.15629304      53.44413433      90.99245149
H      83.47032238      55.35086818      91.36850702
C      82.99978053      51.73771147      92.91808260
H      83.98621767      52.27250402      94.64529244
H      83.55913952      49.80263173      92.49478391
C      80.25211847      51.75282928      93.48500049
C      78.53057780      50.68702364      91.78802626
H      79.16930530      49.94625093      89.99656572
C      75.97944728      50.27884276      92.34927498
H      74.68687448      49.39067139      91.04536382
C      75.15552661      51.26527989      94.77001438
H      73.17131398      51.10087370      95.22165897
C      76.73344808      52.53706570      96.40651738
H      76.13251511      53.50082612      98.10160188
C      79.33749094      52.58430886      95.88306318
H      80.50156235      53.43468570      97.33059354
C      87.14584006      53.80507206      91.15496794
O      88.00377581      55.20157980      92.85005245
N      88.78612250      52.84320136      89.46177318
H      88.22109434      51.70747585      88.03502980
C      91.49221058      53.67279122      89.23689574
H      92.24432166      54.33608515      91.03591520
C      92.88115942      51.17835248      88.65108059
H      92.11959972      50.39222634      86.90686319
H      92.37282305      49.92924339      90.21010480
C      95.80645576      51.38055320      88.34872438
H      95.94251605      52.75438423      86.82182552
H      96.62848670      49.63822554      87.62306947
C      97.25776556      52.12699509      90.72222063
O      96.41305790      51.58842309      92.93509013
O      99.20040421      53.32697130      90.48222539
C      91.71897774      55.72692372      87.14685843
O      93.15139029      57.49192809      87.38685367
N      90.54734743      55.44724422      84.97556291
H      89.18674448      54.11876663      84.82249508
C      90.80812966      56.77194237      82.57183104
H      92.79423201      56.63210262      82.04459739
C      89.25855408      55.47936957      80.46478620
H      87.42740928      55.60598123      81.39642127
H      89.92940692      53.53673092      80.34384372
C      89.18296503      56.67556633      77.81161045
H      91.08402970      56.76249374      77.02170485
H      88.63494440      58.62198443      78.20656326
S      86.88694756      55.54173054      75.56472586
C      88.04912924      52.52194789      74.62364217
H      89.83114115      52.67123627      73.59941050
H      86.70364411      51.59976145      73.36697417
H      88.03023198      51.33708949      76.30738831
C      90.15050490      59.64621609      82.75513448
O      91.63960924      61.38098485      82.29215154
N      88.00188608      60.24714906      83.83983740
H      86.94741880      58.74859609      84.37085049
C      87.18363459      62.92489124      84.31604843
H      87.10426608      63.98124825      82.54915431
C      84.55880474      62.75103642      85.64263630
H      84.20920537      64.59918876      86.48167478
H      84.53801775      61.34696977      87.14874817
C      82.42152428      62.14632400      83.73023326
H      82.88261750      60.46068813      82.63797145
C      80.04991776      61.59830337      85.19666089
H      80.41463494      60.37187099      86.81048716
H      78.40396614      61.11264371      84.05715591
H      79.62283961      63.30094678      86.27191516
C      82.13995506      64.44801065      81.92932409
H      81.98121805      66.28482462      82.85340025
H      80.37873014      64.07573457      80.92965886
H      83.66874365      64.28549419      80.55549305
C      89.02800747      64.44612093      86.09239116
O      89.05635337      66.71001305      85.64452601
N      90.42451522      63.18945293      87.74968114
H      90.18263025      61.30161634      87.90652841
C      92.45219155      64.55005587      89.06304092
H      91.80968460      66.20167667      90.11561848
C      93.80712532      62.73402889      90.90930352
H      95.37559816      63.81306261      91.69353994
H      94.58002338      61.13532043      89.86995405
C      92.25566001      61.76459929      93.18264428
H      90.28656520      61.35830813      92.72533051
H      92.20841686      63.36330775      94.47899653
C      92.93974094      59.28149891      94.30514172
H      94.95040974      59.21913794      94.74544794
H      92.57502376      57.76026923      92.96154630
N      91.59047635      58.52371866      96.56525439
H      90.18640970      57.26516094      96.26667762
C      91.85125858      59.27016055      98.83670541
N      93.33469374      61.23736565      99.44330756
H      93.41595197      61.84018834     101.25177564
H      94.01688494      62.50915145      98.19230873
N      90.47931728      58.76182418     100.70564474
H      90.97442557      59.55172977     102.37049362
H      89.03934583      57.52216371     100.52423101
C      94.55356721      65.63097932      87.43220711
O      95.60992422      67.54527208      88.13896476
N      95.36237007      64.39887777      85.39697188
H      94.37215348      62.86253028      84.85273070
C      97.20107377      65.57617726      83.55070926
H      98.44073424      66.95567747      84.45021899
C      98.99253432      63.62786943      82.33561524
H      99.96574337      64.53682779      80.76336296
C     101.19595520      63.01748783      84.24045937
H     102.21451768      64.75603603      84.66942724
H     102.67750063      61.70223832      83.67354147
H     100.45140303      62.27671512      86.01113292
C      97.59980603      61.29216771      80.94477667
H      96.32613049      62.15010346      79.57283537
H      96.46219079      60.27171550      82.32616662
C      99.23063984      59.34763933      79.65976278
H      99.92227967      58.20057546      81.22067673
H     100.73108253      60.19423672      78.53348591
H      98.02499445      58.18734738      78.45978657
C      95.94629550      67.24480560      81.48334868
O      97.22375049      68.86619076      80.33439508
N      93.57090953      66.73457949      80.85029037
H      92.70541488      65.47602177      81.99546451
C      92.24810111      67.96668105      78.70545100
H      93.61626296      68.24447081      77.19178023
C      89.98420899      66.49458424      77.85885360
H      88.51211219      67.17866517      79.12685996
H      90.25255012      64.50848189      78.33695436
C      89.46264452      66.80071990      75.06016895
O      90.82135774      68.17455094      73.73736052
O      87.70141960      65.50814711      74.21924073
C      91.49599004      70.67465885      79.43866481
O      91.78133871      72.48879611      77.97790636
N      90.68151800      71.02803766      81.72334392
H      90.33758781      69.42554975      82.69844269
C      90.09192339      73.44688734      82.94221740
H      89.64027880      74.76402659      81.42665688
C      87.60126410      72.99713249      84.35006350
H      87.80157509      71.63463982      85.88452127
H      86.36916255      72.10707139      82.95922493
C      86.17830019      75.37440818      85.03792388
H      87.26300309      76.67831935      86.20577474
H      84.44920061      74.98512457      86.09050142
C      85.33170280      77.02224954      82.77025230
O      83.35882853      76.35895559      81.60429117
O      86.32947830      79.13685327      82.33750498
C      92.06857711      74.74134987      84.60895600
O      92.40872785      77.00146255      84.70911150
N      93.38760608      73.10106744      85.97333839
H      93.14194165      71.22267948      85.73901233
C      94.85214397      73.89097304      88.12195721
H      96.19573938      75.28181159      87.41330985
H      96.04267155      72.37919199      88.85895048
C      93.37437799      75.10984651      90.18553834
O      91.22764890      75.92053910      89.92664584
N      94.58380283      75.12118487      92.44376130
H      96.49053668      75.14764103      92.43998185
C      93.54823281      75.92242882      94.83237535
H      91.48843113      75.89786238      94.80591918
C      94.52711104      73.96656208      96.76367565
H      96.54344902      73.62641135      96.50289342
H      93.53689445      72.20911661      96.34604613
C      94.17562195      74.45033202      99.66818498
H      94.77277546      76.30415354     100.34281728
C      91.37693728      74.34261763     100.25211042
H      90.49632482      75.93754663      99.29401918
H      91.06324271      74.41253750     102.28734565
H      90.37916179      72.80627012      99.30724727
C      95.50032009      72.43210432     101.10059754
H      97.51098889      72.71745300     100.74910843
H      94.90127685      70.66521022     100.22754398
H      95.02599879      72.58517216     103.09803824
C      94.38349184      78.56426620      95.68653165
O      96.51888258      79.24078823      95.16307746
N      92.69596624      80.16675412      96.79958045
H      90.84214473      79.89841298      96.43297354
C      93.06446288      82.60639079      98.09782243
H      95.03166797      83.01457168      98.55324647
C      92.21219631      84.68320001      96.28746462
H      91.25977425      86.24033449      97.23988667
H      90.87804953      83.98778072      94.87961852
C      94.45530144      85.84727141      94.84938288
H      95.60425504      84.42997669      93.88940193
H      95.59291668      87.04913735      96.07392554
C      93.32902456      87.77479225      92.96910521
H      94.49876515      89.46609731      92.81603737
H      91.57724827      88.57792593      93.69664984
N      92.73942995      86.72221469      90.46710757
H      92.57880321      84.82115003      90.41041578
C      92.54100869      87.90896283      88.26368668
N      92.71675323      90.40907074      88.10494968
H      92.38983058      91.33314691      86.46655696
H      93.14950056      91.57503188      89.55436977
N      91.93818599      86.63150784      86.09806033
H      91.76811063      87.65951895      84.49746215
H      91.26922288      84.84571647      86.05459663
C      91.59992498      82.84827576     100.64139404
O      89.44374726      82.00545783     100.74532899
N      92.71108406      83.91219168     102.63316558
H      94.49309597      84.59816233     102.69741627
C      91.49787976      84.18809172     105.10114814
H      89.88594322      82.92575454     105.30334885
C      93.55390199      83.60416628     107.12126557
H      92.49187580      83.65707862     108.88438021
H      94.97875563      85.08193225     107.28000257
C      94.89560767      81.04358713     106.97386692
H      95.87259618      80.86217340     105.16917829
C      96.43762434      80.70343640     109.28500220
H      95.33780363      80.78658434     111.02544013
H      97.72263824      82.19254073     109.89160435
H      97.54500396      78.96677791     109.19051588
C      92.82635736      78.80615117     107.15906010
H      91.94574490      79.04047723     105.31279749
H      91.57913799      78.94221147     108.79556308
H      93.74854380      76.96555775     107.08536077
C      90.32624945      86.82614965     105.44507832
O      88.52723000      86.98677639     106.92284430
N      91.19930300      88.74044241     103.97487125
H      92.81690873      88.17541424     103.13394304
C      90.27333711      91.35582361     104.03156304
H      89.37004793      91.66762845     105.85514894
C      92.61848747      93.12838690     103.87282604
H      92.03456204      95.09559200     103.68574313
H      93.41973142      92.86193549     101.99443808
C      94.48742679      92.82981015     106.04412156
H      95.21875087      90.90417902     106.05545992
H      93.64838831      93.40806639     107.83369239
C      96.53589011      94.75166180     105.57924890
H      95.71385917      96.63760867     105.45830641
H      97.24453748      94.45119532     103.66873560
C      98.69773701      94.69497001     107.51054919
H      99.11536653      92.80902316     108.22675546
H      98.13459857      95.76077566     109.17728779
N     100.92950379      96.02911679     106.63938536
H     102.45262320      96.05368323     107.79400813
H     100.44573385      97.85270268     106.34269833
H     101.71940939      95.48865507     104.98965429
C      88.46486903      91.94163878     101.86404697
O      89.23965682      91.61093668      99.60393430
N      86.34459611      93.24554994     102.27222785
H      85.83248028      93.63105409     104.07124730
C      84.41896499      93.85404181     100.23888233
H      83.75378133      92.01155865      99.60015485
C      82.08326327      95.43574273     101.20642220
H      82.63317363      97.07224572     102.32514018
C      80.30692054      96.58847578      99.29212945
H      79.26001216      95.11637899      98.29813341
H      81.42374879      97.90372530      98.17152175
H      78.95009704      97.96041709     100.00644600
C      80.50723153      93.79546028     103.12071497
H      81.62405978      93.12460745     104.71753370
H      80.04046913      92.34037102     101.73932502
C      78.11483801      95.08236390     104.19974869
H      76.89974399      95.48487561     102.58592241
H      78.54002643      96.84358883     105.18051664
H      77.11895225      93.84648290     105.51121874
C      85.44508638      95.18440913      98.00144638
O      86.89828592      97.01933338      97.97121076
N      84.87249931      94.10915486      95.84148921
H      83.56291897      92.72398546      95.75267206
C      85.75689122      94.94063443      93.27713060
H      86.57325299      96.81146348      93.55492037
C      87.83181072      93.06413621      92.43809212
H      89.44563699      93.00366497      93.71365737
H      88.72187181      93.93907949      90.79969940
C      87.02300785      90.40907074      91.79180571
C      86.52412011      89.90262409      89.22933683
H      86.87371947      91.25377840      87.73834278
C      86.08948305      87.27590450      88.45265932
H      85.44697611      86.77701677      86.58183028
C      85.91562823      85.35216313      90.30459111
O      85.62650011      82.86339356      89.58838483
H      84.85360205      82.75756889      87.94999212
C      86.02712209      86.01545706      92.84249354
H      85.66807409      84.63028766      94.29758281
C      86.73199000      88.51556497      93.61917107
H      87.02678731      88.80280337      95.61661177
C      83.61016213      95.15795296      91.29291797
O      81.66563376      93.93530004      91.59149473
N      83.95787177      96.76611006      89.32004369
H      85.69453026      97.45019097      88.91753200
C      81.94720298      97.20263683      87.44732493
H      80.03668967      97.04389982      88.19943600
C      82.11916807      99.90683519      86.35317339
H      81.13462066      99.80478996      84.54848476
H      84.14495468     100.25265509      86.20766446
C      80.68297607     101.69829573      88.01991200
H      81.59004470     101.61514777      89.86806433
H      78.70821208     101.15972372      88.25612779
C      80.89273569     104.51020848      86.85395085
H      80.36739178     104.44595778      84.86217932
H      82.89206613     104.95051471      87.07504884
C      79.23166626     106.48308275      88.29203259
H      80.03668967     108.35391180      87.97077911
H      79.43575671     106.08246078      90.30081166
N      76.62573368     106.44339851      87.45866328
H      75.43898555     107.52243223      88.49234358
H      75.98511646     104.64626878      87.38307423
H      76.26857541     107.14448696      85.72011507
C      82.24389001      95.18062968      85.28736774
O      84.28668415      94.56268918      84.40486556
N      80.01590268      94.37938572      84.35762240
H      78.41908395      95.06724610      85.14185882
C      79.72866428      93.09437182      81.99168506
H      80.74911649      91.33881608      82.33750498
C      76.83171385      92.34415047      81.70255694
H      75.69409861      93.96175621      81.11863150
H      76.24589869      91.62038531      83.53748119
C      76.65030012      90.28434879      79.65031416
O      76.55203435      90.93441465      77.29571517
O      76.44243023      87.95242652      80.03392860
C      80.76423430      94.54568163      79.72779293
O      80.85683089      96.80201486      79.81283061
N      81.11950285      93.26633692      77.53760014
H      80.59037948      91.43330239      77.45634191
C      81.43697687      94.42284943      75.06205866
H      83.26245249      95.36960231      74.93733672
C      81.56169881      92.49343885      73.02304397
H      81.24422479      93.33625679      71.16922247
C      84.22810264      91.18196880      72.94934464
H      84.69297531      89.99333094      74.56695038
H      85.50366790      92.76366972      72.60541446
H      84.07125535      89.67774665      71.55283691
O      79.82315060      90.53946186      73.45579131
H      78.64774083      90.71142694      74.82584288
C      79.36016765      96.26533258      74.38175720
O      79.66252386      97.60325880      72.59974528
N      77.28146871      96.18218462      75.75558822
H      77.09816526      94.51355628      76.66265685
C      74.93631836      97.70530403      75.40031968
H      74.83427313      98.99976656      73.80161121
C      72.68565432      95.98187363      75.13764771
H      70.93387802      97.06657653      75.11686072
H      72.87840640      94.67229330      76.71745891
C      72.96344408      94.60804261      72.60163501
H      74.49412240      93.22854240      72.64509872
H      73.55114897      95.82880581      71.05016971
C      70.46522590      93.20775541      71.93078216
O      68.64352973      94.21308981      70.70057033
O      70.33105533      90.87961259      72.45612608
C      74.38262855      99.64227350      77.65098371
O      72.44754880     100.86114697      77.67743988
N      76.11928703      99.77644406      79.52937168
H      77.68209069      98.69741035      79.34795795
C      75.96810892     101.60758886      81.67043159
H      74.99867932     103.32912953      81.09028561
H      77.89940921     102.12726360      82.16365015
C      74.52435802     100.56634966      83.97589769
O      74.52624775     101.74931833      85.98278702
N      73.26769002      98.42151030      83.63574694
H      73.37729415      97.35003549      82.05971521
C      71.91842543      97.34814575      85.86562400
H      70.68821360      98.64827745      86.88418649
C      70.19499504      95.27322627      84.98123209
H      68.72856742      95.22976256      86.42876243
H      71.17765272      93.46664791      84.87540741
C      68.66809617      95.75132702      82.61340501
C      68.63219137      93.77467330      80.72178897
H      69.76791689      92.08336825      80.78037049
C      67.34150830      94.16017747      78.47868385
H      67.42276653      92.78256699      76.97446170
C      65.97901563      96.36170863      78.05538515
O      64.78281888      96.55824015      75.73102178
H      63.60362966      97.93585064      75.68755807
C      65.71067450      98.13427190      80.06227449
H      64.56739008      99.79723105      79.75991828
C      67.20355828      97.84703351      82.26569538
H      67.13174868      99.29834332      83.69810791
C      73.64374556      96.33903191      87.91219759
O      75.69787806      95.40550710      87.48133999
N      72.89352421      96.37871616      90.35372399
H      71.09828421      96.96264159      90.63718293
C      74.54703473      95.53589823      92.47966609
H      76.48400421      96.09525722      92.06581603
C      73.73445242      96.71130798      95.07426032
H      75.02891494      96.06880105      96.54068793
H      71.76724733      96.21619970      95.43330832
C      73.74012160      99.63282487      95.09882676
C      71.54236990     101.04067098      94.88528768
H      69.69988674     100.16005852      94.85694179
C      71.81260076     103.69384672      94.84182399
H      70.14019297     104.85791812      94.94575894
C      74.18042783     104.82957222      95.13095211
O      74.40530526     107.36936439      95.33504256
H      72.76124337     108.11013711      95.53157409
C      76.33282610     103.40660831      95.07992950
H      78.17341953     104.27399270      94.92686167
C      76.20621444     100.76666066      95.25189459
H      77.95043182      99.78967216      95.65818576
C      74.85317040      92.82981015      93.18075456
O      72.94265709      91.69030517      93.80058478
N      77.14918787      91.97943331      93.20343127
H      78.60616686      93.19641705      93.01256892
C      77.88807086      89.23555070      93.09571687
H      76.33471583      87.89195528      92.93886959
C      79.42630807      88.76122939      90.70710281
H      81.36327755      89.46231786      90.72600008
C      79.72110538      86.11939201      90.00601434
H      80.40140685      85.89262485      88.07471406
H      77.80681262      85.39562682      90.24789931
H      80.96265557      85.10649871      91.30047688
O      78.18853734      89.82703503      88.58494017
H      79.06537035      91.32369827      88.05392706
C      79.51512521      88.61005128      95.41441106
O      80.70187334      90.24655427      96.55580575
N      79.35638820      86.25356258      96.27234680
H      78.17530926      85.06303500      95.35960900
C      80.97210420      85.32192750      98.30758205
H      82.81080790      86.24978312      98.27734643
C      79.57748618      85.79624881     100.84170502
H      78.89907443      87.74077719     100.92485299
C      77.34193995      83.93297867     101.09303863
H      76.18164800      84.35249791     102.74276970
H      78.04869759      82.00545783     101.26122426
H      76.16841991      83.95376565      99.39984386
C      81.49366866      85.71688030     103.11882524
H      82.01145367      83.76290330     103.51755748
H      80.24833902      86.41040986     104.60603984
C      83.69142036      87.58959907     103.02433892
H      85.26178293      86.54835988     102.19285935
H      83.98621767      88.00533886     105.01988990
H      83.25300386      89.36783153     102.08325521
C      81.56169881      82.50623530      97.82570184
O      80.34660479      81.30436936      96.23644201
N      83.47032238      81.65207900      99.22031985
H      84.48132596      82.79725315     100.36549399
C      84.05991699      78.89496830      99.22976848
H      82.30814070      77.81971404      99.37716713
H      85.31091581      78.16175451     100.69430637
C      85.28068019      77.78569896      96.88083868
O      86.84537358      78.90063749      95.66007547
N      84.18463893      75.52747602      96.06825636
H      83.02623670      74.54859778      97.22665860
C      84.43786226      74.70922452      93.49066968
H      86.08003442      75.59172671      92.61383666
C      84.72321093      71.73857477      93.45098542
H      83.13395110      70.78804243      94.35238487
C      84.65518078      70.68599721      90.73166925
H      82.79191064      70.96189725      89.90018968
H      84.89517602      68.64320306      90.85072202
H      85.94208440      71.56660967      89.38618412
C      87.19875240      71.26614319      94.97032538
H      86.64506259      71.40031376      96.94886883
H      88.64061358      72.69477628      94.62072600
C      88.42896423      68.87752912      94.52812941
H      89.47587261      68.86241132      92.75367640
H      87.12127362      67.28637957      94.51490134
H      89.84058979      68.58273182      96.00022621
C      82.08893245      75.61062398      92.15463317
O      80.14629380      74.47867791      92.27746538
N      82.45931881      77.75357361      90.79025076
H      84.14684440      78.64174499      90.85261173
C      80.60927675      78.68142923      88.99123131
H      80.67352744      77.69688182      87.18276323
H      81.42941797      80.53525075      88.61895524
C      77.71043658      79.08205122      89.78113692
O      76.14763292      78.72678267      88.16353120
N      77.26068172      79.33905400      92.09794138
H      78.74033742      79.36551017      93.30358677
C      74.69065393      79.52802662      93.26957169
H      73.74012160      78.18254149      92.03369068
C      74.73789709      78.70221623      95.98888786
H      76.10227949      79.80203694      97.06792158
H      75.32182252      76.73879059      96.17975021
C      72.18487684      78.74567993      97.47232302
N      70.54270468      76.74823922      97.47799219
H      71.14552737      74.97378621      97.11894419
C      68.61140439      77.29625985      98.83103623
H      67.23568363      75.92053910      99.44708701
N      68.67754481      79.80581639      99.40929248
H      67.51536312      80.96610835     100.38250154
C      70.95088556      80.85650423      98.51923138
H      71.75779870      82.71410518      98.77434444
C      73.42642703      82.19254073      92.90485451
O      74.46577650      83.98778072      93.90640946
N      71.05859996      82.43442570      91.95054273
H      70.29137108      80.90563711      91.10394534
C      69.85106485      84.98933566      91.92030711
H      71.20410889      86.52190370      91.67086323
C      67.93677209      85.25578708      89.62617936
H      66.55727188      83.73833686      89.82271090
H      68.93643731      85.20287475      87.82527018
C      66.43443967      87.65762922      89.58082592
H      65.26280936      87.94108818      91.25323371
C      67.99535361      90.03112548      89.30681562
H      69.13863803      90.20309056      87.60228247
H      69.38997163      90.19553167      90.81481722
H      66.75569315      91.63739284      89.67342251
C      64.52014692      87.99589023      87.44165575
H      63.25780974      89.59081925      87.77046812
H      63.14631589      86.48221946      87.68543044
H      65.54059913      88.40974030      85.70121780
C      68.62652220      85.57515083      94.41852529
O      66.93143769      84.19565062      95.28024048
N      69.49390657      87.68975457      95.45787476
H      70.62396291      88.91240749      94.52623970
C      68.06716321      88.97476847      97.46476411
H      67.15820485      87.46487713      98.53056974
C      69.97011760      90.40340156      99.07292120
H      68.91187087      91.54668598     100.42029607
H      71.15119655      91.65251065      97.94097514
C      71.84283638      88.83681845     100.53934881
H      72.75557419      87.52912783      99.23732739
C      73.88374080      90.50544677     101.65995652
H      74.89852383      91.24810921     100.02912271
H      75.09316564      89.42830277     102.93174233
H      73.04848177      92.04746345     102.74465942
C      70.49735125      87.25511751     102.59726077
H      69.35595655      85.69609332     101.88105450
H      69.34461819      88.55713894     103.70086093
H      71.77480623      86.68442018     104.10715210
C      65.66721079      90.45631389      96.50289342
O      63.57339404      89.58515006      96.65407151
N      66.29648965      92.68241149      95.37661653
H      68.12952418      93.21153485      95.44653641
C      64.38030717      94.45308504      94.73221985
H      62.65687677      93.47987600      94.16341223
C      63.39009058      95.89872568      96.92808184