 %block lattice_cart
   142.669   0.000   0.000
   0.000 146.65   0.000
   0.000   0.000   162.396
 %endblock lattice_cart

 %block positions_abs
N      87.38394558      43.47677290      79.53882030
H      85.87405426      43.45409618      78.37474889
H      87.19119350      42.08215488      80.82761364
H      88.73509989      43.06292283      78.25758586
C      87.79590592      45.92018901      80.86540817
H      89.47398288      45.62161226      82.02381040
C      88.27400667      48.23888319      79.17410312
H      86.57136327      48.57147503      78.06672350
H      89.80090553      47.72676737      77.88719950
C      89.21509038      50.69930686      80.32494644
H      91.15583930      50.51600340      80.99201983
H      87.89039223      51.27000420      81.79515352
S      88.97887459      53.39972576      78.17254817
C      91.38638591      55.54267540      79.41031891
H      91.47520305      57.37382020      78.47112493
H      93.17973618      54.56001772      79.16087504
H      91.05190435      56.12282138      81.35673701
C      85.55091106      46.23955276      82.70789132
O      83.41552032      45.74255473      81.88586038
N      86.00444537      47.04835562      85.03036496
H      87.80913400      47.41874198      85.53114244
C      84.02212247      47.79857697      86.80292825
H      82.54435649      46.38884113      86.52513848
C      85.24855485      47.75511326      89.41830946
H      87.04757430      48.75666820      89.47311153
H      86.06302689      45.87294585      89.62239990
C      83.55158062      48.28045718      91.65385569
O      81.27068096      48.76422711      91.36850702
N      84.57770201      48.18786059      93.86105602
H      83.51378609      48.35415650      95.43708777
H      86.46931804      48.08014619      94.09160263
C      82.82025653      50.47631915      85.99979456
O      84.31503005      52.28478724      85.44610475
N      80.34093561      50.62938699      86.23790008
H      79.28268888      49.16295936      86.84450222
C      78.97844294      52.94997089      85.70121780
H      79.60961153      53.55846278      83.83794766
C      76.07771305      52.37549410      85.51224517
H      75.98322673      50.70875549      84.30659979
C      74.96088480      52.13549886      88.18620791
H      76.21566307      51.03756786      89.39563275
H      73.14863726      51.17551788      88.36951136
H      74.86450876      54.04790189      88.94965734
C      74.67742585      54.37860399      83.98912577
H      75.93031440      54.96819859      82.46222690
H      74.16153057      55.93195902      85.23823486
C      72.37195975      53.51499906      82.57372076
H      70.72411840      52.81957979      83.59417297
H      73.12596055      52.29612559      81.09595478
H      71.63307676      55.16473013      81.58728362
C      79.51512521      55.14394315      87.46055300
O      79.61150126      57.39460718      86.81615633
N      80.34849452      54.58269444      89.82460062
H      80.54313633      52.76288799      90.36506235
C      81.30469603      56.39494197      91.48755978
H      80.22944176      58.14293881      91.30803578
C      81.24611452      55.44251990      94.25978828
H      82.24577974      56.67651119      95.56936861
H      82.23255165      53.64916963      94.48088625
C      78.34160517      55.17228904      95.00245072
C      77.16430568      52.88383048      94.83048562
H      78.08460239      51.23220968      94.06325674
C      74.69254366      52.52478248      95.53157409
H      73.66075310      50.82591852      95.06859114
C      73.42453731      54.62237869      96.57848246
H      71.57827470      54.38616289      97.41941067
C      74.53191693      56.89571944      96.94130991
H      73.78736476      58.50765598      97.94664431
C      77.06792964      57.20374483      96.07203581
H      78.23578050      58.80623275      96.55769547
C      84.09771152      57.36248183      90.99056175
O      84.63628352      59.53566710      91.45921388
N      85.83625973      55.80345764      89.94176365
H      85.27879047      54.16506492      89.13862997
C      88.27400667      56.78611532      89.01957721
H      88.90328554      58.18451279      90.39340824
C      90.35459534      54.78489515      89.03847447
H      92.15928397      55.77511174      88.98556214
H      89.78956718      53.43752028      87.58527494
C      90.17318162      53.23154012      91.56314883
H      91.54701265      51.69897208      91.47433169
H      88.40439779      52.18463174      91.70109885
C      90.34514671      54.87938147      93.82515122
O      91.83425105      56.76721804      93.96877042
O      89.49288015      54.36348617      95.95109333
C      88.06235733      58.07112920      86.47978505
O      89.45886507      59.92873017      86.07349389
N      86.20475636      57.38137911      84.90186357
H      84.87627876      56.07746795      85.32327254
C      85.96287139      58.60592175      82.33939469
H      87.69386070      58.22797648      81.29059659
C      83.97298959      57.09036124      80.91076160
H      82.10405026      57.05634618      81.77436653
H      84.73076984      55.18362740      80.73312733
C      83.58181624      58.36403679      78.27270367
H      85.28634937      57.96341480      77.18611104
H      83.30969565      60.39927203      78.10073857
S      80.83415418      57.13382496      76.54738354
C      78.11294829      58.02388604      78.27837285
H      78.21310378      57.37382020      80.23046013
H      76.51801928      57.06768453      77.39209121
H      77.61028109      60.00809867      78.05538514
C      85.02556714      61.40082697      82.36585086
O      86.41262626      63.07701420      81.75357954
N      82.89395586      62.07167982      83.56771680
H      81.98688723      60.57501657      84.32738678
C      82.11916807      64.63225897      84.30093061
H      81.97365915      65.59223994      82.48301389
C      79.56992728      64.46218359      85.65397465
H      79.19576147      66.14592975      86.78025153
H      79.86850403      62.71796621      86.70466248
C      77.40430092      63.84802254      83.78503532
H      77.85405578      62.64993606      82.17120905
C      75.18198278      62.62536962      85.12485128
H      75.81504109      61.02855089      86.26435625
H      73.77413667      61.87325854      83.82094012
H      74.38262855      64.02754655      86.40230627
C      76.45376859      66.22340852      82.40364539
H      75.55614859      67.67282861      83.56204762
H      74.99489987      65.78877146      81.01658627
H      78.06381540      67.03599084      81.41153907
C      83.97298959      66.21584961      85.83160892
O      84.07692453      68.48919037      85.48578901
N      85.48477064      64.93083573      87.42464820
H      85.19753224      63.04488886      87.32071326
C      87.70519905      66.18561399      88.79658951
H      86.95875716      67.76542520      89.88507186
C      88.96375678      64.36958700      90.59182950
H      90.12971791      63.03166077      89.54681085
H      87.45953463      63.20362588      91.37417620
C      90.28656520      65.50342280      92.96532575
H      88.88438827      66.58245651      94.02357249
H      91.99676751      66.57111817      92.54580651
C      91.55457155      63.52487935      94.73221985
H      92.08936410      64.53399319      96.44809135
H      93.22697934      62.65560525      93.90451973
N      89.88216377      61.22886187      95.44842613
H      90.52845017      59.68684520      94.53001914
C      87.90551004      61.07957349      96.94697909
N      87.18930377      63.07323476      98.13750667
H      86.11971868      62.80867308      99.69464115
H      88.32124983      64.60391307      97.99388747
N      86.97765442      58.97063894      97.57814768
H      85.39028432      58.69662862      98.60048962
H      87.60126411      57.30579005      96.88650785
C      89.61949181      67.27031690      86.93898854
O      91.05001463      69.01075484      87.68165098
N      90.00877543      66.32734346      84.67320669
H      89.14894996      64.66816377      84.27069499
C      91.71519829      67.51787104      82.82316463
H      92.60903884      69.21862473      83.56393734
C      93.68807256      65.74152832      81.81027133
H      94.89371795      66.82434148      80.53659579
C      95.42662077      64.92327682      84.03825865
H      96.54911820      63.21874368      83.74535107
H      94.25310073      64.30155686      85.61240067
H      96.42250654      66.60513324      84.68643477
C      92.71297378      63.44740057      80.38163823
H      91.17662629      62.54600112      81.41531853
H      94.38538157      62.34380040      79.90542720
C      91.85881749      63.98975202      77.60374055
H      89.90295076      64.58690553      77.84751525
H      92.17440178      62.26443190      76.52470683
H      93.14005193      65.38059058      76.78548906
C      90.19207888      68.79721575      80.53659579
O      91.17662629      70.30710709      79.07583735
N      87.73732440      68.55911024      80.28148274
H      86.87182975      67.62180600      81.70066720
C      86.05357826      69.37547202      78.17632763
H      87.28567981      69.96317690      76.63431096
C      84.29802251      67.24575046      77.27492818
H      82.71065241      67.12291824      78.58450851
H      85.12572264      65.36358304      77.38264257
C      83.45331485      67.50653268      74.53104557
O      85.06714112      68.41927050      73.11186111
O      81.58059607      66.44828596      73.76570641
C      84.41518554      71.69038675      78.76592224
O      83.84826765      73.14736573      77.01603567
N      83.91629780      72.12880325      81.22634590
H      84.64195270      70.87213525      82.46411663
C      82.72199077      74.38513646      82.35073305
H      82.17774959      75.79487230      80.95044585
C      80.18219860      73.61412813      83.85684492
H      80.68297607      72.01164021      85.04926223
H      78.97844294      72.54076359      82.57561048
C      78.71955044      75.82321820      85.27791911
H      79.74756155      76.55265255      86.90875292
H      76.94887688      75.18638043      86.11317814
C      78.02224143      77.94727056      83.40142088
O      76.85628029      77.44649309      81.48145895
O      78.82726484      80.18281680      83.80204286
C      84.74210819      75.64558392      84.26880526
O      85.23910622      77.91514521      84.23290046
N      85.92696659      74.01475010      85.81082193
H      85.50744735      72.15714915      85.68232054
C      87.83181072      74.93882627      87.63251810
H      89.02422802      76.39391553      86.79725907
H      89.04690474      73.35145618      88.12573666
C      86.85482221      75.87990998      90.07782395
O      84.74777737      76.78886833      90.31026028
N      88.36471354      75.39047086      92.06014685
H      90.11082065      74.64024951      91.90707902
C      87.89417168      76.39391553      94.62261573
H      85.85704672      76.35234156      94.93442057
C      89.17351640      74.52686593      96.55958520
H      91.17662629      74.98228998      96.41974545
H      88.76533552      72.62580127      95.88306318
C      88.43652314      74.83678105      99.36582877
H      88.81824785      76.73973545     100.06124806
C      85.68130217      74.40214400      99.89306242
H      85.11438428      72.42549027      99.77023021
H      84.58148146      75.63613528      98.66663004
H      85.39784323      74.98795915     101.84703942
C      89.84625897      72.90548076     100.98154477
H      91.77189008      73.61412813     100.78879269
H      89.48910069      70.95339348     100.42974469
H      89.46642398      72.96973145     103.00355193
C      88.77478415      79.22850500      94.99300209
O      90.99710229      79.76518727      94.64151299
N      87.06269211      80.71760934      95.99077758
H      85.24666512      80.12990446      96.04557964
C      87.56724903      83.21204808      96.96965581
H      89.58358701      83.59566251      96.79202154
C      86.34837556      84.99594971      95.10827539
H      86.56380436      86.89701439      95.87550427
H      84.33014786      84.60288665      94.99111236
C      87.60693329      84.85233052      92.43998184
H      87.67874289      83.05331107      91.43653716
H      89.55335139      85.49483746      92.65352091
C      86.16885156      86.82898424      90.82993502
H      85.95909194      88.47871531      92.04880849
H      84.43408281      86.00317384      90.09105203
N      87.86771552      87.53952133      88.66619839
H      89.26422326      86.29041223      88.30148121
C      88.05668815      89.89223060      87.85928525
N      86.51656120      91.76494937      88.38840862
H      86.87371948      93.33720166      87.36606669
H      84.84982259      91.26984107      89.18209367
N      90.02011379      90.50828136      86.51002067
H      90.20530697      92.33564671      85.99601511
H      91.43551880      89.23460583      86.36262201
C      86.52978929      83.48794811      99.60771374
O      84.26778689      83.33299056     100.07069669
N      88.18896899      83.59377278     101.46153526
H      90.04656996      83.57865498     101.02500848
C      87.38583531      83.71660500     104.13738771
H      85.71531725      82.51851852     104.29612472
C      89.43996781      82.40702466     105.83625167
H      89.00722048      82.42781165     107.84881019
H      91.26355370      83.31787274     105.53389546
C      89.56280002      79.55542765     105.21075226
H      89.68374250      79.30598378     103.17173757
C      91.76055172      78.22317061     106.47875862
H      91.51677703      78.46883503     108.50832468
H      93.57468898      79.07543717     106.00065786
H      91.74354418      76.19171482     106.14805651
C      87.32725379      78.20616308     106.58647302
H      85.56224941      79.11890088     106.03845239
H      87.66929425      78.26096513     108.61792880
H      87.09292773      76.22572990     106.07624691
C      86.50711257      86.33198622     104.81768919
O      85.05769249      86.75528492     106.72064358
N      87.15150924      88.17446938     103.40417390
H      88.27211695      87.75306041     101.91884902
C      86.36349337      90.86166019     103.67818422
H      86.04412962      91.34165068     105.65483794
C      88.70486427      92.40556659     102.96953685
H      89.37760684      91.45503425     101.27067290
H      90.17318162      92.13911518     104.38683159
C      88.43274368      95.33842183     102.62560666
H      86.86616057      95.56707871     101.31035715
H      90.12404873      96.15289387     101.77900928
C      87.56913876      96.91823303     104.90461660
H      85.80980356      96.24360072     105.73609618
H      87.10804554      98.79851071     104.20163841
C      89.72153703      96.62532544     106.89071895
H      91.51110785      97.21114060     106.05357020
H      89.63460962      94.76583476     107.77322114
N      89.11304516      98.39221954     108.96563844
H      90.46608920      98.28828459     110.30734413
H      87.38772503      98.29962295     109.77633103
H      89.16973695     100.18368009     108.30990341
C      84.09015262      91.45125480     101.91317984
O      83.88984163      90.45347931      99.84581926
N      82.21365439      92.79107075     102.93552178
H      82.42530374      93.36743728     104.74210013
C      80.08393283      93.73026473     101.42940991
H      78.90474361      92.17879942     100.76233652
C      78.47010656      95.28361976     103.26244443
H      78.28869284      93.97970861     104.84603508
C      79.66819304      97.80640439     104.05046030
H      78.27546475      98.79662097     105.19941390
H      80.06692530      98.96291690     102.39317033
H      81.37272618      97.39444406     105.12760430
C      75.67520135      95.71447736     102.20230797
H      75.15741634      93.98726752     101.20831193
H      75.56937667      97.24326594     100.82847694
C      73.67398118      96.15667332     104.22431512
H      73.48500855      94.38788948     105.26177487
H      72.04314737      96.81618780     103.15284031
H      74.17475865      97.67601328     105.52633655
C      80.93241995      95.50282802      99.23165821
O      82.52167978      97.22625841      99.39039522
N      79.65874441      95.25338415      97.10382638
H      78.22822159      93.99104697      97.05658322
C      80.26345683      96.56485420      94.70954314
H      81.12328231      98.34497638      95.28779939
C      82.06436601      94.90378477      93.16563674
H      83.68764091      94.38411003      94.32403897
H      83.00167026      96.04140001      91.72566529
C      81.09115696      92.48682482      92.02046260
C      80.16708079      92.47737618      89.53925195
H      80.03668968      94.16679151      88.40352643
C      79.79480471      90.06608542      88.35439355
H      79.26568134      90.00561416      86.38529873
C      80.06314584      87.91746660      89.79247527
O      79.49055877      85.62522857      88.73800799
H      79.80047389      84.13423452      89.72444513
C      80.68297607      87.98549675      92.45698937
H      80.70565279      86.35088347      93.67964230
C      81.19509191      90.37033135      93.50956693
H      81.85838584      90.52150946      95.43330832
C      77.85594551      97.17712553      93.07304015
O      75.75834930      96.49493433      93.87806356
N      77.89751949      98.38088118      90.89607544
H      79.63795742      98.93268127      90.34616508
C      75.83015890      99.02527786      89.17264504
H      73.96688876      98.21458527      89.51468550
C      75.32938143     101.86742624      89.43909645
H      76.99234059     102.98614421      88.95910597
H      75.03458412     102.31718109      91.42897826
C      73.07115849     102.51938182      87.89330033
H      71.62173840     101.20224258      88.52824837
H      73.41697840     102.28505576      85.87696235
C      72.08661108     105.20279318      88.64730113
H      72.12818506     105.28216169      90.70521308
H      70.11751626     105.07051233      88.05770652
C      73.76468804     107.08118114      87.35283860
H      73.72689352     106.55961668      85.36106707
H      75.63362737     106.98858455      88.21077435
N      72.77258173     109.60018630      87.64385645
H      73.93665314     110.87953103      86.83694332
H      72.51746868     109.78726922      89.52791359
H      71.03025407     109.53215617      86.87284812
C      76.54825490      98.29017433      86.54025629
O      78.77813195      98.67000931      85.81271166
N      74.80970669      97.08263922      85.21555814
H      73.00123861      97.25460430      85.80326303
C      74.92309027      95.80329449      82.68899406
H      76.78636042      94.99827108      82.34128442
C      73.12218110      93.55640991      82.98379137
H      71.36284590      94.33308743      83.71889490
H      73.94232232      92.26761656      84.36329158
C      73.01257697      91.95959118      80.56683141
O      71.14930683      92.39044878      79.11174215
O      74.98167179      90.74638688      80.08117175
C      74.05759562      97.38310570      80.27770329
O      72.83872215      99.31062654      80.35140261
N      74.77569162      96.54217748      77.98735500
H      75.75645958      94.90756422      78.08562076
C      74.32215730      97.64766737      75.45890119
H      75.52024379      99.27850119      75.07528675
C      74.91553137      95.63510885      73.44256321
H      73.61728939      94.03829013      73.56350570
C      74.37129019      96.37210211      70.71190869
H      72.50424059      97.22058924      70.52671551
H      74.69443339      94.75071694      69.48547631
H      75.66575271      97.88955234      70.19412368
O      77.34005023      94.80551901      73.85830300
H      77.77657701      93.39389345      72.80950490
C      71.44221440      98.32229968      75.01292578
O      70.91687049     100.24982052      73.90365643
N      69.51091411      96.89555631      75.82361837
H      70.09672927      95.39700335      76.84973975
C      66.76136233      97.34909063      75.63464574
H      66.50246982      98.23915171      73.79405231
C      65.51414296      94.66001008      75.67810944
H      63.50725362      94.71292242      76.13920266
H      66.46845475      93.41468044      77.01414594
C      65.97145673      93.37877564      73.02304397
H      65.39131075      91.43802672      73.38965088
H      67.91598510      93.42412906      72.34274250
C      64.07984069      94.60709775      71.17678136
O      64.87730519      96.19635758      69.58185235
O      61.87453008      93.85876612      71.12953821
C      65.64075462      99.09708746      77.58484329
O      63.47890772      99.90778005      77.35429668
N      67.07883635      99.95691293      79.37630384
H      68.90053251      99.39755394      79.26669971
C      66.63097121     102.23403315      80.91643078
H      65.08517509     103.36031002      80.15109162
H      68.18054679     103.59085663      80.89942324
C      65.97523618     101.75215293      83.68676956
O      64.94155589     103.33196413      84.99823962
N      66.46278557      99.41267175      84.48234433
H      67.33205967      98.24671062      83.24835305
C      65.39320048      98.23159280      86.72355974
H      64.28204140      99.54495260      87.85172635
C      63.88519888      95.89022191      85.62373903
H      62.71167884      95.25527386      87.19410159
H      65.18533058      94.40867647      85.02469578
C      61.91043488      96.48170624      83.46000240
C      61.39076015      94.64867173      81.55326855
H      62.36585892      92.85721118      81.55326855
C      59.74480853      95.22881770      79.57850455
H      59.38953998      93.88522228      78.08373104
C      58.49758916      97.52105571      79.45000316
O      56.71746697      97.80451466      77.63775563
H      55.83307506      99.36164915      77.92688375
C      58.83773990      99.32007516      81.35673701
H      57.76626508     101.05484393      81.42854661
C      60.56494975      98.74181892      83.38063389
H      60.93155665     100.09864240      84.86028960
C      67.62685698      97.37932624      88.57549153
O      69.79626279      97.02783715      87.66653317
N      67.14875622      96.86721041      91.00756929
H      65.34973677      97.14688990      91.58582554
C      69.11029213      96.21336511      92.98800247
H      70.93387803      97.03539606      92.49856335
C      68.77392085      97.56451943      95.53724326
H      69.94366144      96.66311996      96.97343526
H      66.80104658      97.23570704      96.02290293
C      69.23312434     100.45202123      95.35393981
C      67.30182405     102.05639887      94.39395884
H      65.43099500     101.37420767      93.94609371
C      67.74213028     104.66611091      94.43175337
H      66.26058485     105.90766110      93.78546697
C      70.04003748     105.74703436      95.25756377
O      70.38207794     108.35296694      94.96843564
H      68.99312910     109.15043145      94.11616908
C      72.02236038     104.15399508      96.09660225
H      73.58705377     105.09885823      97.00367088
C      71.61228977     101.54239331      96.03235156
H      73.12785028     100.29328421      96.58793109
C      69.67154085      93.46003387      93.37161691
O      67.95755908      91.90856856      93.16563674
N      72.07149327      92.64367211      93.94609371
H      73.29603592      94.06663602      94.28813417
C      72.87651668      89.94514292      94.04813893
H      71.30237466      88.69225439      94.49411434
C      73.86106408      89.26862091      91.39307346
H      75.90196850      89.52940313      91.34016112
C      73.39430169      86.49639240      90.62962403
H      74.36184156      85.40413059      92.08282356
H      74.16719975      85.92191561      88.80981759
H      71.37040480      86.10521905      90.59560896
O      72.75368447      90.97126432      89.53169304
H      73.50768526      92.61721593      89.62051018
C      74.74545600      89.18736268      96.09093307
O      75.99078564      90.89567526      97.06792158
N      74.99867932      86.78929999      96.82981606
H      73.86484354      85.47216074      96.04368992
C      76.84116248      85.56097788      98.55324646
H      78.72899907      86.37167046      98.40206835
C      75.75834930      85.74617105     101.22531947
H      75.10639372      87.68691999     101.43696881
C      73.50012636      84.12289616     101.51822704
H      72.01291175      84.75028529     100.23888233
H      72.63841116      84.24572836     103.38527664
H      73.78547503      82.09710954     101.27445235
C      77.59138383      85.16413536     103.42874035
H      78.42286340      83.28385768     103.55346228
H      76.62573368      85.22271688     105.24665706
C      79.56425810      87.15590689     103.70841984
H      81.23288643      86.74961573     102.57080460
H      80.16519106      87.26740075     105.67562493
H      78.70632235      89.01728730     103.50999858
C      77.36272694      82.79630829      97.73499497
O      75.95677057      81.56798618      96.31014133
N      79.22221763      81.60767043      98.98032461
H      80.28046437      82.69048362     100.14250629
C      79.43953616      78.75229397      99.19197395
H      77.57437629      78.07766169      99.74566376
H      80.90218433      78.07388223     100.47509812
C      80.17463970      77.69026779      96.65218179
O      81.95098243      78.66158712      95.40118297
N      78.88395662      75.71928325      95.70542891
H      77.42886736      74.99173862      96.70320440
C      79.03702446      74.76308173      93.06737097
H      80.81147746      75.32999962      92.19053796
C      79.01245801      71.85479294      93.09382714
H      77.24556391      71.03087226      93.76279026
C      79.23922517      70.78142838      90.34994453
H      77.41563928      71.08945378      89.44287590
H      79.62661907      68.75942123      90.25167877
H      80.74911650      71.87180047      89.46744235
C      80.83982336      70.46773382      94.71899177
H      80.50345207      68.44194721      94.84938289
H      80.87383843      71.08567433      96.68430714
C      83.65173611      70.87402497      94.05380811
H      84.15440331      72.87335541      94.09538209
H      84.00322521      70.28254065      92.11116946
H      84.84604314      69.81010907      95.35205009
C      76.74100699      76.01408055      91.79180571
O      74.84183204      74.70072076      91.27024125
N      76.90352345      78.53119599      91.19654192
H      78.59104905      79.35700640      91.53291321
C      75.11773208      79.89557840      89.54870058
H      75.13473962      78.86756729      87.76479894
H      75.73567259      81.80042252      89.06871009
C      72.36251112      79.98061608      90.41419523
O      70.60506565      80.19604488      88.82871485
N      72.01858093      79.85211469      92.81414765
H      73.59272295      80.01652087      93.88184301
C      69.42209698      79.99762362      94.13506634
H      68.12196527      78.76174260      93.12595249
C      69.63941550      78.95827414      96.79580099
H      71.11718148      80.05431541      97.71798743
H      70.34995259      77.03075330      96.67107905
C      67.23001445      78.84111111      98.24522107
N      65.48579707      76.92681835      98.34348684
H      65.54815803      75.13724754      97.68397236
C      63.29749399      77.94538084      99.17685614
H      61.52682044      76.93059780      99.11260545
N      63.67921871      80.35667162      99.92707749
H      62.39798427      81.51885330     100.73399062
C      66.09050949      81.02563473      99.21276094
H      66.77081096      82.94937612      99.15606915
C      68.30337900      82.66591716      94.08404373
O      69.44288396      84.41391401      95.13284183
N      66.18688553      83.09488505      92.75934558
H      65.32328060      81.58688345      91.96755026
C      64.94911479      85.58932377      92.57037295
H      66.23601841      87.01795687      91.83337969
C      63.09340355      85.39468196      90.34805481
H      61.24903067      84.73327775      90.98867203
H      63.97779547      84.17013932      88.94587788
C      62.33562330      87.66802273      88.77391279
H      63.96267766      88.52784819      87.84794690
C      60.44967644      86.46237734      86.80859742
H      59.66921947      87.87022344      85.52169381
H      58.89632141      85.70837654      87.92920513
H      61.48335673      85.14334837      85.61240067
C      60.93533610      89.66924288      90.37640070
H      59.87897909      90.92213144      89.12729161
H      62.27326233      90.83898347      91.41763990
H      59.77315442      88.74138727      91.80314407
C      63.97590574      86.55686364      95.13473156
O      62.39420482      85.48349910      96.14762486
N      64.75447298      88.67713657      96.10794061
H      66.14153210      89.54830040      95.12717265
C      63.68110844      89.96404019      98.40962726
H      62.89498229      88.55241463      99.68897197
C      65.98468481      90.99205130      99.94030557
H      65.07761618      91.96526035     101.51255787
H      66.91065071      92.40556659      98.76111635
C      67.87630085      89.05508184     100.88327900
H      68.57172013      87.82298027      99.38661576
C      70.15342106      90.36844163     102.23254359
H      69.38997163      91.41723973     103.83125205
H      70.73167731      91.91234801     100.99477286
H      71.63496649      89.03240511     102.73899024
C      66.79915685      87.47149118     103.10559715
H      68.17676734      86.18080811     103.92951782
H      65.15131551      86.45670816     102.39883951
H      65.79004300      88.75461535     104.36226515
C      61.40398823      91.74227265      97.94286486
O      59.55394617      91.30952533      99.04646503
N      61.51359236      93.67168322      96.29691324
H      63.17844124      93.98915723      95.42008023
C      59.31584065      95.05685260      95.40118297
H      57.83807468      93.68302157      94.98355345
C      58.45601518      96.89177685      97.50633808