 %block lattice_cart
   142.669   0.000   0.000
   0.000 146.65   0.000
   0.000   0.000   162.396
 %endblock lattice_cart

 %block positions_abs
N      90.90828515      42.22482921      78.58261878
H      92.69029706      42.07176138      77.91743512
H      89.82925143      42.44970664      77.02548430
H      90.39616932      40.59021595      79.42543671
C      90.73443033      44.40746310      80.31549781
H      91.95330379      44.08431990      81.94633162
C      91.68685239      46.72048811      78.93410787
H      90.28656520      47.35543615      77.56405631
H      93.49721020      46.26695379      78.06105432
C      91.97975996      49.02595421      80.63108210
H      93.05690397      48.63856031      82.34317415
H      90.07869530      49.49460633      81.26791987
S      93.41406224      51.74716010      79.15331614
C      96.48297778      50.79851749      78.56750098
H      97.70185125      52.22904031      77.72657277
H      96.22786471      49.25272137      77.22768501
H      97.33146489      50.01995025      80.27581356
C      87.99810663      44.56997956      81.40020072
O      86.06113715      44.44336790      80.01881078
N      87.93763539      44.81753371      83.88897027
H      89.66673495      44.91390975      84.69399369
C      85.60382338      45.27484748      85.34594925
H      84.01078410      44.32242541      84.45210872
C      85.72287615      44.10321716      87.97077910
H      87.22898801      45.01595497      89.03469502
H      86.01200428      42.08309973      87.69865852
C      83.41363060      44.47549325      89.45043481
O      83.23788604      46.14223185      90.88095763
N      81.61083169      42.82954163      89.09327654
H      79.96299035      43.13378756      90.00601435
H      81.75067144      41.30264277      87.95566129
C      84.86116095      48.24927669      85.40642050
O      86.42774406      49.83475707      84.99068071
N      82.44231127      48.74438499      85.95633086
H      81.19131245      47.30630326      85.84105755
C      81.21776861      51.21992646      86.27191515
H      81.57114744      52.31596772      84.56360256
C      78.27924420      50.93646751      86.43254189
H      77.49311805      49.65145362      85.02469579
C      77.50256669      49.94058174      89.03469502
H      78.81781620      48.44580823      89.57137729
H      75.57504585      49.22437547      88.87784773
H      77.74256193      51.41834772      90.44632057
C      76.82793439      53.45736241      85.98656647
H      77.69909822      54.79528864      87.28858791
H      74.86072929      53.27972814      86.56482274
C      77.07926799      54.61954409      83.33528047
H      76.86572892      53.15122675      81.90286792
H      79.03135527      55.25827159      83.16709482
H      75.86795342      56.27683407      83.16898455
C      82.21365438      52.82619382      88.46588740
O      82.66151952      55.02961470      88.06526543
N      82.70309350      51.59409227      90.60127814
H      82.22310302      49.75727829      90.77513296
C      84.11282933      52.70714107      92.66107981
H      83.24166550      54.55151395      92.95398740
C      83.85015737      51.09331479      95.04024524
H      85.39406376      51.39000183      96.37061256
H      84.26589716      49.22248574      94.28435472
C      81.33871110      51.55440801      96.44809134
C      79.11828268      50.13333383      96.35738449
H      79.21276900      48.52328701      95.10827539
C      77.12273169      50.48104347      97.96176213
H      75.36339650      49.44547345      97.88428335
C      77.20587966      52.56730132      99.61905211
H      75.65630408      52.85831917     100.91540435
C      79.30914504      54.16412005      99.70220005
H      79.39985191      55.77038742     100.95697832
C      81.35193919      53.75782890      98.03357173
H      82.97143464      54.99748936      98.14506557
C      86.94174962      53.24949252      92.14329481
O      88.07180596      54.52694750      93.69476011
N      88.04912924      52.26683483      90.06648559
H      86.80002015      51.17646275      89.12162244
C      90.58325223      52.93957740      89.01579775
H      91.60748389      53.46303159      90.72600008
C      91.81913324      50.69458254      87.67409208
H      93.53500473      51.32575113      86.72167002
H      90.82891665      50.05396532      85.98467676
C      92.36904359      48.39667535      89.31815396
H      90.73820978      47.44047383      90.13640546
H      93.55390198      49.13366861      90.83371447
C      93.75988215      46.43702916      87.71755579
O      92.77722447      45.10666183      86.04514800
O      96.05023044      46.17246748      88.11817776
C      90.61915703      55.08441677      87.07315911
O      91.88338393      57.05729104      87.34905915
N      89.03556638      54.81418590      85.06249031
H      87.93196621      53.25705142      85.10784374
C      89.12816297      56.61887453      82.92709957
H      91.04434545      56.50738068      82.17687824
C      87.30079762      55.64755521      80.87107735
H      85.31658499      56.00471348      81.29815550
H      87.58992575      53.61231997      80.74068623
C      87.87338469      57.04217323      78.32372628
H      89.92562747      57.15744653      78.17821735
H      87.01922839      58.89410501      78.59962633
S      86.48065639      55.65511411      75.52315189
C      83.37583607      57.14043900      75.57228477
H      82.33648659      56.53761630      73.89798726
H      83.50244772      59.19646122      75.60252038
H      82.15129341      56.70013276      77.16721377
C      88.48754575      59.38921331      83.63763668
O      89.98231926      61.02004712      83.02914480
N      86.47120777      59.86920379      85.06626976
H      85.49610899      58.45757824      85.90530824
C      85.68697135      62.38253979      85.89585962
H      85.55658023      63.60141326      84.24045936
C      82.92230174      62.13498564      86.99190087
H      82.29491262      63.95101263      87.73267359
H      83.03001615      60.86319983      88.60761687
C      80.96454528      61.17122522      85.10973347
H      81.52012482      59.21346876      84.78659027
C      78.38128941      61.15421768      86.66497822
H      76.87328783      60.49848265      85.42909722
H      77.93153455      63.08551798      87.22811666
H      78.34916408      59.71613596      88.14085447
C      80.71888087      62.77938231      82.75891394
H      80.18030887      64.67099835      83.37307498
H      79.31670395      62.09341166      81.41153908
H      82.46876744      62.80772821      81.67043158
C      87.47843189      63.62408998      87.93865375
O      87.67118398      65.96168142      88.13329556
N      89.32658423      62.25781785      88.98556214
H      89.27367188      60.37942990      88.65108058
C      91.47898249      63.28204951      90.45010003
H      90.88938789      64.86752989      91.62362007
C      92.65439226      61.16744577      92.21321467
H      94.62159736      61.69278968      92.52879898
H      92.62604637      59.38354413      91.18520356
C      91.25788452      60.88020737      94.80969863
H      89.45886506      59.94101339      94.46198900
H      91.06891189      62.73213916      95.69220082
C      92.86604161      59.12465162      96.52368040
H      94.76521656      59.90510859      96.71265303
H      92.80746009      57.20468969      95.78479742
N      91.69441130      58.76938308      99.00489104
H      90.94418995      57.01949651      99.14284106
C      92.09881273      60.19612644     101.14217150
N      93.27233277      62.38820897     101.10437698
H      94.27955689      62.84741246     102.65962174
H      93.67673420      63.31417486      99.48677126
N      91.20308246      59.34763933     103.30401842
H      91.71330855      60.31517920     104.86682207
H      91.06135298      57.44846438     103.40984309
C      93.57279924      64.31761953      88.70210320
O      95.26788375      65.73113481      89.74712185
N      93.46130539      63.67700231      86.20199528
H      92.12148945      62.43356240      85.65397465
C      95.28300157      64.79005111      84.37274021
H      96.09558388      66.44167191      85.29492665
C      97.39760530      62.92489124      83.69999763
H      98.47663904      63.65999478      82.10506864
C      99.20796311      62.64143229      86.00357401
H      98.27632804      61.63042872      87.53803178
H     100.05833996      64.42722366      86.57427136
H     100.80289212      61.44334581      85.48956846
C      96.21463664      60.48336484      82.72678859
H      95.07324195      60.85564093      81.05438080
H      94.99576316      59.75204076      84.21778264
C      98.22908489      58.64277141      81.94444190
H      99.19095558      59.42133866      80.29849028
H      97.69429234      56.75493483      81.32083221
H      99.45362754      58.16656038      83.53181199
C      94.09625344      65.99758622      82.00302342
O      95.42284131      67.24669532      80.61596429
N      91.64149896      65.60074370      81.51547403
H      90.71175362      64.15888252      82.34884332
C      90.41506657      66.82150690      79.31583259
H      91.62071196      66.67032879      77.65287344
C      88.19841761      65.11886349      78.69411264
H      86.72254136      65.29649776      80.12085601
H      88.58203205      63.11008442      78.45222767
C      87.11182498      65.98624787      76.27337323
O      88.30235257      65.70467865      74.25325581
O      84.98210343      66.95000829      76.21479171
C      89.79712608      69.62964020      80.01692106
O      90.19585833      71.29637881      78.52781673
N      88.92785197      69.93388613      82.31860771
H      89.17918558      68.49202496      83.54315035
C      88.36471354      72.43210432      83.61307023
H      88.34959572      74.03837169      82.32427688
C      85.55658023      72.16376318      84.46911625
H      85.58303640      70.71434310      85.93176442
H      84.29613278      71.52503569      82.96867356
C      84.15251358      74.39741969      85.73901234
H      85.31091581      74.90386634      87.36417697
H      82.30625097      73.99679771      86.56293300
C      83.92007725      76.65375290      84.00613330
O      81.72799472      77.39452562      83.55826816
O      85.74555287      77.78947842      83.03103452
C      90.29412410      73.26547362      85.67476164
O      91.44118796      75.29126023      85.40453078
N      90.55301660      71.75558230      87.61362084
H      89.37571711      70.27403687      87.85739552
C      92.54289841      72.06360769      89.65263552
H      94.18507057      73.01602975      88.85706075
H      93.42351088      70.22112453      89.91719721
C      91.54323319      73.31082706      92.19809686
O      89.68374250      74.70166562      92.17730987
N      92.57691349      72.55304680      94.47710681
H      93.85625820      71.16976714      94.17097115
C      92.03456202      73.55082230      96.97343527
H      89.98042953      73.66609560      97.07737020
C      92.91895394      71.70078024      98.97087598
H      94.91072548      71.18677468      98.84993349
H      91.69819075      70.07372588      98.65340195
C      92.46352991      72.64753312     101.75633257
H      93.87137601      74.09128402     102.17396207
C      89.86326650      73.72656684     102.27411757
H      90.13916654      74.47867792     104.16951306
H      88.48943546      72.19588853     102.14561618
H      89.29823832      75.28559105     101.05146465
C      92.99643273      70.36663346     103.60637463
H      92.13093808      68.68099759     102.80324093
H      92.24621138      70.89008765     105.45263722
H      94.91072548      69.60885321     103.59503627
C      93.25721496      76.13596789      97.17563598
O      95.51354817      76.62729674      96.86383113
N      91.73976473      77.99167913      98.06191761
H      89.86704595      77.72333800      98.30758203
C      92.56368540      80.42564662      99.12772326
H      94.57813365      80.52580212      99.54535277
C      91.97031134      82.27001951      96.92808184
H      92.42006620      84.06525950      97.83137100
H      89.95586309      82.06592906      96.54635712
C      93.75610271      82.22844553      94.67741779
H      93.55201226      80.27257879      94.06325674
H      95.68551326      82.43442570      95.36716789
C      93.17217727      83.96132456      92.46643800
H      91.18985437      83.76668275      91.93542491
H      94.24743154      83.33582515      90.82426584
N      93.76933079      86.58048523      93.19965182
H      93.94696506      87.06425516      95.03835552
C      93.51799718      88.53068278      91.57826664
N      93.23453824      88.29635672      89.06115118
H      93.39138553      89.93474943      88.10117023
H      92.45597100      86.65796400      88.46399768
N      93.71074927      90.85882560      92.32470854
H      93.35737045      92.39895254      91.25701316
H      93.92806780      91.02323179      94.21443484
C      91.09536806      81.17586797     101.49555033
O      88.85037320      80.69209803     101.75255311
N      92.42195593      82.37395445     103.29456978
H      94.24932127      82.77268671     102.92040396
C      91.52055648      82.83126822     105.82113385
H      89.76689046      81.88451534     106.34080859
C      93.77122051      82.25490170     107.57479987
H      93.22508961      82.92575454     109.44562892
H      95.52110708      83.20354430     107.05512515
C      94.78033437      79.51668827     107.42740123
H      95.68740299      79.11417656     105.62271259
C      96.87226140      79.19354507     109.31712753
H      97.48453272      77.24901669     109.62326321
H      95.99920784      79.81337530     111.07835246
H      98.61836851      80.22533564     108.95241036
C      92.71864296      77.64019004     107.99809858
H      91.75488254      78.14285724     109.74420568
H      93.19863344      75.65408768     108.25321163
H      91.33536330      77.83861130     106.48253806
C      90.84781391      85.61861453     106.14616678
O      89.38516574      86.23088586     107.86014855
N      91.77566952      87.49133331     104.56068641
H      92.86982106      87.08126270     103.05268481
C      90.72120225      90.05569192     104.78745356
H      89.49854932      90.09348644     106.44474354
C      92.86415188      91.93596960     105.37893790
H      94.28522607      92.03990454     103.89172329
H      93.92806780      91.38605924     107.05512515
C      92.23298329      94.72709536     105.80412632
H      90.69285634      94.50032820     107.15150119
H      91.71141884      95.60203864     104.01455551
C      94.18885003      96.25777367     107.19685462
H      94.50443433      95.25243928     108.96563844
H      93.42351088      98.12482327     107.61448413
C      96.48297778      96.77366896     105.50177011
H      95.93495714      98.07002121     103.99754796
H      97.34091351      95.08803309     104.68351861
N      98.54277946      98.04923422     106.93040321
H     100.06022968      98.48387127     105.86081812
H      99.10213845      96.97397995     108.40438972
H      98.16294447      99.80290024     107.58424851
C      88.94296979      90.90039958     102.68040873
O      89.40973218      90.28056935     100.47698784
N      87.02867703      92.21564909     103.43251980
H      86.78112288      92.77689781     105.24098789
C      84.93108082      92.80713343     101.72798667
H      83.99188684      91.08559276     101.09870781
C      82.62750444      94.10348568     103.09425878
H      82.13428588      93.19641705     104.87627070
C      83.33804154      96.87193473     103.83125205
H      82.80513871      98.17962534     102.33080936
H      85.34871034      96.92295734     104.27911718
H      82.36483249      97.47853687     105.53956464
C      80.13495544      93.84459317     101.55791129
H      79.73811292      91.84148328     101.29712907
H      80.31258972      94.75544126      99.71731787
C      77.93342429      95.09559199     102.85804301
H      76.27613430      94.71197755     101.69397159
H      78.12239691      97.14216559     102.98654440
H      77.64618589      94.20175145     104.69107752
C      85.86271590      94.35292955      99.43196919
O      87.49732916      95.96864555      99.77211994
N      84.92541164      93.61971574      97.12083391
H      83.57425733      92.27423061      97.06603186
C      85.71909670      94.67607275      94.71710204
H      86.60726806      96.44863603      95.27079185
C      87.68063260      92.82981014      93.43208816
H      89.36815821      92.55579983      94.58104174
H      88.35526490      93.72931987      91.70487830
C      86.53545845      90.25033373      92.66674900
C      85.77200903      89.65318021      90.15530273
H      86.08003442      91.09315166      88.74367717
C      84.97076508      87.15685175      89.76412938
H      84.26211771      86.55780851      87.94621266
C      84.82336642      85.39751655      91.70487830
O      84.11282933      83.00134359      91.08693780
H      83.80480394      82.64418532      89.33516151
C      85.81925218      85.90207348      94.03680058
H      86.18018991      84.46210203      95.43897749
C      86.55057627      88.44564510      94.57537257
H      87.18363459      88.96154038      96.44620162
C      83.31158536      95.26566736      93.02957645
O      81.13840011      94.81024332      93.99333687
N      83.83126010      96.00832980      90.55403498
H      85.54524188      95.97998391      89.71499650
C      81.83948858      96.21242024      88.63974222
H      80.05747666      96.07824968      89.66775333
C      81.89995982      98.87504462      87.30181599
H      80.53935687      98.95063367      85.75601987
H      83.77078887      98.97708984      86.44576997
C      81.40863098     101.28255594      88.68320593
H      82.65585033     101.56223544      90.29892193
H      79.56614782     101.30712238      89.60728209
C      81.64295704     103.61069876      86.88985565
H      80.71888087     103.05889868      85.13429992
H      83.63472857     104.04155636      86.59127889
C      80.32770753     106.01254090      87.85739552
H      81.14028984     106.81756431      89.57137729
H      78.37562023     105.40782848      88.11439831
N      80.52234934     108.05533505      86.00168429
H      79.53213274     107.65660279      84.41809363
H      82.31569961     108.25942549      85.38563351
H      79.79480471     109.65593323      86.74245701
C      81.79602487      94.19608227      86.50813095
O      83.78401695      93.65751027      85.27036021
N      79.52268412      93.51767052      85.61051094
H      77.84838660      93.89561578      86.44199051
C      79.19009229      92.04179427      83.36740581
H      80.63006374      90.57347693      83.32394210
C      76.58038025      90.87394341      83.66598257
H      75.18009305      92.38005528      83.54881954
H      76.36495145      89.91963162      85.47823010
C      75.76023903      89.15240274      81.50413567
O      74.90230328      90.08403781      79.57283538
O      76.08149250      86.77134758      81.71578501
C      79.65685468      93.64617191      81.03359381
O      79.71732592      95.96864555      81.23012535
N      80.19164722      92.49154913      78.86607774
H      80.17463969      90.58292556      78.79993731
C      80.75478566      93.98632265      76.60596506
H      82.42530373      95.19007831      76.68533357
C      81.57870635      92.32903267      74.37041884
H      81.67130293      93.48932463      72.66966515
C      84.13739577      91.04023932      74.89954220
H      83.91629778      88.99555545      74.78048945
H      84.76478490      91.73943806      76.73257673
H      85.58870558      91.71109217      73.60130022
O      79.65118551      90.42796800      74.14176195
H      79.74756154      89.67018775      72.49581033
C      78.66096891      95.62660509      75.65921217
O      79.12395186      97.86026159      74.99591825
N      76.29881103      94.84425839      75.99747318
H      76.00968289      92.99043688      76.33573419
C      74.01224219      96.48454083      75.64976355
H      73.92720449      97.18940875      73.71657353
C      71.50646509      94.73087481      75.97857593
H      69.71122510      95.73620921      75.99936292
H      71.80126240      93.83136509      77.80972073
C      71.33638973      92.67674231      73.97168658
H      70.80915608      90.85126669      74.76348190
H      73.21666740      92.41029090      73.17233235
C      69.36729491      93.32302871      71.80983968
O      69.74335045      95.22787283      70.55695113
O      67.58906244      91.78101204      71.47724784
C      73.83271819      98.60670348      77.80027209
O      72.09983915     100.26021401      77.72468303
N      75.45788282      98.68040281      79.70889567
H      76.51990901      97.09114298      79.73346211
C      75.82637945     100.72130723      81.57027608
H      75.34071979     102.62615135      80.95611504
H      77.82759961     100.60225447      82.03892821
C      74.77002244     100.09769754      84.25746691
O      74.91364164     101.65861148      85.93554386
N      73.86673325      97.79034171      84.80926698
H      73.97822711      96.58658605      83.33339073
C      72.39841592      97.37271220      87.14118926
H      71.84283638      99.21519535      87.87629280
C      69.96066896      95.95919692      86.40797545
H      69.02336471      95.64172290      88.21455381
H      70.46144645      94.17151583      85.51413490
C      68.10684746      97.16295258      84.52202858
C      66.66309655      95.69463523      82.71733995
H      67.07505688      93.70286370      82.54348513
C      65.05116000      96.96264159      81.00335820
H      64.51258800      96.01021953      79.27992779
C      64.55983117      99.61203788      81.24524315
O      63.39764949     100.90650040      79.39331137
H      63.35418578     102.70929931      79.58984291
C      65.82216834     100.93673603      83.18032290
H      65.81271972     102.97197126      83.30882429
C      67.37552338      99.63660432      84.88107658
H      68.39597559     100.88382369      86.13207540
C      73.94988122      96.01399898      89.23500602
O      75.40119103      94.22064871      88.74556689
N      73.52847225      96.79823540      91.63873789
H      72.19810492      98.11159519      92.01101396
C      74.79458888      95.77967292      93.94609371
H      76.82226522      95.92707157      93.62295051
C      74.37506964      97.47664715      96.32903859
H      75.37662459      96.66595456      97.93530595
H      72.40030564      97.54089784      96.90351538
C      75.26324100     100.14494070      95.89629127
C      73.63429693     102.19718348      95.82259193
H      71.61984868     101.86648137      95.81503303
C      74.52057857     104.66327632      95.49188983
H      73.26580028     106.26576423      95.62228094
C      77.13973924     105.14515652      95.00056100
O      78.09972020     107.42983564      94.55458559
H      76.78636042     108.67894473      94.60560820
C      78.83293400     103.13637745      95.09882676
H      80.80769801     103.59369122      94.86639042
C      77.88618113     100.65705653      95.45409531
H      79.25056353      99.17740083      95.79802549
C      74.39396690      93.04145949      94.50923216
O      72.30392959      92.02667646      94.67363833
N      76.40463569      91.65629010      95.07237059
H      77.88240167      92.62382997      95.79613577
C      76.81848575      88.94075339      94.76245547
H      75.08938619      87.95431626      95.28779940
C      77.54603039      88.27179028      92.03369069
H      79.29780668      89.17318973      91.42897826
C      78.02980032      85.40885491      91.59716391
H      76.21188362      84.47533011      91.84471805
H      79.42819780      84.72288426      92.94831822
H      78.73844770      85.22555146      89.67342251
O      75.62417873      88.92752531      90.45010003
H      75.72433423      90.63583789      89.84916706
C      78.84805182      88.27368000      96.75800646
O      80.74155759      89.58892952      97.29090928
N      78.59482850      85.94742691      97.66696482
H      77.02824537      84.96476923      97.19642297
C      80.34093560      84.77201714      99.52645552
H      82.07759409      85.87939676      99.58314731
C      79.16363612      85.00256375     102.16829290
H      78.24333940      86.83748800     102.34592718
C      76.86194947      83.33960460     102.35726553
H      75.90385823      83.83093344     104.11282127
H      77.35705775      81.35728170     102.61426830
H      75.38985267      83.79124919     100.98910367
C      81.01745763      85.02901992     104.46053091
H      81.69964882      83.10527854     104.73265151
H      79.71354647      85.57326110     105.95908389
C      83.37016689      86.62205920     104.35470624
H      82.91285312      88.62138964     104.52856106
H      84.37928074      86.18175297     102.61237858
H      84.33392731      86.07592830     106.09136473
C      81.03824461      81.99978864      98.81969786
O      79.67008277      80.86973231      97.15106954
N      82.96198600      80.87351176      99.87038570
H      84.14684440      82.09805441     100.72643171
C      83.41552032      78.15986478      99.94786447
H      81.76578925      77.14130229     100.64517348
H      84.84604314      77.78002979     101.38027702
C      84.17896975      77.10350777      97.39484423
O      85.79279602      78.19010040      96.06069745
N      83.19820180      74.80182112      96.75800646
H      82.03413038      73.88908331      97.96365185
C      83.33615182      73.72467712      94.22955265
H      84.92541164      74.42954503      93.12406276
C      83.59126486      70.79371161      94.25789855
H      81.88673173      69.83184091      94.89851577
C      83.87850327      70.07939506      91.43464743
H      85.25611375      71.19811304      90.38773907
H      82.10216053      70.41954580      90.45010003
H      84.44542116      68.10274134      91.28346934
C      86.01200428      70.20978618      95.81692276
H      85.62083093      70.73890954      97.77089976
H      87.51433669      71.30204799      94.92875140
C      87.09103800      67.53393372      95.93408579
H      85.80602411      66.18277940      96.81091879
H      88.80690949      67.46590357      97.06981131
H      87.77133946      67.00292062      94.06325674
C      81.03068570      74.64686356      92.83682437
O      79.16363612      73.21067156      92.45509964
N      81.04202407      76.96177829      92.05825713
H      82.49522361      77.97467160      92.77446339
C      79.23166626      77.89152364      90.19498698
H      78.89340524      76.31171244      88.91753199
H      80.00834378      79.21433206      88.81926623
C      76.67297684      78.86095324      91.16441657
O      75.08560673      79.45999648      89.61295128
N      76.18920689      78.72489294      93.72877518
H      77.78980508      78.55481757      94.75300684
C      73.76468804      79.07827176      95.03079662
H      72.40975427      77.96522297      93.94987317
C      73.83271819      77.96711269      97.71609771
H      74.92875944      79.28236221      98.86316157
H      74.84372176      76.17187269      97.68019291
C      71.11340202      77.76302225      98.78190334
N      69.39564080      75.76936099      98.50033412
H      69.83972648      74.09128402      97.70664908
C      67.23190417      76.68965770      99.68330280
H      65.70311558      75.44432806     100.20486726
N      67.43977407      79.09338957     100.33336865
H      65.96200808      80.04581164     101.07981054
C      69.88130047      79.84550065      99.83448090
H      70.75813348      81.61428448     100.34848645
C      72.74801528      81.73144751      94.99867127
O      73.99334492      83.31125870      96.16841185
N      70.76569238      82.32104212      93.74011355
H      70.02114021      81.05681521      92.51935034
C      69.69421756      84.97421786      93.31303540
H      71.28914656      86.03057487      92.54958597
C      67.59662135      85.00445348      91.35716866
H      66.04515604      83.79880809      91.97699890
H      68.52258724      84.39407188      89.62051017
C      66.44199857      87.58770935      90.70521308
H      65.37430321      88.21887794      92.34927498
C      68.21456185      89.80813777      89.96444037
H      69.83216757      89.81191722      91.24000563
H      67.03159319      91.49377364      90.02113216
H      68.89486333      89.34137537      88.07660379
C      64.42944004      87.20976409      88.75690525
H      65.28548607      86.39907150      87.06560021
H      63.58284267      89.01256299      88.22589215
H      63.01403504      85.93608855      89.54114168
C      68.58683794      85.93230910      95.76590014
O      67.32450076      84.40163079      96.92619211
N      68.98745992      88.30580535      96.50478313
H      70.22334093      89.38672880      95.53157408
C      67.73079191      89.44531032      98.66851977
H      66.66309655      87.92974981      99.56613977
C      69.80571142      90.37883512     100.53745908
H      68.93265786      91.60337777     101.94530520
H      70.93765748      91.49377364      99.22409931
C      71.48378838      88.42485811     101.62972089
H      72.30770904      87.27023533     100.13683711
C      73.74768049      89.99522067     102.76166696
H      73.07682766      91.76400450     103.57991846
H      74.87206766      90.66418379     101.17051740
H      75.05348138      88.66485335     103.63661025
C      70.15909024      86.69197908     103.45897597
H      68.59439685      85.91152211     102.37049361
H      69.53359083      87.88250666     105.01988991
H      71.47622947      85.22933091     104.06557811
C      65.62563680      91.30858046      98.04302036
O      63.57906320      90.97409890      99.01244995
N      66.02625878      93.09059237      96.28557488
H      67.61362888      93.08681292      95.22921787
C      63.97401600      94.78945633      95.53346382
H      62.37152810      93.51389107      95.30291720
C      63.20489740      96.78689704      97.50633809