 %block lattice_cart
   142.669   0.000   0.000
   0.000 146.65   0.000
   0.000   0.000   162.396
 %endblock lattice_cart

 %block positions_abs
N      91.27205747      43.54291331      77.88342005
H      90.75427246      41.85916716      78.62041332
H      92.99926731      43.32559478      77.10107336
H      90.43490870      43.97755036      76.22235062
C      91.38922050      45.63673006      79.72023402
H      92.87454537      45.24933617      81.09406505
C      92.14889048      48.04046193      78.39742560
H      90.48404159      48.71131477      77.38453230
H      93.71169414      47.62094269      77.12375008
C      92.91045017      49.93396770      80.42888139
H      94.56774015      49.29335048      81.47201032
H      91.51961162      50.23821364      81.91987546
S      93.70224550      53.10114900      79.43677507
C      93.27516735      53.27878327      76.01637045
H      91.30607253      52.74588045      75.72535260
H      94.55829153      51.88605498      75.20756758
H      93.79862155      55.06457464      75.13386826
C      88.96281192      45.64428897      81.26791987
O      86.99371709      45.91829928      80.12274572
N      88.96281192      45.71609857      83.76235861
H      90.65789641      45.38728619      84.57494092
C      86.63277937      46.18664042      85.25524240
H      85.19658736      44.79580185      84.75635464
C      87.21481508      45.58570745      88.09550104
H      88.55085157      47.07670151      88.57549152
H      88.21259056      43.78290855      88.12762639
C      84.88478253      45.44586771      89.94176365
O      82.81553222      46.41340758      89.47311153
N      85.49516413      44.85438337      92.28502428
H      84.16290708      44.51423263      93.60972243
H      87.29040412      44.33659836      92.67997708
C      85.66712922      48.77178602      84.83761288
O      87.08442396      50.68796850      84.96800400
N      83.14623432      48.86060315      84.24423881
H      82.09365677      47.36016046      84.77714163
C      81.86122042      51.29646037      84.00613330
H      83.00072540      52.07124816      82.47545498
C      79.07198438      50.95064046      82.90064341
H      79.32142826      49.83570193      81.18666164
C      77.21627315      49.64483957      84.82249506
H      76.78163609      50.70875549      86.53269739
H      78.13656986      47.87227629      85.31949310
H      75.42292287      49.23098951      83.89841890
C      77.91358216      53.39027713      82.20522413
H      77.29375192      54.53923072      83.79637368
H      76.29219699      52.94241199      81.01280683
C      79.21749331      55.19496575      80.48368346
H      78.10822396      56.92406533      80.37407932
H      79.28552346      54.45041359      78.56372153
H      81.04485865      55.84314188      81.17532328
C      82.04830333      53.06902365      86.30970967
O      82.91568770      55.20630411      86.09050142
N      81.66279916      52.08069679      88.63029360
H      81.47949571      50.19097048      88.80981759
C      82.07853895      53.31090862      91.08504808
H      80.93903398      55.02678011      91.06048162
C      81.07887374      51.69519262      93.42830869
H      81.41335530      52.59848180      95.25000486
H      82.15412801      49.93774715      93.49822858
C      78.29719660      51.00733224      93.49633884
C      77.28430330      48.73399149      92.43242294
H      78.51073568      47.54535364      91.31748440
C      74.67459125      48.32392088      92.20565577
H      73.93948773      46.90095697      90.93953914
C      73.07966226      50.03979237      93.50011829
H      71.07655236      49.65617793      93.51901556
C      74.02263568      52.06179953      94.87016987
H      72.76596769      53.31468807      95.87550427
C      76.64557581      52.62493797      94.83615481
H      77.49595265      54.30112521      95.63172958
C      84.88667225      54.18963136      91.59338444
O      85.43847234      55.30834933      93.54925119
N      86.54963140      53.61893401      89.86239514
H      86.10554572      52.48320850      88.39407780
C      89.20091743      54.53923072      90.00601435
H      89.51650172      55.73920693      91.65007624
C      91.05473894      52.30935367      90.31026028
H      91.71047397      51.48732273      88.53958672
H      90.08341961      50.87883086      91.42897827
C      93.46791945      53.25988601      91.66708378
H      92.83864057      54.16506491      93.40563198
H      94.50726891      54.66773211      90.58049114
C      95.20646765      51.07158294      92.27935511
O      95.04395118      49.94530606      94.43175337
O      96.86753708      50.43474517      90.65041102
C      89.96247714      56.26455085      87.68543044
O      91.49126571      58.06923948      87.98967637
N      89.07997495      55.84692133      85.36673624
H      87.93858024      54.33325056      85.16264581
C      89.89444699      57.31523868      83.10284412
H      91.82196783      56.77666668      82.60773583
C      88.06141245      56.38360361      81.03926300
H      86.16412725      56.94296259      81.61185006
H      88.15967822      54.32947110      80.92398969
C      88.28062071      57.61948461      78.31616737
H      90.27050252      57.55145447      77.79271318
H      87.96692615      59.65094040      78.43522014
S      86.41735057      56.52722280      75.65543272
C      83.44481108      58.14860798      76.36408009
H      83.52984876      60.05723156      75.59307176
H      82.88734181      58.09947510      78.34829272
H      82.00672936      57.17350920      75.26047992
C      89.78106340      60.26888090      83.17465373
O      91.34008762      61.51987972      81.95766997
N      88.03306656      61.23453105      84.62785325
H      87.02206299      60.13471034      85.81460139
C      87.52661991      63.95384722      84.58627928
H      87.83842476      64.55289046      82.63986117
C      84.80352430      64.48863976      85.27413965
H      84.54085233      66.53143391      85.25524240
H      84.64856674      63.87447871      87.23567557
C      82.75128152      63.25653821      83.40331061
H      83.00261511      61.21185433      83.44866404
C      80.07542906      63.70062389      84.29148198
H      78.80742270      63.30756082      82.71545023
H      79.89401534      65.67727761      84.84706152
H      79.58410022      62.54033193      85.92231578
C      82.88167264      64.37147673      80.78037048
H      84.73738388      63.99542119      79.96589844
H      82.80230413      66.42938869      80.76714240
H      81.34910460      63.93306023      79.47456960
C      89.48059693      65.39003921      86.09806033
O      89.68657708      67.63881353      85.77491714
N      91.07552592      64.01998764      87.47756054
H      90.65411697      62.16616612      87.63818728
C      93.52650096      64.96674052      88.28636341
H      93.18446049      66.63347913      89.44665535
C      94.83608129      63.17905943      90.18742807
H      96.51982743      64.17116574      90.83560420
H      95.64110471      61.56712288      89.18965257
C      93.23359337      62.54789084      92.51557089
H      91.68212807      61.25342831      92.11872837
H      92.50037957      64.28454932      93.34327101
C      95.00426694      61.06256596      94.31836979
H      96.60108566      62.21340928      94.93253085
H      96.08519039      59.56212326      93.41508061
N      93.43768382      60.00431922      96.31958995
H      92.99359813      58.15238743      96.22510364
C      92.43990833      61.10791939      98.23388271
N      93.18635022      63.40960604      99.01244995
H      92.41156243      63.94250886     100.67351938
H      94.36742917      64.55478018      98.04491008
N      90.79962588      60.03266512      99.73054595
H      90.14956003      60.98508718     101.25177564
H      90.31396623      58.22797649      99.34504179
C      95.31607177      65.71318241      86.18876719
O      96.86375763      67.40259774      86.73111865
N      95.39166083      64.50375757      84.01558194
H      94.45624630      62.85024705      83.83038876
C      97.03194326      65.16516178      81.65531376
H      98.60797501      66.37080717      82.21467276
C      98.37742841      62.76898882      80.54982387
H      99.57551489      63.31889917      78.96434350
C     100.23691910      61.62192494      82.38663786
H     101.66177273      60.56934739      81.33595002
H      99.32796074      60.19707130      83.56204762
H     100.82651370      63.19984642      83.57149625
C      96.60864457      60.63170836      79.48968741
H      95.35386630      61.48775438      78.10073858
H      95.55984647      59.92495072      81.11485204
C      97.93523244      58.60781148      78.00625225
H      99.24292306      59.36559173      76.60785479
H      96.44612811      57.48531405      77.13130897
H      98.99347918      57.53255720      79.40842918
C      95.61275880      66.52954418      79.53882029
O      96.74470487      67.87880877      77.87964060
N      93.07107692      66.38592498      79.43110590
H      92.29817886      65.11413917      80.62730265
C      91.48181709      67.69928477      77.70389604
H      92.37754736      67.73518957      75.85007454
C      88.75494201      66.53710308      77.30138435
H      87.63622403      67.17583058      78.90765171
H      88.86643586      64.48297058      77.42421655
C      87.42079523      67.29677306      74.91466002
O      88.50171869      67.06811618      72.85674805
O      85.18524901      67.94494919      75.05827921
C      90.93946564      70.51119752      78.35018245
O      90.27617170      71.95872788      76.73824590
N      91.44969174      71.08756405      80.83517255
H      91.98070483      69.64003369      81.95955971
C      90.89033276      73.47239865      82.06538438
H      91.40244859      74.89536257      80.66887664
C      88.09164809      73.79365213      82.84773108
H      87.58331170      72.19494367      84.04203810
H      86.96348147      73.58956169      81.13563903
C      87.69102611      76.23895798      84.21778264
H      88.74360366      76.13502303      85.98467676
H      85.72382101      76.25596551      84.82816425
C      87.99905150      78.66347684      82.78914955
O      88.98737836      80.39068669      83.98534631
O      87.53606855      78.74851452      80.39864578
C      92.86320702      73.91648434      84.16298058
O      94.21058188      75.77975448      84.17620867
N      92.79517687      72.24029710      86.10183979
H      91.35709515      70.99685718      85.93365414
C      94.06318323      72.51619714      88.55092508
H      95.89432803      73.44594249      88.39596753
H      94.45435658      70.62269137      89.25768272
C      92.61376315      73.92404324      90.48222538
O      90.50293885      74.86512695      90.20254589
N      93.65122290      74.04687545      92.72155105
H      95.53339030      73.73507061      92.76690448
C      92.51549737      74.63458034      95.12717266
H      90.57285873      75.00874615      94.55458559
C      92.56652000      72.27053272      96.93753047
H      94.47514356      72.04376556      97.68586208
H      92.19046445      70.63025028      95.75267207
C      90.72214711      71.92282308      99.07670064
H      88.89856122      72.34612177      98.21687518
C      90.63899915      69.26586788     100.20675698
H      89.11776946      69.15059458     101.59192637
H      92.34542201      68.77831849     101.24988590
H      90.21759019      67.96951563      98.66285059
C      90.90923002      74.07144189     101.03256738
H      89.49004555      75.54542842     100.79824132
H      92.84997893      74.66481596     101.38594621
H      90.35176076      73.29665411     102.85615327
C      93.64366399      76.97028206      96.37250230
O      96.00771160      77.10067317      96.97532498
N      92.01849936      78.71827890      97.08114966
H      90.19113402      78.47639393      96.58793109
C      92.71769810      81.27507860      97.78034840
H      94.74537442      81.42058753      98.10538132
C      92.19613363      82.89079460      95.34260145
H      90.17601620      82.62056373      95.04591443
H      93.03706184      82.21238285      93.58893543
C      92.75738234      85.80286285      95.26134322
H      91.76716575      86.72693901      96.81280853
H      91.67834862      86.64001160      93.71932656
C      95.54472866      86.33387594      95.05725279
H      96.42534113      85.43814567      93.42452925
H      96.24770684      85.68569981      96.88083868
N      95.94535063      89.11177362      94.98922264
H      96.19101505      90.04907787      96.63328452
C      96.09652875      90.66701838      93.01445864
N      95.81118007      90.05285732      90.63907266
H      96.12298492      91.18480339      89.13296078
H      95.37843274      88.33698583      89.92853557
N      96.37242878      92.98760229      93.49066967
H      96.29872946      94.24049083      92.05069822
H      95.50126495      93.37877563      95.14229047
C      91.13221771      82.17080887     100.07825560
O      88.82297216      82.17647805     100.03479189
N      92.39266516      82.92669940     102.06624767
H      94.22758941      82.71882950     101.57680856
C      91.34008762      83.27062959     104.61359874
H      89.64122366      82.11222736     104.76099740
C      93.41689684      82.50906988     106.51655314
H      92.92556799      83.51818373     108.24376299
H      95.30662315      83.14401792     106.00443731
C      93.70791469      79.71227494     106.89449841
H      94.54695317      78.99795839     105.15595020
C      95.54850812      79.11323170     109.03555832
H      95.16678339      80.06376403     110.82134969
H      97.38910155      79.57999410     108.23431436
H      95.33118959      77.09689372     109.39271659
C      91.10009238      78.48962201     107.40661424
H      90.18546484      79.29842488     109.06579393
H      91.61031847      76.56399090     107.93006843
H      89.97948467      78.34033364     105.68696329
C      90.28373061      85.94270259     105.12571457
O      89.00060643      86.53985611     106.96252856
N      91.00371632      87.77573712     103.49110132
H      92.01471991      87.37889459     101.92262848
C      89.79429149      90.33253682     103.52700612
H      89.00627562      90.66701838     105.40161461
C      91.76527603      92.45469947     103.27567251
H      92.41912133      92.54540633     101.32547497
H      93.37532286      92.10510010     104.51344325
C      90.86387658      95.21181016     103.74810410
H      89.92468261      95.38566498     105.57357971
H      89.35587498      95.38188553     102.35537580
C      92.88021455      97.36798788     103.26811362
H      92.12432404      99.26149365     103.55535202
H      93.56240576      97.21492005     101.33114414
C      95.11009160      96.92201247     104.99910292
H      96.67478499      98.16734211     104.49832545
H      95.84141569      95.02094780     104.69107752
N      94.69246209      97.26972211     107.82235403
H      95.99070407      96.30596169     108.84091650
H      92.92178854      96.81996725     108.37226438
H      94.82663267      99.16511761     107.99998830
C      87.64189321      90.48560465     101.57302910
O      87.57575279      88.96248524      99.75889184
N      85.74649772      92.25438848     101.95853328
H      85.87877857      93.28428932     103.56102118
C      84.02495706      92.97059475      99.86849598
H      83.10466034      91.26228216      99.17685614
C      82.11444375      94.83386490     100.91162489
H      82.92891579      96.62910489     101.50310924
C      80.31920376      95.47259239      98.68174784
H      81.42469365      96.36454321      97.18886406
H      79.07765357      96.98626317      99.32803424
H      79.07954329      93.99104696      97.95987239
C      80.47983050      93.63010923     103.15284031
H      81.62122519      93.26539206     104.82713781
H      79.49150364      91.96337063     102.45553129
C      78.27829933      95.37432662     104.03534250
H      77.20304506      94.23293193     105.37137899
H      76.98005736      95.71069791     102.47064911
H      78.95671108      97.13366182     104.86493234
C      85.61988607      94.09876136      97.70853880
O      87.10143149      95.89589108      98.17341147
N      85.31752986      92.89311597      95.58259670
H      83.95125773      91.56274865      95.48622066
C      86.31530534      93.78695652      93.14862920
H      87.40945688      95.51227664      93.42263952
C      88.25038509      91.95959117      91.97699890
H      89.62232640      91.66290414      93.48500049
H      89.22548387      92.96681530      90.46710756
C      87.05418834      89.53318259      91.13229122
C      86.35687932      89.04563320      88.57927098
H      86.83498008      90.49505328      87.22811666
C      85.24194080      86.73827737      87.81771127
H      84.70147907      86.46237733      85.86751373
C      85.20792572      84.75973392      89.62051017
O      84.50872700      82.45426782      89.05926146
H      84.03062623      82.21238285      87.32449271
C      86.00350051      85.16980453      92.15085372
H      85.89578610      83.72794335      93.59271488
C      86.94269449      87.54896996      92.81981683
H      87.76472542      87.81353164      94.66796916
C      84.18180433      94.38411003      91.28913851
O      82.02940607      93.38633454      91.49322896
N      84.61077221      96.24738018      89.67909170
H      86.40979167      96.88232822      89.72633486
C      82.80797331      97.12043373      87.69109962
H      80.81053259      97.20547142      88.18998735
C      83.61866590      99.70557933      86.81048716
H      85.40445727      99.47314299      85.81082194
H      84.08731803     100.93390143      88.39596753
C      81.63256354     100.89799663      84.99068071
H      79.72205025     100.58052261      85.68798972
H      81.48894435      99.80762455      83.24835305
C      82.00672936     103.77793954      84.46722653
H      81.80074919     104.85130408      86.21144391
H      80.58565517     104.55461705      83.19355099
C      84.51817562     104.48280745      83.42787706
H      84.69958935     103.50392922      81.62507815
H      86.19436287     103.94423545      84.49557241
N      84.68447154     107.24369759      83.03292426
H      83.18780829     108.01470593      82.13341453
H      86.19247314     107.84841001      82.03325903
H      85.00950447     108.33406968      84.56360256
C      82.71537672      95.23637660      85.41775885
O      84.65423592      94.45214018      84.51069022
N      80.57809626      94.93213066      84.25368744
H      79.14757345      96.00927466      84.90942248
C      80.13779003      93.33531193      82.09750973
H      81.50028271      91.79140553      82.14286315
C      77.37501015      92.31108027      82.45466799
H      76.07298873      93.84931749      82.02381041
H      76.85155597      91.70636785      84.35384294
C      76.60778127      90.38355943      80.54793414
O      78.26507125      88.79807905      80.01881078
O      74.49695698      90.52906835      79.41787781
C      80.56675791      94.57119294      79.54448948
O      80.37022636      96.90878439      79.31394287
N      80.83131959      93.06697079      77.43744463
H      81.15257306      91.19992120      77.65854261
C      81.07131483      94.12899698      74.71812847
H      82.61333149      95.49148965      74.81072506
C      81.49272380      91.87833294      72.91343984
H      81.71571151      92.67957690      71.02749299
C      83.74338784      90.27017585      73.88853862
H      85.43280316      91.44936507      73.91688451
H      84.08542829      88.72249000      72.57139939
H      83.60921726      89.59932301      75.83117727
O      79.39512758      90.32119846      72.93422684
H      79.55953378      89.14011951      71.56606498
C      78.85655558      95.73715407      73.99247357
O      79.19859605      97.33964199      72.31061715
N      76.62856826      95.50282801      75.12819909
H      76.46227235      94.30663125      76.60596506
C      74.54986933      97.18468443      74.60096544
H      74.69726798      98.34119693      72.90021176
C      72.17448334      95.54062254      74.32128594
H      70.58900297      96.81996725      74.01704001
H      71.78330999      94.55040595      76.08440060
C      72.21416760      93.68113184      72.04794520
H      70.64002559      92.38666932      72.34463222
H      73.97161307      92.61154675      72.13487260
C      71.81543534      95.00582999      69.46657906
O      73.74106645      95.22881770      68.20046243
O      69.78397956      95.89589108      68.80895430
C      74.13412953      99.09330801      76.77226097
O      72.03842305     100.16667255      76.96879251
N      75.91803117      99.68101289      78.61474413
H      77.61878486      98.82685660      78.46545575
C      75.75929417     101.65388716      80.59139785
H      74.66892207     103.18078602      79.74480046
H      77.61122595     102.43623385      81.03926300
C      74.36278642     100.79973087      82.96678384
O      74.26830010     102.22836396      84.81493617
N      73.40280544      98.47347777      82.88930505
H      73.82421442      97.30184746      81.44177469
C      72.27841829      97.47570228      85.21744786
H      71.20505375      98.88921756      86.26435624
C      70.64191530      95.18157454      84.63352244
H      69.39469594      94.84142380      86.23978980
H      72.00251825      93.65278595      84.40297582
C      68.88635957      95.25527386      82.29404127
C      68.02653408      92.97059475      81.19422055
H      68.58211363      91.14889859      81.92932408
C      66.22940436      92.95736667      79.19866956
H      65.66248648      91.14133968      78.45789684
C      65.33934328      95.23448687      78.34640300
O      63.43827861      94.98693273      76.57950890
H      63.11702512      96.62910489      75.87653070
C      66.27097835      97.55507079      79.27992779
H      65.55855152      99.35409024      78.62986194
C      67.98873957      97.48893037      81.23579452
H      68.54053964      99.33897243      81.89719873
C      74.22861585      96.86154123      87.32638243
O      76.50006688      96.95791727      86.88229675
N      73.43115135      96.36643294      89.73011431
H      71.66614696      96.57997201      90.42553359
C      75.28686258      95.38188553      91.65952487
H      77.14257382      95.52928418      90.77891240
C      75.10355913      96.91256384      94.00089578
H      76.10511408      95.88266300      95.47677203
H      73.09855952      96.91256384      94.47332736
C      76.26196137      99.53550396      93.83648959
C      74.52152342     101.54617276      93.72121627
H      72.55242861     101.01515967      93.65129641
C      75.34166464     104.04439095      94.01412386
H      73.86956785     105.45790623      94.02924167
C      77.90035407     104.69067734      94.04435947
O      78.59955281     107.11519620      93.91396836
H      77.08588203     108.08462580      93.67964230
C      79.56520296     102.59686059      93.91585808
H      81.57965121     102.82362775      93.68720121
C      78.83576860     100.05517870      93.82137177
H      80.22282771      98.55851546      93.84593821
C      75.05253652      92.50194263      92.28880373
O      72.94927114      91.44936507      92.41163595
N      77.19737588      91.32275341      92.70643324
H      78.72049530      92.34320562      92.17730988
C      77.54130607      88.51462011      92.95020794
H      75.81787567      87.64534600      93.66641422
C      78.39357265      87.36188705      90.32159864
H      79.40835567      85.64223611      90.82237611
C      75.93314899      86.64190133      88.89296555
H      74.68026043      85.84821628      90.32159864
H      76.33755041      85.26429085      87.41519958
H      74.88624060      88.22549198      88.09739078
O      79.70504270      88.99083114      88.62462441
H      81.06186619      89.98104772      89.31059507
C      79.50851117      87.79841383      94.97221509
O      80.93336480      89.31775379      95.86794536
N      79.26851593      85.41546895      95.84904811
H      78.14223904      84.13990369      94.98355345
C      80.78218671      84.45359826      98.07703542
H      82.56419861      85.48160937      98.13561695
C      79.53118788      84.98461135     100.61115842
H      79.13434535      87.00661851     100.64139403
C      76.88746077      83.91313653     100.58848170
H      76.22794629      84.23816946     102.51222308
H      76.64557581      81.90435746     100.20297754
H      75.61945442      85.01673670      99.39984384
C      80.89557029      84.43281127     103.17173757
H      80.93147509      82.44670891     103.71786847
H      79.94881740      85.43058676     104.70430561
C      83.61866590      85.54774979     103.47598350
H      84.41235095      84.75028529     105.19941391
H      83.60732755      87.58865421     103.76322190
H      84.92257706      84.85988942     102.04168123
C      81.17147033      81.56609645      97.85404772
O      79.77685231      80.06943321      96.83737497
N      83.26717681      80.70627098      98.69308620
H      84.56163933      81.99128487      99.25055546
C      84.07597967      78.13435347      98.64962250
H      82.69836919      76.88146492      99.53212469
H      85.74082854      77.88301987      99.83637063
C      85.14934421      77.14035743      96.08904334
O      86.88033352      78.21750143      95.03079661
N      83.95314746      75.11457082      95.11016512
H      82.53207326      74.49285086      96.22321392
C      83.90212485      74.44182825      92.38140032
H      85.64634224      75.10134274      91.50456732
C      84.13456118      71.51842165      92.01479341
H      82.40357187      70.83245099      92.89351615
C      84.13834064      71.01197499      89.11973270
H      82.46404313      71.74518880      88.17109010
H      84.21392968      68.96729112      88.89107583
H      85.81830733      71.88313882      88.30715040
C      86.52506496      70.46017491      93.27335114
H      86.14522998      70.20128241      95.28024049
H      88.05574329      71.83211621      93.18075455
C      87.48126649      67.85802178      92.12439754
H      88.46014471      68.37958624      90.38773907
H      85.85799157      66.64859694      91.74078310
H      88.84942833      66.96418123      93.37728609
C      81.48894435      75.56621541      91.16252686
O      79.60866667      74.32088577      90.78836104
N      81.47004709      77.95671919      90.44632057
H      83.05363773      79.01874538      90.56726306
C      79.37434060      79.15102622      88.98367242
H      79.41402485      78.10600757      87.20921940
H      80.17747429      81.01051692      88.60761687
C      76.75517993      79.27574816      90.16097190
O      75.06576460      79.66692151      88.56604290
N      76.19771067      78.96394332      92.58927021
H      77.62823348      78.82977275      93.84593821
C      73.46894588      79.10000361      93.39996281
H      72.42014776      77.99640345      92.01101396
C      73.36690065      77.81876917      95.95298306
H      74.22294666      79.13968787      97.28146065
H      74.36845560      76.02730863      95.77534879
C      70.75340915      77.39736021      96.87327977
N      69.37390896      75.21283659      96.50289341
H      70.16003509      73.58767196      95.87928372
C      67.11001683      75.47550855      97.73121552
H      65.80610567      73.97695558      98.19797791
N      66.86057296      77.96994728      98.38128137
H      65.58311796      78.73717616      99.57369866
C      69.15092125      79.13401869      97.89184226
H      69.65547817      81.06720871      98.30947177
C      72.73006288      81.97427734      93.27146142
O      73.99806924      83.50495565      94.49222461
N      70.63435641      82.65646853      92.12439754
H      69.50807952      81.40924917      91.21732891
C      69.60256584      85.24728331      91.94676327
H      71.16536950      86.56631228      91.69920913
C      67.63914020      85.52885253      89.74523211
H      66.04421118      84.34210441      90.28191438
H      68.47439922      84.83343325      87.99723528
C      66.52231194      88.16880019      89.24634436
H      65.69272209      88.71871055      91.04914328
C      68.46495060      90.09443130      88.18620791
H      69.16225961      89.04563320      86.55726383
H      70.01263644      90.48371492      89.48822933
H      67.36324015      91.72148566      87.56448796
C      64.32644996      87.80786246      87.41519958
H      65.14848091      87.05953084      85.68043081
H      63.35702037      89.60499219      87.14685844
H      62.96773675      86.39812663      88.06337569
C      68.59534170      86.06553480      94.56403421
O      67.38402715      84.53107704      95.90951935
N      68.92415408      88.42013379      95.15929801
H      70.09767412      89.32153324      93.94987316
C      67.96984231      89.59743328      97.47421274
H      67.06088395      88.07053442      98.51167248
C      70.06932824      90.80496840      98.86694102
H      69.49107199      91.67235277     100.64328377
H      71.09922907      92.18068915      97.72932578
C      72.04220251      88.86044002      99.97054120
H      72.83210811      87.77762684      98.40395808
C      74.32310216      90.53473753     100.87949955
H      73.51051985      92.05974667     102.00199699
H      75.21127354      91.21881846      99.15039997
H      75.61378523      89.37444558     101.98876889
C      71.09355989      86.75339518     101.73176611
H      71.20127430      84.88067641     100.88327900
H      69.15470070      87.07464865     102.34214772
H      72.21605732      86.97260343     103.44385815
C      66.01964474      91.66668360      96.73532975
O      64.01464513      91.71581648      97.81247375
N      66.67160032      93.41090098      94.88528769
H      68.46873005      93.47893113      94.23900129
C      64.83478634      95.34598073      93.81570260
H      62.92238331      94.60520801      93.61917106
C      64.66093152      97.64766738      95.49944873