 %block lattice_cart
   142.669   0.000   0.000
   0.000 146.65   0.000
   0.000   0.000   162.396
 %endblock lattice_cart

 %block positions_abs
N      95.88960371      44.02668325      81.54476478
H      95.20741251      43.74889348      83.30598971
H      97.77177111      44.34982644      81.52964696
H      95.67417491      42.41663643      80.54320983
C      94.65939188      46.31892127      80.45817215
H      95.56268106      47.80046669      81.56744149
C      95.52677626      46.84237546      77.71806899
H      94.74820901      45.35705057      76.51809278
H      97.55823204      46.50411444      77.66515665
C      94.90694602      49.36893954      76.44061401
H      92.89627723      49.71098000      76.14770643
H      95.80078657      49.49555119      74.59057194
S      95.89716261      51.75188441      78.44939307
C      94.18507057      54.34647863      76.97540655
H      95.08458030      54.99654450      75.24063780
H      94.31357196      56.02833505      78.15648550
H      92.17818123      53.92884912      76.77698529
C      91.75488253      46.54568842      80.63202698
O      90.48309673      44.66541074      80.26542007
N      90.76844540      48.69430723      81.56744149
H      91.77377980      50.27789789      81.92082032
C      87.97542991      48.91351548      82.07577787
H      86.88127837      48.03479275      80.56966601
C      87.32347433      47.73054681      84.60045222
H      88.28534502      45.92018900      84.80265294
H      85.32414389      47.26000497      84.43415631
C      87.37638667      49.30846828      86.92292586
O      85.59437475      50.67663013      87.41614443
N      89.43807807      49.08926004      88.27785963
H      89.45319589      49.92829852      89.99184139
H      90.65128237      47.70409065      87.77519243
C      87.14206060      51.62716247      82.00963745
O      88.47998683      53.36949013      81.45783737
N      84.64951160      52.07691733      82.43482588
H      83.52512444      50.62938698      82.96961842
C      83.48732992      54.59403279      82.15892583
H      84.17896975      55.18740684      80.31077349
C      80.71699114      54.23309507      81.77531139
H      80.26156710      52.92918391      80.24463307
C      79.68520057      53.10870791      84.24896313
H      80.21621367      51.16417953      84.67793100
H      77.63484752      53.08225173      84.06754940
H      80.18030887      54.33703001      85.82499488
C      79.43197725      56.88816053      81.10067909
H      79.56047864      58.07112920      82.78064578
H      77.40619064      56.60092213      80.85312494
C      80.35794314      58.44529501      78.82544861
H      79.02757582      59.97975278      78.48718760
H      80.28424381      57.32846677      77.09634903
H      82.18152903      59.34480473      79.16181989
C      84.36794238      56.62170913      84.01274734
O      84.67785749      58.85158617      83.30409997
N      85.10115619      55.80156790      86.22939631
H      84.41329581      54.12538067      86.82277037
C      86.34081665      57.31523867      88.00006987
H      85.22209867      59.04055880      88.10022537
C      86.33136802      55.96219464      90.64946615
H      87.21198048      57.09603043      92.12912185
H      87.44819627      54.24443342      90.45104489
C      83.70653817      55.28567262      91.56031423
C      82.14751396      57.28500305      92.28596914
H      82.60104827      59.26165677      92.04786362
C      79.79480470      56.79178449      93.40090766
H      78.48711409      58.29789635      93.82231663
C      79.03702445      54.29545603      93.94136939
H      77.24745363      53.95341557      94.86166610
C      80.76612402      52.24132352      93.50106316
H      80.33337670      50.32703077      94.06231187
C      83.03568533      52.77611607      92.19526228
H      84.29424305      51.22087131      91.78141221
C      88.89761635      58.18073332      87.26874578
O      89.48154178      60.43139737      87.33866565
N      90.49443508      56.48753856      86.30876481
H      90.01444460      54.64316567      86.20294014
C      92.89060805      57.15839140      85.06532490
H      94.02255411      58.28088882      86.37112578
C      94.39671992      54.72442391      84.59856250
H      96.18062156      55.09858972      83.64614045
H      93.27800194      53.53200659      83.34567395
C      95.00521179      53.12004626      86.90969778
H      93.31012729      52.38494273      87.82243560
H      95.57212969      54.28789713      88.50840624
C      96.92706345      51.11882610      86.21238877
O      96.27321815      49.12894429      85.23540026
O      99.28355217      51.22654050      86.80387310
C      92.47486826      58.63804709      82.57655534
O      94.19262948      60.05723156      81.86034908
N      90.41695630      58.31868334      81.26886473
H      89.16784721      56.95052149      81.72428878
C      89.88783294      59.60180751      78.80466162
H      91.66606540      59.70385273      77.76531215
C      88.01700389      57.99176069      77.43083059
H      86.30113240      58.20152031      78.55143830
H      88.66895947      56.06423985      77.11902575
C      87.48599079      59.05756633      74.86836171
H      88.97698485      58.29600663      73.66838550
H      87.33481269      61.09280158      75.13292340
S      84.62116570      57.96908398      73.37547792
C      85.31091581      57.90105383      70.08168496
H      87.10048663      57.01099275      69.58846639
H      85.42429939      59.83235413      69.36925814
H      83.83881901      56.83146875      69.11981427
C      89.27745134      62.41372027      79.18449662
O      90.42262548      64.11069449      78.19428002
N      87.23465719      62.74820183      80.61879888
H      86.46175913      61.19295708      81.41059421
C      86.82458658      65.38248031      81.64303055
H      86.45986941      66.70150928      80.10479332
C      84.34148621      65.44484128      83.06410474
H      84.42274444      67.36291349      83.81243635
H      84.72510065      64.00109037      84.48139947
C      82.00200503      65.04799875      81.38413805
H      81.89051118      63.26598683      80.35423720
C      79.60016289      65.20862548      83.09056090
H      79.68898003      64.01998764      84.77241732
H      77.87484277      64.98374806      81.99074020
H      79.53402247      67.08323398      83.94282748
C      81.79602486      67.09835180      79.29976992
H      82.52923867      68.68950136      80.38069337
H      79.87417320      67.33834705      78.59868145
H      83.06781067      66.81867231      77.70484091
C      88.90328553      66.60324350      83.25496709
O      89.12627323      68.92193769      83.16992940
N      90.69096662      65.13681589      84.46817138
H      90.76088649      63.24897929      84.20171997
C      93.02288889      66.43505787      85.56610237
H      92.42573538      68.02053825      86.73773268
C      94.30412333      64.68517130      87.50685129
H      95.21875087      63.14693407      86.49206827
H      92.90194641      64.12770203      88.90902823
C      96.42817571      66.25175441      88.88446178
H      95.53244543      67.53298886      90.22616746
H      97.65838754      67.11724907      87.47661567
C      98.08924514      64.49997812      90.46805243
H      99.84669061      65.48830498      90.88568195
H      98.81867949      62.92772583      89.35689335
N      96.78533398      63.30378136      92.61667124
H      96.57557436      61.40838588      92.61478152
C      95.92739823      64.34880001      94.79174623
N      96.38849145      66.74119352      95.20559629
H      95.68173381      67.69172586      96.70414926
H      97.65838754      67.60479846      94.07742968
N      94.57624392      63.08268339      96.32431427
H      94.14538632      63.52109988      98.13278235
H      93.91861916      61.34980435      95.87077995
C      94.72364257      67.56700392      83.45149863
O      95.74598451      69.60601862      83.61968427
N      94.86159259      66.24419550      81.23862911
H      93.91106026      64.58879526      81.20272431
C      96.51699284      66.89048191      79.04465686
H      98.29900476      67.76731491      79.59645695
C      97.16516897      64.43950688      77.56122172
H      95.64960847      63.04866832      77.65570802
C      97.95696429      65.03099122      74.80411102
H      98.59947124      63.44551084      73.65704714
H      99.22308092      66.62403049      74.48663700
H      96.18629074      65.69995432      73.98963898
C      99.24008846      63.03921967      78.97851644
H      99.07568227      63.13748545      81.03075922
H     101.04477709      63.89904516      78.48340815
C      99.51409878      60.30100625      77.90515190
H     100.53266126      60.33691106      76.11369136
H      97.62248274      59.52999792      77.64247994
H     100.48163865      59.25031842      79.38669733
C      95.26788375      68.84445891      77.27776276
O      96.71163465      70.24663584      76.16660369
N      92.75454775      69.01264456      76.99241410
H      91.58858662      67.81644779      77.91649025
C      91.60748388      71.09890240      75.51653785
H      92.85281352      71.29354421      73.88570403
C      89.02422801      70.55088177      74.45451165
H      88.29101420      72.25163546      73.55500192
H      87.74866275      70.00097142      75.97574133
C      88.92218279      68.51186709      72.40226887
O      90.08058502      68.93705550      70.35947473
O      87.50866751      66.54277226      72.72541207
C      91.56779963      73.54798770      76.77509557
O      92.07046683      75.50574417      75.58834744
N      91.19174409      73.51397263      79.37346924
H      90.57947277      71.85290320      80.08778580
C      90.95741803      75.76841612      80.85690440
H      91.62638115      77.33499923      79.69850218
C      88.19085871      76.59233679      81.44271955
H      87.96976073      77.60145064      83.22284174
H      87.18552431      74.82733242      81.79042920
C      87.08347909      78.24773705      79.39425624
H      87.60315382      77.51830269      77.53854499
H      87.72409631      80.19604488      79.18638634
C      84.13928549      78.31009801      79.81755493
O      83.46465320      79.70849548      81.53153669
O      82.77301337      76.92114918      78.57033556
C      92.56557512      75.78164420      83.29465134
O      93.61059377      77.91136576      83.73873702
N      92.42384565      73.77664458      84.81588102
H      91.44874687      72.24029709      84.23573505
C      93.62193213      73.88246926      87.39346771
H      95.46819474      74.66670569      86.93615395
H      93.91483971      71.94738951      88.03408493
C      92.33691824      75.47550854      89.35878308
O      90.55868578      76.76052244      88.82210081
N      93.15139028      75.26196948      91.82109647
H      94.61970762      74.08466997      92.13668076
C      91.70008047      75.88746889      94.16246737
H      89.82358224      76.58099843      93.66546935
C      91.70952910      73.51964181      95.85566214
H      93.58791706      73.18893970      96.63233966
H      91.04434544      71.83211622      94.87867364
C      90.07680557      73.66515073      98.18002551
H      90.72876115      75.01063587      99.59920997
C      87.19308321      74.16781793      97.56397474
H      86.04601934      73.50263427      99.14000649
H      86.62427559      73.24941094      95.81030871
H      86.97576469      76.21628126      97.64334324
C      90.10326174      71.02142363      99.47259831
H      92.06479765      70.61513246      99.96014770
H      89.47965205      69.74396863      97.98349398
H      88.74832797      71.01008526     101.02406361
C      92.83202653      78.12868428      95.58354155
O      95.04867550      78.79953713      95.24150109
N      91.14639066      79.45338244      97.08965343
H      89.31335614      78.96394331      96.88556298
C      91.79456679      81.48672795      98.84331944
H      93.81657394      81.51696356      99.23071334
C      91.30890712      84.18525712      97.76995490
H      91.54512291      85.40035115      99.41779624
H      89.37949656      84.26840508      97.05752809
C      93.01155053      84.88067641      95.51362168
H      93.36303963      83.21960698      94.34766055
H      94.89938712      85.40602032      96.15045945
C      92.13660725      86.91024247      93.66546935
H      93.81846367      87.91935631      93.03241103
H      91.10292696      88.31430911      94.75962088
N      90.47742755      86.09388069      91.53763752
H      89.64216852      84.37800921      91.51307108
C      90.07302612      87.35243843      89.50618173
N      91.26733315      89.53129287      89.09611112
H      90.67395908      90.51961973      87.57299172
H      92.61659773      89.92246621      90.38679419
N      88.56502452      86.71371092      87.77708216
H      88.27967584      87.59243366      86.10656409
H      87.82992098      84.99217025      88.15313769
C      90.56624468      80.97650185     101.42846504
O      88.50455328      80.06565375     101.60043014
N      92.01944422      81.20137927     103.44291329
H      93.79578695      81.81931977     103.10654202
C      91.20308245      80.96894294     106.06207396
H      89.60059454      79.67448042     106.05262534
C      93.42540060      79.86534277     107.62298789
H      93.01344026      80.51162916     109.53539093
H      95.19796388      80.81209566     107.16756385
C      93.72397735      77.02697384     107.61920844
H      92.17818123      76.17281755     108.67745518
C      93.94129588      75.76652639     105.05107038
H      95.66661600      76.50351965     104.19880382
H      92.25566001      76.46950459     104.09675859
H      94.27010826      73.74640897     105.27594781
C      96.04456126      76.36556963     109.18201210
H      97.62626219      76.80398615     107.93668246
H      96.27321815      74.34923166     109.52972174
H      95.94629550      77.46916981     110.92056031
C      90.46419946      83.61644950     107.05229055
O      89.49665959      83.79975296     109.11209223
N      90.94041049      85.83876764     105.84664516
H      92.08180519      85.64601556     104.33108466
C      90.28467546      88.33887555     106.61198432
H      89.10548624      88.23494061     108.29950992
C      92.71864295      90.01884225     107.19402003
H      94.18129112      89.86388469     105.75026912
H      93.39705470      89.12311198     108.91934016
C      92.29723399      92.79485020     107.68534886
H      90.78923239      93.01972764     109.07051825
H      91.78889761      93.87199420     106.00538217
C      94.49120624      94.13277644     108.93067850
H      95.06757276      93.27106123     110.71269042
H      94.07546645      96.08297398     109.45413269
C      96.65683259      94.01372367     106.97292204
H      95.92550851      95.08141904     105.37043413
H      97.11792581      92.06919529     106.47592402
N      99.19284530      95.10031631     107.54928857
H     100.20195915      93.82475104     108.54517434
H      98.94529116      96.81618779     108.34864280
H      99.93550774      95.33464237     105.80696091
C      88.46864848      89.48782915     104.68446348
O      88.70864372      88.79807905     102.51316794
N      86.78301260      91.23393627     105.48381772
H      86.86427084      91.63833770     107.34897759
C      85.00666987      92.79107075     104.00983118
H      83.79724503      91.59487400     102.84575978
C      83.08859766      94.41245592     105.50649442
H      84.12605741      95.59353487     106.84064120
C      81.53335291      96.38910965     103.80952020
H      80.40707602      95.37810608     102.41301246
H      82.88450722      97.63254957     102.87599540
H      80.03291021      97.37365707     104.82241351
C      81.30280630      92.79862966     107.09953371
H      82.60293800      91.80085417     108.34486336
H      80.49967261      91.28684860     105.95058011
C      79.25623270      93.92868599     108.77950040
H      78.55136479      92.34887480     109.89821838
H      77.92397565      94.79607036     107.46992006
H      80.09149173      95.42345951     109.92278482
C      86.36916254      94.28584427     101.97837540
O      88.35526490      95.38188553     102.45458643
N      85.31091581      94.21781412      99.70503464
H      83.60827240      93.36176810      99.75038807
C      86.31625021      95.13622111      97.30508224
H      87.55969012      96.74626793      97.62255625
C      88.14928473      93.08775779      95.96904573
H      89.41351163      92.26761656      97.37122265
H      89.34926094      94.02884148      94.58387634
C      86.55435572      91.10354516      94.55742017
C      86.12538785      91.58731509      92.04219444
H      86.66207012      93.40523180      91.28819366
C      84.54935610      90.02640116      90.64946615
H      83.93897450      90.77284305      88.85422615
C      83.54591143      87.76817822      91.65102110
O      81.86783446      86.40001636      90.31687433
H      81.64484676      86.97638288      88.61045146
C      84.00133547      87.31464389      94.26451259
H      83.12450246      85.60066213      94.94103461
C      85.47721172      88.89823455      95.67046897
H      85.91940768      88.48249476      97.61877680
C      84.09015261      96.05462809      95.65346143
O      81.84326802      95.38377525      96.17880535
N      84.56069446      97.64955711      93.66546935
H      86.27656595      98.48670585      93.69003580
C      82.50089278      98.90622509      92.16313693
H      80.77179320      98.77394426      93.27429600
C      83.00922916     101.67467415      91.79086084
H      82.34782495     102.38710097      89.97483386
H      85.01044932     101.99970708      92.14612939
C      81.49744811     103.31306686      93.80152965
H      81.94531324     102.81228938      95.74983747
H      79.52457384     102.73103116      93.70704333
C      81.88673173     106.22135565      93.10611036
H      81.11194394     106.72402285      91.26551693
H      83.84826764     106.84496534      93.19870695
C      80.36550205     107.53471544      95.02985175
H      81.39918234     107.07551195      96.75328215
H      78.42097367     106.85441397      95.02607229
N      80.44676028     110.32017204      94.47616195
H      79.36016765     111.16865914      95.79897035
H      79.70787729     110.57339536      92.73572400
H      82.22499274     111.00236323      94.34577082
C      81.96798996      97.65333656      89.59877832
O      83.70086899      96.64422271      88.30998498
N      79.59449371      97.54184270      88.87690287
H      78.37184079      97.93679550      90.28663871
C      78.59860794      97.04673440      86.35600797
H      79.33749093      95.29495811      85.56988182
C      75.69976778      96.61587680      86.75662995
H      74.60183679      98.33552775      87.04386836
H      75.40874993      95.43290813      88.41769938
C      74.51112993      95.29873757      84.48517892
O      73.49634690      93.20492082      84.99729475
O      74.55459363      96.07919453      82.20238953
C      79.35449847      99.19724296      84.57588578
O      79.74756154     101.36664875      85.36390165
N      79.70976702      98.64922233      82.20616898
H      79.49433822      96.85965150      81.58066958
C      80.02913076     100.56351507      80.18605156
H      81.89807009     101.41011246      80.34856802
C      79.84204786      99.39566422      77.53665528
H      77.98444689      98.54150792      77.30043948
C      79.94976226     101.03027747      75.33890356
H      78.24711885     102.18867970      75.38992617
H      80.09716091      99.86998551      73.64003961
H      81.53146318     102.31151192      75.64881868
O      81.92074680      97.60987285      77.28721139
H      81.13462066      96.01494385      76.93005313
C      77.75767973     102.59497086      80.35801666
O      78.28302365     104.82484791      79.94794604
N      75.50323624     101.79750635      81.11768663
H      75.25757182      99.97203075      81.62224355
C      73.18076260     103.36786893      81.45972709
H      73.39241195     104.81539929      80.01030701
C      70.86206842     101.64254880      80.75863863
H      69.16131474     102.74236952      81.13469417
H      70.83372252      99.88888278      81.83956208
C      70.96411364     101.20791174      77.89759299
H      69.81704977      99.55440122      77.45161758
H      72.87840639     100.65422194      77.38358743
C      69.92665389     103.39621482      76.29321536
O      68.88352497     102.84630447      74.23908285
O      70.09294981     105.58640762      77.17004836
C      72.89163448     104.68878761      84.08455694
O      70.81671499     105.25003634      84.92170570
N      74.96088479     105.08940960      85.42437290
H      76.55581380     104.21824577      84.84233719
C      75.06104029     106.25537074      87.90936300
H      74.49601212     108.23391419      87.81487669
H      77.01690702     106.46890981      88.52163432
C      73.93476340     104.88342943      90.09766607
O      74.62451351     105.70546038      92.14234994
N      72.52880703     102.83307637      89.76318451
H      72.06771381     102.22080505      88.01329794
C      71.68787882     101.13421242      91.81920674
H      70.50113069     102.37954207      92.95115280
C      69.92665389      99.08574910      90.77040864
H      68.92131949      98.38844009      92.42769861
H      71.17765271      97.53239408      90.25829280
C      68.04070703      99.58652657      88.65391517
C      67.53237065      97.67601328      86.84355736
H      68.21078240      95.75983078      87.01552245
C      65.68043887      98.10876060      85.07855299
H      64.97368123      96.54973638      83.96739391
C      64.48424211     100.45958013      84.87446255
O      62.42821988     100.80351032      83.30221025
H      61.53059988     102.34552698      83.63291236
C      65.10785179     102.37009344      86.53553197
H      64.24235714     104.21257658      86.40136140
C      66.95789386     101.92978720      88.40447129
H      67.50024531     103.47936277      89.61578586
C      73.77413667      99.95880265      93.41791520
O      75.76968765      99.33519298      92.41447053
N      73.39241195      99.26338337      95.86511078
H      71.64630484      99.74337385      96.46226429
C      75.06481974      97.85742699      97.42791444
H      76.94698715      98.28450514      96.70603898
C      75.13851906      98.77016481     100.24738610
H      76.43109186      97.47192283     101.18658007
H      73.37162496      98.37899146     101.22815405
C      75.84527671     101.52916522     100.69903068
C      73.84972572     103.21858055     101.11099102
H      71.95999941     102.66489074     100.57052930
C      74.45443814     105.73191654     101.38500134
H      72.99178997     107.13031402     101.64956302
C      76.90919262     106.56339612     101.05429924
O      77.50634613     109.03704787     101.19602870
H      76.16464045     110.19545010     101.57586369
C      78.85372100     104.77949448     100.77273001
H      80.80391855     105.38231717     100.75194302
C      78.27168529     102.27182766     100.36454913
H      79.87984238     101.03594666     100.12833335
C      74.67931557      94.95291765      97.12933768
O      72.45699743      94.03829011      96.74005406
N      76.74667616      93.68491130      97.02162328
H      78.44554011      94.52394979      97.25405962
C      76.83171384      90.80496840      96.63800885
H      75.00623822      89.89601003      96.92335751
C      77.37973447      90.16057173      93.86955980
H      78.20554487      88.28785294      93.62767482
C      75.18954167      90.39678751      91.89668552
H      73.35839688      89.62955862      92.45226505
H      75.87929178      89.65223535      90.10522497
H      74.79269915      92.41501522      91.78897112
O      79.22032790      91.84998705      93.02485213
H      80.19731640      92.51706043      94.39868316
C      78.67797645      89.31964351      98.33498307
O      80.29558217      90.38544916      99.59732024
N      78.46821683      86.87811712      98.45403582
H      77.20965910      86.07876289      97.25972880
C      80.10283009      85.03941342      99.72960109
H      81.90184954      86.04096836      99.69936546
C      79.18631283      84.58020992     102.51316794
H      78.31325927      86.30364031     103.23504340
C      76.82037548      82.86433842     102.52639603
H      75.31426361      83.71282554     101.40767805
H      76.17030963      82.77552130     104.47848331
H      77.19454129      80.95949430     101.83664592
C      81.21776861      83.65802349     104.52572647
H      81.66941320      81.68514920     104.14589148
H      80.13306571      83.51062483     106.27183358
C      83.43819703      85.53452171     104.76005253
H      82.63128390      87.40157131     105.08130601
H      84.60226844      85.69892789     103.06685776
H      84.47943623      84.77107227     106.36443017
C      80.18597805      82.68670416      98.06286248
O      78.69687371      82.43915000      96.19581288
N      81.75634061      80.83099291      98.64111873
H      82.97332436      81.16547447     100.07353127
C      81.64295703      78.32143637      97.29941306
H      79.70976702      77.62412736      97.15201439
H      82.65585034      76.81910396      98.27640155
C      82.63128390      78.48206311      94.55553045
O      84.91029383      79.10000361      94.20026189
N      81.01556790      77.71294449      92.66202467
H      79.23733544      77.25374100      93.18547886
C      81.52201455      78.06254387      89.99940030
H      83.14151000      79.32677077      89.85767083
C      82.41774482      75.46605991      89.00540426
H      80.79446992      74.19805356      89.02241180
C      83.46654293      75.83833599      86.33522098
H      83.70464844      74.12435423      85.22028245
H      85.17107606      76.98728959      86.48261963
H      82.21554411      76.90981081      85.09933997
C      84.41518553      74.23773780      90.60789217
H      83.42496895      73.24374177      92.11400405
H      85.82492136      75.52086198      91.38456969
C      85.97043029      72.13447243      89.33232691
H      87.09670717      71.27275722      90.82332098
H      87.25544418      72.85067869      87.88857601
H      84.99533151      70.58111740      88.39502266
C      79.30725531      79.35133722      88.66714325
O      77.81626125      78.08333085      87.37834990
N      79.16552584      81.82687868      88.93170493
H      80.53179796      82.93803776      89.66869820
C      76.95643578      83.22716589      88.18526304
H      76.29125212      82.30497944      86.46750182
H      77.68398041      85.10366411      87.74873626
C      74.69443338      83.35188781      89.97483386
O      72.85006050      84.36478113      89.00918371
N      74.77380189      82.21238285      92.27274105
H      76.42920214      81.38846218      92.74895209
C      72.60439608      82.18025750      94.00373036
H      70.96789309      81.14657722      93.30075217
C      73.23934412      80.75162442      96.39234442
H      74.74356626      81.81743005      97.31453086
H      73.98956547      78.89969263      95.89534640
C      71.05104105      80.41336341      98.22915839
N      69.55437781      78.28553157      98.10632619
H      69.80193196      76.92492863      96.79107667
C      67.84039604      78.41403296     100.03762647
H      66.53837461      76.91736972     100.52139641
N      68.23912830      80.47194491     101.35854517
H      67.52670148      80.80075730     103.09898311
C      70.35751149      81.64546495     100.33431351
H      71.34772808      83.24606314     101.11854993
C      71.82960829      84.79941817      94.78418732
O      73.38863250      86.07876289      95.93125120
N      69.43154560      85.51562444      94.50072839
H      68.19566459      84.27407425      93.74105840
C      68.40164476      88.01762208      95.17158122
H      69.92287444      89.28373871      94.59521469
C      65.97712590      88.52028928      93.53507824
H      64.58817706      87.08787674      94.04341461
H      66.53459516      88.25950706      91.56787314
C      64.75258325      91.26228216      93.68625634
H      63.93244203      91.69313977      95.52684978
C      66.76892122      93.16334683      93.01351377
H      67.95188990      92.39044878      91.51496081
H      67.89897756      93.64711678      94.66513457
H      65.82216834      94.85465189      92.31431503
C      62.67577403      91.31708423      91.72661015
H      63.48268717      91.55141029      89.84633247
H      61.45501083      92.95358721      92.01006910
H      61.54760742      89.59743328      91.81542729
C      67.83283714      88.06108578      98.02128851
O      66.47223419      86.34521430      99.05118934
N      68.96100375      89.86010523      99.24772088
H      70.20633339      90.99583075      98.35577007
C      68.35251187      90.58576014     101.86121237
H      67.35284665      89.16846541     102.97048171
C      70.72222867      91.38889382     103.21047695
H      70.40475465      92.76839404     104.70714019
H      71.59717195      92.57186250     101.76861578
C      72.37762892      89.10799417     104.30840794
H      72.78203035      87.74550150     102.81552415
C      74.91364163      90.13411555     105.11721080
H      75.99456508      88.78107152     106.23214933
H      74.46577650      91.57408700     106.52127745
H      76.22133224      90.59520878     103.59409141
C      70.84506088      88.03840908     106.38332743
H      70.11940598      89.44625518     107.69668722
H      72.32093713      86.90457328     107.26582962
H      69.14808665      87.00661851     105.82963762
C      66.42121158      92.77217348     101.77239523
O      64.51258801      92.47737618     102.95158445
N      66.88608426      94.83575462     100.43446900
H      68.59628657      94.88488750      99.58976134
C      65.09084426      96.89933576     100.08109018
H      63.28426590      95.99226713      99.68424765
C      64.44266813      98.31663049     102.50749878