 %block lattice_cart
   142.669   0.000   0.000
   0.000 146.65   0.000
   0.000   0.000   162.396
 %endblock lattice_cart

 %block positions_abs
N      92.63643986      42.90891013      84.19416107
H      94.45624631      42.44970664      83.85023088
H      91.61031847      41.64279350      83.20016503
H      92.45124669      42.61978200      86.07254903
C      92.01849935      45.57720368      83.56299248
H      92.70447001      46.79796688      85.07099408
C      93.20713721      46.39923463      81.03264895
H      92.59675562      45.09154402      79.56433160
H      95.26315944      46.28585105      81.01375169
C      92.55329191      49.16012477      80.31644268
H      90.50293885      49.32075151      80.39959063
H      93.20335775      49.54373922      78.40026020
S      94.06696268      51.70180666      82.10601350
C      94.13877228      54.57419066      80.03487346
H      94.46191548      56.20124502      81.25185720
H      92.34920146      54.83308317      79.04654659
H      95.66567115      54.58174957      78.65159379
C      89.14233591      45.98538457      83.52897741
O      87.82897612      45.05185977      81.91515114
N      88.33353304      47.64456427      85.24862835
H      89.52972980      48.60454524      86.38057442
C      85.77295390      48.45525686      85.65491951
H      84.49549891      47.52362179      84.33400082
C      84.89612088      47.47070945      88.30053635
H      85.08131406      45.42413585      88.17014523
H      82.92324661      47.79763210      88.79564464
C      86.64600745      48.13022393      90.53797230
O      88.13322206      49.92357420      90.52663395
N      86.62144101      46.70348057      92.43336780
H      87.70614391      47.03229295      93.96971529
H      85.61799633      45.07831594      92.44848561
C      85.60098880      51.29551551      85.77586199
O      87.61354732      52.62966228      85.72294966
N      83.30308160      52.17234852      86.13302027
H      81.89145604      50.94213669      85.76452364
C      82.48860956      54.84064207      86.31632372
H      83.26528708      55.86865318      84.71005635
C      79.58598994      54.91245167      86.22183740
H      79.00395424      53.92979399      84.50785564
C      78.07798834      53.86365357      88.56887749
H      78.93970354      54.74048658      90.22238801
H      78.28963769      51.81707997      88.63501791
H      76.05787093      54.17167896      88.30998498
C      78.83765833      57.67712127      85.77586199
H      79.37245087      58.91111255      87.33677593
H      76.78919500      57.89632952      85.81176679
C      79.41780431      58.87520775      83.24362874
H      78.45593361      57.86420417      81.72617851
H      81.46626763      58.87898720      83.02631021
H      78.84710695      60.85375120      83.24929791
C      83.61677617      56.17856830      88.51218570
O      84.32164409      58.37254055      88.34400005
N      84.21015023      54.71780986      90.42647845
H      83.46748779      52.96225412      90.53041340
C      85.19469764      55.41322914      92.88690211
H      84.05897212      57.03272459      93.46137891
C      84.62022085      53.32886102      94.85599693
H      86.11499435      53.64066586      96.23927659
H      85.02651201      51.59220254      93.82609609
C      81.99161154      53.32130211      96.35266017
C      79.63890229      52.46903555      95.41913537
H      79.48016527      51.70936557      93.53318851
C      77.49784238      52.91123150      96.94225478
H      75.65913867      52.32163690      96.28274030
C      77.45059921      54.27561390      99.27039760
H      75.77441197      54.50993997     100.40990256
C      79.85622080      55.09575512     100.05463402
H      79.96582494      56.30140051     101.69680618
C      82.05586224      54.64788999      98.58631667
H      83.87188922      55.34519900      99.20236745
C      87.96692615      56.29951078      92.80564388
O      88.76817010      58.00782337      94.17002628
N      89.59775995      55.17134418      91.05953677
H      89.12721810      53.41011925      90.49639832
C      92.14700074      56.17289912      90.41514009
H      92.96525224      57.24059449      91.97416430
C      93.91389485      54.00160359      89.78775096
H      95.50126495      54.62332354      88.63312818
H      92.78950769      52.51627871      88.91091795
C      95.34252795      52.92634932      92.06109171
H      93.90633594      52.16101016      93.32531862
H      96.20235342      54.45135845      93.14957407
C      97.20012891      50.84576064      91.13890527
O      96.48770210      48.63667058      90.90457921
O      99.54149982      51.41267854      90.84032851
C      92.17912609      57.94924186      88.12857125
O      93.61342837      59.71991541      88.13046098
N      90.29695868      57.67523154      86.38813332
H      88.92879683      56.37698956      86.69804844
C      90.07586072      59.38354413      84.23384532
H      91.86543152      59.20024067      83.22851092
C      88.09164809      58.51049057      82.34600874
H      86.22270875      58.44435015      83.20583421
H      88.52817486      56.56407247      81.83389291
C      88.27117208      60.21124425      79.98196112
H      89.70925381      59.35708796      78.77820546
H      88.98548862      62.09341166      80.41659817
S      85.18902847      60.28494358      78.42104718
C      84.77895785      57.16689516      77.19839426
H      84.81297292      55.75715933      78.70072668
H      86.24160602      56.85698005      75.77920980
H      83.08387336      57.23870476      76.03243313
C      89.62043666      62.09530139      85.27130507
O      91.23615266      63.75826054      84.56076798
N      87.86866037      62.75670560      86.89457997
H      86.93135613      61.41311019      87.87534793
C      87.02206298      65.42121970      87.31409921
H      87.15056437      66.21868420      85.42059345
C      84.48038109      65.61208205      88.49328843
H      84.24227558      67.49991864      89.27563513
H      84.14967899      64.11919827      89.87467837
C      82.23160678      65.36074845      86.56954705
H      82.30908557      63.42188926      85.87412776
C      79.84677217      65.44011696      88.06054111
H      79.89212560      66.79505073      89.61011668
H      79.81653655      63.70723793      89.17170018
H      78.21782809      65.55916972      86.80576284
C      82.13712047      67.42432959      84.52108372
H      82.22593760      69.30838672      85.34878385
H      80.33621129      67.38464534      83.52708768
H      83.51284122      67.11630420      83.02064103
C      89.00249616      66.93866993      88.67092271
O      89.24816058      69.18933397      88.22305757
N      90.84119986      65.60452315      89.81231740
H      90.49537996      63.73369410      89.96349550
C      92.89155292      66.78749182      91.29386283
H      92.20936172      68.34840576      92.45226506
C      94.10853667      64.70690315      93.07209529
H      95.13465805      65.76137043      94.51584619
H      95.53905948      63.66566395      92.01384855
C      92.34353229      62.83418437      94.29663794
H      91.11898963      61.87609313      92.94737335
H      90.98103961      63.79605507      95.50984223
C      93.89121814      60.95768615      95.96337655
H      95.35197658      62.06128631      96.90446025
H      94.75482306      59.50070716      94.78985651
N      92.18479527      59.67078253      97.71326311
H      91.60086985      57.93601377      97.17091166
C      91.48748627      60.46635730      99.91290454
N      92.40022407      62.59040968     100.88044441
H      92.21503089      62.82095629     102.76450155
H      93.38477148      63.93400509      99.94691962
N      89.88310863      59.12843107     101.27728694
H      89.25760922      59.85408598     102.92890774
H      89.59964967      57.31996299     100.73493549
C      94.89844226      67.85896664      89.50051256
O      95.90377666      69.84884845      89.88601673
N      95.33496904      66.56639384      87.40102662
H      94.59041687      64.81083810      87.42937252
C      96.93745695      67.38464534      85.36768111
H      98.17333797      68.87941885      86.06121067
C      98.61364420      65.27949022      84.38691315
H      99.84952520      65.88042319      82.85245539
C     100.23880883      64.35730378      86.69048953
H     101.15910554      65.84640812      87.77708216
H     101.83373782      63.35007966      85.86089968
H      99.46213130      62.90410425      87.92637054
C      97.09808369      63.00425974      83.45527808
H      95.47669852      63.48802968      82.28364777
H      96.36109042      62.03860960      85.12012696
C      98.73269694      61.18256358      81.84334154
H      97.75759817      59.38732358      81.59578739
H     100.17077868      60.61942514      83.20772394
H      99.58685324      61.88932122      80.10668306
C      95.91322529      68.72635102      83.10378899
O      97.34941728      69.74491350      81.57122095
N      93.42256602      68.90965447      83.04898693
H      92.48148230      67.97801940      84.42092823
C      91.92779250      70.07372588      81.04587703
H      93.00682622      70.54615746      79.35646171
C      89.51650172      68.43155371      80.46762078
H      88.28817961      68.33517767      82.11735185
H      90.33286348      66.58718083      80.04432209
C      87.91779327      69.12319354      77.99963822
O      89.14044619      69.34996070      75.96629270
O      85.63878332      69.17043670      78.11869097
C      91.27394720      72.68910710      81.86979771
O      91.67456917      74.43710394      80.28620706
N      90.60120463      73.01602975      84.27919876
H      90.24026689      71.48913089      85.36390166
C      90.39900391      75.56149109      85.30154069
H      90.46703405      76.94855021      83.78031101
C      87.56441444      75.57093972      86.38813332
H      87.48126648      74.07049703      87.79786915
H      86.30963617      74.84528482      84.92548515
C      86.40223275      77.98600995      87.55031500
H      87.67023911      78.93654229      88.86556452
H      84.78084759      77.50790919      88.72950422
C      85.64445251      80.02502464      85.59255854
O      86.30963617      79.95699450      83.29276162
O      84.30652627      81.73522696      86.51663471
C      92.46636449      76.50635425      87.15914166
O      92.67234466      78.78536418      87.58810953
N      93.62098728      74.79426221      88.60478229
H      93.34697696      72.94422015      88.22683702
C      95.12709914      75.50290958      90.87056413
H      96.26660412      77.15264065      90.40191201
H      96.63699046      74.13474773      91.17103062
C      93.71736332      75.77503017      93.32342889
O      91.50260407      75.39897463      93.55775495
N      95.06851762      76.80682073      95.27173672
H      96.93178778      76.98256528      94.90512981
C      94.01971952      77.27358313      97.84554396
H      91.96180757      77.19232490      97.79830080
C      94.81718402      75.17220747      99.74093945
H      96.83352200      74.79237248      99.56519490
H      93.81184963      73.53192503      99.00016673
C      93.87421059      75.89408292     102.41868163
H      95.24426217      77.33783383     102.95347418
C      91.14166635      76.75201867     102.87977485
H      90.85064850      77.16586873     104.87721557
H      89.92279287      75.11551568     102.62088235
H      90.59175599      78.18632094     101.50783355
C      94.29184011      73.74168465     104.39155590
H      94.01971952      74.44277312     106.30773839
H      96.24581713      73.18421539     104.06463325
H      93.08241527      72.08817413     104.15911957
C      94.81151485      79.99289930      98.62600092
O      97.04139190      80.60139117      99.13055785
N      92.86887620      81.50657007      98.80363520
H      91.30040336      80.84138641      97.94380972
C      92.89722209      84.13895883      99.72960109
H      94.78505868      84.81548085     100.19636349
C      91.92212331      85.97010362      97.63200488
H      91.35142597      87.80691760      98.36899814
H      90.41979090      85.03090965      96.58509651
C      94.04995514      86.36505642      95.72338131
H      95.28394642      84.71721508      95.77440392
H      95.04773063      88.01289777      96.45659512
C      93.34130777      87.32503739      93.15524325
H      95.03828200      88.04880257      92.23872599
H      92.07141169      88.92563558      93.40468712
N      92.25282542      85.37672956      91.59054986
H      91.86732126      83.63629163      92.27085133
C      91.21536567      85.70554194      89.38145980
N      91.24749102      87.83148404      88.14179934
H      90.60309435      87.65007032      86.35600797
H      91.59898011      89.54357608      88.90713850
N      90.24593608      83.96132455      88.22305757
H      89.83019628      83.99722935      86.36167715
H      89.95869767      82.26435032      89.05075770
C      91.38355132      84.27312940     102.17868639
O      89.29540374      83.34905323     102.21081174
N      92.56840972      85.33137613     104.11754559
H      94.34475245      85.98522143     103.86810172
C      91.60842874      85.20854392     106.82930285
H      90.03428673      83.88195605     106.88788436
C      93.71736332      84.33738009     108.56029215
H      93.25249064      84.86083428     110.49726162
H      95.38032247      85.46176725     108.10108866
C      94.70946962      81.49523172     108.44690857
H      95.13843750      81.05114603     106.48348293
C      97.16044465      80.94721108     109.90766701
H      97.00548710      81.47444473     111.89376937
H      98.83096271      81.77869066     109.03650318
H      97.30406386      78.89118886     109.92656428
C      92.51549739      79.82660338     109.34074912
H      92.04117608      79.98723012     111.34007956
H      92.75360290      77.82916267     108.90800179
H      90.68813203      80.07226780     108.42234213
C      90.11743469      87.65007032     107.67778996
O      88.90800985      87.43086206     109.65066423
N      90.17034702      89.65129048     106.19813426
H      91.48181708      89.61160623     104.81107515
C      88.63777898      91.87927781     106.35687127
H      87.12410820      91.77156341     107.74959956
C      90.48215186      94.01844799     107.12221043
H      91.97503565      94.21308980     105.71625405
H      91.25882938      93.43452256     108.93823741
C      89.25760922      96.71886689     107.06740836
H      87.57575279      96.66028538     108.25604621
H      88.76628038      97.32546904     105.15878479
C      91.11332046      98.68040281     108.29006129
H      90.26294361     100.55123186     108.12754483
H      92.77250015      98.55001169     107.08063645
C      91.97692538      98.27789110     110.90922196
H      92.36809872      96.27667094     111.20212954
H      90.50104913      98.94307476     112.18478722
N      94.33530382      99.71786255     111.39866107
H      94.95513406      99.37582209     113.17122435
H      94.11987501     101.59625051     111.12843021
H      95.68645814      99.18873918     110.15900061
C      87.09009313      92.26100252     103.90778597
O      87.71181309      90.94764273     102.08042062
N      85.16635174      94.00710963     103.86810172
H      84.76006059      94.95386252     105.47436908
C      83.23316173      94.01277881     101.92168361
H      82.83820893      92.01911755     101.59476096
C      80.89934973      95.69652496     102.62466180
H      81.50784160      97.58058209     103.19535915
C      79.13812481      95.99321199     100.49871970
H      78.19137192      94.18096445     100.25305528
H      80.13590031      96.46186411      98.75828177
H      77.62823349      97.35192521     100.83509098
C      79.54252625      94.51922546     104.89044365
H      80.64801614      94.23765624     106.60631514
H      79.03418987      92.57847654     104.42179153
C      77.37878961      96.15005927     105.88632942
H      77.94759723      98.10781573     106.18112672
H      76.59077375      95.23921119     107.56062693
H      75.96338460      96.27856066     104.39533536
C      84.53140371      95.08425363      99.54440791
O      85.71248266      97.19885738      99.67857848
N      84.36888724      93.91640277      97.27862606
H      82.98371786      92.63705806      96.99327739
C      85.52162029      94.55701999      94.87300447
H      86.55908005      96.30690656      95.20937575
C      87.46803840      92.54257174      93.94892830
H      89.06296740      92.36682719      95.24150110
H      88.25605427      93.38161022      92.24250544
C      86.40412248      89.96309532      93.40657685
C      85.78996144      89.23555069      90.88001277
H      85.73137991      90.71898585      89.47972557
C      85.25894833      86.72599415      90.29041816
H      84.88667226      86.17041461      88.36100759
C      85.29674286      84.84571647      92.13479104
O      84.51817562      82.50623529      91.44126148
H      84.49927837      82.48544830      89.62712422
C      85.83909431      85.45987752      94.68403183
H      85.86744021      84.04636224      96.15801836
C      86.37010742      88.00155941      95.27740590
H      86.99560682      88.54391086      97.14256577
C      83.53740766      95.19007831      92.88879184
O      81.48138543      94.21497953      92.91713773
N      84.23849612      96.83036075      91.11622856
H      85.94680872      97.67317868      91.21449432
C      82.51506574      97.70719375      89.08288304
H      80.63289832      97.35192521      89.83499412
C      82.71537672     100.57012912      88.62367955
H      81.31319980     100.91972849      87.15725193
H      84.65045646     100.94240520      88.01707740
C      81.84043343     102.27277253      90.72127576
H      83.18591857     102.14994032      92.27652051
H      79.94314822     101.93073206      91.44315121
C      82.05208278     104.88248456      89.66113929
H      80.89557028     105.18295105      87.98495205
H      84.08164884     105.18295105      89.46271803
C      81.09966073     106.96118351      91.57165260
H      82.58876505     107.12747942      92.98516788
H      79.46693719     106.18828545      92.55997946
N      80.64990586     109.40270991      90.26963117
H      80.28707840     110.84646081      91.46582792
H      79.26473648     109.42349690      88.95627138
H      82.27696022     109.97529698      89.45326940
C      82.73994316      96.18785380      86.72639433
O      84.87344418      95.95541746      85.78153117
N      80.63856750      95.37527148      85.72294966
H      79.07387411      95.42818382      86.81332174
C      80.39668253      94.20553090      83.18504722
H      82.05019305      92.98287797      83.08678145
C      78.01184792      92.55202037      83.02064103
H      76.31109424      93.69719452      82.81655059
H      77.89468489      91.73376888      84.90847762
C      78.06853971      90.48277006      81.05532567
O      79.16836043      90.88528176      78.92938356
O      76.95738065      88.49099853      81.60712575
C      80.72738463      96.32580382      81.10445855
O      80.49305857      98.56890895      81.69972234
N      81.43225255      95.88171814      78.75552874
H      81.30564089      94.02033772      78.35112731
C      81.91224303      97.68451704      76.52376197
H      83.33898640      99.04700971      77.11335658
C      82.79852467      96.17273599      74.24475203
H      82.61711095      97.53333893      72.71218399
C      85.55941483      95.58881056      74.50931372
H      86.64789717      97.29523342      74.90048706
H      86.18491424      94.81591250      72.70651481
H      85.63500387      94.19041309      76.02298449
O      81.27729500      93.95419730      73.91593965
H      82.00294991      92.99043688      72.56100589
C      79.60677693      99.05456862      75.64692896
O      79.74661668     100.98586891      74.42805549
N      77.32398754      97.96608626      76.07022765
H      77.19926562      96.06313186      76.16093451
C      74.89190978      99.33235838      75.83212214
H      75.18670708     100.72886613      74.35057671
C      72.65447384      97.39727864      75.27276315
H      70.81577013      98.30434727      75.47496386
H      72.69793753      95.91762294      76.70517569
C      73.00974238      95.98943254      72.69328673
H      71.64913943      94.44174669      72.66305111
H      74.83332827      95.02756184      72.63659494
C      72.49573682      97.55412592      70.26498842
O      74.32121244      98.61615211      69.18595469
O      70.19216044      97.50877249      69.41083212
C      74.15491653     100.86681615      78.18672112
O      72.12535046     102.00821084      78.18861085
N      75.86511884     100.95752301      80.09912415
H      77.12556628      99.53833855      79.89125426
C      75.73283799     102.32001568      82.52553274
H      74.65380426     104.07179198      82.65025467
H      77.65846910     102.97197126      82.85245539
C      75.19426599     100.94618465      85.05398654
O      75.83488321     101.83813547      87.04764780
N      74.06231994      98.66528500      84.84989610
H      73.74484591      97.84325405      83.15670133
C      72.42581695      97.67128895      86.91536696
H      71.11812633      99.14905493      87.50307184
C      70.85734411      95.44708108      85.89302503
H      69.53642541      94.96709060      87.39913690
H      72.26707993      94.00521991      85.47350578
C      69.20761304      96.09903666      83.64236099
C      69.32099661      94.55701999      81.45216819
H      70.44160432      92.86193549      81.63736137
C      68.08322587      95.28456462      79.23740895
H      68.30621358      94.01655827      77.65192858
C      66.58467291      97.48987523      79.25063704
O      65.10501722      98.00388079      77.25697578
H      64.04866021      99.47408786      77.40626415
C      66.23129409      98.95819257      81.40492503
H      64.92738293     100.52855514      81.47106545
C      67.56166142      98.24198630      83.60834591
H      67.21773122      99.51377211      85.16737012
C      74.06798911      96.56390934      89.02241180
O      76.20337985      95.71164277      88.60100283
N      72.97005813      96.46942302      91.29953201
H      71.08789071      96.73776416      91.46204847
C      74.13790898      95.76644483      93.69570497
H      76.03330447      96.56012988      93.83554472
C      72.57699505      96.87571418      95.82542653
H      73.14580267      95.97053527      97.58476172
H      70.53609063      96.67540319      95.61566691
C      72.97005813      99.66495021      96.06164232
C      70.96694823     101.45452103      96.17313617
H      69.04509658     100.79122710      95.99550190
C      71.44126954     104.04722553      96.50761773
H      69.93326794     105.41538739      96.65501638
C      73.94893636     104.91460991      96.77784859
O      74.35711724     107.41282810      97.07831507
H      72.97572730     108.49753100      96.62289103
C      75.95960515     103.17228225      96.57942733
H      77.86633900     103.79400221      96.96682122
C      75.39079753     100.53800377      96.19581288
H      76.99517517      99.29834331      95.95581764
C      74.43270630      92.89217111      94.07553996
O      72.73006288      91.65817983      94.71993663
N      76.71927512      91.92463124      94.20215162
H      78.03074520      93.20397595      93.67113853
C      77.31075946      89.28846303      94.70481882
H      75.55709344      88.27745945      95.08465381
C      78.69592886      88.31336425      92.24439516
H      80.60644215      88.96720956      92.65257605
C      78.83009942      85.44475971      91.78330194
H      80.03952426      85.05358636      90.16380649
H      76.93092447      84.66430274      91.59432931
H      79.80708792      84.51123491      93.34043643
O      77.89279518      89.50956101      90.10900443
H      78.98127752      90.94575301      89.90491399
C      79.10788919      88.75744994      97.07075617
O      80.48927912      90.46576252      97.93436109
N      79.14001454      86.46899137      97.99672206
H      77.92681024      85.19153638      97.26161853
C      80.80108397      85.55247411     100.14723061
H      82.35632872      86.90173870     100.13778197
C      79.40268649      85.78491045     102.77206045
H      78.93970354      87.75589499     103.15945435
C      76.85911487      84.52635272     102.82875224
H      77.08021285      82.49489693     103.09898311
H      75.74984553      84.77390687     101.11288075
H      75.89913390      85.18019803     104.52950593
C      80.93147508      85.10649870     105.21169712
H      81.36233268      83.09205045     105.22114576
H      79.75606532      85.53735630     106.84631038
C      83.26339735      86.80536265     105.43657456
H      82.36766707      88.64784581     105.66145199
H      84.32731326      86.68253044     103.67912908
H      84.18558379      86.39718177     107.23370428
C      81.70626286      82.73489218      99.68046821
O      80.38723390      81.30625908      98.43513857
N      83.91535293      82.06781879     100.72548686
H      85.25894833      83.12039634     101.57775342
C      84.68258181      79.49590128     100.88233414
H      83.16702130      78.53403058     101.89522744
H      86.23026766      79.08772039     102.18057612
C      85.49705385      78.28080726      98.41624130
O      86.71592732      79.56771088      96.94981368
N      84.56352906      76.01313568      98.01561932
H      83.10655006      75.48212259      99.12677840
C      84.97737911      74.82827728      95.61755663
H      86.61577184      75.71455892      94.73505444
C      85.87877857      72.01069535      96.13912110
H      84.37833588      70.90142600      97.01217465
C      86.96537119      70.73135064      93.82042691
H      87.54740691      68.78304281      94.14734956
H      88.59242556      71.80849463      93.15902270
H      85.57075317      70.41765607      92.33510203
C      88.02172820      72.12407893      98.24049676
H      87.21859452      72.64375367     100.06408265
H      89.43335376      73.55649147      97.78696244
C      89.00816535      69.34051207      98.68269271
H      90.13444222      69.01547914     100.37777722
H      90.24026689      68.89453666      97.09154316
H      87.48693567      67.95534268      98.75828177
C      82.69647946      75.01158074      93.99050228
O      81.31508952      73.11807497      93.60688784
N      82.23916569      77.16775846      92.78107744
H      83.45803917      78.61717854      93.03052131
C      80.11133387      77.67609484      91.17103062
H      79.95259685      76.28336654      89.66113929
H      80.64801614      79.42409168      90.22049828
C      77.53752662      78.11829079      92.48061095
O      75.75740443      78.08238599      90.97071963
N      77.18603752      78.58505319      94.93347571
H      78.66380351      78.64174498      96.14101082
C      74.66325291      79.14819163      96.06164232
H      73.26485543      77.81782431      95.34165659
C      74.85789471      78.62662717      98.97182084
H      76.11645243      79.90786161      99.98093469
H      75.64969003      76.75012894      99.27984623
C      72.22361624      78.76835665     100.23415802
N      70.64947421      76.66887071     100.85965743
H      71.14269279      74.83583619     100.66501562
C      68.46306086      77.77625033     101.84987401
H      66.90214693      76.50068507     102.16734803
N      68.56321636      80.21021782     101.71003427
H      67.05899421      81.34405361     102.02372883
C      70.97450713      80.95854944     101.07319650
H      71.72661822      82.84449630     100.84076016
C      73.76185344      81.84861054      95.39834838
O      74.74829059      83.72699849      96.29218893
N      71.64913943      82.06025988      94.03396598
H      70.55120844      80.54847883      93.64090291
C      70.41325843      84.37895407      93.22516312
H      71.85700933      85.76223373      92.71871647
C      68.82399860      84.02557525      90.67025315
H      67.25174630      82.83504767      91.25795803
H      70.03720288      83.02779976      89.33610637
C      67.80354639      86.48788863      89.45704885
H      67.04954559      85.98522143      87.60511707
C      65.49430083      87.82959432      90.86489496
H      66.17082285      89.10326985      92.33510203
H      64.03732184      86.51623453      91.49417382
H      64.29999380      88.79902392      89.49484338
C      70.09200495      88.19431149      88.91280767
H      69.42115211      89.58703979      87.55031500
H      71.52441749      87.01323255      88.01896713
H      70.72317354      89.09382122      90.65513534
C      68.89769792      85.47121588      95.26606754
O      67.26875383      84.08226704      96.06731150
N      69.43438019      87.70676211      96.52084581
H      70.67970983      88.85760543      95.64590253
C      67.84134091      88.83492871      98.47293309
H      67.30843809      87.32503739      99.76739562
C      69.38524731      90.78701600      99.96203743
H      68.13802795      91.57503187     101.39822942
H      70.30743374      92.30824568      98.92646741
C      71.49040242      89.51523019     101.54373835
H      72.52219299      88.20187040     100.33998269
C      73.28753215      91.55235515     102.58686728
H      72.41447858      92.57091764     104.14967094
H      73.73161783      92.77122862     100.98815881
H      74.97694746      90.53946185     103.19346942
C      70.52286255      88.00344914     104.00794146
H      68.95816916      89.08815204     104.79973679
H      72.15180663      87.82014568     105.25516083
H      69.84067135      86.08726666     103.67723936
C      65.48863166      90.09915562      97.41468636
O      63.45717586      88.98610682      97.55452610
N      65.71539880      92.43296761      96.26384303
H      67.52008743      92.90539919      95.85377242
C      63.66693548      93.96364593      95.16213259
H      62.15893388      92.60493271      94.80308459
C      62.57845312      95.76644483      97.21059591