 %block lattice_cart
   142.669   0.000   0.000
   0.000 146.65   0.000
   0.000   0.000   162.396
 %endblock lattice_cart

 %block positions_abs
N      91.90039146      40.87556461      85.02564065
H      91.22953863      39.47716714      83.91448157
H      91.14450095      40.85288790      86.77741694
H      93.79200751      40.62045156      85.04453792
C      91.15017013      43.29441429      83.77653155
H      91.92306818      44.89501248      84.81588103
C      92.15550452      43.55330680      80.91548592
H      91.29567904      42.03396684      79.82133439
H      94.21152675      43.51740200      80.79832289
C      91.39772426      45.94003113      79.53976517
H      89.40973218      45.97404621      78.99930344
H      92.38794085      45.71704343      77.74830461
S      92.18007096      48.93524735      80.90414756
C      91.50354894      51.17079357      78.46451089
H      92.60147994      50.61899348      76.81100037
H      92.30668262      52.90556232      79.23362951
H      89.59114591      51.13866822      77.69917173
C      88.23810187      43.61377804      83.75952402
O      86.92285236      41.84877366      83.05465610
N      87.28190036      45.83042700      84.47762002
H      88.40439779      47.34598751      84.77052760
C      84.48510541      46.29152024      84.88013173
H      83.40418196      45.28618583      83.44582945
C      83.66874364      44.82887206      87.34622456
H      84.25266908      42.85788751      87.21961290
H      81.61461114      44.82698233      87.47661568
C      84.74210820      45.88144962      89.84633247
O      85.09926646      48.15479037      90.12790169
N      85.16351717      44.39990419      91.73416907
H      85.96665085      44.75139328      93.42925357
H      84.65518078      42.56497994      91.60377794
C      83.87661354      49.12988915      84.69871800
O      85.40540214      50.71347980      84.37368507
N      81.32737274      49.58153374      85.02375093
H      80.23889039      48.02250953      85.19571601
C      80.31447945      52.18179714      84.86312419
H      80.56770276      52.82997328      82.92426499
C      77.35327831      52.10809782      85.26752562
H      76.72588917      50.64733938      83.95983501
C      76.55770354      51.24827234      87.92637054
H      74.54892446      51.39378127      88.36478705
H      77.50445641      52.44635883      89.31153993
H      77.06226046      49.25650081      88.05298221
C      76.22322198      54.70269204      84.73084335
H      77.16997485      56.12754568      85.87790721
H      74.22956071      54.77639137      85.24106946
C      76.42542269      55.36976543      81.89247442
H      75.31048416      57.09697528      81.76397303
H      75.61473010      53.76538779      80.88525029
H      78.31514900      55.59275314      81.10634827
C      81.66941320      53.98837551      86.67726144
O      82.41396538      56.10297925      85.80798735
N      82.14562424      53.11910139      88.92036659
H      81.30469603      51.44102443      89.26996594
C      83.35315936      54.64788998      90.92536620
H      82.51223115      56.52627794      91.01985251
C      83.11883330      53.28728704      93.53507824
H      83.93708478      54.39655638      95.06575656
H      84.29991223      51.63188679      93.20059668
C      80.42975275      52.39344649      94.07742968
C      78.66663809      53.94869125      95.32842851
H      79.21276900      55.84597646      95.84810325
C      76.15330210      53.15311647      95.90101559
H      74.81915532      54.36065158      96.86099655
C      75.53536159      50.60765512      95.35488467
H      73.89129970      49.81019062      96.26573276
C      77.29658652      48.96926241      94.31742493
H      76.86383919      46.97560115      94.39301399
C      79.76645881      49.90467694      93.59365976
H      81.07225969      48.54218426      92.81320278
C      86.10649059      55.38488324      90.32065378
O      86.88883728      57.56940686      90.48505997
N      87.48599081      53.44413433      89.44193104
H      86.61671669      51.74904983      89.33799609
C      90.01822406      53.90144809      88.26841100
H      91.04812490      54.82174480      89.79530987
C      91.29567904      51.30118468      87.86211984
H      91.39205508      51.20291891      85.80798735
H      90.15239462      49.77806527      88.65202544
C      93.96208287      51.18402165      88.76729876
H      95.13749264      52.52194788      87.73361845
H      94.78033437      49.30752342      88.52541379
C      94.34569731      52.10809782      91.54897589
O      96.23164417      53.45169324      91.99873074
O      92.69785597      51.60354089      93.17414052
C      89.88216377      55.77416686      85.91570175
O      91.52811538      57.29728627      85.71917021
N      87.88472305      55.54550998      84.34155972
H      86.49955366      54.26238581      84.61745977
C      87.85826688      56.82485469      81.75830386
H      89.65350688      56.63021288      80.76808726
C      85.91373850      55.45102366      80.01975565
H      84.10149098      55.31874282      80.98729551
H      86.65640095      53.55373845      79.71739944
C      85.63783847      56.73225810      77.48563266
H      87.38016613      56.46958615      76.41604757
H      85.24477540      58.75237553      77.60279569
S      82.96009628      55.33764009      75.63559061
C      83.12828192      57.15366707      72.80856003
H      81.47099194      57.07051911      71.58779684
H      84.68352667      56.26360598      71.79188729
H      83.56102925      59.03583448      73.52665604
C      87.31591543      59.70101814      81.92648949
O      88.54990671      61.00681902      80.60179135
N      85.60760285      60.43990113      83.77086238
H      84.45109034      59.06418037      84.41525906
C      84.94619864      63.15165839      84.41903851
H      84.70242394      64.11730855      82.61812933
C      82.42530373      63.29338786      85.83822296
H      82.04546874      65.07728950      86.79253475
H      82.42908318      61.64743624      87.07788343
C      80.19920613      62.74725696      83.93148912
H      80.62061510      61.19579166      82.64458550
C      77.82004070      62.15388290      85.51507976
H      76.11739730      61.92711574      84.37746452
H      77.54980984      63.85085713      86.65080528
H      78.23011132      60.51926964      86.70182789
C      79.68142112      65.08673813      82.26097105
H      78.08460240      64.88642716      80.97217771
H      81.38784399      65.53649300      81.20083460
H      79.24111489      66.53048904      83.66125826
C      87.11560445      64.53871750      85.86656885
O      87.92251758      66.73646921      85.35634276
N      88.44030258      62.94000904      87.40291636
H      88.01511416      61.08429780      87.53519719
C      90.71742280      63.88487220      88.80131382
H      90.36971315      65.83884921      89.34744473
C      91.34292220      62.40899595      91.11055938
H      93.24020742      62.79261039      91.81731702
H      91.17662629      60.39832715      90.68726069
C      89.66673497      63.16488647      93.40657684
H      87.66173534      62.89087616      93.01729323
H      89.84247951      65.21523952      93.52751933
C      90.54923716      61.90632875      95.79519090
H      89.72909594      62.57151241      97.56397473
H      92.60336965      61.97435890      95.92747175
N      89.78200827      59.14354888      95.86511079
H      87.98298882      58.94512762      96.46604375
C      91.07647079      57.07618829      95.49094497
N      93.45752595      57.19146160      94.58198662
H      94.24932127      55.55495861      93.99428174
H      94.26254936      58.83741322      94.05475298
N      89.92940692      54.94079756      95.73471967
H      90.77411458      53.34964800      95.10355108
H      88.30991147      54.77261192      96.72871571
C      92.95107929      64.15132361      86.86245462
O      94.90505631      65.38342517      87.42559307
N      92.87360051      62.90977342      84.59289333
H      91.29189960      61.85908559      84.39636179
C      94.45152199      63.71479683      82.41592862
H      96.09747361      64.51982025      83.35701231
C      95.12426455      61.23736563      80.76619755
H      93.39894444      60.21124425      80.30510433
C      96.43006544      62.04427877      78.34545814
H      95.40961323      63.45023515      77.23996825
H      97.07635183      60.36242235      77.34390318
H      98.13081913      63.09496660      78.83489725
C      96.69462712      59.31551397      82.31766285
H      96.42628598      59.26071191      84.36045699
H      98.73175208      59.58385511      82.16081555
C      96.12770923      56.54328547      81.36524078
H      97.00832169      56.09353061      79.56055216
H      94.10759180      56.15022240      81.27075447
H      96.98942442      55.26394076      82.73340264
C      93.35359100      65.83318003      80.85312495
O      94.61025901      67.72479608      80.50919476
N      91.06135298      65.47413203      79.86857754
H      90.20908642      63.79794479      80.19738993
C      89.66106578      67.15409872      77.88247519
H      90.85537281      67.06150213      76.20628795
C      87.11938389      65.92766635      77.16248946
H      85.79468576      66.11096980      78.72718284
H      87.53323396      63.91699755      77.00942163
C      86.01389400      66.64387263      74.52254181
O      87.36693804      66.84985278      72.64793331
O      83.64606693      66.91221375      74.36002533
C      89.45319589      69.99624711      78.59301229
O      89.17351639      71.50235897      76.92060449
N      89.78389800      70.53292938      81.03264896
H      90.20530696      69.07406066      82.18916146
C      89.24343627      73.03492701      82.26097105
H      89.80279527      74.56182588      80.99674415
C      86.46553859      73.27492226      83.15103214
H      86.26900706      74.59584094      84.71950499
H      85.96287139      71.39842402      83.83889253
C      84.48321569      73.88341413      81.17815788
H      82.72010103      73.60940382      82.20427926
H      84.52856913      72.68154820      79.50575009
C      84.65140134      76.65186317      80.56588655
O      84.08448343      78.18821066      82.37813408
O      85.51878570      77.56271126      78.59112255
C      90.74954814      73.54137367      84.64769538
O      91.76811062      75.56149110      84.93304406
N      90.96308722      71.69322132      86.44860457
H      89.94074528      70.08128479      86.41458950
C      92.50699361      72.09573303      88.66903299
H      94.38538157      72.85540302      88.29864663
H      93.14572110      70.23246288      89.26618649
C      91.32213522      73.33539350      90.92914566
O      89.85003842      75.12496431      90.66836342
N      91.80212570      72.40942760      93.27807545
H      92.84147517      70.82772668      93.51051180
C      90.47553783      73.57349902      95.41535591
H      88.50455329      73.40531336      94.84087913
C      90.94985913      72.23179332      97.95514808
H      90.36215424      73.30893732      99.61054834
H      92.98698409      72.30927210      98.23671731
C      89.97476036      69.52192579      98.29907827
H      90.18263024      68.34651602      96.62100130
C      91.24087698      68.11218996     100.42124093
H      90.59648031      69.07406066     102.12388434
H      93.27044304      68.35218520     100.17557651
H      90.93474133      66.07506500     100.38722584
C      87.06080239      69.62775046      98.59576531
H      86.48443586      70.20033754      96.70414927
H      86.41073653      71.17354660      99.79574152
H      86.10460086      67.83251047      98.91323933
C      91.22008999      76.41564738      96.04085532
O      93.35359100      77.07327215      96.64178829
N      89.32658423      78.18254149      95.80463954
H      87.58236684      77.70633045      95.19236821
C      89.76689047      81.01146177      96.45659511
H      91.68118322      81.64829954      96.03896561
C      88.18518953      82.86717301      94.78418734
H      88.05668814      84.76823769      95.56653403
H      86.28601459      82.10372358      94.54608182
C      89.25477462      83.02591003      92.08943761
H      89.46075479      81.15130153      91.25984776
H      91.17473657      83.73077794      92.34455067
C      87.72031687      84.47344039      90.22805719
H      87.56913875      86.40474067      90.92725592
H      85.81925220      83.69865259      90.07687909
N      88.84092456      84.57548560      87.72228010
H      89.90295075      86.13828926      87.45015950
C      88.12093884      83.43976009      85.60956609
N      86.49577421      81.54625433      85.40736537
H      85.97987892      80.87540148      83.69527332
H      85.99499674      80.72233365      87.05331699
N      89.17918557      84.06714923      83.58566920
H      88.84470402      83.05992510      81.99829909
H      90.60970839      85.27468434      83.95794528
C      88.88060882      81.31759744      99.16835238
O      86.66395986      80.88485012      99.67479902
N      90.64372346      82.02624481     100.87099578
H      92.38605114      82.22844552     100.12455389
C      90.33191863      82.09994413     103.64133456
H      88.51967109      81.28169264     104.17801683
C      92.28400591      80.43698498     104.97170188
H      92.14605588      80.63351651     107.01827549
H      94.10192263      81.21555223     104.38966618
C      92.17062234      77.62507222     104.05518463
H      92.64116418      77.49090165     102.05207473
C      94.12459933      76.21155694     105.58208348
H      94.39294048      74.23679294     105.07185738
H      93.43106978      76.36651450     107.51527351
H      95.91983933      77.21500162     105.46303073
C      89.39461438      76.51958233     104.44257852
H      89.57224865      74.46733955     104.35754084
H      88.10393131      77.21878107     102.99693788
H      88.71809235      76.84839471     106.35876100
C      90.12782818      84.75311988     104.92823817
O      89.70641921      84.83815756     107.23370428
N      90.22420422      86.79213458     103.46936946
H      90.73820978      86.58993385     101.64389385
C      88.96564650      89.23555070     103.78117431
H      88.18518953      89.00122463     105.67468007
C      90.87993925      91.42385376     103.83219691
H      92.56746485      90.81347217     104.84509023
H      90.01066515      92.97909852     104.86587722
C      91.38449619      92.33848130     101.11288075
H      89.75744183      92.76177999      99.92046344
H      92.40116894      90.92874546     100.01117032
C      92.92840259      94.82536113     101.14689583
H      93.22886906      95.29212352      99.16268319
H      94.84269534      94.50788711     101.83475620
C      91.65472705      97.10059161     102.29018024
H      91.18040575      96.79256621     104.27061342
H      89.87460486      97.22531355     101.26216913
N      92.96241765      99.57802280     102.07286171
H      94.31924114      99.64605295     103.41267767
H      91.85503803     101.09358331     102.42624055
H      94.04712055      99.67061939     100.50438888
C      86.63183451      89.41507469     102.08231036
O      86.59215025      88.41163002      99.91101481
N      84.70242394      90.89095094     102.86654677
H      85.01989796      91.69597436     104.56730046
C      82.71065241      92.04179426     101.28484585
H      81.52768373      90.45820362     100.70092042
C      81.21209944      93.94096921     102.78906800
H      82.54624621      95.19952693     103.72826198
C      79.62472933      95.78534210     100.99571772
H      77.99767499      94.92929607     100.06786210
H      80.81903637      96.58280659      99.51984147
H      79.01056829      97.23287244     102.32797478
C      79.26190189      92.62949915     104.72981692
H      80.19920613      91.64306201     106.27561305
H      78.30192091      91.09315165     103.74337979
C      77.25312281      94.26789186     105.94869038
H      76.32337746      93.14161498     107.40188993
H      75.81315136      94.69497001     104.53895456
H      78.23011132      96.00644008     106.46269595
C      83.90306972      93.10004101      98.95481330
O      85.70964806      94.52678436      99.05874826
N      82.66718871      92.45942378      96.77406913
H      81.48044058      90.96842972      96.88178354
C      83.25867304      93.53089861      94.32687356
H      84.44164172      95.21653448      94.41569069
C      84.84793287      91.65251065      92.88123294
H      86.29546322      90.75489064      94.04152489
H      85.89106179      92.69752930      91.44693066
C      83.35882854      89.33948564      91.90424443
C      82.67096815      89.25255823      89.32287829
H      83.14339974      90.86071533      88.16069660
C      81.31036520      87.13606476      88.46305281
H      80.91163296      87.04535789      86.46372238
C      81.01178846      84.99500485      90.01451812
O      79.88362184      82.82559904      89.04886798
H      79.87039375      82.97110796      87.24039988
C      81.88673173      84.95343087      92.57887673
H      81.45398440      83.39062720      93.82042692
C      82.96387574      87.17763873      93.51429125
H      83.43063813      87.53290728      95.47015799
C      80.69620416      94.07513979      92.83021032
O      78.60616685      93.11137937      93.27996519
N      81.00989872      95.63227427      90.94426347
H      82.81836680      96.09336748      90.54175176
C      79.12584159      96.12171337      88.89768986
H      77.22666664      96.32013464      89.66680848
C      80.02346160      98.62560074      87.57866090
H      78.93497924      98.89961106      85.85145105
H      82.07759409      98.48576099      87.50874103
C      79.68709030     100.97075109      89.22083306
H      80.75856513     100.76477092      90.96882991
H      77.66508316     101.04067097      89.61011669
C      80.64329182     103.39338023      87.78464106
H      79.21276900     103.51054326      86.30876481
H      82.37995030     102.99086852      86.75285050
C      80.63951237     105.67994906      89.48728447
H      82.15696259     105.47018944      90.86300524
H      78.91986142     105.59680112      90.61545108
N      80.88139734     107.93439256      87.91881163
H      79.35827792     108.00431244      86.77174777
H      82.58970992     107.93250284      87.06843480
H      80.85305144     109.45751197      89.07154468
C      79.19198201      94.04679388      86.87001353
O      81.05525216      93.84459317      85.60389690
N      77.09249607      92.61060188      86.39002304
H      75.77724656      92.92240673      87.73928764
C      76.79769878      90.99677561      84.17904326
H      78.19798597      89.48688430      84.24329396
C      74.07838261      89.98010286      84.41147960
H      72.69321322      91.48810445      84.19416108
H      73.83649764      89.16563081      86.28797783
C      73.52280307      87.90707309      82.42159779
O      75.15930606      86.17419406      82.14191830
O      71.60473086      88.03935394      80.96839826
C      76.97911251      92.31391486      81.60901548
O      76.92242072      94.62505014      81.53909560
N      77.08493717      90.98921671      79.43771994
H      77.25312281      89.08815204      79.43771994
C      77.21343857      91.98699221      76.86769216
H      78.97466348      93.00366496      76.54454896
C      77.01312757      89.93474943      74.74175006
H      77.32682214      90.76811874      72.88603882
C      79.28268887      88.07525874      75.12536450
H      79.34882930      86.87906198      73.45106699
H      79.18253338      86.98488665      76.87147161
H      81.01556790      89.18830754      75.13481312
O      74.84750121      88.54013141      75.13103367
H      73.30548454      89.17885890      74.42049658
C      74.99867932      93.89372606      76.54454896
O      75.51079515      95.80612909      75.28599124
N      72.77636118      93.49499381      77.68783337
H      72.53447621      91.97376413      78.81788972
C      70.64663962      95.23732147      77.41571279
H      70.61829373      96.04045515      75.51842756
C      68.25424612      93.70475343      77.80499640
H      66.62719175      94.83292004      77.23807852
H      67.75535837      93.35137460      79.77220150
C      68.06716320      91.23299141      76.38581195
H      66.19255470      90.41096046      76.61257911
H      69.41264834      89.87994736      77.16437919
C      68.56983041      91.58070104      73.52098685
O      70.27436354      90.24466455      72.63470521
O      67.26025007      93.03579031      72.27376750
C      70.80726637      97.53711838      79.26953431
O      69.08383596      99.11503985      79.29599046
N      72.76880227      97.75632663      80.84367632
H      74.12184631      96.40895177      80.83233796
C      73.15619616     100.01077012      82.50663547
H      72.47400497     101.55467652      81.32555652
H      75.20276976     100.05801328      82.73529236
C      71.84661583      99.88226875      85.16737012
O      72.25668644     101.63593475      86.73584296
N      70.60317593      97.77144444      85.97239354
H      70.66931634      96.26911204      84.79698376
C      69.63374633      97.42562453      88.44793501
H      69.10273322      99.25676934      89.22650225
C      67.24135280      95.84770306      88.23817539
H      66.24735677      95.75699619      90.04286401
H      67.79504261      93.90884386      87.81298696
C      65.51603268      96.65272648      86.11601273
C      64.64864830      94.74221317      84.33967000
H      65.39697992      92.85059713      84.50785565
C      62.79671653      95.20330638      82.58033481
H      62.18822464      93.65373081      81.40114558
C      62.07484107      97.72420130      82.37246491
O      60.31550587      98.08702874      80.53943039
H      59.97157568      99.86715093      80.52431258
C      63.13497753      99.75565707      83.78598018
H      62.52081647     101.68695736      83.54598495
C      64.77525997      99.21519535      85.75885446
H      65.85996288     100.65705653      86.71316624
C      71.57071579      96.11415447      90.20727021
O      72.91809066      94.36993709      89.44571050
N      71.15875546      96.55257098      92.63934797
H      69.68476893      97.62404580      93.20248641
C      72.84628105      95.59259001      94.52151538
H      74.72277929      95.54345713      93.67302825
C      72.85761942      97.37460193      96.90634998
H      74.22956071      96.53556345      98.19325359
H      71.06426914      97.40861699      97.91924328
C      73.86862299     100.04289547      96.37533688
C      72.26046589     102.22741909      96.36777799
H      70.27058408     101.92317316      96.70792872
C      73.17887289     104.67461467      95.88778749
H      71.81638021     106.19395463      95.88778749
C      75.81693081     104.95807361      95.35488467
O      76.97155360     107.17850204      94.60466333
H      75.87551233     108.61469403      94.43269824
C      77.47044134     102.81323425      95.37945111
H      79.45465397     103.17606170      95.06386682
C      76.53502681     100.33013388      95.89345668
H      77.95610100      98.86937543      95.98227382
C      72.05448572      92.87516357      95.23772164
O      69.85106484      92.24021554      95.50417305
N      74.02169082      91.31802909      95.43047373
H      75.69787806      92.20431074      95.22449356
C      74.26357579      88.52123414      95.09788190
H      72.53825566      87.74077718      95.90479504
C      74.22578126      88.03935394      92.24628490
H      75.76968766      89.05224724      91.32976763
C      74.31648812      85.24822818      91.53196834
H      76.16086101      84.38273352      91.82676566
H      74.13885385      85.17452884      89.48161530
H      72.80848652      84.32793145      92.59210480
O      72.20377410      89.07303423      91.13323610
H      72.57982965      90.82103106      90.81954153
C      76.52935763      87.48188468      96.48494102
O      78.38695861      88.91051777      97.00083629
N      76.50857064      85.18964665      97.42035553
H      74.95710535      84.14084855      97.04996918
C      78.65907920      83.88762522      98.57497832
H      80.27101573      85.05736581      98.04963439
C      78.48711409      84.21265815     101.45114176
H      77.70665714      86.10427419     101.70247536
C      76.62006451      82.29836539     102.67001523
H      77.20776938      80.32549112     102.64922824
H      74.70577174      82.71599492     102.02939801
H      76.69565355      82.83315795     104.65611759
C      81.14784875      84.26368077     102.73615566
H      82.26089754      85.57893028     101.60609933
H      81.69775911      82.28513731     102.56608028
C      81.29713712      84.88729044     105.50460470
H      80.43353220      86.74111196     105.75971775
H      83.31347510      85.09516035     105.87688078
H      80.54124660      83.30747924     106.58552815
C      78.92364088      81.09460974      97.78885217
O      77.32304269      80.08738561      96.53596362
N      80.88139734      79.75290405      98.52584544
H      82.38750921      80.66753159      99.26094897
C      81.22154808      76.95988856      98.00239125
H      79.60394234      75.84117058      98.61655229
H      82.57270238      76.02258431      99.24394143
C      81.87917283      76.52336178      95.28118535
O      83.67063337      77.74601470      94.37600645
N      80.18219860      75.09850815      94.07365024
H      78.86316963      74.37285324      95.24528055
C      79.87417321      74.89819715      91.30142173
H      80.88139734      76.54036933      90.57387711
C      81.06659052      72.52281118      90.16380649
H      79.75134101      70.94111025      90.22616747
C      81.45776387      73.11618524      87.47850540
H      79.63795742      73.35618049      86.54309087
H      82.25522836      71.49291034      86.49395799
H      82.58593047      74.79237248      87.08733205
C      83.66685392      71.71211859      91.35433407
H      83.37961552      70.90331574      93.22894257
H      84.74021846      73.41665173      91.77952250
C      85.14461989      69.70522924      89.86900919
H      86.85860166      69.31027644      90.94237373
H      85.49610900      70.19655808      87.89991438
H      83.95598204      68.02337282      89.93892906
C      77.13218034      75.35740065      90.48694969
O      75.50134653      73.75302301      90.81198263
N      76.79580904      77.67609483      89.48350502
H      78.34349489      78.79292308      89.47594611
C      74.45254843      78.87040186      88.91847685
H      73.59839213      77.95199487      87.28575333
H      75.08182729      80.75067954      88.35533842
C      72.41164400      79.05370532      90.96505046
O      70.14397243      79.10283820      90.37167639
N      73.02958451      79.07449231      93.48972481
H      74.83994232      78.90441694      94.07742968
C      71.07371777      79.18976561      95.47393744
H      69.54303945      77.96522297      94.84654829
C      71.95810968      78.00679694      97.87388985
H      73.17887289      79.28803139      98.92835713
H      72.88029613      76.20777749      97.47704733
C      69.62051823      77.56649071      99.39700927
N      68.01992006      75.39708490      99.31764076
H      68.19944406      73.92120865      98.12144399
C      66.04704578      75.94321580     100.78028893
H      64.46912431      74.64875328     100.84642934
N      66.42499104      78.17309285     101.84042539
H      65.22501483      78.87040186     103.15000571
C      68.50746944      79.35795125     100.86343687
H      69.19155036      81.23822893     101.26783832
C      70.00224295      81.85805916      95.67802787
O      71.06426914      83.30558952      97.13500687
N      68.01803032      82.52891200      94.29663795
H      67.22812473      81.20043441      93.17980969
C      67.15631512      85.14051377      93.98861256
H      68.67754480      86.35371807      93.31209054
C      65.13241824      85.21988228      91.91180334
H      63.53748923      83.98967045      92.33510202
H      66.04515606      84.89673907      90.09388663
C      63.88897833      87.75400526      91.48850465
H      62.81750351      88.30013616      93.15902271
C      65.80705054      89.81002749      91.00473471
H      64.79415724      91.59959832      91.07465458
H      66.49302119      89.58703979      89.07343442
H      67.45111243      89.89317544      92.24250543
C      61.86697117      87.51967920      89.42870296
H      62.46979386      86.65418454      87.65991913
H      61.34351699      89.45097949      88.94871248
H      60.30227779      86.42741739      90.20349075
C      66.15853963      85.84916115      96.69470064
O      64.45967567      84.60383150      97.59232063
N      67.14308705      87.88439637      97.75861654
H      68.16164953      89.15429246      96.76084106
C      66.13019374      88.73288350     100.10754636
H      65.70689504      87.04724762     101.20925679
C      68.11062691      90.25033372     101.58531233
H      67.47189941      91.21976333     103.28606601
H      68.71533933      91.84337300     100.42691010
C      70.60695537      88.63083828     102.23348846
H      70.97545200      87.31747849     100.69147179
C      72.75935365      90.28245907     102.94591528
H      74.41286417      89.17696918     103.48070782
H      72.20944328      91.27267566     104.66745595
H      73.26202084      91.65817982     101.49649519
C      69.77547579      86.94331267     104.44257852
H      68.46967491      85.47121587     103.83219691
H      68.59061739      88.06014092     105.70302596
H      71.34394864      86.00600843     105.39500058
C      63.70756460      90.18608302      99.72204218
O      61.61563758      89.42452332     100.31352653
N      63.97023657      92.48587996      98.63922901
H      65.69555668      93.01500332      98.01939878
C      61.88775817      94.29434803      97.84932342
H      60.21157092      93.29279308      97.19547811
C      61.11108065      96.07635995      99.92991209