 %block lattice_cart
   142.669   0.000   0.000
   0.000 146.65   0.000
   0.000   0.000   162.396
 %endblock lattice_cart

 %block positions_abs
N      93.44713245      45.63767493      79.16276477
H      93.38855094      44.87044605      80.90887188
H      95.27638752      46.09120925      78.85473938
H      92.78572824      44.55108230      77.73980085
C      91.70291506      47.86566226      79.06260927
H      91.98826374      49.09587409      80.68777390
C      92.12054458      49.41523783      76.75147399
H      90.56341010      50.76072297      76.63053151
H      91.94857948      48.08487051      75.18678060
C      94.47514357      51.06307918      76.87052675
H      96.09274929      49.82908789      76.54171437
H      94.64710866      51.87566149      78.75458388
S      94.75482306      53.28350760      74.29294006
C      92.10920622      55.50960519      75.19056006
H      92.53061519      56.63966153      76.86107811
H      90.19491347      54.74993521      75.28504636
H      91.90322605      56.82296498      73.61830776
C      88.95336328      46.94347581      79.34795795
O      87.98204395      45.85310373      77.57917412
N      87.73448981      47.27039847      81.54381992
H      88.79651599      47.71826360      83.06693933
C      85.06241680      47.61054920      81.60807062
H      84.19314270      46.81686415      79.91865528
C      84.15723790      46.17057775      83.98912576
H      85.06241680      44.33376378      84.21400320
H      82.11633348      45.91924415      84.10817852
C      84.97548939      47.55007796      86.34750421
O      83.79818990      49.50027552      86.96922416
N      87.05796779      46.96426280      87.51535507
H      87.59653979      48.04896571      88.98934159
H      87.97637477      45.33531872      87.12985090
C      84.27251120      50.32797564      81.52492265
O      85.85988130      52.06652385      81.55893773
N      81.79508000      50.68135446      81.65531377
H      80.73683327      49.10532272      81.84050695
C      80.62533942      53.11154250      81.55893773
H      81.02407167      53.96191934      79.72590321
C      77.73783761      52.67501572      82.05971521
H      76.99517517      51.42590663      80.59706704
C      76.86100460      51.66401214      84.65997861
H      78.14601849      50.18624617      85.30437529
H      74.93159404      50.95725450      84.52769776
H      76.74573130      53.01705618      86.20766445
C      76.16369559      55.16000582      81.64208568
H      76.70226759      56.66044852      82.94599684
H      74.18893160      54.72914822      82.04081794
C      75.87267774      56.17856831      78.94733597
H      74.63490700      57.82074047      78.81883457
H      75.68748456      54.55718313      77.69066797
H      77.72083007      56.76060401      78.25002695
C      81.48894434      54.99748936      83.50157637
O      81.84232316      57.21980751      82.98946055
N      82.16357664      54.30395980      85.80515276
H      82.21837870      52.48793282      86.39474737
C      83.18024939      56.01227239      87.61551057
H      82.13334101      57.78672540      87.64385646
C      82.96293087      54.87276742      90.28191439
H      83.77551318      56.15778132      91.67086323
H      84.09676665      53.17957265      89.98900681
C      80.29274759      54.21325294      91.37606593
C      78.52963294      56.16534022      92.08471330
H      79.25528784      58.04750763      91.77290844
C      76.18070313      55.63999631      93.19209292
H      74.89002006      57.14043900      93.69287039
C      75.71772018      53.12666031      93.92908618
H      74.06987884      52.61832393      95.01945826
C      77.48272456      51.29740524      93.36216828
H      76.95738064      49.45114263      94.05569784
C      79.81464683      51.83219779      92.14329480
H      81.06942510      50.27506330      91.74078311
C      85.87310939      56.82674443      86.97867280
O      86.57041840      59.05284203      87.14874817
N      87.36410345      54.88410578      86.20577474
H      86.62522046      53.16067538      85.86184454
C      89.97003603      55.48503875      85.43476639
H      90.91489919      56.04628746      87.17520432
C      91.27961637      52.91312124      84.77336218
H      93.08430500      53.45736242      83.94566207
H      90.17412648      51.97959644      83.30504484
C      91.64811300      51.39000183      87.09394610
H      89.91901342      51.41267855      88.21266408
H      92.97281115      52.46336638      88.25045861
C      92.44935696      48.70848019      86.51568984
O      91.90511578      47.88455952      84.46155735
O      93.76460647      47.54062933      88.12384694
C      90.10231688      57.27083012      83.28992704
O      91.72748151      58.93378927      83.12930030
N      88.37510703      56.80406772      81.49657676
H      87.28851440      55.23748460      81.53059183
C      87.94613915      58.48403441      79.27614834
H      89.61098804      58.82985432      78.11396665
C      85.74460800      57.38421369      77.67743988
H      84.04196459      57.20468969      78.82450376
H      86.37766631      55.50015656      77.13508843
C      85.33075794      58.91867146      75.29638472
H      86.80663419      58.34230494      73.97924549
H      85.62177579      60.91422245      75.72346287
S      82.28262939      58.29695150      73.77137560
C      82.65112602      60.41911415      71.10686150
H      83.36922202      62.20112607      71.85330339
H      80.87289356      60.53060801      70.07318120
H      84.20448105      59.73125378      69.94467981
C      87.37544181      61.17311495      80.12463546
O      88.65478652      63.08740771      79.45945180
N      85.36477301      61.45846363      81.52114321
H      84.42179958      59.94290312      82.19766523
C      84.44825575      63.84896741      82.32616662
H      83.97393444      65.11508403      80.77281158
C      81.67602725      63.54283175      83.76424834
H      81.24516965      65.40610188      84.53147721
H      81.98027318      62.32017882      85.39508215
C      79.41024540      62.59229941      82.19766523
H      80.00361946      60.99170123      81.04493217
C      77.36367180      62.11419866      84.15164223
H      75.62890305      61.48680952      83.23323525
H      76.89501968      63.81873179      85.21177870
H      78.04208355      60.61564569      85.39130270
C      78.53152266      64.42722366      80.27014439
H      77.60555677      65.97113006      81.26980961
H      77.07643340      63.54472147      79.10796269
H      79.94503794      65.20201145      78.98702022
C      86.46081427      65.31350529      83.81905040
O      86.75372185      67.59251524      83.64330586
N      88.17668576      64.05494757      85.08894649
H      87.91401381      62.18222880      85.34594926
C      90.34420184      65.14720938      86.41553436
H      89.44847157      66.69489524      87.43787629
C      91.48748626      63.02693646      88.26746614
H      93.25438037      63.62786943      89.13862997
H      91.90133633      61.29216771      87.23945502
C      89.61098804      62.59229941      90.45387949
H      87.68157747      62.22380278      89.84160816
H      89.65445174      64.24769966      91.68031187
C      90.63899915      60.42667306      92.05069821
H      92.61376315      60.76682379      92.52501953
H      90.67868340      58.83552350      90.74678707
N      88.95525300      59.81629146      94.26545746
H      87.88944736      58.26482616      93.94798343
C      89.34831608      60.65344022      96.49533451
N      90.82797178      62.46757748      96.93375101
H      91.23804239      62.89843508      98.74599855
H      91.87299043      63.25370362      95.54480218
N      88.16156795      59.75582022      98.50033413
H      88.84942833      60.34163537     100.18030081
H      87.10143149      58.18545765      98.27923614
C      92.38510626      66.39820821      84.76580329
O      93.89499759      67.87786390      85.73712260
N      92.58163780      65.62908960      82.34884333
H      91.22859376      64.53493805      81.56082746
C      94.09152912      66.45678972      80.18510670
H      95.72425266      67.56794880      80.77092185
C      94.99292857      64.06628593      78.72623798
H      93.37532285      62.84930219      78.33884409
C      96.13054382      64.70123398      76.15432048
H      94.64143948      65.76892935      75.21323677
H      96.56518087      62.89654535      75.26047992
H      97.84641531      65.82562112      76.33951366
C      96.84486036      62.73213916      80.46478620
H      95.88865885      62.23325141      82.22034194
H      98.30183935      64.09652156      80.97690203
C      98.02027013      60.31706893      79.31205315
H      96.37620824      59.08496738      79.17410313
H      99.21457716      59.45157428      80.74824514
H      98.87820587      60.68367584      77.47523917
C      92.75360289      68.43911263      78.54104480
O      93.83263662      70.13608684      77.45256244
N      90.24782580      68.12730777      78.27270367
H      89.41634623      66.58151166      79.01914557
C      88.80029545      69.71089843      76.50769930
H      89.71681271      70.28726496      74.75592300
C      86.54018278      68.12541806      75.64787383
H      85.23249217      67.81928239      77.20878776
H      87.13355684      66.18655886      75.28693610
C      85.36288328      69.01547915      73.18933988
O      86.81797254      69.02492778      71.26559850
O      83.05363773      69.72412651      73.08351522
C      87.93291107      72.16754264      77.67366043
O      87.56630416      73.97223127      76.15621019
N      87.84220421      72.45289131      80.19077587
H      88.23337755      70.89386710      81.21878700
C      86.93324585      74.67331972      81.53248156
H      86.70647869      76.17754188      80.14353272
C      84.27440093      74.03270251      82.70600160
H      84.57486741      72.84406466      84.36140185
H      83.15757268      73.10106744      81.24713288
C      82.61900068      76.30415354      83.48267911
H      83.53551794      77.55515236      84.83572315
H      80.97493879      75.58605754      84.49557241
C      81.60421765      77.86884693      81.35295756
O      79.38000978      77.46255576      80.54793416
O      82.87600346      79.67164583      80.69344308
C      88.78139818      75.53692466      83.62062914
O      89.28406538      77.77625034      83.88519082
N      89.91145452      73.76814083      85.12863074
H      89.60153940      71.91053985      84.81304644
C      91.68968698      74.50891354      87.15630707
H      92.94446525      75.92053910      86.33049666
H      92.73281590      72.90831536      87.92353594
C      90.55018201      75.99990759      89.42397865
O      88.32975360      76.85028443      89.33327178
N      91.84653426      76.14730626      91.56314882
H      93.53783931      75.26480406      91.53480294
C      90.85253822      76.68776798      93.97066016
H      88.81352353      76.86918171      93.75901081
C      91.09253346      74.36718407      95.65251658
H      93.12965843      74.32938953      95.95109333
H      90.72025738      72.68154820      94.53001914
C      89.76405587      74.14608609      98.23955190
H      87.73826926      74.39930942      97.97310049
C      90.26294361      71.50046925      99.31291644
H      91.68590753      71.75180285     100.78123378
H      90.89411220      70.09073342      97.94853405
H      88.56218993      70.68977666     100.15195492
C      90.35365048      75.99801788     100.38250154
H      90.26483334      77.95955378      99.76078157
H      92.25282542      75.61062398     101.07792081
H      89.06674686      75.85817812     101.98309972
C      91.85598290      79.18598617      95.25378432
O      94.04617569      79.31637728      96.23266254
N      90.13255250      81.01335151      95.32748365
H      88.33164332      80.57493501      94.87205961
C      90.57096900      83.24511829      96.91107430
H      92.48148230      83.29047171      97.67830317
C      89.90767507      85.65073987      95.48811038
H      89.47681747      87.07370380      96.91296403
H      88.37699675      85.34082477      94.14451498
C      92.39455489      86.32915163      94.03113140
H      92.69880083      85.22555146      92.31903936
H      93.98192500      85.84727141      95.25189459
C      92.56274054      89.19775617      93.57381763
H      94.58285797      89.58703979      93.68153202
H      91.59898012      90.14828851      95.12339320
N      91.63110546      89.94041860      91.12095288
H      91.04151085      88.63461772      89.85861569
C      91.55740614      92.23454635      90.14774383
N      92.18668500      94.19230282      91.46866252
H      92.62321178      95.80423935      90.54647608
H      92.87832483      93.88238770      93.22043881
N      90.82986151      92.66540396      87.87251334
H      90.43679843      94.47765148      87.41897902
H      90.34798130      91.30480101      86.62340425
C      89.11210029      83.27157446      99.44330756
O      86.84631844      82.85583467      99.52645552
N      90.38010664      83.55314368     101.64861817
H      92.23014871      84.01423690     101.70719967
C      89.19146879      83.73455739     104.24132266
H      87.77795351      82.23600444     104.32825007
C      91.08686429      83.09960936     106.40127983
H      90.08719907      83.65140945     108.11715134
H      92.76683098      84.23344514     106.04223183
C      91.89944660      80.28013770     106.71119495
H      92.68746247      79.47889374     104.98398511
C      93.83641607      79.79069859     108.63871579
H      95.60331017      80.65808297     108.01888557
H      94.02538870      77.74034554     108.66517196
H      93.22603447      80.53147130     110.46041195
C      89.50894281      78.58505320     107.16472927
H      90.18168538      76.92398377     108.18329175
H      88.39589402      78.12773943     105.49232149
H      88.28062071      79.34850263     108.63304661
C      87.82519667      86.16663517     104.98587482
O      86.71214787      86.21387832     107.09858885
N      87.97637477      88.13006080     103.36071021
H      88.77383928      87.93352927     101.63916952
C      86.73293486      90.51300568     103.91817947
H      85.80885869      90.44686527     105.75877290
C      88.87588450      92.53501284     104.07691648
H      88.08219945      94.23576651     104.92162414
H      89.55429625      93.11326909     102.21931550
C      91.14355608      91.63928257     105.66428658
H      92.04495553      90.00088985     104.79879193
H      90.26294361      90.93063520     107.38771698
C      93.19768858      93.64617191     106.08191609
H      94.04239624      93.48554517     107.95463487
H      92.29061995      95.49432425     106.05168047
C      95.50315468      93.54034724     104.26399937
H      94.97214159      93.67073835     102.27600729
H      96.26849384      91.65251065     104.56824531
N      97.51193375      95.40361739     104.96886729
H      96.99414874      97.24043135     104.98965429
H      98.89521341      95.20330639     103.66684586
H      98.29994962      95.18062968     106.69229770
C      84.95281267      91.31802910     101.85648805
O      85.04918872      90.41285018      99.68708224
N      83.28229461      93.11137937     102.33080937
H      83.08009390      93.67829726     104.14305690
C      81.67224779      94.25466378     100.39572962
H      80.61778051      92.64272723      99.66629526
C      79.80330847      96.33336273     101.23287837
H      80.87667302      98.01899859     101.72987640
C      77.95893559      96.86815527      99.08048011
H      77.16902999      98.74087404      99.40551303
H      76.51707441      95.40928655      98.89906638
H      78.66569323      97.12704777      97.16429763
C      78.27829934      95.28078518     103.55346229
H      79.51984952      94.29245830     104.86493234
H      76.93470393      93.92396168     102.77867450
C      76.54542031      97.36515329     104.76099740
H      75.35867218      98.05679313     103.22653964
H      77.45248894      99.10748095     105.38082763
H      75.52307837      96.55257098     106.35592641
C      83.26717680      95.27133654      98.27167723
O      84.32920299      97.32357932      98.56647455
N      83.04040965      94.14694938      96.02290292
H      81.73082931      92.76555945      95.87550427
C      83.93613992      95.19007831      93.53413337
H      85.06997571      96.87004500      93.90263001
C      85.62177579      93.07925402      92.42864349
H      87.27528631      92.66918341      93.58893543
H      86.56852867      94.07325006      90.89040626
C      84.47282219      90.68308106      91.35527894
C      84.13645091      90.36749675      88.77202306
H      84.37833587      92.04179426      87.62873864
C      83.83598442      87.90329364      87.77802703
H      83.80385908      87.70109293      85.74657124
C      83.56197411      85.80380772      89.47500125
O      83.18024939      83.38306830      88.66430867
H      82.87411373      83.08638128      86.90119402
C      83.51851040      86.17608380      92.04691877
H      83.17646994      84.55847808      93.24122580
C      84.26306257      88.57603622      93.03524563
H      84.30652627      88.86138489      95.05725279
C      81.91224304      96.03289625      91.65196597
O      79.74472696      96.23509696      92.41163595
N      82.59443424      96.48832029      89.24067520
H      84.40101259      96.35603944      88.63596277
C      80.76517916      97.22342382      87.35283861
H      78.92080628      96.80768403      88.16920038
C      81.15446278     100.08635918      86.63474260
H      79.75606531     100.44729691      85.16642526
H      83.15001377     100.38871539      86.21522336
C      80.30030649     101.69073683      88.85517103
H      81.09210182     101.06523742      90.65230075
H      78.24239454     101.67183956      88.93831898
C      81.24327992     104.46296532      88.50935111
H      81.43225255     104.99775787      86.53080766
H      83.05930691     104.81067497      89.41264029
C      79.21182414     106.39993480      89.61673072
H      79.94314822     108.32367619      89.58271566
H      78.38412401     105.85191417      91.42330908
N      76.93848338     106.32434575      88.03502981
H      75.61945441     107.62825689      88.47911549
H      76.16936477     104.57823863      87.95566129
H      77.39768687     106.77788005      86.23790007
C      80.74817163      95.60959755      84.93587865
O      82.65301575      94.53056383      84.07605317
N      78.49372814      95.22409339      83.84928602
H      76.98950599      95.83636470      84.85651015
C      78.18003357      94.00144045      81.33406030
H      79.14946317      92.18541347      81.24902262
C      75.41914342      93.40239722      80.82761364
H      74.23428503      95.07858445      80.66509719
H      74.83899745      92.37249637      82.51513925
C      75.00151391      91.65817982      78.66387701
O      74.44971383      92.66540396      76.60596507
O      75.15647147      89.35460346      78.96812295
C      79.20993441      95.65495098      79.16843395
O      79.55764405      97.91128420      79.52559222
N      79.36678169      94.68174193      76.97257197
H      78.70159803      92.92807591      76.61163425
C      80.05086262      96.09336749      74.62553189
H      81.80830809      97.10815052      74.97513126
C      80.34754965      94.60993233      72.16888768
H      78.54475075      94.11482403      71.30717248
C      82.19192253      95.69841469      70.21869013
H      82.51884518      94.37182681      68.67667345
H      83.98905225      96.20108189      71.09363341
H      81.42091419      97.45963961      69.48547631
O      81.64768135      92.34792993      72.76982064
H      83.30875078      92.79390535      73.34618717
C      78.05909108      98.19474315      74.06050371
O      78.70915694     100.26966264      73.33862826
N      75.56654208      97.72420130      74.47624350
H      75.16592010      95.86471060      74.63309080
C      73.51240958      99.55723582      74.55183256
H      73.86200894     100.98208945      73.10430220
C      71.03308865      98.07191094      73.82617766
H      69.39469594      99.29456386      74.06995235
H      70.76663724      96.61871139      75.26047992
C      71.12946469      97.04767928      71.17111218
H      72.72250398      95.75510647      70.98591900
H      71.27497362      98.69552061      69.94467981
C      68.76352735      95.44330164      70.50970797
O      68.72384310      93.04523894      70.75537240
O      66.95127982      96.66406484      69.62153661
C      73.20249446     101.21263606      76.93099799
O      71.61512436     102.77921919      76.87430620
N      74.81065155     100.85358806      78.91521062
H      76.07109900      99.44007279      78.66954619
C      75.12245639     102.40316365      81.17343356
H      74.37790423     104.29666941      80.86540817
H      77.10099984     102.56379039      81.72523365
C      73.77319181     101.47530803      83.54126064
O      73.98106170     102.61103353      85.50657600
N      72.16881417      99.54022828      83.40897978
H      72.19149088      98.52733498      81.78948433
C      70.46617076      98.68607199      85.35161844
H      69.71405969     100.42650993      86.15853157
C      68.40069990      96.98909776      84.23667991
H      67.25363603      96.38060588      85.83727810
H      69.13202398      95.17685023      83.58094489
C      66.72640239      98.06246230      82.15798097
C      66.58278319      96.78878676      79.74857992
H      67.11568601      94.82347140      79.61629908
C      64.85368361      97.79034172      77.88908923
H      64.50975342      96.79067650      76.14487184
C      63.70661974     100.23375784      78.26136532
O      62.09846264     101.27499704      76.68344384
H      61.70728930     102.98897881      77.12186035
C      64.20550748     101.54522790      80.51769853
H      63.17371692     103.29511447      80.71423006
C      65.60012550     100.43217910      82.56616186
H      65.79287759     101.45641077      84.32171759
C      72.15180663      97.36515329      87.42464820
O      74.05287130      96.11982366      86.94843717
N      71.58299901      97.91317392      89.89829995
H      69.80098710      98.49709936      90.25356849
C      73.18737665      97.04767928      91.99400643
H      75.17347900      97.45963961      91.62928924
C      72.35211762      98.24009657      94.54891640
H      73.51240958      97.62215607      96.13628651
H      70.39625088      97.68073759      94.86828016
C      72.54864916     101.10303194      94.44876091
C      70.40192006     102.69796095      94.55080613
H      68.56132663     101.88726837      94.21443484
C      70.71372491     105.27932710      95.06670141
H      69.06588356     106.45095740      95.35393982
C      73.15714103     106.42072179      95.12717265
O      73.44248970     108.90382217      95.61850150
H      71.83433261     109.51420376      96.20053721
C      75.21883244     104.84091059      94.70009450
H      76.98383681     105.86136279      94.73599931
C      74.96182966     102.16694786      94.52434996
H      76.63234772     100.99909700      94.59993902
C      72.98517593      94.14316992      92.36061333
O      70.95749960      93.03390058      92.24345030
N      75.12434612      92.93752455      92.85005245
H      76.65691416      94.05435279      93.07681960
C      75.52685782      90.18230357      92.65730036
H      73.67870549      89.31680893      92.93320041
C      76.51707441      89.52278910      89.96255065
H      78.28018906      90.56024885      89.72633486
C      76.91580666      86.68630989      89.23689574
H      75.19615572      85.67341659      89.74901157
H      78.27263016      85.76979264      90.48600484
H      77.46193757      86.57670577      87.25079339
O      74.92970431      90.65095571      88.09172159
H      74.75962894      92.41596008      88.47722576
C      77.29942111      89.34704455      94.81536782
O      78.75828982      90.93063520      95.76023097
N      77.31831837      86.90362842      95.40307270
H      76.24495382      85.69042414      94.39206911
C      79.01529260      85.75656456      97.21343051
H      80.76328944      86.74678114      96.76178592
C      78.15357740      86.28568792      99.93274666
H      77.50540127      88.23021629     100.12927821
C      75.91614145      84.51123492     100.48076730
H      75.10733858      84.73800207     102.36104499
H      76.32243260      82.49678667     100.35604536
H      74.41191930      84.80792195      99.10504655
C      80.30408594      86.04380296     101.88861341
H      82.17491499      86.58237496     101.21209139
H      80.71415655      84.05014170     102.20986688
C      79.98850165      87.39117781     104.46431037
H      78.39735209      86.63528729     105.53389547
H      79.73338860      89.41696443     104.20163842
H      81.69114506      87.11716750     105.59058726
C      79.51607007      82.91252646      96.87705922
O      78.28018906      81.67286599      95.37661653
N      81.33965596      81.84672081      98.31514094
H      82.45837394      82.87284220      99.46787400
C      81.75539575      79.16330945      98.47009850
H      79.92614068      78.39230112      99.02945750
H      83.24827954      78.77591556      99.83448091
C      82.57553697      77.90097227      96.00022621
O      84.56352905      78.49812579      95.06292197
N      81.06186620      76.13029872      94.94197947
H      79.39512759      75.64841850      95.73755426
C      81.51540051      75.22889926      92.33415717
H      83.14434459      76.20021859      91.53102349
C      81.99350127      72.37352280      92.22266332
H      80.87100384      71.47779253      93.70042928
C      81.31131007      71.01480958      89.83593898
H      82.74750207      71.48346172      88.43565179
H      79.40646595      71.43432882      89.18020395
H      81.40012721      68.97012571      90.07593422
C      84.82431128      71.90109123      93.11083468
H      84.84320855      72.19210907      95.14984938
H      85.96192653      73.27681198      92.08282356
C      86.06964092      69.34051207      92.58360104
H      86.25861356      69.05894285      90.55025552
H      84.77139895      68.01014474      93.46988268
H      87.82141722      68.97579490      93.60783269
C      79.09844056      76.22667476      90.89607545
O      77.18603753      75.04370608      90.87150899
N      79.35733306      78.43009564      89.42208892
H      80.91824700      79.49779101      89.67909169
C      77.17658890      79.01024162      87.68165099
H      76.96682928      77.49657083      86.29837133
H      77.60933622      80.82437888      86.80859743
C      74.64246591      79.36173071      88.99123132
O      72.70171699      79.47322457      87.73645305
N      74.62923783      79.60361568      91.51590567
H      76.30353534      79.69432255      92.42675376
C      72.30109501      80.16675412      92.89540588
H      70.76474752      79.08772039      92.04880850
C      72.72628343      79.32771564      95.59960424
H      74.00184869      80.53336103      96.67674824
H      73.86767812      77.62129278      95.44464668
C      70.14302756      78.84205597      96.91107430
N      68.93171299      76.60462001      97.21532024
H      69.63847063      74.91520469      96.67674824
C      66.75852773      77.01658036      98.39073000
H      65.55099262      75.53125547      99.10126709
N      66.57522428      79.56393142      98.82914650
H      65.03698706      80.48233842      99.48110209
C      68.71628419      80.77524600      97.91073952
H      69.21517194      82.75378944      97.93152651
C      71.40914419      82.90496755      92.89918533
O      72.61667930      84.49044793      94.06325675
N      69.43626992      83.50212107      91.53858238
H      68.50274512      82.17364346      90.53135827
C      68.67848967      86.15340708      91.21732891
H      70.26585977      87.44220043      90.97166449
C      66.96639763      86.37450506      89.01201830
H      65.53398508      84.89484935      89.06493065
H      68.00196765      85.93986800      87.28480846
C      65.78909813      88.99933491      88.58305044
H      65.28265148      89.75144597      90.43120277
C      67.61646348      90.86449477      87.45677355
H      67.24985657      90.80969272      85.42909721
H      69.48351308      90.03679465      87.72700441
H      67.69961144      92.76178000      88.25423806
C      63.47985258      88.65351499      87.00701869
H      62.61435793      90.42796800      86.41742407
H      62.07956538      87.54046619      88.02747090
H      63.87858483      87.79179980      85.17776362
C      67.39347577      86.97543803      93.70231902
O      65.60957413      85.66396797      94.44876091
N      67.96228339      89.14862329      94.87772879
H      69.10934727      90.36560704      93.95554234
C      66.40325919      89.94986725      96.93753047
H      65.46028576      88.42485810      97.95231349
C      68.08322588      91.27834484      98.77245472
H      66.87947022      92.16651620     100.18974945
H      68.93927190      92.78445672      97.65751619
C      70.14113783      89.69664392      99.97810010
H      70.88002082      88.45131428      98.51545194
C      72.42770667      91.07614413     101.02311875
H      73.64658014      89.71554117     101.97365109
H      71.70394149      92.32525322     102.49143609
H      73.49729176      92.20997991      99.67574389
C      69.04509657      87.90707310     102.06246823
H      68.13424849      89.19964590     103.37960747
H      70.48695775      86.93197431     103.16228894
H      67.81110529      86.51434481     101.17807631
C      64.16960268      91.62983393      96.14762486
O      62.05877839      91.02701124      96.56147492
N      64.64014454      93.63105409      94.75300685
H      66.48829687      93.78790138      94.30514170
C      62.72396205      95.55290576      93.85538684
H      61.12714332      94.33781175      93.38862445
C      62.07011675      97.31602041      95.96432142