 %block lattice_cart
   142.669   0.000   0.000
   0.000 146.65   0.000
   0.000   0.000   162.396
 %endblock lattice_cart

 %block positions_abs
N      91.14733554      43.82353767      77.95239506
H      90.89789166      42.33632306      79.12213565
H      92.97470088      44.11833497      77.48941211
H      90.01727920      43.68558765      76.42171675
C      90.44813680      46.00428183      79.48874255
H      91.45158147      45.85877291      81.28209282
C      91.01127523      48.62344250      78.02420466
H      90.31396623      50.06908313      79.31677746
H      89.76783533      48.69903155      76.38392222
C      93.73626059      49.00516722      77.18894563
H      94.20113326      47.77873484      75.60157553
H      94.93056761      48.93524734      78.86513287
S      93.79484210      52.32730608      75.91904955
C      97.13965767      52.69391298      75.69795157
H      98.04672631      52.33675471      73.88570403
H      97.99948314      51.48259841      77.12469493
H      97.74814955      54.56663176      76.30266399
C      87.75527680      45.89656743      80.29943514
O      86.31152590      44.91202002      78.77442601
N      87.02773217      46.69403194      82.59923206
H      88.42612965      47.33086970      83.72928840
C      84.41802014      46.95103471      83.52708768
H      83.14812405      46.33498394      82.02664499
C      84.17424544      44.81375425      85.64547088
H      85.97515462      44.62667135      86.63190802
H      83.71315222      43.04119097      84.70249745
C      82.19759172      45.08020566      87.63157323
O      80.60266271      46.76017236      87.60133761
N      81.91224304      43.10355194      89.04697824
H      80.81998124      43.29441430      90.60033327
H      83.03851993      41.58043253      88.81076245
C      83.56386384      49.51161387      84.06565968
O      85.01328392      50.99315930      85.00296393
N      81.22438267      50.20136397      83.56677194
H      80.01306810      48.95225488      82.78442524
C      79.94881740      52.80918628      83.97306309
H      80.89368056      54.13199470      82.70694646
C      77.10477930      52.52950679      83.26063627
H      77.03485943      51.57708473      81.43705038
C      75.65535922      50.72103871      85.06910435
H      75.04497762      51.60354090      86.82654983
H      76.56620731      48.97115214      85.65680924
H      73.84122196      50.23915850      84.22439669
C      75.54953455      54.90867222      83.15292187
H      75.29064204      55.79495386      84.99540503
H      73.65413906      54.39466666      82.53309164
C      76.74762103      56.84186224      81.23862912
H      75.33977493      58.31206931      80.91926537
H      77.22761150      55.95747032      79.44149939
H      78.20271029      57.92089596      82.21750735
C      80.13967976      53.69357820      86.89269025
O      79.67102764      55.91400662      87.50685130
N      80.55919900      52.03250877      88.77296793
H      80.93525453      50.26561467      88.15880688
C      81.18658814      52.74682532      91.36189298
H      80.27574005      54.53639613      91.82298620
C      80.25306334      50.86276818      93.20626586
H      80.89557029      51.50149568      95.05630792
H      81.06375593      49.00327749      92.84532813
C      77.40524579      50.70403117      93.44248165
C      75.90480310      49.02784393      91.99684102
H      76.98950600      47.91101568      90.67403260
C      73.23461982      48.71036991      92.37289655
H      72.10267375      47.38567177      91.31276009
C      72.11590184      50.09364957      94.42324960
H      70.14869675      49.99727353      94.95237297
C      73.67114659      51.92668410      95.76495529
H      72.93037388      53.06807879      97.28618497
C      76.23739493      52.35187252      95.16780177
H      77.37501017      53.52917201      96.38478552
C      84.05141323      53.48003913      91.59621904
O      84.86588527      53.71436519      93.74105840
N      85.46492851      53.87688165      89.62901395
H      84.76572978      53.39122199      87.92070136
C      88.14267070      54.70458178      89.53641736
H      88.39400430      55.88188127      91.20693542
C      89.72626134      52.29707045      89.91436262
H      88.98548863      50.61710376      88.97894810
H      89.50138392      51.62432789      91.84755264
C      92.52116657      52.84131163      89.32287828
H      93.13910707      54.62521327      90.14679896
H      92.81407413      52.91123151      87.28575332
C      94.22003052      50.68702364      90.22427774
O      94.76049225      50.71914898      92.52218493
O      94.75482307      49.04674120      88.52352405
C      88.64533789      56.27116489      87.06843479
O      89.81885794      58.35175356      87.32354785
N      87.87810900      55.36976544      84.88769063
H      87.01639382      53.66712203      84.94627214
C      88.16912687      56.80028826      82.46317177
H      89.93791069      56.28439297      81.54476478
C      85.93924982      55.91778607      80.78887426
H      84.24416531      56.97981226      81.28209282
H      85.54618674      53.93168371      81.16115034
C      86.38144577      56.17478885      77.91460053
H      87.93480080      54.97292291      77.29288058
H      86.92757667      58.07963297      77.35902100
S      83.42402410      55.60598123      76.07022765
C      81.53807723      58.33285630      76.66549144
H      82.46215340      59.94101339      75.76598172
H      81.49461353      58.57474127      78.71017531
H      79.71638107      58.18923710      75.72062828
C      87.94613915      59.77849693      82.45750259
O      89.21225579      61.16744577      81.05343594
N      86.50238825      60.85186147      84.09967476
H      85.65201142      59.78227638      85.43193181
C      85.95625734      63.51637557      84.12613092
H      85.85988131      64.17589006      82.17404364
C      83.31253024      64.00014551      85.19004684
H      82.91190826      66.02026294      85.20327492
H      83.41457546      63.46157351      87.17614919
C      81.08076347      62.74158779      83.80487745
H      81.66657862      60.84808202      83.24173901
C      78.72049530      62.87386863      85.57555101
H      77.03485943      62.14821372      84.63635703
H      78.19515139      64.78816138      86.12735109
H      78.83576860      61.50381705      87.10811905
C      80.26818114      64.24392020      81.43138120
H      80.08676743      66.26214791      81.80554701
H      78.51451513      63.48236050      80.66793177
H      81.76295467      64.00959414      80.03487346
C      88.02172821      64.94122921      85.66625787
O      88.04251520      67.21834942      85.46216743
N      89.61287777      63.71668656      87.15914166
H      89.36721335      61.84018833      87.41047526
C      91.89188770      64.77115385      88.36478704
H      91.53472943      66.57206302      89.29831184
C      93.21280640      62.88520699      90.08821744
H      94.89844226      63.82251124      90.81387235
H      93.77405511      61.37531566      88.80509328
C      91.52906025      61.97246918      92.45037533
H      89.92090316      60.89154573      91.74928687
H      90.78450808      63.49180913      93.62389537
C      93.10320227      60.13754493      94.14545984
H      94.63577031      61.31673415      94.85032775
H      93.72303249      58.46513714      93.11366927
N      91.42512530      59.12087217      96.15612863
H      90.75049301      57.33508080      96.20526152
C      90.75994164      60.30195112      98.27262210
N      91.44591229      62.63765284      98.67702353
H      90.65222723      63.47291187     100.19825322
H      92.96336252      63.46535296      97.87011040
N      89.06674686      59.28149891      99.79952096
H      88.45069609      60.43801141     101.18658008
H      88.50171870      57.45791301      99.77873397
C      93.71169414      65.51948547      86.25585248
O      95.11009161      67.35818917      86.70182789
N      93.58886193      64.39320858      84.01652680
H      92.78005907      62.66788846      83.95605556
C      95.25371081      64.98469292      81.80743674
H      96.77683022      66.19600749      82.48017931
C      96.50281991      62.69434463      80.65659341
H      97.52894130      63.19134265      78.94072192
C      98.57018049      61.78349655      82.53120192
H      97.76137763      61.77215819      84.42659741
H     100.10841771      63.13654059      82.30443476
H      99.24292306      59.88054215      82.11924158
C      94.67167511      60.46257785      80.04810154
H      93.06351801      60.95012724      78.85568424
H      93.72870168      59.61409074      81.66948672
C      95.95101982      58.35931247      78.67804996
H      97.16800357      58.92434063      77.11524630
H      94.45624631      57.20657942      77.84846011
H      96.96013368      57.09886502      79.95550495
C      93.97436610      66.57773220      79.88936453
O      95.16300394      67.83251047      78.33411977
N      91.48748627      66.81583772      80.26542007
H      90.79017726      65.81428277      81.73562714
C      89.85854219      68.33706740      78.62513763
H      90.80151561      68.41832563      76.79588256
C      87.25260961      66.95189801      78.42482664
H      86.19625260      67.71156799      80.02164537
H      87.65890076      64.93178058      78.47962870
C      85.98460325      67.53960289      75.93605708
O      87.29985276      67.59062551      73.97452117
O      83.72260085      67.91565843      75.90771119
C      89.53728872      71.13386234      79.46795556
O      89.51650172      73.00091194      78.02231493
N      89.74137916      71.65542680      81.93593813
H      89.92468261      70.11718959      83.05087665
C      89.48626610      74.22356486      83.16048078
H      90.09475798      75.72022810      81.88302579
C      86.61010266      74.80938002      83.44016027
H      85.72571074      73.11618524      84.20927888
H      85.80885869      74.96244785      81.54854423
C      85.49327441      76.85028444      85.31854823
H      86.56285949      76.63863509      87.06654507
H      83.59598919      76.15297543      85.71350103
C      85.93736009      79.47889374      84.27541930
O      84.83564965      81.33838443      85.34878385
O      87.29985276      79.78880886      82.41214916
C      90.81852316      74.42576558      85.66247842
O      91.86921099      76.46289054      86.36167715
N      91.09064375      72.28281594      87.07221425
H      90.27050252      70.64820268      86.51852444
C      92.33408366      72.09573304      89.58366052
H      94.24837642      72.81760849      89.35500363
H      92.71202892      70.16254302      90.18837294
C      90.95269373      73.46956406      91.78897112
O      88.92879683      74.47489846      91.35244435
N      92.15078021      73.49224078      94.10010640
H      93.88932842      72.70989409      94.21915916
C      90.87899440      74.42576558      96.34321154
H      88.88344341      74.59962040      95.87266969
C      91.15867388      72.51903173      98.37277760
H      93.04462075      72.81193931      99.14378593
H      91.22292459      70.61229788      97.59610008
C      89.28217567      72.73823998     100.52706559
H      89.30296265      74.60906903     101.39067052
C      86.51372662      72.42643514      99.77117507
H      86.09987655      73.42232091      98.01939878
H      85.13233668      73.06894209     101.15823418
H      86.25672384      70.39686908      99.50850311
C      89.90578534      71.02614794     102.66434605
H      90.17412649      69.20067232     101.74593907
H      88.36376868      71.34173224     103.99093393
H      91.68779726      71.74802339     103.40511877
C      91.95235895      77.03358789      97.03674109
O      94.26916341      77.53625509      96.90257053
N      90.47459296      78.79481281      97.98916316
H      88.65478653      78.24112301      98.14601044
C      90.97159099      81.47822418      98.34065225
H      92.96336252      81.80136738      98.75261259
C      90.54262311      82.85205521      95.86511078
H      88.61321255      82.50623529      95.22449356
H      91.69913562      81.99411946      94.39112426
C      91.30796227      85.57326110      95.64401280
H      93.26760846      85.51090013      96.27329166
H      89.95302851      86.58804413      96.81564312
C      90.99804716      86.35560779      92.84343841
H      88.98548863      86.19120160      92.43147807
H      91.88432880      85.06492472      91.50551218
N      91.92023359      88.99933491      92.39935272
H      92.03739662      89.99900012      94.02073790
C      92.01283018      90.26734126      90.31498460
N      91.69157671      89.29413221      88.05487193
H      91.89944661      90.36182758      86.48639909
H      91.34575679      87.43842097      87.77519243
N      92.35676038      92.58225599      90.43025790
H      92.38888572      93.63294382      88.83721862
H      92.81407413      93.49121435      92.04408418
C      89.31619074      82.67631066     100.34376214
O      86.98048902      82.50434557     100.34187242
N      90.45380598      83.89140468     102.17868639
H      92.28306105      84.41863832     102.04451582
C      89.49571474      84.13328965     104.72981691
H      87.63811376      83.26968472     104.93201763
C      91.45725065      82.90685727     106.55718226
H      90.86954576      83.29614089     108.49226200
H      93.28461600      83.83471289     106.34553291
C      91.92212332      80.10628288     106.15278083
H      92.85753785      79.76046296     104.34809220
C      93.68334825      79.02157997     108.18801607
H      93.19012968      79.84739037     110.00971223
H      95.57307456      79.82471366     108.01794070
H      93.61531810      76.96933720     108.34297363
C      89.46169966      78.70410595     105.94869039
H      88.35620977      79.36173071     107.55684748
H      89.71870243      76.66509126     106.07152260
H      88.47148308      79.02724915     104.17234765
C      89.01950371      86.92063596     105.55940677
O      87.86677066      87.32314767     107.57574474
N      89.82641684      88.81036227     104.12699422
H      90.66545533      88.42485811     102.45647616
C      88.83431053      91.40306678     104.47092441
H      87.88566791      91.41440513     106.30017948
C      91.17379170      93.01122387     105.07374710
H      92.42668025      93.00366496     103.43913384
H      92.12810349      92.31013541     106.75938297
C      90.16089840      95.66062016     105.84664517
H      88.74927285      95.61715645     107.34519813
H      89.63744421      96.52989426     104.05518462
C      92.47959259      97.14405531     106.71591927
H      93.83263663      97.47286769     105.19846904
H      93.48870643      96.11982365     108.19179552
C      91.77094521      99.74053927     107.81196053
H      90.39711419      99.63660432     109.34641830
H      90.99048825     100.92539767     106.31907674
N      94.08963940     100.96886137     108.77194150
H      93.51327287     102.58457737     109.60909025
H      95.12709915     101.56979434     107.28661662
H      95.00237721      99.68573721     109.85097522
C      87.10899041      92.08525797     102.19380420
O      87.60409870      91.15929208     100.14912033
N      84.98304830      93.39483831     102.61710290
H      84.70714826      94.09781650     104.36887919
C      83.14245487      94.02411717     100.61777246
H      82.30719584      92.19864155     100.16045869
C      80.90501891      95.48298588     101.65334248
H      81.58721012      97.40294782     101.94247060
C      78.79041518      95.70597359      99.69936547
H      79.59543858      96.45241548      97.95703781
H      77.60177732      97.35003548     100.06030320
H      77.82854448      94.00521991      99.04929962
C      79.85433108      94.53623300     104.03439763
H      81.26406692      94.60426315     105.53295060
H      79.42914267      92.53123338     103.81896883
C      77.30886975      95.87037978     104.92823818
H      76.60967101      94.99165704     106.65544803
H      75.68748457      95.64928180     103.67723936
H      77.53563690      97.91884310     104.92445872
C      84.23282696      95.11070980      98.18947415
O      85.72571074      96.78500731      98.50316871
N      83.52040014      94.11293431      95.97282518
H      82.27129104      92.67107313      96.07298067
C      84.72982497      94.71386728      93.55964468
H      85.86744022      96.42595932      93.67869744
C      86.54396224      92.65217587      92.78296716
H      87.85921175      92.48399023      94.36088864
H      87.72693091      93.33625679      91.24284022
C      85.41201618      90.09159671      91.90991361
C      85.26839698      89.38483907      89.33610637
H      85.76539500      90.78134682      87.93014999
C      84.50683727      86.91685651      88.77485765
H      84.47471193      86.33104135      86.82088065
C      84.19314270      85.04791718      90.66080451
O      83.44292136      82.73489218      90.11089416
H      83.94936801      82.20576881      88.44982473
C      84.26117285      85.79057963      93.22327339
H      83.94936801      84.31848283      94.60277360
C      84.76195032      88.37950467      93.83743445
H      84.83375992      88.97098901      95.78763200
C      82.58876506      95.18440913      91.63023411
O      80.68392094      93.91073359      91.62456493
N      83.03096102      97.00043611      89.98050304
H      84.65990509      97.97175544      90.20538047
C      81.19981621      98.03978559      88.14179934
H      79.28552347      97.88671776      88.88257205
C      81.66846835     100.84413943      87.65802940
H      83.46181861     101.11059085      86.67726145
H      81.43792174     101.87404028      89.42681323
C      79.82976464     101.93073206      85.79475926
H      77.92681024     101.25043059      86.18593261
H      80.51195585     101.27688676      83.96550419
C      79.76740368     104.80689551      85.72105993
H      79.39512760     105.59680111      87.58621980
H      78.05342191     105.38137231      84.73651252
C      81.92925057     105.93884157      84.23951450
H      82.12200267     104.78232907      82.54631973
H      83.82086661     105.78010456      85.03697901
N      81.48327517     108.50886936      83.63858154
H      79.78819067     108.84335092      82.82977867
H      82.99127677     108.86791736      82.52553274
H      81.74594713     109.55766746      85.21083383
C      81.20548540      96.33903190      85.69271404
O      83.12355761      95.68518660      84.43982549
N      78.92647547      95.91195376      84.77241732
H      77.43737114      96.63193948      85.72672911
C      78.36522676      94.46064395      82.62757796
H      79.76929340      92.96398071      82.44427451
C      75.69693319      93.46286846      82.92048554
H      74.25696174      94.93496525      82.99418486
H      75.53630646      92.72209574      84.83666802
C      74.65002482      91.53345789      80.95517017
O      74.35900697      89.29980139      81.63358192
O      74.24373367      92.20997991      78.71962394
C      78.50128704      95.94974828      80.11424196
O      78.00995821      98.26277329      80.18794129
N      78.94537272      94.70063919      77.99585876
H      79.27418511      92.84870740      78.31522251
C      79.01718233      95.38283039      75.35969056
H      80.48549967      96.82280184      75.23496862
C      79.96582494      93.27578555      73.54177384
H      80.05842152      94.11104458      71.66149616
C      82.58876506      92.29123814      74.22207532
H      83.89645567      93.88238770      74.23530340
H      83.22938228      90.96465027      72.78399359
H      82.70970755      91.15362290      75.93605708
O      78.56931720      91.04779823      73.37358820
H      78.64679598      90.49032897      71.65015781
C      76.68903952      96.61304222      74.26364930
O      76.88935050      98.08324929      72.44006340
N      74.49695699      96.24076614      75.37480837
H      74.30042546      94.79512551      76.60690992
C      72.24062377      97.82435679      74.93639186
H      72.19338062      98.85803708      73.15437995
C      69.96539329      95.95919692      74.90804597
H      68.12857932      96.76611005      74.44317330
H      69.88602479      94.87638374      76.65793254
C      70.00507755      94.01466854      72.83690593
H      68.48195813      92.63894778      73.01831966
H      71.77575110      92.96964989      72.71029427
C      69.59689666      94.97087005      70.03822126
O      71.26741472      96.18785380      68.96674644
O      67.62969157      94.34348092      68.89304711
C      71.78331001      99.87093038      76.95839902
O      70.06932824     101.27310731      76.83178736
N      73.32721640      99.81612832      78.91426575
H      74.92214541      98.76733022      78.86513287
C      73.34233422     101.74364916      80.90036811
H      72.71494508     103.58424259      80.22195636
H      75.35300301     101.95340878      81.30476954
C      72.01574634     101.12192920      83.45905754
O      71.75874356     102.90394112      84.95761050
N      71.14080306      98.80512474      83.84267198
H      70.89324891      97.95096845      82.15325665
C      70.22239606      97.73553965      86.30876482
H      68.89202875      99.05267889      87.17048001
C      68.91281574      95.31291052      85.77964145
H      67.74874433      94.99921595      87.44826978
H      70.14680702      93.67262808      85.62846334
C      67.31599700      95.36393313      83.40425547
C      67.21773123      93.12838690      81.89058470
H      68.17960193      91.42007431      82.44994368
C      65.95161461      93.06413620      79.53787544
H      66.10090297      91.39550787      78.37380403
C      64.29243489      95.06913582      78.98040617
O      62.88080935      94.76111043      76.90170723
H      62.55766614      96.36359835      76.11747081
C      64.31133216      97.29901287      80.49218722
H      63.29276968      98.96575148      79.89692344
C      65.80043649      97.41239645      82.64458549
H      65.90626117      99.21330563      83.60267674
C      72.52030327      97.30279232      88.26085210
O      74.68970908      97.52011085      87.52574856
N      72.01385662      96.60170386      90.64946616
H      70.22239606      96.27667094      91.22772241
C      74.10389392      95.65495098      92.18959310
H      75.87456746      95.92329212      91.17481007
C      74.42892685      97.24799026      94.54797154
H      75.95771543      96.25210449      95.50228333
H      72.79242386      96.99476694      95.77440392
C      74.96182967     100.04100575      94.49694893
C      72.90580743     101.65294230      94.71237773
H      71.00663249     100.97642028      95.02985175
C      73.26296570     104.33446394      94.78418733
H      71.88535522     105.69884633      95.42291482
C      75.78764006     105.26420928      94.38545508
O      76.42825728     107.79833227      94.30230712
H      75.03552898     108.91327079      94.63867840
C      77.76429379     103.50487408      94.01884817
H      79.66724817     104.16627829      93.68625634
C      77.42036359     100.93862575      94.25506396
H      78.97371863      99.61392761      94.25317424
C      73.78453017      92.86760467      92.80564388
O      71.67559560      91.96053604      93.11744872
N      75.95771543      91.64306202      93.06264666
H      77.48650402      92.75611082      92.79430552
C      76.33377096      88.90106914      93.19870695
H      74.62356865      87.89762446      93.75806594
C      77.32209783      87.92786009      90.58332574
H      78.36711648      86.18931188      90.94615319
C      75.17347901      87.30425040      89.02808098
H      74.55931795      85.38617819      89.45515913
H      75.53630646      87.45731823      87.00607383
H      73.67303632      88.68564034      89.32287828
O      78.77907682      89.55869389      89.23784060
H      79.77496258      90.75678038      90.16758595
C      78.31231442      88.19620122      95.16402232
O      79.91291261      89.75522543      96.07864985
N      78.03830410      85.76412346      95.96904573
H      76.66447307      84.61894931      95.30008261
C      79.65402010      84.38084380      97.76806518
H      81.53429777      85.17452885      97.47326787
C      78.63545762      84.89484935     100.54596286
H      77.98539177      86.84693663     100.65934644
C      76.47361072      83.27724363     101.50027465
H      75.75551472      84.03124443     103.27850711
H      77.13879438      81.35917142     101.84798429
H      75.05253653      83.31314843     100.01117031
C      80.57242709      84.81926030     102.59064673
H      81.45681900      83.00134359     102.97426117
H      79.69559408      85.31436859     104.38777645
C      82.72293563      86.94331268     102.00861102
H      84.05708241      86.60127221     103.53928934
H      81.89145606      88.82925954     102.05963363
H      83.42402410      86.74678114     100.08297991
C      79.97527357      81.54814405      97.58287200
O      78.35010894      80.24234317      96.54919171
N      82.00672936      80.63729597      98.67891326
H      83.32953778      81.83916191      99.34787638
C      82.75128153      77.96333324      98.83198109
H      81.47571627      76.88429951     100.03762648
H      84.52762426      77.81971404      99.86188193
C      83.21426446      76.95610911      96.08998821
O      84.60132359      78.27513808      94.59143525
N      82.48105066      74.66576082      95.31709015
H      81.30186145      73.77003055      96.52084581
C      82.36388763      73.95333400      92.60722262
H      83.80574881      74.84150537      91.43370258
C      82.70592810      70.99780205      92.24628489
H      81.03352031      70.00758546      92.93414527
C      82.97615896      70.55749582      89.42681323
H      84.89612089      71.10551645      88.92981521
H      81.57020258      71.63652954      88.37801513
H      82.79852469      68.53926811      89.04697824
C      85.00383529      69.98301902      93.74105840
H      84.16479681      69.53704361      95.56842375
H      86.46648346      71.42110074      93.92247213
C      86.13578134      67.53771317      92.97571925
H      84.57297768      66.24891982      92.60155344
H      87.26016851      66.95189801      94.60088388
H      87.46803840      67.75881115      91.42236422
C      79.98472221      75.02669855      91.24284022
O      78.07231918      73.77758945      91.14457445
N      80.13779004      77.53625509      90.64379698
H      81.77618274      78.49812578      90.81954152
C      78.19893083      78.55103812      88.78997546
H      78.05153218      77.23011943      87.21583345
H      79.11733783      80.11573151      87.81676641
C      75.49284275      79.19165534      89.76696397
O      73.91114184      80.13840822      88.49328843
N      74.97505775      78.70599568      92.24250544
H      76.47550044      78.18254149      93.29886245
C      72.56376696      79.28047248      93.15524325
H      71.25607636      78.27324835      91.92125197
C      72.48817792      78.18821067      95.84621352
H      73.65224932      79.45999648      96.97249040
H      73.22328146      76.26824873      95.98227381
C      69.83122273      78.13907778      96.83076093
N      68.08322589      76.23801311      96.67958282
H      68.64258487      74.46167038      96.26573276
C      66.02531393      76.93532212      98.11577482
H      64.42093628      75.75613290      98.56363996
N      66.30121397      79.36551016      98.76206122
H      65.04076652      80.56170692      99.55196682
C      68.71628420      80.10817260      98.02128850
H      69.68382407      81.86372835      98.40868240
C      71.71716959      82.04325235      93.20437613
O      73.17225885      83.74589575      93.95459748
N      69.34178361      82.62339833      92.47872123
H      68.42715607      81.10972755      91.76062523
C      68.35723619      85.19531584      92.25762325
H      69.74429532      86.45576329      91.39968750
C      66.09334408      85.11972678      90.41325037
H      64.60046028      83.85361015      91.05575731
H      66.68104895      84.56036780      88.51974460
C      64.96139802      87.85416076      90.11656334
H      64.30377325      88.48343962      91.96093622
C      66.55065785      89.84593229      88.82399054
H      67.41237304      89.21476370      87.06087589
H      68.04732109      90.45820362      90.09766607
H      65.48107275      91.57881132      88.52163433
C      62.76364632      87.46676687      88.38746376
H      63.31166694      86.70331743      86.55442924
H      61.78287835      89.23744042      88.00006987
H      61.40871255      86.11750228      89.15280292
C      67.50685936      86.26490093      94.85977638
O      66.26908862      84.95532060      96.36399853
N      68.02275463      88.62516910      95.57598265
H      69.16603905      89.54168636      94.35332973
C      67.28765111      90.03490492      97.80208025
H      66.46750988      88.86516434      99.28740513
C      69.55721241      91.25188867      99.08331469
H      68.79565271      92.29690732     100.68580260
H      70.36034609      92.46509296      97.62633570
C      71.68882369      89.41696442     100.12266416
H      72.77352658      88.51367524      98.62411120
C      73.52563767      91.22921195     101.56263561
H      72.87179236      91.89628534     103.39755986
H      73.65980823      92.94130399     100.42691010
H      75.29631122      90.45820362     102.28262134
C      70.57010571      87.30425040     101.85743292
H      72.05165114      86.43119685     102.99315843
H      69.69327270      85.87750704     100.66123616
H      69.08100137      88.15840670     102.99504816
C      65.13525284      91.88305726      97.24839044
O      63.15859911      91.63550311      98.33876252
N      65.54721317      93.68396644      95.58165183
H      67.20450315      93.64239246      94.63867840
C      63.72173756      95.56424412      94.79930514
H      61.81500370      94.78945633      94.70859828
C      63.70850947      97.72231157      96.79674585