 %block lattice_cart
   142.669   0.000   0.000
   0.000 146.65   0.000
   0.000   0.000   162.396
 %endblock lattice_cart

 %block positions_abs
N      94.42317609      45.00934093      77.57444980
H      93.09658822      44.14573601      76.50864416
H      94.61970763      43.86227705      79.08812057
H      95.99353866      45.12083477      76.49730580
C      93.27422249      47.54346392      78.01286630
H      94.23987264      48.21431675      79.70417135
C      93.74098489      49.36893954      75.90960091
H      92.69974569      48.77178602      74.23530340
H      95.77810986      49.47665394      75.62236251
C      93.13438274      52.02778446      76.64281472
H      94.21719592      52.42273726      78.34923758
H      91.08780915      52.00510774      76.88092024
S      94.23798291      54.31435330      74.29766437
C      92.86604161      56.93162424      75.88125502
H      90.82135774      56.69162900      75.87747557
H      93.37626771      58.74765122      75.04788572
H      93.46508485      57.11303797      77.84279093
C      90.50010426      47.33937348      78.54387939
O      89.48532123      45.56681019      77.43838950
N      89.43807808      48.83981617      80.22195636
H      90.62104675      50.11160197      81.01753114
C      86.77545370      48.81713945      81.08367156
H      85.45831446      48.04424138      79.69850217
C      86.59026052      47.08426042      83.43260137
H      87.20631130      45.20587246      82.85245539
H      84.64573215      47.10693714      84.11101311
C      88.05479842      47.97999069      85.66247842
O      88.73698961      50.20230884      85.94593736
N      88.45353067      46.29813428      87.44260060
H      88.83336566      47.06914261      89.14902346
H      87.55402094      44.61627785      87.50118212
C      85.68319189      51.47598437      81.36524078
O      87.13828115      53.26177574      81.01564141
N      83.29646756      51.68763372      82.05499088
H      82.33837632      50.09837389      82.49718684
C      81.95098242      54.14238820      82.47828958
H      82.15696259      55.28756234      80.77942562
C      79.01056828      53.45641755      82.64647522
H      78.53624698      52.62115851      80.82477905
C      78.52112917      51.33992407      84.76863787
H      79.96488007      49.88294509      84.57966524
H      76.69376382      50.45931162      84.41714878
H      78.47577573      52.13360912      86.66781281
C      77.37217557      55.89794395      83.03197939
H      77.95610100      57.02989000      84.65147484
H      75.47678008      55.32535687      83.59889728
C      77.32493241      57.69129421      80.85123522
H      75.95488083      59.18228827      81.23673939
H      76.86572892      56.50454609      79.22985005
H      79.21843818      58.45663338      80.58478381
C      82.94497846      55.77322201      84.59667278
O      82.80702844      58.11648264      84.53242208
N      84.19408756      54.53545127      86.40703058
H      84.14684440      52.67974004      86.85111627
C      85.60004393      56.07179877      88.09266645
H      84.48321568      57.70074285      88.67281243
C      86.20097690      54.62804786      90.67592232
H      86.62049614      56.09825493      92.05353281
H      87.92818675      53.53956550      90.40947091
C      84.09771152      52.91028664      91.53196834
C      83.76700941      50.43096571      90.55875929
H      85.38272541      49.77145124      89.50240228
C      81.63539813      49.10248813      91.12000801
H      81.80547350      47.14662139      90.56064902
C      79.67197249      50.11916087      92.46738287
H      77.94854209      49.08926004      92.83398977
C      79.91196773      52.71186538      93.21949394
H      78.39451750      53.39216685      94.40624207
C      82.15885232      54.11782176      92.88879184
H      82.22310301      56.11715220      93.30264190
C      88.04534978      57.02989000      86.96827930
O      88.41762587      59.39015817      87.06843479
N      89.67996304      55.41795346      85.94215791
H      88.83903483      53.72475868      85.67948595
C      92.20841685      56.14360836      84.98595640
H      93.30445811      57.00532356      86.50340662
C      93.53122527      53.77011212      83.76141374
H      94.93340219      54.31813274      82.35356764
H      92.28778536      52.67029139      82.54443000
C      94.81623916      52.18085229      85.82310515
H      93.35926018      51.59881659      87.15725193
H      96.33746884      53.28256272      86.66781281
C      95.92361878      49.98121086      84.32077273
O      94.54978775      48.28612636      83.66125825
O      98.25932051      50.08136636      83.65369934
C      91.97787024      58.10514428      82.71828482
O      93.67295474      59.64527123      82.46317177
N      89.72531648      58.26955047      81.63736137
H      88.50266355      56.94863178      82.27230941
C      88.89572662      60.02132676      79.64181038
H      90.44152275      60.27455009      78.30388415
C      86.62049614      58.88371152      78.20372866
H      85.11438427      58.62670874      79.58511859
H      87.18552431      57.00532356      77.57256007
C      85.63783846      60.42572819      75.99463860
H      87.05135374      60.04778292      74.54521852
H      85.69830970      62.42694836      76.47840853
S      82.42152428      59.98353223      74.83623637
C      83.06592095      59.84747194      71.40827284
H      83.65929501      57.92184083      70.99064332
H      84.55502528      61.16839063      70.87537002
H      81.27823986      60.15738706      70.43506379
C      88.32691900      62.52710384      80.89847838
O      89.78011854      64.27699042      80.52431257
N      86.52978928      62.66883333      82.65592385
H      85.57358777      61.14382418      83.28898217
C      85.92318713      65.09713164      83.76897265
H      85.97420974      66.46529349      82.22884570
C      83.38717442      64.95729189      84.92548515
H      83.23599632      66.52576473      86.25396275
H      83.31536482      63.15638271      85.92326065
C      81.12328230      65.35035497      83.18882667
H      81.12895148      64.19195274      81.48618326
C      78.51545999      64.69273021      84.34722890
H      78.50790108      65.51665088      86.23506549
H      78.03169005      62.71985593      84.69493854
H      76.93375906      65.73396941      83.53842604
C      81.14784874      67.97518480      82.15514638
H      80.69431443      69.25452952      83.70472196
H      79.88173211      68.26242321      80.55832764
H      82.97143463      68.79721575      81.66192781
C      87.98865799      66.08167905      85.51885922
O      88.41762587      68.37202733      85.73239829
N      89.58547673      64.47163223      86.55064978
H      89.10926570      62.63670798      86.33333126
C      91.87582502      65.23130220      87.93770890
H      91.10292696      66.56922843      89.30209129
C      93.03422725      63.15260326      89.60633723
H      94.76143710      64.01242874      90.32821268
H      93.65216775      61.50287219      88.53864186
C      91.45252633      62.40049218      92.02329719
H      89.62516098      61.56523316      91.57354232
H      91.11426532      64.16738628      93.02485213
C      92.76399639      60.59769328      93.78641184
H      94.20018838      61.54255644      94.91835790
H      93.59736569      59.04433825      92.71871647
N      90.96686666      59.33346638      95.49094497
H      90.39050014      57.55901337      95.09221272
C      89.88972266      60.45029463      97.50728295
N      90.29790355      62.80300390      98.17435633
H      89.60059454      63.38503960      99.85243330
H      91.61882224      63.84424309      97.26917743
N      88.60848822      58.92528550      98.97371056
H      87.74488330      59.56968217     100.54974231
H      88.42518477      57.12437631      98.36710842
C      93.86759655      66.77142914      86.33144153
O      95.45307693      68.09234785      87.36323210
N      93.79578695      66.63158940      83.88991513
H      92.82257790      65.32200907      82.89969855
C      95.42095158      68.39848351      82.38758272
H      96.24865171      69.84601385      83.59700756
C      97.70752042      67.00575521      81.22540103
H      98.61269933      68.44572666      80.05943990
C      99.57457002      66.12325302      83.39858629
H     100.22463587      67.77298409      84.44738440
H     101.35280248      65.53743787      82.54443000
H      98.69773701      64.63792815      84.52486318
C      97.05745457      64.86658503      79.37535897
H      95.94818522      65.69239543      77.84657039
H      95.72897697      63.53054853      80.20872828
C      99.23441928      63.28677382      78.35679649
H     100.83123802      64.39037400      77.66704639
H      98.49931575      62.33246203      76.68627843
H      99.79377827      61.91861197      79.79109876
C      93.79011778      69.76853508      80.47706941
O      94.42128636      71.91715389      79.65692819
N      91.46386468      68.88603289      79.70984053
H      90.95552831      67.19283812      80.42604680
C      89.88972266      70.19561323      77.88436491
H      91.02355845      70.57922767      76.20817767
C      87.95653265      68.36068898      76.89603805
H      86.39183926      67.87313959      78.14136769
H      89.09603761      66.72985517      76.36502496
C      86.53923791      69.40381790      74.42616576
O      87.97165046      69.84979331      72.57801342
O      84.24322044      69.52665011      74.28821574
C      88.56124507      72.67682387      78.97284727
O      88.13416692      74.36812893      77.55933199
N      87.92818675      72.76186155      81.42193257
H      88.34392654      71.15181474      82.35923682
C      87.29512844      75.00307697      82.81088141
H      87.45953463      76.57721899      81.48996272
C      84.51534103      74.75174336      83.66503770
H      84.14306495      73.09445340      84.82910911
H      83.46843265      74.57788855      81.90003333
C      83.36449771      76.94949507      85.25996671
H      84.49833349      77.26507937      86.94749231
H      81.46532276      76.37123881      85.81176679
C      83.24166550      79.47983860      83.86534869
O      82.39695783      81.40357999      85.07099408
O      83.79346558      79.62534752      81.54287505
C      89.23776709      75.56054622      84.85178583
O      89.87838431      77.77719520      85.29587151
N      90.24877066      73.66515073      86.22183740
H      89.35493012      71.99841213      85.96672435
C      91.77944898      74.03364737      88.47628090
H      93.21186152      75.34511742      87.78653079
H      92.59959020      72.20439230      88.94304330
C      90.54167824      75.16748315      90.87434359
O      88.35148545      75.80054148      90.87623331
N      91.75488254      75.12212973      93.06453638
H      93.51043828      74.38513647      92.93792472
C      90.81568856      75.84778463      95.51173196
H      88.75399715      75.82699763      95.50228333
C      91.59992498      73.94105078      97.53184939
H      93.65405748      73.83522611      97.42791444
H      90.72876115      72.13636216      97.05374863
C      91.04623517      74.51930703     100.30218816
H      92.04401066      76.21817099     100.90690058
C      88.17763063      74.64024952     100.65934644
H      87.43496818      75.98195519      99.28551541
H      88.16818199      75.24874139     102.62655153
H      87.17985513      72.83745061     100.70281014
C      92.34825660      72.40470328     101.82908702
H      91.70763938      72.44060808     103.78495376
H      94.37593293      72.75430266     101.91034525
H      92.07613601      70.56977903     100.93146702
C      91.82669214      78.47828365      96.27329166
O      94.05467946      79.05465018      95.89534640
N      90.14483572      80.11856610      97.06130754
H      88.42140532      79.31543242      97.23894181
C      90.51144262      82.72071922      97.93814054
H      92.43140456      83.04764189      98.61277284
C      89.88783294      84.72571885      95.92180257
H      89.54768220      86.59087872      96.72304653
H      88.28912448      84.03029957      94.82576131
C      92.13282780      85.59499295      94.34010165
H      93.10981630      83.83187831      93.90546459
H      93.44051841      86.63812187      95.53818813
C      91.39961399      86.81197669      91.97605403
H      92.93785121      87.93447412      91.18992788
H      89.98987816      88.26328650      92.36722737
N      90.16373298      85.06586959      90.13735032
H      89.67240414      83.32543164      90.75340110
C      89.83303088      85.47594020      87.70149311
N      90.53033989      87.60566175      86.60734157
H      90.94607967      87.70959670      84.74785088
H      90.80812965      89.11555307      87.74117736
N      88.85982182      83.62589813      86.38246414
H      88.85037319      83.64479540      84.47195084
H      88.27778612      81.91947527      87.00985328
C      89.02800747      83.00984736     100.51761696
O      86.83214549      82.43159110     100.69903069
N      90.24499121      83.82620913     102.58308782
H      91.83425104      84.79941817     102.17868639
C      89.23020818      83.85833446     105.17012314
H      87.65228671      82.52985688     105.18902041
C      91.12938313      82.94370693     107.16189468
H      90.18640970      83.11000284     108.98548057
H      92.83958544      84.08888108     107.22803510
C      91.90795037      80.14313254     106.78394942
H      92.87360051      80.10911746     104.96603270
C      93.89216300      79.76707701     109.04217236
H      95.48520228      81.05209090     108.83052301
H      94.68773777      77.86979179     108.98926002
H      93.22697933      80.23572913     110.93378840
C      89.81791307      78.17781718     107.21480702
H      88.47620738      78.39324597     105.66523144
H      88.83336566      78.49340147     108.99681893
H      90.58892140      76.27297305     107.37732348
C      88.40439778      86.54174584     105.85042462
O      86.87749892      86.87811711     107.65133379
N      89.35870957      88.48816394     104.44446824
H      90.49443509      88.12344676     102.95347418
C      88.04723951      90.98449240     104.46525523
H      86.98521332      91.07708899     106.23025961
C      89.97098090      93.21247972     104.67690458
H      90.63805428      93.69624966     102.78717826
H      91.55646127      92.93657968     105.96191847
C      88.74454852      95.58219652     105.81640954
H      88.43463340      95.04740397     107.78172491
H      86.90773454      96.06407673     105.02083477
C      90.59081113      97.83097082     105.77105611
H      91.43551879      97.94435440     103.89644761
H      92.07046683      97.46814337     107.15622550
C      89.60626372     100.38966025     106.30773839
H      87.66173534     100.16667256     105.67279034
H      90.61915702     101.80128581     105.19657931
N      89.68185277     101.13610214     109.08563607
H      89.67807332      99.58274712     110.19868486
H      88.13227719     102.21135643     109.37098474
H      91.44496742     101.82396252     109.33696966
C      86.17074128      91.06008144     102.21648092
O      86.42585433      89.86577442     100.23982719
N      84.33959648      92.86665980     102.58119810
H      84.41707526      93.79829487     104.24415725
C      82.39317838      93.58097634     100.69525124
H      81.50122756      91.77250826     100.27573199
C      80.36550205      95.57463762     101.63066576
H      81.44642550      97.11476456     102.46403506
C      78.75356550      96.49115488      99.49527503
H      79.84960676      96.82941589      97.78318299
H      77.86350441      98.24860034     100.09431827
H      77.49122833      94.94346902      98.99827701
C      78.85750045      94.48048608     103.83597637
H      80.02535131      93.25972287     105.01327586
H      77.41185982      93.21436945     103.09898311
C      77.33816049      96.49682406     105.15500533
H      76.03991852      97.38877487     103.82652774
H      78.42853258      98.01994346     106.01294108
H      76.11739730      95.60298350     106.55151308
C      83.75756078      94.54662649      98.23104812
O      85.40351240      96.19824730      98.26506320
N      83.17363535      93.32964275      96.15990808
H      82.11916807      91.74038293      96.10699575
C      84.09771152      93.79262569      93.63334400
H      85.22398840      95.50660747      93.45948918
C      86.15373374      91.85376650      92.99272678
H      87.47276271      91.60621235      94.55742017
H      87.35559968      92.58887003      91.49039437
C      84.95942671      89.41035038      91.99495129
C      84.63628351      88.91524209      89.41358515
H      84.96320617      90.38166971      88.03408494
C      83.45709430      86.48883349      88.65391517
H      83.34371072      85.98238685      86.68104090
C      82.79946954      84.71627021      90.55120039
O      81.69397965      82.50529042      89.96349550
H      81.68642074      81.94404171      88.23817538
C      83.33804154      85.30964427      93.10611036
H      82.78435173      83.98305640      94.55364072
C      84.35471429      87.63022820      93.79208101
H      84.55313556      88.09510087      95.77062446
C      82.07381463      94.08175383      91.69637453
O      79.80992251      93.83608940      92.28596914
N      82.82781543      94.83575463      89.34744473
H      84.68352667      95.09842658      88.98839673
C      81.06470078      95.47259238      87.17803892
H      79.14284912      95.69746982      87.88857601
C      81.78090706      98.02939210      86.10467437
H      80.48077535      98.49426476      84.57399606
H      83.73110461      97.94624414      85.44327016
C      81.28012958      99.98336910      88.27596991
H      82.80891817     100.03817116      89.65547012
H      79.49055876      99.37676696      89.09611113
C      80.97210419     102.68000855      87.21583344
H      81.01556790     104.04628068      88.75407066
H      79.12962104     103.00315174      86.35411825
C      83.20576070     103.00315174      85.21461328
H      82.72954967     101.69168169      83.70094250
H      85.09170756     102.48536673      85.86278940
N      83.36827716     105.54105419      84.09778503
H      83.81992175     106.82606807      85.43382153
H      81.78279678     106.07206727      83.17748831
H      84.54935610     105.59585625      82.60112179
C      80.87005897      93.36554756      85.25429753
O      82.59537910      92.23549121      84.23006587
N      78.54947506      92.89500569      84.37368507
H      77.10761388      93.82664078      85.20894410
C      77.78980508      91.69691921      82.05499088
H      78.71955043      89.86199496      81.95105594
C      74.88907519      91.43991644      82.25908133
H      74.10672850      93.32775303      82.00585800
H      74.27302441      90.63300331      84.05243160
C      74.05948534      89.60499219      80.07077826
O      74.04625726      90.22482242      77.72940735
O      73.73823187      87.35810761      80.92304482
C      78.78758058      93.16523657      79.87235699
O      79.16552584      95.44802594      80.11613169
N      79.35449847      92.01439324      77.74641489
H      78.83671346      90.18135872      77.62358268
C      80.01590268      93.48082086      75.61669334
H      81.65240567      94.66945870      76.00219750
C      80.80958773      91.81975143      73.46051561
H      81.48422002      93.10287560      71.99786745
C      83.07347985      90.00939362      73.94806500
H      84.41707526      90.91457252      75.21607136
H      84.02779164      89.25917227      72.28132639
H      82.44987017      88.28029405      74.88158980
O      78.62884357      90.54607590      72.50998328
H      78.92364087      90.13600528      70.76954534
C      77.98633662      95.41023143      74.75875759
O      78.59671822      97.32263445      73.54555330
N      75.54103077      95.16456700      75.34268302
H      75.14607797      93.52995374      76.24408247
C      73.43965511      96.95413781      75.22174054
H      73.70421679      98.20324691      73.60602454
C      70.99245953      95.53306364      74.83623637
H      69.52036274      96.91445357      74.42805548
H      70.48223343      94.34064632      76.43683456
C      70.85450951      93.77183871      72.70084563
H      72.08472134      92.20714532      73.23185873
H      71.73134252      94.66756897      71.06623237
C      68.08417074      93.10665504      72.02621334
O      67.03726236      94.23293193      70.19128909
O      66.99001920      91.30763560      73.07501144
C      73.22989549      98.88165865      77.49130184
O      71.71433499     100.66178084      77.34201346
N      74.94198753      98.72292164      79.32055691
H      76.06448496      97.17901525      79.35457198
C      75.50512597     100.61075824      81.39169695
H      75.01190740     102.50237427      80.74541055
H      77.55925847     100.67311921      81.54665451
C      74.15964084     100.07785542      83.85212061
O      74.78325052     101.17767613      85.75696473
N      72.43243099      98.19379828      83.85212061
H      72.26613507      97.07885975      82.31199366
C      70.96411364      97.55696052      86.05176204
H      70.07972173      99.35975941      86.50907580
C      68.71722905      95.73526435      85.33366604
H      67.32072131      95.75038215      86.85111627
H      69.81704977      93.99860587      85.19004684
C      67.26213979      96.32107951      82.96394924
C      67.08450552      94.52961896      80.92493455
H      67.97834607      92.69469471      80.95705990
C      65.54437857      95.10976494      78.82166916
H      65.52170186      93.81152296      77.24752714
C      64.33495373      97.46247419      78.57411502
O      62.85718776      98.11065032      76.54643868
H      61.55516633      99.36164915      76.74297022
C      64.45589622      99.23503747      80.59801190
H      63.51670224     101.04728501      80.56777628
C      66.21145196      98.80795934      82.69182865
H      66.63097120     100.33863765      83.97495282
C      72.57038101      96.35887403      88.16447605
O      74.20688399      94.73937858      87.81676641
N      72.03558846      97.03161660      90.54364148
H      70.58994783      98.24860034      90.81765180
C      73.53414143      96.12454797      92.84532813
H      75.57315612      96.27761580      92.59966371
C      72.98801052      97.98403866      95.03363120
H      74.00657300      97.49270981      96.75517187
H      71.05293078      97.69491054      95.67991760
C      73.34705852     100.69012674      94.36466809
C      71.38741233     102.33040917      94.91079899
H      69.50713465     101.72380704      95.42291482
C      71.79559322     105.00815137      94.56686880
H      70.15720050     106.22324538      94.66702430
C      74.18420728     105.89254327      93.95837693
O      74.50924020     108.33595940      93.07965419
H      73.01257696     109.25814585      93.52751933
C      76.23456033     104.25415057      93.60499811
H      78.16964007     104.80784037      93.25539874
C      75.82448972     101.58585702      93.66735908
H      77.32115296     100.20257736      93.52940906
C      73.03147423      93.35987837      93.58610085
O      70.87340678      92.46981727      93.45193028
N      75.18198277      91.94258364      94.04719407
H      76.77502205      92.98949201      93.93758994
C      75.36339650      89.18736268      93.99617146
H      73.53414143      88.32942693      94.38923453
C      76.44620967      88.36155227      91.44126148
H      78.42097367      88.95114688      91.39590805
C      76.68053574      85.54208062      90.93670456
H      77.92019620      84.65390924      92.32187394
H      77.09816525      84.92225038      89.01674262
H      74.81348614      84.72571885      91.23339159
O      75.13096016      89.32720242      89.35500363
H      75.06104029      91.14133967      89.39468788
C      77.29469679      88.49383312      96.04274505
O      78.62506411      90.14167446      97.11044042
N      77.13407005      86.17324921      97.04807945
H      75.84716643      84.96004491      96.32998345
C      78.93875868      85.24728330      99.02662290
H      80.58471030      86.48694378      99.03796126
C      77.74823110      85.43436621     101.58909178
H      77.18698239      87.38078431     101.96703704
C      75.33505060      83.90557763     101.70436509
H      74.39207717      84.65390924     103.37488315
H      75.94543220      81.96293898     102.02750829
H      74.13885385      84.07376326     100.03762648
C      79.57559645      84.76729282     103.78495376
H      80.05180748      82.76418293     103.81518938
H      78.63262302      85.34176962     105.52728142
C      81.92452626      86.40001636     103.94935995
H      83.25867303      85.72349435     102.53206521
H      82.65018116      86.26962525     105.87310133
H      81.52768373      88.36344200     103.47314892
C      79.55291973      82.47316509      98.40679267
O      78.22444213      81.09555459      96.96493149
N      81.47477139      81.43192588      99.55952572
H      82.76167501      82.39001712     100.59131629
C      81.89995981      78.69938163      99.45937023
H      80.11038900      77.83199726      99.99605250
H      83.43252785      78.27041377     100.76706084
C      82.81836680      77.63168626      96.94981368
O      84.56069446      78.62946177      95.74794775
N      81.49744811      75.71361407      96.12400328
H      80.11605817      75.19771877      97.33531785
C      81.82059131      74.67615432      93.75806594
H      83.29268811      75.66637090      92.71115756
C      82.41774482      71.88124910      93.74483786
H      80.83793363      70.86646606      94.58954552
C      82.45553935      70.84378935      91.05764704
H      82.77868255      68.81233357      90.95182237
H      83.84637792      71.96817651      90.04097428
H      80.66974798      71.01953389      90.04475374
C      84.96698562      71.61668742      95.02985175
H      85.00855960      72.75997184      96.74194379
H      86.26333787      72.30832725      93.58799057
C      85.55469050      68.91059934      95.62889499
H      85.63216928      67.79377109      93.89790569
H      84.36227320      68.09990674      97.09910206
H      87.36126886      68.70083972      96.59265541
C      79.21087927      75.21283659      92.26329243
O      77.48177969      73.68971717      92.11967323
N      79.20332036      77.34633759      90.88946140
H      80.67541716      78.54064462      91.11622856
C      77.15863649      78.13435347      89.13957483
H      76.76179397      76.43926896      88.03597466
H      77.91641675      79.41936736      87.72228010
C      74.58860871      78.75796315      90.45482435
O      72.77447145      79.44393381      89.12256729
N      74.36562100      78.81843439      92.90201992
H      75.92653494      78.41214324      93.92247213
C      71.94110214      79.33621940      94.35144000
H      70.33861423      78.31576720      93.55397550
C      72.19999465      78.44804803      96.96682122
H      73.53225170      79.67448042      97.94947890
H      72.74234610      76.46572513      97.09721234
C      69.78870387      78.58410833      98.33309334
N      68.05015567      76.67548475      98.67702353
H      68.19944404      74.85000914      98.13845153
C      65.99035398      77.61656846      99.93369153
H      64.15920919      76.76052243     100.21526075
N      66.46656502      80.00518252     100.52139641
H      65.35729567      81.15224638     101.57019452
C      68.79848729      80.57587987      99.71070383
H      69.68476893      82.39757603      99.94125044
C      70.96789309      82.09144036      94.23805642
O      72.09039052      83.62400840      95.54007785
N      69.18966063      82.85300007      92.67525276
H      68.50557971      81.53208138      91.47905601
C      68.26180501      85.40035115      92.57698699
H      69.98901486      86.50962048      92.41258081
C      66.39853487      85.40791004      90.19404211
H      64.50880856      85.11500247      90.95749154
H      67.06938771      83.90935708      88.94682275
C      66.21712114      87.60188229      88.38368431
H      65.25147100      86.89323493      86.70749707
C      64.57116952      89.73727303      89.45515913
H      65.45934089      90.84843211      90.94237373
H      62.72490692      89.04941265      90.05987155
H      64.33684346      90.94102869      87.79975888
C      68.94021676      88.51462011      87.90558355
H      70.27247381      86.94614727      87.83377395
H      69.50335520      89.58798465      89.57232216
H      69.09706404      89.74294221      86.25963193
C      66.88041508      86.37922937      94.99205722
O      65.66910051      84.88067641      96.22226905
N      67.15253567      88.83020439      95.61377718
H      68.06149402      89.98860663      94.39679343
C      66.09428893      90.02640116      97.93247137
H      65.33083950      88.51084065      99.10032223
C      67.88385975      91.62510961      99.45748050
H      66.93143769      92.83453445     100.82564235
H      68.91187086      92.87232898      98.18002551
C      70.06271419      90.20214571     100.73304576
H      70.94332665      88.85666056      99.44803187
C      72.26991452      92.08998229     101.21303625
H      72.96911326      93.39767289      99.78440315
H      73.97066820      91.10732461     101.82908702
H      71.86551309      93.32775303     102.80985498
C      69.30304421      88.89823454     103.17079271
H      68.62085301      87.00661851     102.72292757
H      67.91220564      89.97537854     104.24226753
H      71.03781297      88.53162765     104.22148054
C      63.74346940      91.44180617      96.96871095
O      61.57973277      90.52906836      97.23138290
N      64.42188114      93.53940237      95.58165183
H      66.24735676      94.07419492      95.43992236
C      62.50191921      95.28739922      94.53474346
H      60.64242852      94.49182443      94.13979066
C      61.74791841      97.30562692      96.53596362