 %block lattice_cart
   142.669   0.000   0.000
   0.000 146.65   0.000
   0.000   0.000   162.396
 %endblock lattice_cart

 %block positions_abs
N      93.70413523      44.32431513      80.57722491
H      92.95769334      43.18669990      81.91515114
H      95.58252318      44.38478638      80.90036811
H      93.39044066      43.38890061      78.94450137
C      92.72336727      46.93402717      80.38069337
H      93.48492698      47.87322116      82.04932171
C      93.85342361      48.70281101      78.26419990
H      92.84242004      48.27951231      76.51998251
H      95.82818761      48.15856983      78.03176357
C      93.48681670      51.42590663      78.95017055
H      94.34286273      51.97392725      80.73974137
H      91.46858901      51.58086419      79.32622609
S      94.16711818      53.82207958      76.59557157
C      97.57429472      53.50082612      76.79399283
H      98.25270646      51.68101968      76.10235300
H      98.34719279      53.75026999      78.68560887
H      98.38498731      55.05796059      75.71684883
C      89.77917368      47.01906486      80.59045299
O      88.51305705      47.15134570      78.72529312
N      88.79462627      46.82820251      82.91292663
H      90.02294837      46.80363606      84.37368507
C      86.06964092      47.13811761      83.29843080
H      85.06997571      46.07042226      81.84901072
C      85.44603125      45.87955989      85.78531063
H      86.25105465      47.01150596      87.30654031
H      86.46270401      44.09187881      85.64925033
C      82.78907606      45.43925367      86.31443399
O      80.97871825      46.33120449      85.20894410
N      82.25995269      43.81408904      88.20416031
H      80.38345445      43.77251505      88.54809050
H      83.39945765      42.43080938      88.85611589
C      85.29863259      49.93869202      83.10945817
O      86.90301024      51.57897446      82.96961842
N      82.90434935      50.65867774      82.97150815
H      81.54185668      49.32264123      83.05654583
C      81.93114030      53.31752266      82.70127728
H      82.69458973      54.06018511      80.93816263
C      79.00206452      53.38555281      82.41781834
H      78.39924182      52.14022317      80.89091948
C      77.80964722      52.47092527      84.89147008
H      77.98350203      53.93924261      86.32766208
H      78.48050005      50.65867774      85.60767635
H      75.76685308      52.40478486      84.63257758
C      77.86822874      56.11431761      82.07010870
H      78.43136717      57.30295546      83.65558907
H      75.81409622      55.98392649      81.96806348
C      78.80364325      57.23303559      79.51330899
H      78.41058018      56.22770119      77.75964298
H      80.86155522      57.24248421      79.42260213
H      78.15357740      59.18323314      79.38669733
C      82.89868018      54.98048181      84.90847762
O      83.18591857      57.28216846      84.59667278
N      83.55630493      53.96191933      87.10622932
H      83.39756793      52.07786221      87.36323210
C      84.64100784      55.28094831      89.31720911
H      83.72638030      57.11965200      89.46271803
C      84.03818514      53.65011450      91.65480056
H      85.18335928      54.48537352      93.14768434
H      84.99060721      51.90778684      91.10866965
C      81.39445803      53.37043500      92.49950822
C      80.36833664      54.94268729      94.38167563
H      81.64768136      56.25037791      95.28685453
C      77.87200818      54.67812560      95.40023811
H      77.14635327      55.80251277      96.94036505
C      76.62856827      52.58052941      94.67836266
H      74.88624061      52.21770195      95.67424842
C      77.67925611      50.73804624      93.01162405
H      76.64746554      49.05996928      92.47872123
C      80.06220099      51.20102920      91.77952249
H      80.47794076      49.77050638      90.38490447
C      87.46047949      55.78172577      88.97327892
O      88.44313718      57.59208358      90.11845306
N      88.74360366      54.49860160      87.25173825
H      87.84787339      53.31752266      86.04609286
C      91.37032324      55.22236678      86.63001829
H      92.31707612      56.28817242      88.11534317
C      92.94635498      52.92445959      85.83255379
H      94.64332921      53.36854528      84.75729951
H      91.73315068      51.73393202      84.66659265
C      93.57941329      51.39945046      88.22116784
H      91.78228358      51.01772573      89.15091319
H      94.87387582      52.42935130      89.44948995
C      94.78694842      48.91068090      87.16481084
O      93.25249064      47.50094507      85.96483463
O      96.92044942      48.14156229      87.58621980
C      91.15111498      57.10642393      84.40014124
O      92.57974807      59.08874683      84.40203097
N      89.32563937      56.69257385      82.64458550
H      88.31463579      55.07307841      82.68049030
C      89.11965919      58.15711176      80.32967076
H      90.84875877      57.82263020      79.26197539
C      87.19780754      57.01382734      78.66482188
H      85.44792097      57.18957187      79.73440697
H      87.55118635      55.01638662      78.30388415
C      86.91812805      58.40655563      76.06644820
H      88.69069132      58.16845010      75.03843709
H      86.90678969      60.42289359      76.47840854
S      84.33487217      57.14610818      74.06522803
C      85.10588051      58.33663575      70.97552551
H      84.98304830      60.39265797      70.99253305
H      83.77173373      57.57507605      69.60358421
H      87.01828353      57.85286582      70.38215145
C      88.69825023      60.91800190      80.84934550
O      90.11743469      62.63765283      80.12935977
N      86.64411773      61.50381705      82.36112655
H      85.69169566      60.07329423      83.19449585
C      86.00161078      64.11541881      82.81277114
H      85.98082379      65.19823200      81.05910512
C      83.29363298      64.29872227      84.00896789
H      83.09899117      66.25458900      84.62690840
H      83.20103639      63.17433511      85.73239829
C      80.91446755      63.58629544      82.42348752
H      81.21871348      61.66444379      81.74696550
C      78.62978843      63.39732282      84.04487269
H      78.80553298      61.68334105      85.17303930
H      76.96682928      63.07795907      82.87135265
H      78.35010894      65.18500391      85.02942010
C      80.43447707      65.26815186      80.14069813
H      80.14345922      67.13142201      80.97028798
H      78.74695146      64.55761477      79.19583497
H      82.01239853      65.23602651      78.81411026
C      88.11054534      65.20012171      84.50029673
O      88.35432005      67.49235973      84.35856726
N      89.69980517      63.82440097      85.95538600
H      89.45414075      61.93656438      86.10089492
C      91.91267468      64.82406618      87.38401909
H      91.22859376      66.54560686      88.28541854
C      93.09753309      62.93056042      89.26807622
H      95.10820188      63.29527760      89.52885845
H      93.05595910      61.04083411      88.44604528
C      91.83519591      62.80772821      91.87778826
H      90.00216138      61.94790273      91.48850464
H      91.44402257      64.70879288      92.57509727
C      93.40744821      61.05595192      93.65791045
H      95.38599165      61.55861911      93.37445150
H      93.10887145      59.23614548      92.73950346
N      92.59486588      61.19201220      96.14101082
H      91.08686429      60.18478809      96.73060543
C      93.34130778      62.84930218      97.93625082
N      95.17623203      64.43856202      97.72649120
H      95.71102458      65.39665326      99.28551541
H      96.26282467      64.40265722      96.15612863
N      92.33975283      62.63954256     100.16612787
H      92.74037481      63.96424071     101.47759793
H      90.92245811      61.46035335     100.66312589
C      93.91389485      65.85396703      85.48106469
O      95.42756564      67.42810904      86.21805795
N      93.87799005      65.09807650      83.02819994
H      92.59486588      63.74503246      82.62568823
C      95.74314993      65.91632800      81.13847362
H      97.31729194      66.80827881      82.12113131
C      96.68045417      63.56361873      79.77598095
H      95.08930463      62.58096105      78.91615548
C      98.26971400      64.50470243      77.61224432
H      99.42622651      65.98435814      78.45506226
H      97.05461998      65.25870323      76.12880917
H      99.42433679      62.98536248      76.83556681
C      97.96357835      61.71924586      81.59956684
H      96.96391313      61.42444854      83.37590958
H      99.86086356      62.43923158      81.96428402
C      98.53805514      59.09063655      80.45250297
H      99.73425189      58.00971310      81.73562714
H      99.85708411      59.00559887      78.87080205
H      96.81840419      57.97758776      80.23707417
C      94.37498808      67.95156323      79.48118365
O      95.56740537      69.73546486      78.99363426
N      92.03172745      67.37708643      78.57411502
H      91.34386707      65.65932521      79.03709796
C      90.79017726      68.84729350      76.67116062
H      92.05440416      69.28382029      75.10457751
C      88.68691187      67.30338710      75.59212690
H      87.16379247      67.37519671      76.97729628
H      89.42390514      65.39665326      75.34835220
C      87.66645966      68.37864138      72.95595869
O      89.10076194      68.50525305      71.18906459
O      85.33642713      68.91532365      72.74619907
C      89.63933393      71.23212811      77.51019910
O      89.06296740      72.74201944      75.88692420
N      89.21603525      71.65353708      80.03676318
H      89.31997018      70.14364575      81.20272432
C      88.36943786      73.91553948      81.31421817
H      88.34676114      75.32905476      79.81755493
C      85.83153541      73.46389489      82.45750259
H      86.09987656      71.95778302      83.83889252
H      84.48227083      72.98012495      80.97973661
C      84.64856675      75.80148634      83.71417059
H      85.75405664      76.45533164      85.32421741
H      82.71726645      75.33661367      84.26219122
C      84.45392494      77.96333324      81.76397303
O      83.16513159      77.70822019      79.79676794
O      85.75594636      79.97967121      82.10601350
C      90.44246761      75.00024237      83.15103215
O      91.12654854      77.22067080      82.97150815
N      91.34008761      73.41665172      84.90658789
H      90.43868817      71.74991311      85.12390642
C      92.98225978      74.00057716      87.07032452
H      94.20302298      75.47645341      86.31065454
H      94.02349899      72.24880087      87.37079100
C      91.92779250      75.09472870      89.47783584
O      89.81696820      76.18321105      89.50618174
N      93.50004480      75.21378146      91.40724641
H      95.27260807      74.52781079      91.21827378
C      92.64588850      75.49157122      93.87333925
H      90.59742518      75.71077947      93.80719883
C      93.35075642      72.94988933      95.14134560
H      95.29717451      72.45667076      94.68214211
H      92.23014872      71.47401308      94.24372560
C      92.76683099      72.98957359      97.95892754
H      93.61342838      74.62985602      98.87733452
C      89.93224151      72.77603450      98.46915364
H      89.12910783      74.54103889      97.77751381
H      89.59775995      72.73068108     100.50060943
H      89.15178454      71.07150137      97.61877680
C      93.83263662      70.53670883      99.20803663
H      93.14855569      68.77548391      98.38789541
H      93.37910231      70.61796705     101.21681570
H      95.89054857      70.46489922      99.12488867
C      93.93279212      77.98600996      95.13756615
O      96.25904521      78.02380448      95.32653878
N      92.46069532      79.85116982      95.92369230
H      90.63332998      80.03258354      95.40401756
C      93.15989405      82.08860578      97.37878156
H      95.11765052      81.85805917      97.98349398
C      92.80273579      84.38840271      95.60999773
H      92.82352277      86.11561255      96.73438488
H      90.91489920      84.27312939      94.79363596
C      94.67167510      84.73233289      93.46137891
H      94.52805591      83.02779976      92.31431504
H      96.53305553      84.86839319      94.33443247
C      94.06696268      87.10771886      92.01195883
H      95.87921023      87.83337377      91.35622380
H      93.09186390      88.53824169      93.12878708
N      92.54384328      86.45387356      89.79530986
H      91.58575203      84.80225277      89.81798658
C      92.36620901      87.92408063      87.86023012
N      93.17501186      90.26923099      87.85834039
H      92.95013443      91.34259554      86.29553673
H      93.44524272      91.15173318      89.52696873
N      91.47803763      87.08693188      85.67381677
H      90.89789165      88.26423137      84.29053711
H      90.79584643      85.30680969      85.57744073
C      91.49315544      82.49111749      99.73904972
O      89.46547911      81.41019404     100.11321553
N      92.79895633      83.65329917     101.50972328
H      94.51482782      84.30525474     100.98626909
C      92.42479052      83.03724838     104.33486412
H      90.99993689      81.56515158     104.55974155
C      94.92111897      82.13773867     105.42145675
H      94.95513406      82.61583941     107.42456664
H      96.37431851      83.16197032     104.38021755
C      95.75070884      79.25212658     105.47247936
H      97.80106188      79.18220670     105.63310609
C      94.62632167      77.68365375     107.64566462
H      95.58441292      78.36395522     109.33885939
H      94.71891826      75.66353632     107.25638100
H      92.59864534      78.02380448     107.74204066
C      94.91733952      77.83483184     103.03851187
H      92.94257554      77.29059066     102.80796525
H      96.01527051      76.12840899     102.68702277
H      95.36520466      79.05370532     101.43980340
C      91.64433356      85.42397272     105.92790340
O      90.57285874      85.11594734     107.85353451
N      92.05629389      87.55369427     104.82430323
H      93.32807969      87.50645112     103.40322904
C      90.95080400      90.01978711     105.14933616
H      89.88499835      90.29946661     106.88977409
C      93.02005431      92.01911755     104.77328062
H      92.97281115      92.59170463     102.79473717
H      94.84741966      91.09504139     105.00004778
C      92.61565287      94.24332542     106.57796925
H      92.70258029      93.65940000     108.55084352
H      90.76183137      95.09937145     106.29828975
C      94.79828677      96.12549284     106.36443018
H      96.36675960      95.24299065     107.36598512
H      94.22758942      97.85081295     107.33197005
C      95.49370605      97.10437106     103.75471814
H      93.80618046      97.74309856     102.75883237
H      96.33463427      95.48865507     102.79284744
N      97.46091115      99.01299463     103.97014694
H      96.77494050     100.77232983     104.23848807
H      98.30939825      99.13204740     102.26372408
H      98.77805039      98.52355553     105.26271974
C      88.80407490      90.46576253     103.34653725
O      88.92123793      89.45853840     101.26783831
N      86.95970203      92.06069154     104.06463325
H      86.86710543      92.81280261     105.81640955
C      85.11154968      93.02445196     102.25427545
H      84.21770914      91.30102156     101.57019452
C      83.00639458      94.68930083     103.33330917
H      84.08353858      96.18029490     104.26305452
C      81.24327992      95.52455987     101.21114652
H      80.05275234      94.02978635     100.44580736
H      82.20515062      96.59981414      99.73904972
H      79.88834617      96.90594979     101.91790416
C      81.44737037      93.46664791     105.49893552
H      82.72293562      92.78067726     106.96347342
H      80.47227159      91.92085178     104.55218264
C      79.34788443      95.12960707     106.74615489
H      77.97783286      95.73809893     105.33641906
H      79.98283248      96.92484706     107.53228104
H      78.46727197      93.96742538     108.19935443
C      86.71970678      94.48710012     100.26061418
O      88.55463103      95.75888593     100.87099578
N      85.94491899      94.07702950      97.86444122
H      84.90556953      92.49154913      97.66035078
C      86.88978214      95.31291051      95.61377718
H      87.83653503      97.08925326      96.04652451
C      88.64155844      93.54412668      94.14734956
H      90.34231213      93.40050749      95.30008261
H      89.29162429      94.58536589      92.49005959
C      87.62110623      91.10826947      93.11177954
C      87.05040888      90.96276054      90.51151614
H      87.54362746      92.55202037      89.32665774
C      86.13578136      88.70642733      89.38901871
H      85.49327440      88.41540948      87.47472595
C      85.70303402      86.58237496      91.04819841
O      84.98304830      84.23344515      90.08443799
H      84.68636126      84.47533012      88.30998498
C      86.25672384      86.76756812      93.68247689
H      86.02617722      85.10271925      94.84276885
C      87.29418358      88.96531984      94.65190649
H      87.98582341      89.13728493      96.56430952
C      84.69580991      96.35225999      94.00184064
O      82.51128629      96.04612432      94.44214687
N      85.31941958      97.75065747      91.89101634
H      87.16379247      98.24009657      91.82298620
C      83.53551795      98.47820210      89.88223727
H      81.58532038      97.97175544      90.30742569
C      83.54496657     101.42050595      89.43815159
H      82.67758219     102.08946907      87.69393420
H      85.53862783     101.90994507      89.59499887
C      82.09365676     102.88693358      91.50740190
H      83.00639458     102.98141990      93.34988506
H      80.26440170     101.94396015      91.63023411
C      81.92547113     105.65916207      90.88946140
H      81.66279916     106.00687172      88.87501315
H      83.60732755     106.63615058      91.56787315
C      79.85433109     107.03866229      92.33510203
H      80.32298321     107.50920414      94.28529958
H      78.21404864     105.81978881      92.59399453
N      78.96615972     109.29877495      91.03119087
H      80.21526882     110.74063614      90.99528607
H      77.27863412     109.85813395      91.72849988
H      78.27263017     109.09846397      89.26240704
C      84.02684679      97.08547379      87.34244511
O      85.94869844      97.59003073      86.03097505
N      82.58687534      95.04645910      86.80765256
H      81.12800663      94.72898509      87.99818014
C      82.77017878      93.64806164      84.51352482
H      84.53896262      92.59737381      84.44927412
C      80.52329420      91.85660108      84.71005636
H      78.74128229      92.86949440      84.90847762
H      80.83887849      90.47710088      86.20671960
C      80.40613117      90.30135633      82.26475051
O      81.69681424      88.24722383      82.23451489
O      79.10977891      91.06102632      80.48273859
C      82.73238427      95.33936669      82.15136693
O      81.81775673      97.41617591      82.17593337
N      83.67913714      94.27923023      80.05755017
H      84.55974961      92.59737381      80.25219198
C      83.04607882      95.19952693      77.46673540
H      84.54274206      96.54501208      77.02453944
C      83.18591857      93.01311360      75.50519948
H      81.54563613      91.78479148      75.69417212
C      83.87566868      93.91829250      72.75186825
H      83.93425020      92.26478198      71.52732560
H      85.69547511      94.88205292      72.78021414
H      82.40924107      95.05779747      71.86180715
O      85.48382577      91.76211478      76.13447835
H      85.08698324      90.16340632      76.89414832
C      80.66313394      96.65272647      76.86769216
O      80.74628190      98.66906445      75.65259814
N      78.45971306      95.94407911      77.96751287
H      78.44270553      94.38883435      79.07300276
C      76.12401134      97.37649165      77.48752239
H      75.85000103      97.77144445      75.48441250
C      73.88657538      95.70597358      78.18672112
H      72.14235801      96.75099225      77.85790874
H      74.05287130      95.12960707      80.15770567
C      73.77130209      93.56302396      76.22707494
H      75.50229139      92.44619570      76.20250849
H      73.70705140      94.33970147      74.32034109
C      71.29954007      92.00399975      76.23652357
O      71.33733459      90.12561179      77.74452517
O      69.52508706      92.43296761      74.76820622
C      75.94448734      99.89171737      78.82733834
O      74.44593438     101.53577927      78.03743274
N      77.49973210     100.23753729      80.73407219
H      78.76773845      98.83536036      80.98729552
C      77.46760675     102.27844171      82.58789371
H      76.02385584     103.55022752      81.85279017
H      79.28174401     103.25354049      82.50285602
C      76.88179160     101.53388954      85.35823248
O      77.49217319     102.92094866      87.14213412
N      75.61945442      99.40794743      85.72294966
H      74.64435564      98.65961581      84.26219122
C      74.24751312      98.76733022      88.12668153
H      73.47272532     100.53611405      88.84099808
C      72.05165114      97.03256147      87.65047050
H      71.02175030      96.94374432      89.43248241
H      72.77730604      95.12960707      87.35189374
C      70.40380980      97.70719376      85.43760099
C      69.80098710      95.86849005      83.56866166
H      70.35845636      93.91073359      83.71795004
C      68.57077527      96.59981414      81.42382230
H      68.07566697      95.12204816      80.10668306
C      67.78275939      99.09803233      81.00808251
O      66.60545991      99.80856941      78.82166916
H      66.24074272     101.58302242      78.92938356
C      68.39314100     100.94429492      82.81844032
H      67.76575186     102.86047742      82.50285602
C      69.56666104     100.19596331      85.05209682
H      69.85956862     101.73986971      86.35600797
C      76.00495858      97.59381018      89.99184140
O      77.55642388      96.08391886      89.35122418
N      75.46827631      98.17962533      92.41636026
H      74.16058570      99.53833855      92.70548839
C      76.51329497      97.00232585      94.68970101
H      78.53152267      97.35381494      94.89568118
C      75.00340364      98.05679312      97.03296164
H      75.31898793      97.02878200      98.79040711
H      72.96627868      97.79601089      96.87044518
C      75.71394073     100.90272096      97.62255625
C      73.79208908     102.74142466      97.52995966
H      71.87401686     102.29733896      96.98949794
C      74.24184393     105.32845998      97.83609533
H      72.70360672     106.65693758      97.65846105
C      76.84777653     106.04844571      98.04396522
O      77.42036359     108.44083921      98.47671255
H      76.09188600     109.55955719      97.95892754
C      78.68459050     104.20785228      98.48049200
H      80.58943462     104.81634415      98.88867288
C      78.20460002     101.65483203      98.10254674
H      79.84488246     100.45107637      98.24049676
C      76.10511408      94.11671377      94.46293386
O      74.00940761      93.32113899      93.93381049
N      78.21593838      92.73910328      94.89568118
H      79.76740367      93.74254796      95.37567167
C      78.31231442      89.89695491      94.55930990
H      76.49439771      89.00689381      94.94292434
C      78.83576860      89.20153563      91.73227933
H      80.67069285      90.01600767      91.26929639
C      78.69781858      86.48410918      91.08977239
H      79.88267698      85.54869466      92.49194931
H      79.51607007      86.25356258      89.21516389
H      76.74951075      85.84160223      91.24284022
O      77.05186696      90.18419330      90.15246814
H      77.16525054      91.95297713      90.54364148
C      80.38723390      88.94453284      96.33754236
O      82.10688486      90.29757688      97.20303701
N      80.11889278      86.52568317      97.10855069
H      78.58632474      85.54680493      96.53029444
C      81.96326565      85.20098502      98.60521393
H      83.80385908      85.99844952      98.13656181
C      81.43981146      85.60538644     101.43413423
H      80.86911412      87.58204016     101.30563284
C      79.09277138      83.87439715     102.44513780
H      79.76173449      81.96388384     102.82308307
H      77.57910061      83.85549989     101.04863006
H      78.34066031      84.58304451     104.22714972
C      83.83787416      85.31058914     103.10654201
H      85.49705385      86.29324682     102.37899738
H      84.20448106      83.30747924     103.41078795
C      83.56197411      86.62583865     105.74082049
H      83.28229462      88.61005128     105.26460946
H      85.25894834      86.18175297     106.81796449
H      81.92925057      86.06270022     106.86520765
C      82.27129104      82.45521269      97.91546383
O      80.76706889      81.51601871      96.28085057
N      84.25172421      81.06437412      98.89434206
H      85.39122918      81.93742767     100.15478951
C      84.58053660      78.24112301      98.41246185
H      83.01962266      77.20366325      99.26472842
H      86.41357111      77.71766881      99.19291882
C      84.98871747      77.61373387      95.68936623
O      86.59498484      78.57938402      94.36466809
N      83.64134261      75.52936575      94.82954076
H      82.20515062      74.88118963      95.90857449
C      83.56386384      74.73568069      92.13479104
H      85.20414627      75.51613767      91.16347171
C      83.92291184      71.82739190      91.85322182
H      82.30341638      70.87874928      92.70359866
C      84.33298244      71.08283974      88.91847685
H      82.52640410      71.44188773      87.99440069
H      84.76006059      69.07406067      88.75407067
H      85.96003680      71.99557755      88.04920275
C      86.33798207      71.01669931      93.16469188
H      86.15467861      71.58172747      95.13756615
H      87.90078572      72.27336730      92.68848085
C      87.18646918      68.28415507      93.11366927
H      88.76061119      67.93266596      94.39679344
H      87.71559254      67.67188373      91.22016350
H      85.56319428      67.11441448      93.60310838
C      81.27918472      75.92053909      90.77607782
O      79.26662620      74.84717455      90.31309487
N      81.52484914      78.34505796      90.04286401
H      83.03474048      79.38062797      90.58143601
C      79.51607007      79.68298418      88.50840624
H      79.35166388      78.63229635      86.74529159
H      80.03952427      81.56326187      87.85456094
C      76.92147585      79.89652326      89.86900919
O      74.96182967      79.93053833      88.56320831
N      76.99517517      80.28580688      92.30108695
H      78.63734734      80.72044392      93.17603024
C      74.79364402      80.40108018      93.80719883
H      73.29320133      79.39574579      92.81698224
C      75.19993518      79.13685328      96.33187318
H      76.43203673      80.33116030      97.47137815
H      76.16558532      77.33594410      96.07109095
C      72.66959164      78.72867240      97.70759394
N      71.38268802      76.53470015      97.70192476
H      71.82488398      74.92465332      96.77595886
C      69.33422470      76.86729198      99.16835238
H      67.91315052      75.47834314      99.63511478
N      69.53075624      79.35606153      99.92991208
H      68.14369712      80.15163630     100.96926155
C      71.74551547      80.49367677      99.16835238
H      72.22928541      82.43442570      99.57086408
C      73.99617951      83.20354430      94.16435710
O      75.17158929      84.45643284      95.72527103
N      72.24629296      84.04069306      92.66013495
H      71.36568049      82.85772438      91.44693066
C      71.15592086      86.58804412      92.84154868
H      72.71683480      87.86360939      92.41824999
C      69.14147261      86.87339280      90.69481959
H      67.28765111      86.37261532      91.44504093
H      69.36823978      85.34460422      89.33421664
C      69.05454521      89.26578631      89.22839197
H      70.93293317      89.91963162      88.69359942
C      67.31977645      88.76500884      86.91536696
H      67.14970109      90.54513103      85.89302503
H      65.49808029      88.10360463      87.61078625
H      68.17771219      87.26645588      85.78909008
C      67.60890457      91.29346265      90.89324085
H      66.76230718      92.79390534      89.76507424
H      68.88258011      92.10226551      92.29730750
H      66.09901325      90.34293032      91.92125197
C      69.94649602      87.17952847      95.37756139
O      68.56510610      85.54302548      96.23171769
N      70.16192482      89.46987676      96.44525676
H      71.07466264      90.85693588      95.50417306
C      68.99407397      90.09159671      98.81875301
H      67.99251901      88.56847731      99.77306480
C      71.26552499      90.71331668     100.51950669
H      70.61167969      91.65251065     102.23159873
H      72.31621283      92.08336825      99.39322981
C      73.10800814      88.67430198     101.41523696
H      73.76752264      87.63873195      99.76361616
C      75.42859207      90.04813300     102.56608029
H      76.77218747      88.75178075     103.43346466
H      74.76907758      91.43519213     103.93991132
H      76.36967577      91.13472563     101.09020404
C      72.04409223      87.02835036     103.47314892
H      72.85478482      87.57637100     105.28350672
H      72.49762655      85.04035828     103.17835161
H      69.99751864      87.26834561     103.44102357
C      67.04576614      92.29501760      98.81875301
O      65.32611519      92.42351899     100.35699023
N      67.35946071      94.22820762      97.17847057
H      68.87880066      94.26411241      96.02573752
C      65.34123300      96.03856543      96.61155267
H      63.55544164      95.01244404      96.58131705
C      65.20328299      97.85459241      98.66379545