 %block lattice_cart
   142.669   0.000   0.000
   0.000 146.65   0.000
   0.000   0.000   162.396
 %endblock lattice_cart

 %block positions_abs
N      91.58858662      43.57503866      81.96617375
H      93.48209239      43.50700851      81.74696550
H      90.82702692      42.13128776      80.97784689
H      91.17473656      43.42952973      83.82377472
C      90.80435020      46.14506644      81.23484967
H      91.38827563      47.52456665      82.64836495
C      92.06668738      46.87450080      78.64403489
H      91.18229547      45.63673007      77.25508605
H      94.07546645      46.43797402      78.51742323
C      91.59236608      49.66184710      77.83523203
H      89.56846920      50.03979237      77.82011422
H      92.31235180      49.69775190      75.90582146
S      92.89627723      52.10148377      79.88369535
C      92.18385041      54.65261431      77.83712176
H      93.01721972      54.41072933      75.97196189
H      93.25343551      56.28533783      78.50041569
H      90.14294599      54.89827872      77.70295119
C      88.01133471      46.24522193      81.05532567
O      86.81702768      45.05280464      79.50952954
N      86.90962427      47.40173444      83.04898693
H      88.12660802      48.06313865      84.36423644
C      84.21676428      47.64739885      83.37024040
H      83.15662782      46.85938298      81.79042920
C      83.35693880      46.01278559      85.65869897
H      84.23944099      44.15140519      85.59633800
H      81.32359329      45.69342185      85.71539075
C      83.84070874      47.19386454      88.40636102
O      82.34593523      48.68107915      89.30965020
N      86.07247552      46.96709739      89.35689336
H      86.38239063      47.50566938      91.16158199
H      87.47465244      45.93341710      88.57643639
C      83.50244773      50.47442942      83.83700280
O      85.25044457      52.05235089      83.91259185
N      81.02501653      50.96008908      84.13935901
H      79.77590744      49.52200737      84.01841653
C      80.16897051      53.63405181      84.49651728
H      80.64896100      54.55056908      82.71450537
C      77.32304269      54.00065873      84.72139471
H      76.44243022      53.09547981      83.09434036
C      76.26290623      52.74965991      87.01930191
H      76.62573368      53.90050323      88.68793025
H      77.23044610      50.96953772      87.39346772
H      74.24089907      52.38683245      86.87568271
C      76.31014938      56.73887216      84.65336457
H      77.04336319      57.76499354      86.28230865
H      74.25601688      56.67084200      84.76863787
C      77.06981936      58.26010184      82.37057518
H      76.07582332      57.50421130      80.73407219
H      79.09560597      58.03333467      82.06821897
H      76.45565831      60.22163775      82.49340739
C      81.64295704      55.23842946      86.49962717
O      82.16830095      57.45885787      86.08766684
N      82.34971468      54.15561629      88.70871723
H      82.10216053      52.26588996      88.83721862
C      83.84826765      55.32535686      90.80820317
H      82.98088327      57.16595030      91.12567719
C      83.75567106      53.78711965      93.17603024
H      85.20131169      54.39561152      94.51017702
H      84.28668415      51.93518787      92.44848561
C      81.19698163      53.37893877      94.62167087
C      80.24644929      50.93174320      94.84276885
H      81.29335767      49.39917516      93.99428173
C      78.22255241      50.48765751      96.45659512
H      77.68398041      48.59982093      97.01217465
C      76.98100222      52.43029616      97.71326312
H      75.38607322      52.20730846      98.96804139
C      77.75956947      54.98520613      97.28240552
H      76.70132273      56.51588444      98.12144400
C      79.93653418      55.41984318      95.84243407
H      80.58660003      57.33224621      95.55519567
C      86.52600983      55.84881105      89.83877357
O      87.59937438      57.75365518      90.59277437
N      87.75622166      54.38238344      88.26274182
H      86.85293248      52.92729418      87.42370334
C      90.36026452      54.97764722      87.37834991
H      91.58102772      55.99054054      88.69170970
C      91.60937361      52.65706332      86.27474974
H      93.45185677      53.34303396      85.65302979
H      90.45097138      51.99754883      84.70627690
C      92.00621614      50.67663013      88.39880212
H      90.44908166      50.65962261      89.74428725
H      93.68807256      51.39094669      89.34744473
C      92.72242241      48.09337427      87.44071088
O      90.97253585      46.64206446      86.94560258
O      94.92962275      47.45275704      86.87379298
C      90.23932204      57.00343384      85.28075370
O      91.61882224      58.92906495      85.41681400
N      88.32313955      56.68595981      83.60645619
H      87.49354970      54.98331640      83.36835067
C      87.84503880      58.60781147      81.62602301
H      89.42485000      58.70040806      80.30699405
C      85.55846996      57.76499354      80.05377072
H      83.94086423      57.92373054      81.31799762
H      85.81925219      55.83369324      79.38669733
C      84.84415341      59.63771232      77.80688614
H      86.45420023      59.79833905      76.53321060
H      83.90306971      61.29311257      78.59679173
S      82.25522836      58.19207169      75.96440298
C      82.89773531      59.08024305      72.80478058
H      84.91974247      58.90827796      72.45707094
H      82.28357426      60.98130773      72.30400311
H      81.63350841      57.96341480      71.62181191
C      87.38772503      61.19106735      82.81088141
O      88.75966633      62.96929980      82.14947720
N      85.56980832      61.46885711      84.57021661
H      84.69297531      60.04022401      85.48673387
C      84.87627876      64.04077462      85.39224756
H      84.42652390      65.01020422      83.63291236
C      82.35727358      64.03510544      87.01552246
H      82.24389001      65.61869609      88.32888225
H      82.35349413      62.30600587      88.13424044
C      79.95543144      64.05778216      85.27697425
H      80.12550681      62.48364015      83.95794528
C      77.62728862      63.49653344      86.79631421
H      77.14918787      65.29366316      87.68070612
H      78.02224142      61.95640650      88.10778427
H      76.01346235      63.10913955      85.57555101
C      79.45087452      66.53332364      83.75196512
H      77.77657700      66.47474211      82.55009918
H      81.00800900      67.26464771      82.62190878
H      79.30158614      68.03376633      85.15414204
C      87.05135375      65.48641525      86.74529160
O      87.33670242      67.71818203      86.40325113
N      88.77856360      64.03510544      87.82054587
H      88.59148069      62.16805584      87.46527732
C      90.88749816      64.96107133      89.28697349
H      90.43585357      66.49930855      90.57954628
C      91.77566953      62.75954018      90.93481483
H      93.80901504      62.83701896      91.25228885
H      91.50732839      60.99453580      89.90491399
C      90.35459534      62.75387101      93.51240152
H      88.37794162      62.31167505      93.13823571
H      90.24310149      64.56611854      94.48183112
C      91.59425580      60.72808440      95.36622304
H      93.38193689      61.50854136      96.02762725
H      91.73031610      59.18606773      94.01128927
N      89.97287063      59.69062466      97.40712745
H      88.99210267      58.10325454      97.00839520
C      89.41918082      60.75454056      99.55763600
N      90.22609395      62.92205664     100.26061419
H      89.92373774      63.28299438     102.10876652
H      91.45441606      63.93494996      99.20614690
N      87.98298882      59.53188764     101.13366774
H      87.68819151      60.27455009     102.86843650
H      87.18741404      57.83302369     100.78217865
C      93.13060330      65.90971394      87.75818490
O      94.55356721      67.34968539      88.79375492
N      93.28934031      65.19917685      85.20705438
H      92.32557989      63.68172663      84.56643716
C      94.77277546      66.56733870      83.32110752
H      96.09558388      67.93739028      84.10534394
C      96.38660173      64.65115622      81.66570727
H      97.39571558      65.91349340      80.39203173
C      98.21585680      63.14126489      83.21150339
H      99.53677550      64.22785752      84.36045699
H      99.31000834      61.99798048      81.89058470
H      96.97997579      61.94317841      84.34155973
C      94.85781315      62.88237239      80.06321935
H      93.59925542      64.03699518      78.90859658
H      93.59736569      61.87892772      81.34634352
C      96.11826060      60.82257071      78.33411978
H      97.41839230      61.75987497      77.03965725
H      94.68206860      59.90794317      77.17571755
H      97.08957992      59.52432873      79.60212613
C      93.23453824      68.23974649      81.71295042
O      94.38160211      70.14459061      80.82099960
N      90.83269610      67.77676354      81.18760651
H      89.94641446      66.31222565      82.02853472
C      89.25666435      69.25452952      79.46795556
H      90.52278098      69.50397340      77.86357792
C      86.94930853      67.69928477      78.69505750
H      85.64539737      67.85991150      80.28053788
H      87.61827164      65.80010982      78.25664100
C      85.48666036      68.78587739      76.41037839
O      86.54112764      69.16004320      74.33167945
O      83.21331960      68.85390754      76.70706542
C      88.72376153      71.95494842      80.52998175
O      88.52345054      73.70672471      79.00308289
N      88.49699438      72.38958548      83.01308213
H      88.19463817      70.87213524      84.12802065
C      87.98865800      74.87457557      84.28108848
H      88.28912448      76.41281279      82.94316225
C      85.16351716      74.87646530      85.15225231
H      84.78935135      73.04343078      86.01207779
H      83.93897451      74.80654542      83.49874179
C      84.09960125      77.06476837      86.69048953
H      84.97832398      77.35578623      88.53108296
H      82.20420575      76.40714361      87.16103138
C      83.90873889      79.50440504      85.21272356
O      84.65518078      79.78219481      82.94316225
O      82.67852706      81.21271764      86.29931619
C      89.80657471      75.32433043      86.53364225
O      90.33569808      77.55987667      87.31598894
N      90.94418995      73.33822808      87.69204448
H      90.48498646      71.59779015      87.05331698
C      92.68084843      73.67837882      89.85200165
H      94.17373222      75.01252559      89.36634199
H      93.47453348      71.88880801      90.49450860
C      91.24843589      74.93693654      92.07054035
O      88.99966157      75.54164896      91.85511155
N      92.66195117      75.48873663      93.99617146
H      94.56490557      75.34511742      93.96215638
C      91.56024073      76.40903334      96.28840948
H      89.53823357      76.79642723      96.27518139
C      92.20274768      74.43993853      98.41057213
H      94.24176237      74.14136176      98.40112349
H      91.37693728      72.65603689      97.80208025
C      91.60559416      75.61912775     101.09587322
H      92.77344502      77.23106429     101.62688631
C      88.83336566      76.27108333     101.04296088
H      88.42140532      76.86067793     102.97237145
H      87.72976549      74.54954265     100.80296564
H      88.18141008      77.77719520      99.79763124
C      92.30479290      73.68782746     102.97426117
H      94.34380759      73.39869932     102.91001048
H      91.31457631      71.94549980     102.50749877
H      91.80401542      74.36057001     104.85831831
C      92.62604637      79.21338719      96.69848009
O      94.78222409      79.66692151      96.86099655
N      90.94041050      81.05776008      97.13311714
H      89.19430339      80.44359902      96.67769310
C      91.43362907      83.68447964      98.38222623
H      93.37626772      83.97738723      98.99827701
C      90.95930776      85.93514368      96.54541225
H      90.84025500      87.64912546      97.68113777
H      89.07903008      85.66491283      95.75172720
C      92.93596148      86.16758003      94.37411672
H      93.54256363      84.32131741      93.68814607
H      94.69907613      86.98016234      95.06197710
C      91.62638115      87.72849396      92.15179858
H      93.11170603      88.33698583      90.86300523
H      90.73065088      89.47460107      92.78107744
N      89.70641922      86.12600604      90.80631344
H      88.52911972      84.96193464      91.75495605
C      89.55713084      85.75939913      88.27219046
N      90.62671593      87.22393704      86.71883543
H      90.48309673      86.91024246      84.84044747
H      90.97820502      88.97760306      87.38590882
N      88.39305943      83.82053994      87.25551770
H      88.10960048      83.71660499      85.36957084
H      88.07747513      82.25395683      88.29675690
C      89.64594797      83.69203855     100.61588273
O      87.52567505      82.83977198     100.29084981
N      90.38105151      84.77107227     102.80607553
H      92.12148944      85.54774980     102.75694265
C      89.25855408      84.77674146     105.35720605
H      87.41607092      83.86589337     105.21925603
C      90.97442557      83.76195843     107.42456664
H      89.97287063      83.95471052     109.21602718
H      92.63549500      84.97138327     107.56818584
C      91.49221058      80.93870732     106.85008984
H      90.75899677      80.29997982     105.03406285
C      94.20018839      80.20549351     106.98237068
H      95.03166797      80.48517300     108.84564083
H      95.20552279      81.41302862     105.64822390
H      94.50443432      78.24206786     106.44379868
C      90.27144738      79.37023448     108.98170112
H      91.29189959      79.81809961     110.71646988
H      90.41317686      77.36523485     108.52816681
H      88.25321968      79.76329755     109.08563607
C      88.10393130      87.34110007     106.17545755
O      86.63750368      87.29196717     107.92156466
N      88.57447315      89.43680654     104.84697995
H      89.84814869      89.15712706     103.45236193
C      86.94363935      91.73849320     104.90934092
H      85.45831446      91.45503424     106.30773839
C      88.78612250      93.91356819     105.50082525
H      89.79523635      94.59575938     103.83975582
H      90.12026928      93.33153248     106.95780424
C      87.55969012      96.34186650     106.64977885
H      86.39561872      96.05084865     108.32596609
H      86.37861118      97.26972211     105.23815329
C      89.49288014      98.42623461     107.37543375
H      88.28534503     100.07218624     107.64566462
H      90.98954338      98.83630523     106.02049999
C      90.88371871      97.92923660     109.91711565
H      92.07424629      96.25682880     109.73759165
H      89.37193766      97.43223857     111.22480625
N      92.29723399     100.09486295     110.86386853
H      91.21820027     101.66522552     110.72969796
H      93.80334586     100.30084312     109.70924575
H      92.81123955      99.84352936     112.68367497
C      85.36004870      92.15612271     102.52261658
O      86.13861594      91.43991644     100.48360189
N      83.18497371      93.34098110     102.72292757
H      82.49711333      93.83230995     104.43312989
C      81.41241043      93.91167846     100.61966219
H      80.48266508      92.16368162     100.04707511
C      79.36016765      95.75038215     101.59098151
H      80.14062462      97.62121120     101.94813978
C      77.37406530      96.36076375      99.44992160
H      76.57660079      94.71481214      98.50505844
H      78.36995106      97.35287007      97.94569945
H      75.81126164      97.55696052     100.06408265
C      77.94476264      94.59386966     103.89077843
H      79.28268887      94.22537302     105.41200812
H      77.09627553      92.82886527     103.25583039
C      75.76590820      96.11131989     105.16256424
H      76.42353296      98.03506126     105.49893553
H      75.06670947      95.32897318     106.93512752
H      74.06515452      96.05084865     104.00416201
C      82.79946954      95.09842658      98.37466733
O      84.28479442      96.81807753      98.61844202
N      82.12861670      94.11387917      96.22415878
H      81.06659051      92.52650906      96.21471015
C      83.17552508      94.88110805      93.73727895
H      84.21109510      96.65178160      93.92814131
C      85.02934659      92.90823378      92.66580413
H      86.58081189      92.98004339      94.01884817
H      85.73610423      93.35420919      90.78363673
C      84.21865400      90.23238133      92.32754312
C      83.84070874      89.25728254      89.90302426
H      84.02212247      90.55363479      88.33644115
C      83.33615181      86.64568078      89.46460776
H      83.04702369      85.94459231      87.56921227
C      83.21142988      84.96949355      91.49228409
O      82.58593047      82.51473907      91.20693542
H      82.92419148      81.91569582      89.52696873
C      83.86338546      85.82553956      93.95459748
H      84.13739577      84.57832020      95.54385731
C      84.29046360      88.48627421      94.27396123
H      84.67029859      89.27617980      96.11644438
C      81.06092133      95.34220127      91.87022936
O      78.89907443      94.85276215      92.53919247
N      81.55602963      96.44769116      89.70460300
H      83.37583607      96.33808704      89.13957483
C      79.71543620      96.84264396      87.80920751
H      77.86539414      96.32485895      88.55186995
C      79.72488483      99.56573959      87.04197863
H      78.33404626      99.54684232      85.52263867
H      81.54091182     100.17423145      86.28986755
C      78.88584635     101.14933023      89.17170018
H      79.98188761     100.75248770      90.87056414
H      76.92242071     100.63721440      89.52318928
C      79.08426761     103.94423545      88.86178507
H      77.90507839     104.78705338      90.32632296
H      78.51734972     104.28816563      86.91158751
C      81.67886184     105.24814661      89.29642212
H      83.13584083     104.27304783      88.21360894
H      82.43853182     104.98169520      91.19181761
N      81.59571388     108.05250046      88.58210557
H      81.04580352     108.40021010      86.78686557
H      83.23410659     109.01248143      88.76351930
H      80.35227397     108.85374441      89.78964069
C      80.12550681      95.17023617      85.66058869
O      82.17774958      94.38977922      84.81210158
N      77.93531401      94.35954360      84.73651252
H      76.28369321      94.63355390      85.65680924
C      77.89185031      92.80618856      82.38758272
H      79.43764643      91.44747535      82.47262040
C      75.21788757      91.48149041      82.37624436
H      73.83082846      92.93846941      82.82410950
H      75.13096016      90.09821075      83.89936377
C      74.52057856      90.20025598      79.86101864
O      75.44465473      87.94959194      79.51897817
O      73.41886812      91.35109929      78.17349304
C      78.17908871      94.57308267      80.11991114
O      77.86161469      96.92768164      80.38447283
N      78.71388125      93.40901125      77.94861561
H      78.89529498      91.51361576      77.81444504
C      79.02946555      94.92268203      75.65448786
H      80.50156235      96.30785142      76.04566121
C      80.31825889      93.43168798      73.53610467
H      80.46943700      94.72426076      71.93928593
C      83.09237712      92.86288036      74.27687738
H      84.22810263      94.54095731      73.90271157
H      83.92763615      91.33409176      73.17516694
H      83.34560045      92.38855904      76.26486946
O      79.22599708      91.11299379      72.96351759
H      80.36550205      90.35332381      71.77299002
C      76.62384395      96.34564595      74.68883772
O      76.99612003      98.20891608      73.38114711
N      74.24656825      95.76738970      75.39748509
H      73.87429217      94.14600452      76.33289961
C      71.95055078      97.20358169      75.04788572
H      72.35495221      98.19001882      73.28477107
C      69.67343057      95.42534923      74.79466239
H      67.89519811      96.46091925      74.86080281
H      69.64130522      94.08742301      76.36124551
C      69.25769078      93.94002434      72.33423873
H      67.91031592      92.41312548      72.64037440
H      71.04915133      93.08208860      71.78621810
C      68.19566459      95.50660747      70.20829663
O      69.22745516      97.61554202      69.65838627
O      66.30593828      94.89622587      69.07257112
C      71.44410413      99.21236076      77.20406344
O      69.67532030     100.68634728      77.28343195
N      73.30548455      99.29928818      78.98607535
H      74.83427313      98.15978320      78.96339864
C      73.46800101     101.06996172      81.06477430
H      72.54581457     102.84252500      80.56021737
H      75.44087528     101.32696451      81.59389767
C      72.27369398      99.98336910      83.48362398
O      72.64785979     101.20791175      85.46216743
N      71.12096093      97.79695575      83.40992465
H      70.93009857      96.94846863      81.71295042
C      69.66776139      96.87098986      85.59444827
H      68.49613108      98.28261541      86.52986280
C      67.59851108      94.97181491      84.64580566
H      66.22468005      94.55229567      86.11979219
H      68.54148451      93.21625918      84.12424120
C      66.02247934      95.68613147      82.34978819
C      65.20989702      93.93057572      80.65848314
H      65.94311083      92.03518023      80.83233796
C      63.58662212      94.62221555      78.61001982
H      63.16899260      93.19736190      77.21162235
C      62.98568915      97.15633854      78.25286154
O      61.80461020      97.93301605      76.11747081
H      61.36619370      99.69424097      76.11369136
C      63.80394064      98.94590935      80.04054264
H      63.68866734     100.95468843      79.68905354
C      65.19666894      98.15411402      82.18349228
H      65.62752654      99.50715806      83.64991989
C      71.30237465      95.84675820      87.72416983
O      73.42264758      94.95480738      87.34811429
N      70.34995259      95.94313424      90.05042292
H      68.46967491      96.05651782      90.37356612
C      71.89952817      95.16078755      92.13101159
H      73.77413667      95.84864792      91.62456494
C      71.12474038      96.48170624      94.56875853
H      72.03558846      95.57652733      96.17691562
H      69.09895377      96.13210688      94.72938527
C      71.82204939      99.23692721      94.53474346
C      69.99279432     101.05484392      93.92058241
H      68.08983992     100.57485343      93.36311314
C      70.66931634     103.59085663      94.00373036
H      69.34650792     105.09318905      93.60310839
C      73.08249684     104.48847663      94.58954552
O      73.65697364     106.92055439      94.68781129
H      72.26046589     108.03549292      94.37978590
C      74.94765671     102.64221403      95.10733053
H      76.74289671     103.33007439      95.78763200
C      74.36184155     100.00226636      95.12055861
H      75.83015890      98.58686135      95.16780177
C      72.13196450      92.21281450      92.28407942
O      70.43499028      90.83520402      91.59054986
N      74.24656825      91.29818696      93.11177954
H      75.57504585      92.59831866      93.55208577
C      74.99867932      88.64501121      93.26295765
H      73.26013111      87.67936108      93.79775020
C      75.84716644      87.61888984      90.64001753
H      77.44776462      88.83965303      90.21104965
C      76.43676105      84.69926267      90.62489972
H      77.37028584      84.20226465      88.85611589
H      74.80592724      83.50873510      91.03874978
H      77.82948934      84.29297152      92.08754788
O      73.77791612      87.55274941      88.89957959
H      72.81037625      88.90768318      89.61767559
C      76.96777414      88.22927144      95.41157647
O      78.33026681      89.96215045      96.11833411
N      76.86950837      85.94459231      96.62289103
H      75.73189313      84.63501199      95.82731626
C      78.51923944      85.18870180      98.75450231
H      80.18597805      86.39812663      98.79229684
C      77.21721801      85.76506831     101.26594858
H      76.30070075      87.60944120     101.27917667
C      75.05159166      83.95282079     101.85554319
H      75.79614383      82.04041775     102.03506719
H      73.83460791      83.92069543     100.19258404
H      73.68342981      84.58020993     103.26149957
C      79.07481898      85.66113338     103.54684824
H      79.97810816      83.84699611     103.89833734
H      78.01846197      85.85955463     105.30429372
C      81.01745763      87.64345628     103.91723460
H      82.61616609      87.03496440     105.06429847
H      80.04613830      89.34420995     104.55407237
H      81.82815022      88.04407826     102.06530282
C      79.29969641      82.46371645      98.55419133
O      78.11483801      80.93681759      97.33153840
N      81.32170357      81.74751018      99.85999221
H      82.34404550      83.19881999     100.56108067
C      82.35160441      79.09811389     100.26628337
H      80.99289119      77.88490959     101.22815406
H      84.10904988      79.23984336     101.33397873
C      82.91852230      78.04931579      97.56775419
O      84.12227796      79.28897625      96.06731150
N      82.04546874      75.81565928      96.85532737
H      81.13273093      74.77819953      98.17246661
C      82.34593523      74.72150774      94.31175575
H      83.92007725      75.58700239      93.30453163
C      83.34371072      71.97384569      94.63111950
H      81.65618512      71.02709280      95.34165659
C      83.90117998      71.02331335      91.86078072
H      84.73643901      69.14681513      92.01762801
H      84.95564726      72.52375604      90.92536620
H      82.27034617      70.90237086      90.60789218
C      85.49610899      71.29543394      96.46226430
H      84.97076508      71.83022648      98.38033650
H      87.20631130      72.37824711      96.08620876
C      86.32947829      68.54588216      96.66257529
H      87.66173535      68.26431293      95.11677916
H      84.65896023      67.33834705      96.63611912
H      87.37071749      68.33423280      98.42757966
C      79.84015814      75.06921739      92.87178430
O      78.30570037      73.34578699      92.69603976
N      79.55669919      77.25374100      91.72283070
H      80.88706651      78.57276997      92.07998898
C      77.63673725      77.84522535      89.97672359
H      77.74634138      76.58288816      88.35344869
H      78.01279279      79.74440028      89.26996595
C      74.77191216      77.75073903      90.96316073
O      72.96533381      77.06854782      89.58366052
N      74.54136555      78.59733642      93.35177479
H      76.03046989      78.84300083      94.51773592
C      71.97889667      78.96961250      94.57064826
H      70.80159718      77.50696434      93.72594060
C      72.22456109      78.51985763      97.39956855
H      73.37729415      79.90502702      98.39734404
H      72.80281735      76.56210117      97.66790968
C      69.57138535      78.57276997      98.76017149
N      68.22590022      76.42415116      99.42535516
H      68.67376535      74.64780842      98.89623179
C      66.01681016      77.16681359     100.31730598
H      64.78659833      75.68148872     100.97871019
N      66.01492043      79.64235507     100.55352176
H      64.69400174      80.62879220     101.52106164
C      68.22401049      80.60044631      99.53306956
H      68.60762493      82.52985687      98.98693865
C      70.99056981      81.62656770      93.97538447
O      72.22456109      83.43881522      94.78418733
N      68.87218662      81.79286360      92.76595963
H      68.05204540      80.22250105      92.05920199
C      67.68165904      84.24005919      92.05920199
H      69.25769078      85.43814566      91.48850464
C      66.05271496      83.74117143      89.57610161
H      64.90754081      82.08199174      90.00129003
H      67.18466102      82.84166172      88.10967399
C      64.37085854      85.76506831      88.21927812
H      62.91954873      84.74461611      87.17048002
C      62.80427542      87.42613775      89.95215715
H      63.96456738      88.84721194      90.89135113
H      61.78004376      86.22427181      91.27307584
H      61.42855467      88.38989817      88.75973985
C      66.04137660      87.64534600      86.68104090
H      66.75380342      86.75150546      84.96705914
H      67.56260628      88.31997829      87.89424519
H      64.91509972      89.27051063      86.10278465
C      66.39097597      85.37389497      94.27207150
O      65.07572645      84.11911670      95.79519091
N      66.95600413      87.78518575      94.90512982
H      68.11818582      88.61477559      93.63901319
C      65.82405807      89.26673118      96.92902670
H      65.04927028      87.95148167      98.31230636
C      67.79693234      90.87299855      98.10443646
H      67.03348291      91.95770144      99.68235793
H      68.52636670      92.00872406      96.55108143
C      69.96444842      89.47271134      99.32708939
H      70.71278004      87.91746658      98.20459196
C      72.06582408      91.48715959      99.86944084
H      73.49634690      91.61377126      98.39356459
H      72.79525844      91.20936982     101.77428496
H      71.32505137      93.39767289     100.08864909
C      69.11407158      88.32186803     101.89522745
H      68.10495773      89.61444081     103.14244681
H      70.71844922      87.58109531     102.95347418
H      67.86307276      86.70048284     101.67790892
C      63.39387003      90.79929922      96.01817861
O      61.27170738      90.39489778      96.83643011
N      63.87386052      92.79107076      94.59899415
H      65.69555668      93.16145710      94.17380573
C      61.76114650      94.66567926      93.94514885
H      60.13220242      93.56207908      93.33665698
C      61.47012865      96.49115488      96.15612863