 %block lattice_cart
   142.669   0.000   0.000
   0.000 146.65   0.000
   0.000   0.000   162.396
 %endblock lattice_cart

 %block positions_abs
N      99.15883023      43.36811362      81.13941848
H     100.95407023      43.74983835      80.61596431
H      98.36703491      42.11144562      79.94133200
H      99.35725149      42.51584705      82.83450300
C      97.55823204      45.50161463      81.32650140
H      98.58057398      46.84898949      82.50380089
C      96.97619634      46.69970111      78.75647360
H      96.20329828      45.25406048      77.50925424
H      98.86781238      47.06441829      78.02892898
C      95.51732763      49.24705218      78.71867908
H      93.48965129      48.88422473      78.73946607
H      95.90283179      50.22026123      76.94611581
S      95.73653588      51.64511487      81.22634590
C      99.07757200      52.04951630      81.34350894
H     100.01298652      50.37332907      82.08617137
H      99.39504602      53.57830489      82.68899407
H      99.77110156      52.37454923      79.43110591
C      95.12048510      44.69848095      82.77403175
O      94.16806304      42.54608267      82.31860771
N      93.97531095      46.55419218      84.12140662
H      94.77655491      48.27384313      84.33683541
C      91.56213045      46.26884352      85.46500202
H      90.29979328      45.03296251      84.40486556
C      92.39361003      45.06130840      88.08605242
H      93.90161163      46.08931951      89.03847448
H      93.10603685      43.14701564      87.81393182
C      90.35270561      44.92524810      90.09105203
O      89.94074528      46.68080386      91.64818651
N      88.89005745      42.99772726      90.15341301
H      87.37638667      43.14890537      91.30614605
H      88.85037319      41.72405173      88.73233881
C      90.21097614      48.72170827      85.64452601
O      91.37315782      50.65867774      85.73712260
N      87.73543467      48.62344250      85.72200480
H      87.00222086      46.86410730      85.63507739
C      85.97798920      50.77395104      85.94499251
H      86.21420499      51.86243340      84.21400321
C      83.22843741      49.89900777      86.13396514
H      82.89584558      48.99004941      84.31415870
C      82.77301337      47.97526637      88.22967162
H      80.80769801      47.35921559      88.23345106
H      82.92986065      48.64422949      90.17231026
H      84.16007248      46.47482368      87.96510994
C      81.16107683      52.04573685      86.38529873
H      81.55225017      53.41956788      87.86873389
H      79.25623270      51.32953059      86.68954468
C      80.96832474      53.38555281      83.80015314
H      80.52423906      51.97392725      82.36585086
H      82.76356474      54.30962897      83.38819281
H      79.50000740      54.82552426      83.90030864
C      86.44475160      52.73737668      88.07282434
O      86.46175913      55.03717360      87.61929001
N      87.03623593      51.99282451      90.39907743
H      87.06647155      50.12955437      90.80536858
C      87.63716890      53.75782889      92.52312980
H      86.26144814      55.28283802      92.67241817
C      87.56913875      52.39722594      95.06481168
H      88.24188132      53.61231996      96.58604138
H      89.03934582      50.95725450      94.95898701
C      85.06714111      51.16323466      95.68086246
C      84.53612802      48.61399387      95.29346857
H      85.95531248      47.34976697      94.55269585
C      82.10971944      47.59165193      95.69975974
H      81.61461114      45.63011602      95.44653641
C      80.13306571      49.18280149      96.55769548
H      78.25278803      48.46281576      96.89595648
C      80.70565278      51.75660872      97.08681885
H      79.33938066      53.16256510      97.65562647
C      83.10560520      52.68635407      96.65974070
H      83.52512444      54.59497765      97.24366613
C      90.16940216      55.06929896      92.16786125
O      90.38294123      57.38610341      92.46265855
N      91.88527365      53.70302683      91.00378985
H      91.46575441      51.84731559      90.86206036
C      94.22097538      54.64600026      89.95121228
H      95.32268582      55.87243263      91.18142411
C      96.10503251      52.38399786      89.25201355
H      97.91539032      53.24760278      88.78903060
H      95.52488653      51.13677849      87.71944551
C      96.58502299      50.64922910      91.56125911
H      94.76332683      49.79318308      91.99022698
H      97.05934430      51.62621761      93.31303540
C      98.65049385      48.63289113      91.08693780
O     100.80478185      49.36988439      90.78836105
O      97.98908964      46.40490381      91.22866727
C      94.02444384      56.22959091      87.53047288
O      95.54378379      58.01727200      87.37551533
N      92.20085795      55.71180590      85.79003495
H      91.22953862      54.09420017      86.06782472
C      91.86259694      57.21980749      83.46000241
H      93.55390199      57.12532118      82.28648237
C      89.81980279      55.82896893      81.91609601
H      88.01700389      56.16911966      82.85151053
H      89.88405349      53.77672615      82.08239192
C      89.59303563      56.46013753      79.15142640
H      91.28056123      55.78361551      78.18577627
H      89.68374250      58.49159330      78.82639349
S      86.69230574      55.62109904      77.34673778
C      84.21676427      57.79239457      78.62230304
H      82.45931880      57.46358220      77.59618166
H      84.79691025      59.75959966      78.82072430
H      83.90306971      57.19902052      80.56872115
C      91.26733315      60.04494834      83.98534632
O      92.38416140      61.76459928      82.85717970
N      89.45697534      60.44934976      85.65019520
H      88.64439303      58.97347351      86.55159464
C      88.27778612      62.97402412      85.89774934
H      87.91495867      63.76581944      84.03258948
C      85.70964806      62.81906656      87.21110914
H      85.11816373      64.70312369      87.79314483
H      85.80602410      61.71924585      88.94965734
C      83.57992651      61.44901498      85.70877671
H      84.21865400      59.59897292      85.06626977
C      81.29335767      61.07484917      87.35472834
H      81.89995981      59.75204075      88.81170732
H      79.70409784      59.96180038      86.66119878
H      80.40896575      62.81906656      88.00101474
C      82.79191063      63.04016454      83.38819281
H      81.09682613      62.37120142      82.42821184
H      84.42652389      62.97780357      82.13908370
H      82.51223114      65.00925936      83.92865453
C      90.14483572      64.90154496      87.14685844
O      90.14861517      67.15787818      86.56860219
N      91.92684763      63.91132837      88.60005797
H      91.95708325      62.04427877      88.99312105
C      93.99798767      65.37208681      89.76979857
H      93.27800194      66.98024390      90.83938366
C      95.58913723      63.60330298      91.40063237
H      97.02721895      64.84863262      92.19053797
H      96.74753946      62.28238429      90.32726783
C      94.10948152      62.54316652      93.73444437
H      92.48809635      61.55672938      92.93509013
H      93.43484923      64.16077225      94.81914726
C      95.53433516      60.65910939      95.43141859
H      96.87226139      61.82129107      96.48210643
H      96.55667710      59.65377499      93.95176290
N      93.90917053      59.14543861      96.95831746
H      93.19674371      57.55995823      96.16652214
C      92.46919908      59.88243187      98.84993350
N      92.07046683      62.26159730      99.60960348
H      90.66828991      62.50915145     100.87949955
H      93.04556561      63.67700231      98.77623417
N      91.13316258      58.14577339      99.97998982
H      90.00499597      58.73347827     101.40673320
H      91.36559892      56.30140051      99.56047058
C      95.87259617      66.21679448      87.64385645
O      96.82123878      68.43722289      87.78747566
N      96.16550375      64.78060247      85.48011983
H      95.46063584      63.02504673      85.23256568
C      97.92672867      65.49113958      83.39386199
H      99.25142682      66.83284525      84.22534155
C      99.58968783      63.31795431      82.47545500
H     100.90493734      63.81495233      80.96934312
C     101.38870728      62.43167267      84.75068548
H     102.67939035      63.96613043      85.22500677
H     102.63592665      60.86131010      84.28392307
H     100.22085642      61.79672462      86.32293777
C      97.96641293      61.07862863      81.60618089
H      96.62470725      61.82129107      80.23234985
H      96.99509360      60.29628193      83.24646333
C      99.03788775      58.89599473      80.06794367
H      97.73208686      57.31051436      79.90164775
H     100.60825031      58.31395903      81.26603016
H      99.70496114      59.52905305      78.22546052
C      96.61147916      66.93678020      81.24146371
O      97.75665331      68.14620504      79.61629909
N      94.05090001      66.73646921      81.34161921
H      93.38004717      65.39854299      82.52458788
C      92.35392578      67.86274610      79.57661483
H      93.27233277      68.08384408      77.74735975
C      90.21853504      66.03727047      79.11552160
H      88.71053345      66.28671435      80.49691155
H      90.72687142      64.04171948      79.19677984
C      88.79935058      66.65710071      76.68722329
O      90.06357749      66.46623834      74.71056957
O      86.59026052      67.51503646      76.76848152
C      91.25788452      70.37419236      80.44399921
O      90.84403445      71.90487067      78.76592224
N      90.77600431      70.84851366      82.92143040
H      90.92718241      69.30082781      84.03069974
C      89.98042953      73.39019556      83.96266961
H      89.86515622      74.73001152      82.40553511
C      87.18552431      73.02925784      84.76391356
H      86.94741880      71.57038912      86.19821583
H      85.97420975      72.35840500      83.23890443
C      85.98932756      75.17220747      86.32104803
H      87.28190035      75.98667951      87.70243798
H      84.50400267      74.47867791      87.57015714
C      84.88950684      77.29437013      84.74501629
O      82.73332912      78.04459146      85.26469103
O      86.31813993      78.44521345      83.17465373
C      91.69819075      74.31994091      86.14719322
O      92.38038195      76.52147206      86.15286239
N      92.64683336      72.63241530      87.70054824
H      92.12904835      70.79749105      87.61173111
C      94.30412333      73.45822570      89.86239514
H      95.43228994      75.15142048      89.53925195
H      95.65716737      71.98423919      90.35183427
C      92.90950531      74.23301349      92.31337018
O      90.60781866      74.22923404      92.29069347
N      94.25688018      75.04370608      94.29569309
H      96.15605512      75.03614717      94.09349237
C      93.19107453      75.68999249      96.81847770
H      91.13883176      75.84683976      96.73155030
C      93.67295474      73.53381476      98.61182798
H      95.69496190      73.15586949      98.74977800
H      92.89438750      72.02770288      97.44019766
C      92.23109357      73.37696747     101.18752495
H      90.24688094      73.63585998     100.69052693
C      92.77533475      70.74457872     102.21931552
H      94.73309121      70.55938554     102.83536628
H      92.36337441      69.14587026     100.98343450
H      91.75110308      70.43466360     103.97865071
C      93.00966081      75.55204246     103.01489029
H      95.06379331      75.48968149     103.12827387
H      91.92306818      75.09283896     104.70619533
H      92.34825660      77.39641535     102.37994224
C      94.21908565      78.36773467      97.73877443
O      96.45085242      78.74567993      97.47988191
N      92.59959020      80.06470889      98.50222386
H      90.76466595      79.62251295      98.22065464
C      93.47453348      82.47788940      99.75511239
H      95.50032009      82.41930788     100.13116794
C      92.60525938      84.50178629      97.85026827
H      92.85848270      86.36316669      98.69686566
H      90.59648031      84.26368077      97.45720521
C      94.24932127      84.26934994      95.45787477
H      93.93751643      82.34938801      94.77757329
H      96.19007019      84.79469385      95.90573990
C      93.27800194      86.08726666      93.52090530
H      91.29000986      85.64696043      93.21287990
H      94.24554182      85.39562682      91.83904888
N      93.99798767      88.66863280      94.10672045
H      94.84836451      89.05980615      95.76967960
C      93.76744106      90.54135157      92.44187157
N      92.93974093      90.31458441      90.12317738
H      92.62415664      91.87171890      89.07059983
H      92.37849222      88.62516909      89.43153756
N      94.48553706      92.79957452      93.02768672
H      94.41183773      94.23198706      91.76912900
H      94.90694603      93.16996087      94.85316235
C      92.13849698      82.76323808     102.27033812
O      89.91995829      82.06781878     102.48198747
N      93.58980679      83.84605125     104.11282128
H      95.34347281      84.34304927     103.55346228
C      92.96808683      84.42997668     106.80001209
H      91.49599003      83.15441141     107.47086494
C      95.36425979      84.14651774     108.43651508
H      95.28867074      85.42964191     110.04845163
H      97.02721895      84.53958080     107.28945121
C      95.53433516      81.38373787     109.45318783
H      93.77122051      81.00768232     110.45096333
C      95.81023520      78.98567518     107.85069993
H      97.60169575      79.14630191     106.84536553
H      94.29278498      79.17842726     106.46930998
H      95.60047558      77.23578861     108.91272611
C      97.78499920      81.34027416     111.29000182
H      98.23475406      79.41086359     111.84936081
H      97.42217175      82.41552843     113.00965275
H      99.25898573      82.22655579     110.15427630
C      91.58858662      87.01134282     107.21575189
O      89.62705071      87.13984422     108.55934730
N      92.35203605      88.91429722     105.73609618
H      93.97531095      88.60816156     104.77800494
C      91.32213521      91.42007431     105.76255235
H      90.40372822      91.70353325     107.58424852
C      93.26288413      93.58570066     105.49988039
H      92.37660249      95.36015367     104.94430085
H      94.63671516      93.25877801     103.99754798
C      94.98820426      94.05624252     107.90739172
H      95.68929272      92.28178951     108.68406923
H      93.82035340      94.90472963     109.37381934
C      97.14438198      95.87037978     107.28378202
H      96.54155929      97.50499304     106.18585104
H      98.72230345      94.98976731     106.29545516
C      98.08735541      97.15161421     109.81034611
H      98.38404244      95.68518660     111.22764084
H      96.43762434      98.21553013     110.43206607
N     100.22085642      98.89394189     109.32090700
H     101.08824080      99.44574196     110.92717437
H      99.73141730     100.33013388     108.16250476
H     101.66649705      98.01332941     108.43462536
C      89.19808284      91.83203464     103.76889109
O      89.38516574      90.93630437     101.61838255
N      87.30835652      93.29846226     104.44919255
H      87.28756953      93.85593152     106.27466818
C      85.06903084      93.87482879     102.92796287
H      84.30558141      92.15328812     102.09270385
C      83.12450247      95.08992281     104.81202002
H      83.11127438      93.91829250     106.50710452
C      84.06747590      97.80356979     105.26555433
H      82.84671270      98.62182129     106.70741551
H      83.86905463      98.98086929     103.58747737
H      86.01767345      97.91884311     105.92506882
C      80.45809864      95.09937145     103.63283079
H      80.04991775      93.10382046     103.94463563
H      80.23322121      95.79101127     101.70530995
C      78.57215178      96.49398946     105.34114338
H      76.63707203      95.99321198     104.84036590
H      78.70443262      98.48387127     104.82713782
H      78.57593123      95.91384349     107.31968682
C      85.90995905      95.29779271     100.53178991
O      87.58047711      96.99854638     100.69052693
N      84.84604314      94.50032820      98.30380260
H      83.50811691      93.14161498      98.38506083
C      85.77389876      95.28078516      95.87739401
H      86.73765918      97.10248133      95.90573990
C      87.98865799      93.42318420      95.42008024
H      89.19808284      93.14350470      97.06414212
H      89.30957669      94.31513502      94.11427936
C      87.13828115      90.77945709      94.49978352
C      86.99277223      90.30135634      91.90329956
H      87.53134423      91.77345314      90.59371924
C      86.19152827      88.03179503      90.93198025
H      86.08381387      87.68597511      88.92320118
C      85.84570836      85.92475020      92.53068871
O      84.98777261      83.60605600      91.71999612
H      84.43408280      83.46810598      89.99656572
C      86.33325774      86.19120161      95.13284183
H      86.26522760      84.52824244      96.31770023
C      86.75277699      88.71398623      96.14006596
H      86.68663657      88.94642257      98.16774230
C      83.69897926      95.32046942      93.82704096
O      81.84137830      93.92396167      93.63806833
N      84.29802251      96.85303746      91.84471806
H      85.94019467      97.82246706      91.84093860
C      82.62183527      97.11004024      89.70365814
H      80.63762264      96.88516280      90.20632534
C      82.55947430      99.79345161      88.50746138
H      81.75634061      99.57235363      86.62340425
H      84.46053897     100.39249484      87.99723528
C      81.33871110     101.74742861      90.21766369
H      82.41018592     101.89104782      91.97132971
H      79.37528546     101.36570389      90.70710282
C      81.47666112     104.42706053      88.99879022
H      80.17274996     104.53477492      87.40953039
H      83.43063813     104.75398318      88.43565179
C      80.77935211     106.63048140      90.82237611
H      82.12672697     106.83268212      92.36817225
H      78.93497923     106.29788957      91.68220159
N      80.95131721     109.02476465      89.42019920
H      82.62561472     109.08334616      88.50557166
H      80.60549729     110.53087651      90.54080690
H      79.53591220     109.09468452      88.14274421
C      83.06781068      95.26566736      87.75157086
O      85.25233429      94.71575701      87.17331461
N      81.12706175      94.32836310      86.53458711
H      79.45087451      94.75355153      87.33961053
C      81.04013434      92.56335874      84.33305595
H      82.43286263      91.07803384      84.64864026
C      78.41530449      91.41251540      84.38218885
H      76.98289195      92.85248685      84.03825865
H      77.98066744      90.34482005      86.09050143
C      78.26034694      89.43397196      82.22601112
O      76.70132273      89.79301996      80.49313209
O      79.74945127      87.55936346      82.27514401
C      81.45776386      94.14128020      81.75168981
O      81.25178369      96.43351823      81.80271243
N      81.96043106      92.85815604      79.61440935
H      82.14940369      90.95898109      79.61251963
C      82.13050642      94.27734050      77.26925901
H      83.43630731      95.86849005      77.29949462
C      82.95253737      92.62949915      75.01292578
H      83.13584082      93.68585616      73.25359059
C      85.57547749      91.70542298      75.69889643
H      85.53390351      90.67930159      77.48468780
H      87.02489758      93.16618142      75.62897657
H      85.90428987      90.56591801      74.01326056
O      81.44075632      90.25033372      74.93355727
H      82.11916807      89.06925477      73.73547079
C      79.63984714      95.67573796      76.39053627
O      79.74945127      97.46152933      74.92788810
N      77.43264681      95.22220365      77.52059260
H      77.25690226      93.64806164      78.58639824
C      75.14040879      96.72831552      77.04816103
H      75.32560197      97.64861225      75.21512649
C      72.69321322      95.20519612      77.05383020
H      71.20977806      96.63571893      77.06138910
H      72.82549406      94.22442817      78.86040855
C      72.46833579      93.45341982      74.78615863
H      71.77480623      91.55613461      75.20189842
H      74.25979633      93.12460745      73.82239821
C      70.79025882      94.52678438      72.63942954
O      71.64819457      96.27289149      71.28638549
O      68.57927903      93.49310407      72.32951442
C      74.91553136      98.96008230      78.94544623
O      72.99556943     100.47186336      78.87930582
N      76.73533780      99.12259876      80.70478144
H      78.38317915      98.16450753      80.60462595
C      76.57093161     100.84791888      82.92520985
H      75.54292050     102.52410613      82.30537963
H      78.38128942     101.68884709      83.42976678
C      75.29725608      99.83880504      85.40831024
O      75.62795818     101.03122235      87.32449271
N      74.10294905      97.61270744      85.46500202
H      73.75712913      96.55257098      83.91353671
C      72.78014063      96.61493194      87.71377634
H      71.76913705      98.23442740      88.48478467
C      70.75435402      94.60426315      87.06560021
H      69.43154560      93.94285894      88.49801275
H      71.85606446      92.98476769      86.43065216
C      69.05737979      95.28834407      84.92831975
C      68.55282287      93.52900887      83.03670371
H      69.46556067      91.70731272      82.92143040
C      66.91443015      94.11293431      81.11107259
H      66.76703150      93.22854240      79.27614834
C      65.75602792      96.53367371      80.98068148
O      64.96612232      97.45397042      78.78481951
H      64.00614136      98.96953093      79.03804282
C      65.98090535      98.12482328      83.07071878
H      65.09084426      99.95974752      83.10662358
C      67.73646110      97.55034647      85.00390880
H      68.03125840      98.92984669      86.47789532
C      74.67364639      95.85526197      89.77546774
O      76.61628504      94.76300016      89.27657999
N      74.10294905      96.37115725      92.18297907
H      72.70644130      97.56168482      92.70643326
C      75.83015890      95.66817907      94.31270062
H      77.75579001      96.00644008      93.67019368
C      75.25001292      97.29523341      96.66729961
H      76.14385347      96.39005452      98.28490533
H      73.22422631      97.33869713      97.05280378
C      76.20999389      99.95407834      96.54635712
C      74.59238816     102.08757934      96.43108381
H      72.55904265     101.94396015      96.51990095
C      75.57126639     104.56690027      96.41407628
H      74.34483402     106.19584435      96.35549477
C      78.19609624     104.98264006      96.39517901
O      79.33560121     107.22385546      96.24967008
H      78.17341953     108.60335567      96.42352490
C      79.88740129     102.89449249      96.45376053
H      81.89807009     103.24031240      96.35360504
C      78.87639771     100.42273047      96.73532976
H      80.21621367      98.88638298      96.84115443
C      75.42386774      92.82981015      94.86828016
O      73.28658728      91.74510724      95.04402470
N      77.53658176      91.64684148      95.38039599
H      79.07103952      92.78256698      95.38984462
C      77.98066744      88.90673831      95.28213021
H      76.27991376      87.77101280      95.54669190
C      79.08237788      88.13384025      92.80658874
H      80.98722201      88.82736981      92.45509965
C      79.21276900      85.19531584      92.25100921
H      80.23322121      84.98933566      90.47466647
H      77.39107283      84.26557049      92.01479342
H      80.36550205      84.07281840      93.53980255
O      77.50823586      89.16374110      90.86206036
H      78.00712361      90.90984821      90.85828091
C      79.73244373      88.21509848      97.49311001
O      81.03824462      89.82325557      98.47576768
N      79.89118074      85.78113099      98.23577245
H      78.68931481      84.62839794      97.30413738
C      81.38406453      84.61139041     100.27856658
H      82.99978053      85.88695566     100.30502276
C      80.01212323      84.76256851     102.80891013
H      79.07481898      86.59560304     102.85615327
C      77.78980508      82.97299770     103.20008347
H      77.20587965      82.97299770     105.17295774
H      78.31325927      81.03224876     102.75221834
H      76.14952264      83.62684300     102.13805727
C      81.92452626      84.88162127     105.02177964
H      82.95253737      83.09960935     104.91217550
H      81.05336243      84.76634796     106.88504977
C      83.98432794      86.93008460     105.29767968
H      85.49988844      86.66741264     103.92762810
H      84.85171232      86.66930236     107.14961146
H      82.94119901      88.70642732     105.25421597
C      82.26089754      81.93742768      99.63605965
O      80.94753775      80.51446376      98.29057450
N      84.30747114      81.20799332     100.91540435
H      85.60571311      82.36828528     101.70153050
C      85.10682537      78.54536895     101.11571535
H      83.52512444      77.47200439     101.88483396
H      86.78868179      78.23923328     102.26277921
C      85.52445488      77.50412975      98.51167248
O      86.95119825      78.44710317      96.99422226
N      84.60604789      75.11362596      98.06380735
H      83.55347034      74.21978541      99.38094659
C      84.58526091      74.13663745      95.41441106
H      86.27278650      74.86418209      94.48277598
C      84.91029383      71.27748155      95.14418019
H      83.22087851      70.40820744      95.94164470
C      85.14839935      70.31561085      92.46643801
H      83.57047788      71.05449383      91.37417620
H      85.23532676      68.25580916      92.45887910
H      86.94174962      71.09606781      91.82015162
C      87.23276747      70.48001704      96.79769072
H      86.89828591      70.91843354      98.78190335
H      88.79368140      71.77636928      96.43864272
C      88.51400191      67.81928238      96.55958520
H      89.73287538      67.65865565      98.21309573
H      89.80468498      67.88731254      94.95520756
H      87.23654692      66.20734584      96.46131944
C      82.21554411      75.21567118      94.06892593
O      80.31258971      74.04404086      94.25978829
N      82.54435649      77.26602422      92.58360104
H      84.01456356      78.41497782      92.98611275
C      80.73021923      78.28647643      90.87528846
H      80.55069523      76.99768309      89.27846971
H      81.32359329      80.11573150      90.14396437
C      78.02224142      78.84016625      91.85983587
O      76.22322197      78.84961487      90.54836581
N      77.66130369      79.11039711      94.26923691
H      78.99922992      79.25023685      95.62417068
C      75.09127591      78.98945463      95.32748365
H      73.84216682      77.83294212      94.16908141
C      74.97600260      77.81404485      97.97121076
H      76.12495620      78.86473269      99.31480616
H      75.82826917      75.95266445      97.73499496
C      72.40597482      77.85750856      99.23732739
N      70.81671499      75.76180208      99.76456103
H      71.05671023      73.97790044      99.13339244
C      68.70211124      76.74068031     100.73588036
H      67.25647061      75.58605754     101.59570583
N      68.90809141      79.22944986     100.93808108
H      67.37363365      80.27068906     101.38972566
C      71.25702122      80.00990684     100.01022546
H      71.89574871      81.94309685      99.88172407
C      74.01980109      81.69365297      95.21032062
O      75.21788757      83.45865735      96.27612626
N      71.79181377      82.22466607      94.35238487
H      70.72033895      80.73934120      93.81570260
C      70.70144168      84.76823770      94.04624921
H      72.28503233      86.00600843      93.60027379
C      68.89486333      84.66997192      91.68409132
H      67.85173440      82.91063672      91.44787553
H      70.41042383      84.85516510      90.29892193
C      66.99001920      86.95276130      91.22299810
H      65.61618818      86.80536266      92.75367640
C      68.42999066      89.53412746      91.13040151
H      69.51847301      89.63995213      89.38240466
H      69.74524017      89.70987199      92.70454352
H      67.23568363      91.21220442      91.14551932
C      65.73713066      86.92819486      88.51879974
H      64.84140039      88.78201637      88.40352644
H      64.29337976      85.45987752      88.56037373
H      67.10529251      86.66174345      87.00134952
C      69.28225722      85.58648919      96.54824684
O      67.97078716      84.05959032      97.83326074
N      69.59595179      88.01100805      97.17752570
H      70.78081019      89.07681368      96.13061734
C      68.46211600      89.12216711      99.40551304
H      68.00480223      87.52534839     100.62438650
C      70.60506564      90.50166732     100.64895294
H      69.93421280      91.78668121     102.11349083
H      71.41386850      91.68085654      99.16740752
C      72.81415570      88.93697393     101.67885379
H      73.52280307      87.79746897     100.11793986
C      74.93442862      90.87394341     102.51411282
H      75.60150201      92.18541347     101.07036192
H      76.56904189      89.96498505     103.37582801
H      74.33160593      92.01533810     104.11849045
C      71.98078640      87.50834084     104.00321716
H      70.72789785      85.94742691     103.51566777
H      70.84884034      88.82548009     105.10870705
H      73.55303869      86.61261057     104.98587484
C      66.13586291      90.90228931      98.99166297
O      64.16676809      90.73221394     100.07069670
N      66.53837462      92.68808067      97.29846819
H      68.17487760      92.72965465      96.31958997
C      64.66187639      94.72331590      96.46131944
H      62.85907748      93.80679864      96.07392555
C      64.24046742      96.75288197      98.60048962