 %block lattice_cart
   142.669   0.000   0.000
   0.000 146.65   0.000
   0.000   0.000   162.396
 %endblock lattice_cart

 %block positions_abs
N      93.75799243      40.78485774      82.56805157
H      95.49843037      40.32754399      81.92743436
H      92.50132443      39.49417467      81.93688299
H      93.71452873      40.65068718      84.47289570
C      93.07580123      43.40968759      81.95578026
H      93.98853904      44.68714259      83.29181675
C      93.59358624      44.05597400      79.19111065
H      92.50699361      42.64623816      78.15365091
H      95.63260093      43.98038494      78.90765171
C      92.84147517      46.69592166      78.50136055
H      90.80435020      47.00016759      78.43710985
H      93.40083416      47.10977171      76.56439109
S      94.19262948      49.22815492      80.47801427
C      93.98286986      51.60921008      78.05727487
H      92.13849698      51.60165117      77.13697816
H      95.55134270      51.31819221      76.75714317
H      94.13782742      53.48381858      78.89820307
C      90.20908642      43.38890061      82.42632210
O      89.01666911      41.50673321      81.92743436
N      89.26422326      45.57720368      83.32583182
H      90.45475084      46.95292443      83.90030863
C      86.56569408      45.92302360      83.62251886
H      85.55091105      44.66446586      82.34884332
C      85.66051518      44.90635083      86.24167952
H      86.05735771      42.90135122      86.50057204
H      83.66307447      45.38634133      86.40419600
C      87.02300785      46.06097361      88.47155657
O      86.48443585      48.17179791      89.26713136
N      88.93352115      44.86477686      89.24256492
H      90.01066515      45.70003589      90.57671170
H      89.46075480      43.22449441      88.42053397
C      85.70586861      48.67257537      83.25402222
O      87.18363459      50.43002085      82.83261326
N      83.17930453      49.18280148      83.37496472
H      82.07003519      47.64078482      83.57149624
C      81.87161392      51.64511488      83.05560096
H      82.54624622      52.40667457      81.26414042
C      79.07670871      51.37299429      83.06504960
H      78.97088403      50.01995025      81.51547403
C      78.13184555      50.18624616      85.45744311
H      76.14007402      49.68546869      85.31382390
H      78.34916408      51.47692923      87.04670293
H      79.28835805      48.54407400      85.90530824
C      77.51201532      53.74460081      82.55671322
H      77.44965435      54.90678248      84.25746691
H      75.65819381      53.10587331      81.92554463
C      78.52679835      55.44913394      80.39486632
H      80.00456433      56.71714029      81.06949861
H      76.98100223      56.65099987      79.75991827
H      79.13151077      54.37387967      78.74702497
C      82.83915380      53.60287134      85.00957797
O      83.25678331      55.86109427      84.47856487
N      83.06970041      52.83942190      87.52858314
H      83.06781068      50.99504902      88.01613253
C      84.15818276      54.59686738      89.30303616
H      83.12261274      56.37698955      89.22177792
C      83.90495944      53.53106173      92.09227219
H      84.26400744      55.06174004      93.42263951
H      85.15784798      51.90589710      92.27179620
C      81.29335767      52.51816842      92.76690448
C      79.52268412      54.07152346      93.95743207
H      79.71543620      56.09164089      94.17097114
C      77.22477692      53.09264522      94.72466095
H      75.96055002      54.27939335      95.80369468
C      76.61439532      50.54718388      94.25411909
H      74.81537587      49.75160910      94.80213972
C      78.35105380      48.83698157      93.07115042
H      78.15830172      46.80930523      93.17508538
C      80.68675552      49.92924337      92.42675375
H      82.06436601      48.82753293      91.40252209
C      86.91529345      55.35653735      88.94965734
O      87.54646204      57.40122122      89.73200403
N      88.32880873      53.56129735      87.93109485
H      87.80724427      51.80763133      87.38496395
C      90.97820503      54.08286182      87.14496870
H      91.77566953      55.05985032      88.77391278
C      92.25377029      51.48637786      86.94276799
H      91.80401542      50.79662776      85.05493140
H      91.44307770      50.08420093      88.21455381
C      95.11670565      51.62621760      87.25835229
H      95.29433992      52.32352662      89.18776285
H      96.06345853      52.88099587      85.93176442
C      96.36014556      48.95225487      87.00134951
O      98.61080960      48.73682607      87.52291396
O      95.09024948      47.12299981      86.46844669
C      91.15583930      55.68346001      84.71289094
O      92.62415664      57.59586302      84.53903612
N      89.65350688      55.03339415      82.64930981
H      88.46297930      53.54806926      82.81371599
C      89.31524587      56.78328072      80.51202935
H      90.94041050      56.94579717      79.25725107
C      87.08158937      55.72314425      78.84340102
H      85.38272541      55.73259289      80.01125187
H      87.52756478      53.74271108      78.49947083
C      86.47876667      57.03083487      76.39998489
H      87.76944975      56.45068889      74.90332165
H      86.70931328      59.06984956      76.58328834
S      83.28323948      56.09919978      75.20000869
C      83.76700942      56.90800266      71.88920819
H      84.01078411      58.95079680      71.81361913
H      82.40640647      56.07652307      70.58718676
H      85.57358777      56.14833268      71.25048068
C      88.70675400      59.64999554      81.04682189
O      89.90861993      61.29783688      79.89597857
N      86.88505783      60.29817166      82.61529473
H      85.97798920      58.81851595      83.40709007
C      86.10082141      62.90032480      83.35417772
H      85.81925219      63.93589481      81.59484252
C      83.59315459      63.11575360      84.77714163
H      83.03001615      65.04705388      85.21933759
H      83.68008200      61.99514588      86.50246176
C      81.26690150      61.85719586      83.42598732
H      81.88673173      60.07140449      82.60206665
C      78.98978130      61.43767662      85.33272117
H      79.52646357      60.02227161      86.72733919
H      77.26446117      60.85186146      84.36896075
H      78.63262302      63.11953304      86.46655696
C      80.35227397      63.43889678      81.23579452
H      81.73177418      63.87920302      79.77314637
H      79.33938066      65.15287856      81.76113845
H      79.03891418      62.17655962      80.27203410
C      88.26455804      64.23069211      84.70155259
O      88.49888410      66.49269451      84.28770252
N      89.74232402      62.84363301      86.19632609
H      89.10170680      61.10697452      86.65930904
C      92.13282780      63.86975438      87.54748041
H      91.53756401      65.78593688      88.01235309
C      92.61659774      62.13120618      89.83971843
H      94.34758704      62.47891583      90.89607544
H      92.60336965      60.23770042      89.03091556
C      90.56624469      62.28049456      91.85038722
H      88.79746086      61.44145608      91.20599055
H      90.33002890      64.28927364      92.23211194
C      91.41095235      61.04461355      94.33537732
H      89.78011854      61.24870399      95.57314806
H      93.08524986      61.96680000      95.10449593
N      92.01566477      58.35175356      93.93097589
H      90.58325223      57.47681028      93.02012781
C      94.13026852      56.94012799      94.17853005
N      96.23920308      57.94924185      95.05536305
H      97.60547521      56.62643343      95.22165896
H      96.47541887      59.83140925      95.27268158
N      94.05278974      54.55151394      93.60783269
H      95.54189407      53.48759802      94.15396361
H      92.46730936      53.62176860      93.09193741
C      94.34002814      64.33273734      85.69176917
O      96.11826060      65.47791149      86.47978504
N      93.96964178      63.88865166      83.24646333
H      92.57691349      62.65277065      82.83450299
C      95.41906186      64.67099835      81.16398492
H      97.08769020      65.71979645      81.76680763
C      96.34502775      62.32773771      79.70322648
H      94.60836927      61.33374167      79.21189764
C      98.00987664      63.04961316      77.45634190
H      99.77677074      63.99825578      77.93633238
H      96.91194565      64.24580993      76.18833555
H      98.55411781      61.33185196      76.46045613
C      98.18751091      60.66666829      81.32272194
H      98.05145062      60.99737040      83.35228800
H     100.15660573      61.04461355      80.85973899
C      97.59602657      57.78861511      80.74068623
H      97.98719992      57.43901575      78.75080443
H      95.71763862      57.14799790      81.28870686
H      99.03221857      56.76060399      81.80082269
C      93.97720068      66.33206777      79.33284012
O      95.20363306      67.95534267      78.07995159
N      91.45819551      66.29616298      79.19677984
H      90.48120701      64.90721414      80.06605393
C      90.00877543      67.87219472      77.38642203
H      91.01410983      67.80227484      75.58929230
C      87.39906339      66.45678971      76.56628080
H      86.16696183      66.77993292      78.18388653
H      87.81669290      64.47446681      76.19022527
C      86.36916255      67.58684605      74.22302017
O      87.71086823      67.47157275      72.28794043
O      84.13361632      68.40320782      74.20601264
C      89.70263976      70.65009241      78.27459340
O      89.57791783      72.32061047      76.68344383
N      89.74988292      70.99969177      80.74635542
H      89.70641922      69.45956483      81.87263229
C      89.84625896      73.39019556      82.11640698
H      90.19396861      74.96622730      80.83706227
C      87.26489282      73.82294288      83.29937566
H      87.47654217      75.23456843      84.78281082
H      86.40884680      72.13163782      84.10817852
C      85.32981308      74.72056287      81.42854661
H      83.52701417      74.63363546      82.42632210
H      85.36760760      73.64719833      79.67110113
C      85.44508638      77.54759345      80.77281157
O      85.77578849      78.99512379      82.57183102
O      85.25989320      78.32616069      78.49380164
C      91.82291269      73.18799483      84.24990800
O      93.01155054      75.12118486      84.83572316
N      92.18574014      70.96189725      85.28736775
H      91.20119273      69.43688811      84.70344231
C      93.58224788      70.91087463      87.84038799
H      95.31134746      72.02770288      87.89141061
H      94.06979727      68.99847161      88.42998260
C      91.86637639      71.86329670      89.98522736
O      90.00499597      73.19744347      89.48822933
N      92.35203606      71.18110549      92.39084895
H      93.79200751      69.98868820      92.77068395
C      90.77411458      71.77070011      94.61694654
H      88.90139581      72.46233994      94.10294100
C      90.33380835      69.43688811      96.28557488
H      92.14416616      68.51659140      96.61627698
H      89.27745134      68.05738790      95.17819526
C      89.10926570      69.83939982      98.96709652
H      90.19963778      71.26047399      99.98187956
C      86.32569884      70.55560609      98.82725677
H      86.42963379      72.60406941      98.65340195
H      85.45075556      70.34773619     100.68107829
H      85.34304116      69.50302853      97.35327026
C      89.26611299      67.40732205     100.59793032
H      91.12371395      67.11252475     101.43696882
H      88.86738073      65.68200192      99.54157333
H      87.84881825      67.57550769     102.08136548
C      92.02511340      73.93632645      96.17219131
O      94.36648430      73.99679771      96.65029207
N      90.49254536      75.70511029      97.15295926
H      88.71242318      75.54448355      96.48210642
C      91.19552355      78.00301749      98.50978276
H      93.20997180      78.02569419      98.93686091
C      90.48120701      80.24423290      96.97343527
H      90.56435496      82.01112699      98.02790254
H      88.63116494      80.22155618      96.06825635
C      92.66384090      80.47477951      95.17441582
H      92.85659298      78.65119361      94.23900129
H      94.39860965      81.28547209      95.92841662
C      92.09692300      82.32482157      93.01634836
H      91.59614553      84.22966569      93.61350187
H      90.46419947      81.72010915      91.91652765
N      94.10003289      82.55914763      91.12851177
H      95.02599879      84.22399651      91.02268710
C      94.69718641      80.83004804      89.39941219
N      93.22131016      78.82126898      88.93642926
H      93.39327525      77.99545858      87.22433721
H      91.55646128      78.97055735      89.85861569
N      96.57368464      81.22122140      87.86495443
H      97.21052241      79.88518490      86.65930904
H      97.66405672      82.71032573      88.35061409
C      90.02200351      78.03325311     101.08170026
O      87.94141484      77.16775845     101.36326948
N      91.29378932      79.25023685     103.10748688
H      92.86982106      80.26501989     102.74654914
C      90.57569332      79.36173070     105.60948451
H      88.79935059      78.38474220     105.97231196
C      92.66951008      78.10884216     107.22142106
H      92.68462789      78.68142924     109.19807478
H      94.49687542      78.87229158     106.64694425
C      92.41250730      75.16275884     107.33858409
H      90.72120225      74.63363546     108.38549246
C      92.35392578      73.51869695     104.98965429
H      90.60403922      73.92876756     103.98431988
H      92.45597100      71.50046925     105.38460708
H      93.95830342      74.13663745     103.85392877
C      94.81245971      74.46733956     108.87115213
H      94.75765765      75.15142048     110.81379078
H      96.60392026      74.97945539     107.99620885
H      95.03544742      72.42832487     109.06390422
C      89.95775282      82.06781879     106.42017709
O      89.29256915      82.50245584     108.60848018
N      90.10326174      83.84416152     104.62871656
H      89.99743707      83.23000047     102.82213820
C      89.51933631      86.52757288     105.16539883
H      88.54801699      86.50867562     106.98142581
C      91.90417092      88.03368476     105.19752418
H      93.50098965      87.27590450     106.25577091
H      91.48654140      89.89884463     105.96286334
C      92.88493888      88.79902392     102.59915050
H      91.39772427      89.76089461     101.54846266
H      93.13816220      87.10771886     101.45208662
C      95.29245020      90.48843924     102.61804775
H      96.87415112      89.17507945     102.70875463
H      95.37937761      91.49188391     104.41517748
C      95.71196944      92.28178951     100.33714810
H      94.13404797      93.57436231     100.05179942
H      95.85936809      90.98732699      98.74032937
N      98.21963626      93.64806162     100.67162966
H      98.26309996      95.21842419     101.75633256
H      98.75442880      94.32647338      98.96898624
H      99.50276042      92.36682719     101.27067289
C      87.47465244      87.59526824     103.33803349
O      87.05324347      86.36694615     101.34059278
N      86.16696183      89.61160623     103.88416438
H      86.58081190      90.57725638     105.47720366
C      84.40951636      90.62638926     101.93963601
H      83.14717918      89.04090887     101.57302910
C      82.66529897      92.74288273     102.91473479
H      83.87094436      94.38316517     103.22276017
C      80.69431443      93.30413145     100.76233651
H      79.58315536      95.00110566     101.13272287
H      79.48488959      91.71865107     100.24077206
H      81.72988445      94.05057334      99.14662053
C      81.28390904      92.12683195     105.39783517
H      82.80513872      91.84715245     106.75843811
H      80.25400820      90.35615840     105.16350911
C      79.55858892      94.22820761     106.44663327
H      78.58537986      93.56680340     108.13604860
H      78.16019144      94.91417826     105.09547896
H      80.83982336      95.54534684     107.37448889
C      85.94775358      91.72054078      99.76267129
O      87.69386069      93.15862252     100.02912270
N      85.17107607      90.92685574      97.44964630
H      83.78401695      89.61727541      97.39484422
C      85.95153303      92.18919292      95.12339320
H      87.07025101      93.85593153      95.58070696
C      87.84314907      90.37127621      93.72499572
H      89.43618835      89.94986723      94.95898701
H      88.55935534      91.30480101      92.03369068
C      86.59403998      88.00911832      92.74611749
C      85.86271590      87.85982994      90.19876643
H      86.26522760      89.39617743      88.91753199
C      84.81013834      85.60916590      89.25957246
H      84.10338070      85.44853916      87.35283860
C      84.43408280      83.57582039      90.80347885
O      83.26623194      81.42531184      90.16853080
H      82.91096340      81.46310637      88.39029834
C      85.12383291      83.74400603      93.29413812
H      84.80635889      82.06970851      94.41474583
C      86.23121253      85.90774266      94.32781843
H      86.93041126      85.82648442      96.24400091
C      83.82937038      93.22665267      93.43019842
O      81.76200980      92.26667169      93.69098066
N      84.36416293      95.04078992      91.77479818
H      85.89484124      96.12927228      92.11872837
C      82.53679759      95.67195852      89.83215953
H      80.66029936      95.44141191      90.64852129
C      82.58404074      98.56135004      89.27280053
H      81.09115696      98.84102954      87.88196196
H      84.37361156      99.07346587      88.39218808
C      82.18908794     100.17139687      91.77479818
H      83.77267859      99.94273998      93.07115042
H      80.51101098      99.46463922      92.73666887
C      81.67697211     102.96441236      91.19654192
H      81.46154331     104.11336596      92.89162642
H      80.08960201     103.14582608      89.89641022
C      84.05802727     103.87526044      89.87184378
H      84.50400268     102.78299863      88.18431817
H      85.62650011     103.77888440      91.20410083
N      83.85015737     106.66827593      89.32760260
H      82.10971944     107.05000064      88.63974222
H      85.31469527     107.27676779      88.26557641
H      83.90306971     107.58101373      91.00190012
C      82.74655721      94.02600690      87.34716943
O      84.76856436      93.94285894      86.34561447
N      80.70943224      92.99232660      86.42498298
H      79.13340050      92.79768479      87.48133999
C      80.61305620      91.15929208      84.34817377
H      82.19664685      89.84404257      84.27258471
C      78.36995107      89.42830278      84.69210395
H      76.78447069      90.66229406      84.23856964
H      78.31514900      88.61572046      86.58560972
C      78.50034218      87.10015996      83.01780644
O      80.14440407      85.25578708      83.46945103
O      77.33438105      86.96976884      81.00146846
C      80.80580828      92.45375460      81.73657199
O      80.62817401      94.87071456      81.55326855
N      81.65051594      91.05724686      79.75046965
H      82.09271190      89.22232261      80.03203887
C      82.05113792      92.15895730      77.34673778
H      83.41174087      93.70097397      77.46390081
C      82.92041203      90.05569191      75.35496624
H      82.97710382      90.83614888      73.45012211
C      85.49043981      88.92185613      76.12219512
H      85.76256040      87.23810998      74.96946207
H      85.94964331      88.47021154      78.08184131
H      86.68852629      90.53001321      75.64976354
O      81.33115220      88.02234639      75.22646485
H      80.50345207      88.30580535      73.63531529
C      79.60016289      93.31546979      76.28471158
O      79.73622319      95.03323101      74.70867985
N      77.33627077      92.42918816      77.19744940
H      77.33060159      90.80969271      78.20845298
C      74.84939094      93.59325956      76.60029589
H      74.74734572      93.90695414      74.56506064
C      72.68376459      91.83959354      77.38264258
H      70.86206842      92.79768479      77.45823162
H      73.16375507      91.02701124      79.21378738
C      72.66297760      89.59270896      75.46834982
H      71.01324653      88.45509372      75.94456085
H      74.23900934      88.26801081      75.56283613
C      72.40219537      90.55080021      72.68478297
O      74.15586139      90.07269944      71.17867108
O      70.56538139      91.81502710      71.97046642
C      74.40908471      96.27856066      77.77192619
O      72.91620093      97.87159994      76.86107811
N      75.90385823      96.87193472      79.75046965
H      77.30792488      95.58125165      79.80149225
C      76.04180825      99.16039328      81.36996509
H      74.65096968     100.64004899      81.02981435
H      77.79925372     100.17328658      81.00713765
C      75.92275549      98.61804183      84.24990800
O      76.96399469     100.12415370      85.71255616
N      74.58482926      96.43351822      84.98690125
H      73.99523465      95.15417351      83.69810792
C      73.24501330      96.33147299      87.41708930
H      72.92564956      98.31001645      87.89330033
C      70.74679512      95.16362213      86.79347961
H      69.70933537      95.35637422      88.56415316
H      70.99812872      93.14539443      86.46655696
C      69.08005651      96.22753805      84.70722176
C      67.92543373      94.45875421      83.02914480
H      68.29582009      92.45942378      83.22000715
C      66.17176771      95.37716121      81.13563903
H      65.28737580      94.06569115      79.84495596
C      65.61618818      97.99254243      80.87296707
O      63.72268241      98.92606722      79.38197301
H      63.35418578     100.57768802      80.03392859
C      66.77459041      99.75376734      82.64553036
H      66.19255470     101.70774436      82.58127967
C      68.61329411      98.77110966      84.37651966
H      69.59595179      99.98809341      85.68798971
C      74.56215254      95.08992281      89.74901156
O      76.02669044      93.32491843      89.44287590
N      74.20499427      96.01588870      92.11872837
H      72.73856665      97.20641628      92.39462840
C      75.61284037      95.05023856      94.34293623
H      77.62350917      95.16362213      93.91207864
C      74.94198753      96.39194423      96.85249278
H      75.45599309      95.18818857      98.44364233
H      72.90486257      96.63193948      97.04902431
C      75.96432947      99.06023778      97.26256338
C      74.36373128     101.15216482      96.72399139
H      72.37762893     100.85736752      96.35927420
C      75.28402800     103.62392684      97.06981131
H      74.02924972     105.19995859      96.74288866
C      77.88240168     104.06423307      97.71420797
O      78.85561073     106.43772931      97.87861416
H      77.50634614     107.59424182      97.51389699
C      79.42630807     101.86459164      98.16396284
H      81.33682138     102.38048692      98.66285059
C      78.52490862      99.39282963      97.73121552
H      79.78346635      97.81490815      98.02979228
C      74.92498000      92.27612033      94.68308697
O      72.71777966      91.53156816      94.57348285
N      76.92808989      90.79457489      95.15173910
H      78.65907919      91.59392913      95.07615004
C      76.79769877      88.02612585      94.99300209
H      74.97222315      87.09449077      95.20087198
C      77.58760437      87.59904771      92.15085372
H      79.27324024      88.69886842      91.71243720
C      78.04680787      84.86650346      91.43464743
H      79.62661906      84.23344513      92.59304966
H      78.23578050      84.60950068      89.39941219
H      76.27802404      83.94620674      91.95810163
O      75.59016366      88.16029642      90.39718769
H      75.94732193      89.90829326      90.06270613
C      78.61939494      86.63150782      96.70887358
O      80.54124660      87.78424088      97.52334562
N      77.86728387      84.40729995      97.59326549
H      76.22889115      83.67975533      96.93753047
C      79.60961153      82.88607028      99.21843012
H      81.50878647      83.67597588      99.31102671
C      78.60616685      83.05803538     101.93585655
H      78.62128466      85.02146101     102.55568679
C      75.92653494      81.90341260     102.16073399
H      76.05503633      79.86439791     101.90184149
H      74.61506488      83.02402029     101.03445711
H      75.30670471      82.16419483     104.10904182
C      80.26912601      81.81081601     104.01455551
H      79.99322597      79.77558077     103.87093630
H      79.28079915      82.29836540     105.75688317
C      83.02245725      82.47033049     104.13927743
H      83.76322996      82.11128249     102.24955113
H      84.12227796      81.23067003     105.36382009
H      83.48732992      84.41485886     104.63816518
C      79.99511569      80.07604724      98.18663955
O      78.52301890      79.28236220      96.65785096
N      81.79791460      78.69654705      99.21843012
H      82.80513872      79.38629715     100.68485774
C      82.39128866      76.15864461      98.47576767
H      80.71888087      75.12307458      99.09181846
H      83.97865876      75.55960137      99.64361855
C      83.08481822      75.68243358      95.77156933
O      85.25044457      76.26068983      94.80213972
N      81.24422479      74.82260810      94.30514171
H      79.49244850      74.83583619      95.06103223
C      81.12328230      74.90764578      91.49322896
H      82.35727359      76.44021383      90.88473709
C      81.66185430      72.46989884      90.15908218
H      80.14251435      71.20189249      90.72977952
C      81.74689199      72.67209956      87.29047764
H      81.85838584      70.88063901      86.27758432
H      83.45331485      73.67365451      86.72355974
H      80.08393283      73.63397025      86.54970492
C      84.06558617      71.15464933      91.23811591
H      83.70653817      70.68977666      93.21287989
H      85.51878571      72.61162832      91.29669742
C      85.15406853      68.89831611      89.76412938
H      85.78145766      67.60196386      91.23622617
H      86.67718794      69.60129430      88.56982235
H      83.74244297      68.06116736      88.52068947
C      78.44742984      75.82416305      90.54458634
O      76.48022475      74.76591631      91.34960975
N      78.23200104      78.09183463      89.32382315
H      79.82504033      79.06126422      88.91942171
C      75.83204863      79.00835189      88.25990723
H      74.99489987      77.66853593      86.93898853
H      76.30070075      80.73745145      87.24134474
C      73.62673802      79.59794650      90.06081640
O      71.56315689      80.34816783      89.05548200
N      73.84972572      79.30503891      92.49856335
H      75.46355200      78.40552919      92.98044357
C      71.79937267      79.78313968      94.23900129
H      70.21200257      78.68898814      93.51334639
C      72.58549882      78.18443121      96.58037218
H      74.30514977      79.10661766      97.23421749
H      73.02202560      76.25124120      96.01156456
C      70.51057933      78.07104763      98.54757728
N      69.08572569      75.95833362      99.28268081
H      69.35028737      74.25946966      98.45309097
C      67.57394464      76.56871521     101.22720920
H      66.32672527      75.36684928     102.30624292
N      67.86874194      79.05937450     101.67129488
H      66.99568839      80.04959109     103.04701564
C      69.57327508      79.99667874      99.96487201
H      70.14019297      81.95443521      99.86849598
C      71.22489588      82.53080173      94.66607944
O      72.50046114      83.74022658      96.23833172
N      69.44666342      83.54180530      93.15240865
H      68.82494346      82.50056611      91.67653240
C      68.46589546      86.19120160      93.49255940
H      69.95877925      87.44409015      92.82737574
C      66.27381294      86.16663516      91.55558992
H      64.86974629      84.84760619      92.28313456
H      66.84451028      85.60727617      89.65830471
C      65.15509496      88.81036227      91.09260697
H      64.31983593      89.49066375      92.85005244
C      67.16576376      90.93063520      90.13262600
H      66.30026910      92.79768479      90.19498698
H      67.81582961      90.35993785      88.26368669
H      68.92509895      90.85126668      91.20221111
C      63.19166932      88.65351499      88.96288542
H      61.67421909      87.37039082      89.50334714
H      63.79260229      87.80313815      87.18654269
H      62.27137260      90.49599814      88.94776760
C      67.76858645      86.79213456      96.22321392
O      66.36451980      85.50523095      97.44019766
N      68.62274274      89.01823217      96.99800171
H      69.88130047      89.74010761      95.75834124
C      68.17676733      90.29379743      99.33748288
H      67.06182881      89.03146025     100.52423100
C      70.52191769      90.97787835     100.91162489
H      69.84917512      92.15328812     102.46497992
H      71.91086653      92.14006004      99.93274666
C      71.83716720      88.64595608     101.85459833
H      72.15842067      87.35527301     100.28234603
C      74.43365116      89.23177123     103.03000809
H      75.44843419      90.16340631     101.49744005
H      75.59583284      87.54991482     103.28890060
H      74.41664362      90.56402829     104.59848093
C      70.16475941      87.51212030     104.06746785
H      68.45077765      86.71276606     103.25110607
H      69.68476893      89.00122463     105.40728380
H      71.21166779      85.97955226     104.96130838
C      66.45900611      92.71453684      98.98410405
O      64.46156540      93.00366496     100.22754398
N      67.17521239      94.36237818      97.24555585
H      68.86840716      94.30379665      96.36683311
C      65.36485458      96.40517232      96.39706874
H      63.50158443      95.65495098      95.93597551
C      64.86029765      98.38182604      98.45498069