 %block lattice_cart
   142.669   0.000   0.000
   0.000 146.65   0.000
   0.000   0.000   162.396
 %endblock lattice_cart

 %block positions_abs
N      97.15288575      44.31108706      81.41531853
H      96.88265490      45.09532348      83.13307975
H      99.05772988      44.38289665      81.29815550
H      96.31573700      42.59521555      81.45878224
C      95.89621776      46.06475307      79.69188813
H      96.51037880      47.90156704      80.38919714
C      96.87320625      45.97782566      76.95745416
H      96.20613288      44.26006444      76.04093690
H      98.92544903      46.15545993      77.03304320
C      95.86409241      48.16801845      75.30772309
H      93.82129826      47.91101568      75.33228953
H      96.26660412      47.90534650      73.30272346
S      96.82218364      51.21425727      76.43022052
C      94.14066202      53.13610893      75.95589920
H      94.68679291      55.06740923      76.42266161
H      92.42290080      52.39533622      76.81761441
H      93.76082702      53.23059525      73.93389206
C      93.04462075      45.84932426      79.89786829
O      92.17156719      43.80086094      79.36496548
N      91.76527603      47.92613348      80.59328758
H      92.69124192      49.59476182      80.62352320
C      89.01761397      48.03762733      81.19611027
H      88.03306656      46.64489905      80.03959778
C      88.65289680      47.09843337      83.93432370
H      89.84531410      45.50350436      84.45966762
H      86.71214787      46.42380106      84.10061961
C      89.41256677      49.08075627      85.85617536
O      88.46959334      51.23126480      85.90341853
N      91.29851364      48.43635959      87.44165573
H      91.43835338      49.40578919      89.08004845
H      92.37754736      46.90757100      87.07693857
C      87.89133709      50.60954485      80.73690679
O      89.36721335      52.50116089      80.34006426
N      85.35910383      50.84009147      80.92209997
H      84.44825575      49.22626519      81.38319318
C      83.69425495      52.95280548      80.29093137
H      84.03629541      53.48381858      78.32939545
C      80.88990111      52.24793757      80.71045061
H      80.48549967      50.67568527      79.44244425
C      80.42124897      51.23126480      83.43921540
H      78.59010419      50.29018111      83.50346611
H      80.51006612      52.65611845      84.92831974
H      81.89145605      49.87444131      83.92487508
C      79.00773369      54.30962897      80.17376834
H      79.14757345      55.83463810      81.54948909
H      77.12745602      53.48192884      80.32872590
C      79.26851593      55.26205103      77.44878300
H      80.65179559      56.78517045      77.55838712
H      77.48461428      56.10486898      76.85918838
H      79.73905777      53.58775352      76.34896228
C      84.22337832      55.33764009      81.84806586
O      83.77173373      57.45224384      81.02225546
N      85.32886821      55.08630648      84.10061961
H      85.57642236      53.33264046      84.81115671
C      85.90145528      57.22169722      85.76168904
H      84.18369406      58.28372341      85.35917735
C      85.88444774      56.07085389      88.36762164
H      86.03184641      57.62042947      89.71499650
H      87.58709115      55.01827635      88.84761212
C      83.43914190      54.77261191      89.15752724
C      81.29241280      56.21447310      89.49956769
H      81.44926009      58.24781860      89.47689098
C      78.95104190      54.98804071      89.97766845
H      77.16714027      55.91400662      90.34238563
C      78.96238027      52.31029854      90.37262125
H      77.20115534      51.30118468      90.58049114
C      81.19792649      50.91001133      90.32159864
H      81.27162581      48.94280624      90.86017064
C      83.47126725      52.21392250      89.63184854
H      85.16635175      51.10843259      89.37673548
C      88.41101184      58.42734260      85.04548277
O      88.77194955      60.69312446      84.57872038
N      90.35176075      56.77761154      84.76769300
H      90.01349974      54.90489276      84.90186358
C      92.79706660      57.54295070      83.70377710
H      93.60209001      58.95079680      84.97367318
C      94.64899838      55.27527912      83.46378186
H      93.81751881      53.72192408      82.39986594
H      94.90033199      54.35687214      85.29114720
C      97.22658509      55.88566072      82.46978581
H      97.60264061      57.84530691      82.97434274
H      97.08296588      55.87999154      80.41754303
C      99.37331417      54.17167896      83.21433798
O     101.38020352      55.13921883      84.37274020
O      99.30717376      51.84164641      82.69277351
C      92.45124669      58.74103718      81.01469655
O      93.52272150      60.73280872      80.51013963
N      90.82419233      57.53539179      79.44811343
H      90.31963540      55.79117440      80.03959778
C      89.90956479      58.64844059      77.01225622
H      91.54606778      58.45757823      75.77637521
C      87.82330694      56.98170197      75.77826493
H      86.08664846      57.74515141      76.57761917
H      88.24660564      55.04095306      76.32628557
C      87.57953226      56.97036363      72.87564531
H      89.03084207      55.82896892      71.96101778
H      87.85165284      58.89599474      72.19156440
S      84.38211534      55.98581621      71.55283691
C      84.57486741      56.94768690      68.35730971
H      82.59632397      57.11398282      67.80928907
H      85.61043743      55.62487848      67.16489241
H      85.43469289      58.81851595      68.31195628
C      89.15367427      61.42633826      77.14831652
O      89.89633671      62.99292139      75.69322725
N      87.59465006      62.01026369      78.99268939
H      87.10332123      60.75359570      80.34384370
C      86.34365124      64.43289284      79.38575246
H      85.83909431      65.31161556      77.59240220
C      83.99094199      64.10408046      80.97690203
H      83.75472619      65.88987181      81.97656724
H      84.29896737      62.60741721      82.35829195
C      81.75917520      63.33874130      79.31016342
H      82.29207802      61.69845885      78.18388653
C      79.43670156      62.49403363      80.83706228
H      80.03763453      61.32996223      82.42443237
H      78.20837947      61.31484441      79.67866005
H      78.37278566      64.03982975      81.68932885
C      80.78974561      65.40232242      77.57728438
H      80.28518869      67.02181789      78.74324553
H      79.10788919      64.73902849      76.59273698
H      82.29207802      66.12797733      76.36785955
C      88.30140771      66.20167666      80.56494169
O      88.01983849      68.50147358      80.36085125
N      90.28562034      65.31917447      81.89719874
H      90.74104438      63.46724269      81.96333915
C      92.38132681      66.95000828      82.80993654
H      91.56307532      68.79249144      83.23323525
C      93.56618521      65.73680398      85.23823486
H      95.22536492      66.91977266      85.53870135
H      94.30884765      63.85652631      84.84517179
C      91.82196783      65.78215742      87.48133999
H      90.35176075      64.38753940      87.10150501
H      91.11143073      67.70022963      87.24323447
C      93.14477625      65.03193608      90.01168352
H      91.57063422      65.34374091      91.30236659
H      94.56774015      66.44167190      90.48600484
N      94.04617569      62.43923157      89.87184378
H      92.85942757      61.06917999      90.47277675
C      96.24770685      61.44712526      89.31248478
N      98.04105713      62.84174327      88.56037371
H      99.78905396      62.12175756      88.29392230
H      97.89743792      64.72580041      88.27502505
N      96.78816857      59.08118792      89.89829995
H      98.54183459      58.44246041      89.49767797
H      95.47669852      57.73948223      90.24789931
C      94.37876753      67.58495633      80.70856088
O      95.59953072      69.64664773      80.89564379
N      94.52427646      66.17144104      78.57883933
H      93.30540299      64.71824150      78.77915033
C      95.83574651      66.86119115      76.19022528
H      97.58374335      67.65298646      76.93666717
C      96.59541649      64.37998049      74.84474013
H      94.96458269      63.13465086      74.68978257
C      97.61019952      64.55194558      72.05739383
H      96.36109042      65.83884921      71.04072106
H      97.46091114      62.68300627      71.20701698
H      99.48858748      65.39098408      71.92700272
C      98.80828600      63.06473098      76.33195475
H      98.58718802      62.83418437      78.36718998
H     100.51092941      64.20990513      76.50203011
C      99.44323404      60.34730455      75.37575324
H     100.61486436      60.60619705      73.70145571
H      97.73114201      59.36842631      74.77859971
H     100.43156090      59.13787971      76.71745891
C      94.44868740      68.96445653      74.72946683
O      95.69023759      70.51025266      73.51437282
N      91.85409318      69.09862709      74.96757235
H      90.95836291      67.47913165      75.43811419
C      90.48404160      71.08661917      73.63720503
H      91.56685477      71.53448432      71.94401025
C      87.90834463      70.20033754      72.97958026
H      86.80096502      71.57416857      71.91188490
H      86.89923078      69.65609636      74.68978257
C      88.01227958      67.72857552      71.20890671
O      89.80185040      67.41677068      69.61775716
O      86.39656358      66.05994718      71.58307253
C      90.11176552      73.65097779      74.95434427
O      89.68279763      75.55771164      73.66177147
N      89.96058740      73.63019080      77.42232682
H      89.99649221      71.91431931      78.25569614
C      89.60153940      75.79392743      78.94733597
H      90.22703881      77.45121741      77.89664814
C      86.88600270      75.99612815      80.02825942
H      86.76506022      77.44743795      81.48712812
H      86.47782181      74.33505872      81.17721302
C      84.50494754      76.60462002      78.28782148
H      82.88356236      75.80715550      79.27992780
H      84.83564964      75.76369181      76.43966914
C      83.81141798      79.45054785      78.02892897
O      81.63067381      80.22722536      78.59962633
O      85.43091344      80.87918094      77.03115349
C      91.37977187      75.75424317      81.25280206
O      92.51549739      77.63074141      82.09373027
N      91.68968699      73.52625585      82.41309403
H      90.55585120      72.01636453      82.12963507
C      92.78572825      73.38641611      84.90942249
H      94.29372985      74.78670331      85.01335742
H      93.70035578      71.66109598      85.55948833
C      90.87899440      73.81727371      86.94276799
O      88.62077146      73.87963468      86.54025628
N      91.96558702      74.05348950      89.15185806
H      93.86098251      73.95144427      89.36161768
C      90.65411696      74.10262237      91.64251734
H      88.64533789      74.52781080      91.46866252
C      91.02639304      71.46834390      92.76879421
H      93.04462075      71.04693493      92.79902983
H      89.98704358      69.99624710      91.77479818
C      89.95113878      71.18677468      95.53913300
H      90.77505945      72.62863585      96.75800647
C      87.00127600      71.48913089      95.48433092
H      86.15845806      70.46300950      97.06225240
H      86.36821768      70.35151565      93.88751219
H      86.61199239      73.50357914      95.31236583
C      90.61065325      68.69611540      96.67107906
H      92.66100631      68.53359894      96.57848247
H      89.90011616      67.15409872      95.50511791
H      89.87932918      68.50147358      98.58726153
C      91.67078972      76.21722612      93.39240390
O      93.93846129      76.77280565      93.54358201
N      89.93413123      77.73845581      94.45443008
H      88.13511178      77.17531736      94.16341223
C      90.61065325      79.79069858      96.25155982
H      92.63266042      80.00423765      96.58793110
C      89.56563460      82.33804964      95.29346858
H      89.78673259      83.60227656      96.90351539
H      87.61732678      82.19254073      94.63584382
C      91.10387182      83.59093820      93.15618812
H      93.09942281      83.48133406      93.65885531
H      90.66545533      85.59971727      93.02201754
C      90.70702930      82.42119761      90.52568908
H      88.68124270      82.17931264      90.24978904
H      91.66701026      80.59761171      90.49356373
N      91.90511578      83.95187592      88.51502029
H      93.14477625      85.26334598      89.13485051
C      91.19079923      84.08604648      86.10183978
N      89.28028593      82.94087235      85.25902185
H      88.93068657      82.80103260      83.38819279
H      88.51683650      81.54814405      86.31915831
N      92.31140694      85.82270496      84.70155259
H      91.60275957      86.41418931      83.02914480
H      93.48681670      86.93764350      85.70688698
C      89.70547436      79.53747526      98.94253009
O      87.41323633      79.34850262      99.44519729
N      91.54606778      79.37495879     100.65840157
H      93.35831531      79.21244232     100.08392477
C      91.35709515      79.41464305     103.50432941
H      89.92090315      78.04648119     104.06557812
C      93.92901266      78.60017099     104.56446587
H      93.87043114      79.32582591     106.49009698
H      95.44268345      79.61306431     103.60259516
C      94.59419632      75.75802263     104.64572410
H      93.03139266      74.79804166     105.58302835
C      95.00804639      74.70166561     101.92829765
H      95.29717451      72.66265093     101.89806203
H      96.68234391      75.47267396     101.01178040
H      93.60397973      74.90953552     100.43352415
C      97.18312137      75.50101985     106.07246745
H      96.65777747      75.70511029     108.05479037
H      98.46624554      77.01091118     105.50365984
H      97.73114201      73.51680722     105.95530442
C      90.69947039      82.12451058     104.53423025
O      90.58986626      82.58560379     106.79245318
N      90.10420661      83.95565538     102.89961698
H      90.07775043      83.38495803     101.07792081
C      89.77350451      86.66741264     103.42685063
H      89.18390989      86.96976885     105.37704817
C      92.43801860      87.81825595     102.94119095
H      93.83830581      86.74678114     104.00510687
H      92.49848984      89.73254870     103.70086093
C      92.91233991      87.81069704     100.11982957
H      91.71992260      89.07303423      99.01056023
H      92.64966795      85.89451457      99.41118221
C      95.79984171      88.61194101      99.50566853
H      97.06595834      87.25322779     100.39761934
H      96.15699998      90.39584265     100.46942895
C      96.51982743      88.44942454      96.75989619
H      95.19701903      89.71176173      95.80936386
H      95.84897459      86.58237494      96.20809610
N      99.18623127      88.94642257      96.28179544
H      99.45079295      89.30925002      94.42608420
H     100.42022255      87.53479701      96.64462289
H      99.64543477      90.65473515      96.99422225
C      87.58520143      87.70676210     101.71286885
O      87.17702055      86.51434479      99.80424527
N      86.10176627      89.55113499     102.41395732
H      86.14145053      90.33159196     104.15439525
C      84.45770438      90.78134682     100.68107828
H      83.42024463      89.30736029      99.68708224
C      82.29207802      92.48399022     101.83192161
H      83.16513158      94.20364117     102.55568679
C      80.22660716      93.10759991      99.93274666
H      79.01529260      91.51267089      99.45275618
H      81.19225732      93.94663838      98.31703067
H      78.91513710      94.53434327     100.63005567
C      81.17147033      91.14606400     104.06179866
H      82.73238425      90.88150230     105.37893791
H      80.40991063      89.29224248     103.58558763
C      79.36111252      92.62949914     105.77389070
H      80.40235172      94.07702950     106.80568127
H      78.30853497      91.29535238     106.93796212
H      78.13279041      93.68396644     104.49643572
C      86.05641284      92.09281687      98.60426908
O      88.11054534      92.94319372      99.12016436
N      85.14556476      91.97187440      96.23833172
H      83.35788367      91.30858045      96.14951459
C      85.90523473      93.13027663      93.81570260
H      87.29418358      94.63449877      94.02546222
C      87.52661991      91.01945233      92.38706950
H      88.85887697      90.24466455      93.75145190
H      88.69825023      91.81313739      90.89040626
C      86.02050804      88.78201637      91.17575494
C      85.37422165      88.82359036      88.61706550
H      86.05641284      90.36182758      87.46622219
C      84.02684679      86.91685650      87.40953040
H      83.42591382      87.30991958      85.49901709
C      83.28985352      84.69264863      88.83627376
O      82.22971706      82.58560379      87.86495444
H      82.01617798      82.78780450      86.07349389
C      83.77929263      84.72666371      91.50456732
H      83.46370834      82.96543879      92.49100445
C      85.26461751      86.72032497      92.56092433
H      85.79374089      86.56914687      94.52623969
C      83.64323235      93.99388155      92.26045783
O      81.46059845      93.41751503      92.94453877
N      84.14023037      95.56424412      90.32915755
H      85.91657309      96.16706681      89.97766845
C      82.32231365      96.53934288      88.56793262
H      80.45337432      95.94974828      89.20666012
C      82.82309112      99.31535084      88.57360180
H      81.82342590     100.21108111      87.01079814
H      84.83187019      99.65739131      88.26746614
C      81.74972657     100.68918188      90.91875216
H      82.71726645      99.99943176      92.60438803
H      79.77307286     100.12415370      91.03402546
C      82.04452388     103.74108987      90.80158913
H      81.00517440     104.39682490      92.45698938
H      81.11855798     104.32690503      89.05548201
C      85.03218118     104.29666941      90.74300761
H      85.71626210     103.84502482      88.85328130
H      86.04129503     103.01921442      92.00912424
N      85.44603125     107.05566983      91.03591519
H      84.49360918     108.18383642      89.82649034
H      87.22993289     107.69061787      90.80725831
H      84.78651676     107.63959526      92.72910997
C      82.70403837      95.51322151      85.88074180
O      84.80541403      95.31668997      85.02091633
N      80.50061748      94.66851383      84.85839988
H      78.90001929      94.98409813      85.84672674
C      80.48738940      93.15862252      82.47167554
H      82.42057941      92.59170463      82.04270766
C      79.03985904      90.67363242      83.03670371
H      77.04241834      91.11582838      83.27480922
H      79.81275711      89.97821314      84.81682590
C      79.38189951      88.42674783      81.27925824
O      78.04964245      86.44253520      81.66854186
O      80.96737988      88.55902866      79.47645934
C      79.75039613      94.86693510      80.23234985
O      80.03007564      97.22720326      80.25502658
N      78.91135765      93.71231232      78.08562077
H      78.43325689      91.87738807      78.31616738
C      78.60711172      95.14850433      75.65165328
H      80.24928388      96.38060588      75.47779845
C      78.62411926      93.41751503      73.41232760
H      78.46160280      94.45497477      71.63976432
C      80.92391617      91.55613460      73.07784604
H      82.79852468      92.40651145      73.16288372
H      80.69714902      90.39206320      71.39409989
H      80.89934973      90.16718576      74.59718600
O      76.46605181      91.78479148      73.48035773
H      77.02163135      90.08025835      73.20634743
C      76.41124974      96.98909776      75.47401899
O      76.25062300      98.42528975      73.67688928
N      74.57443577      97.04956900      77.18989050
H      74.44971383      95.81935716      78.64309003
C      72.55431834      98.92417750      77.25792064
H      72.56187725     100.10525645      75.57039504
C      69.97484192      97.63916361      77.20500831
H      68.55565745      99.12448849      77.04438156
H      69.50996925      96.63949838      78.94355651
C      69.38713703      95.95919692      75.11119154
H      70.67782010      94.35481927      75.20000869
H      69.71216996      96.90217035      73.30839264
C      66.72262294      94.96142142      75.11497101
O      64.91982404      96.43918740      74.89387303
O      66.59412155      92.60304298      75.27370801
C      72.89446907     100.64760790      79.61251963
O      71.30331951     102.20663210      80.16242999
N      75.06576460     100.39249485      80.86351844
H      76.28085863      99.00165628      80.38163823
C      75.66669758     102.01388001      83.17465372
H      75.01852145     103.93951114      82.83828245
H      77.69248418     101.95907795      83.55070926
C      74.80876183     101.09925249      85.75035069
O      75.29253177     102.33513350      87.64196673
N      73.32721639      99.09614260      85.86562400
H      72.89257935      98.14561026      84.26880526
C      72.20093951      98.26655274      88.32037847
H      71.43371063      99.83880504      89.40697110
C      70.03531316      96.36359834      87.81582155
H      69.15659042      95.73809893      89.56948757
H      70.80443177      94.68741111      86.89741457
C      67.89803270      97.57113346      86.23223090
C      66.71317430      96.05368323      84.23101073
H      67.18749560      94.16017747      83.63574695
C      64.63447537      96.95697241      82.90631258
H      63.77087043      95.89872567      81.39075209
C      63.71984782      99.40038852      83.62629831
O      61.75453245     100.37926676      82.25624674
H      61.25753443     102.10080742      82.54726459
C      64.90281649     100.91972849      85.52358354
H      64.32078079     102.85480822      85.80893221
C      67.15348053     100.20730167      86.61395561
H      68.03031354     101.39782924      88.02180171
C      74.13223980      96.79256622      90.04947805
O      75.95015652      95.63983316      89.24823410
N      73.69760275      97.00610529      92.57793186
H      72.57699505      98.35914933      93.32437375
C      75.34922356      95.86660033      94.42419446
H      77.28052385      96.44107713      93.99522660
C      74.95427076      97.21586491      97.03012705
H      75.95582570      96.31635519      98.58915126
H      72.94360195      97.09870188      97.45909493
C      75.85755993      99.89549683      97.15106954
C      74.10578365     101.70585463      97.78223813
H      72.15747581     101.10492167      97.90507034
C      74.78419539     104.28155159      98.09215323
H      73.34989311     105.65160318      98.57025400
C      77.28808276     104.83335168      98.02223337
O      78.02885546     107.17661231      98.56458482
H      76.58699429     108.06100421      99.22409930
C      79.16458098     103.06645758      97.33437299
H      81.06375593     103.79589194      97.16996680
C      78.52963293     100.51910650      96.90162566
H      79.86188999      99.01677409      96.54635712
C      74.68403989      93.05468757      94.54891640
O      72.61856904      92.20242101      95.20843088
N      76.74195184      91.68085654      94.14073552
H      78.24995344      92.83547932      93.95365261
C      76.88368132      88.96531983      93.60405325
H      75.03741872      88.07147929      93.79680534
C      77.72649925      88.45887318      90.82615557
H      79.75039613      88.81603145      90.67308773
C      77.07076423      85.85860976      89.97577872
H      75.03174953      85.76790290      89.70743759
H      77.69248418      84.28257803      91.14551932
H      77.89279518      85.62806316      88.09928050
O      76.33188123      89.95553641      89.17264504
H      76.53597167      91.72054080      89.53925195
C      78.85655560      87.66707785      95.34638091
O      80.67258258      88.86894378      96.15329404
N      78.65057542      85.20665419      95.86605565
H      77.20871425      84.31092392      94.99111237
C      80.25117361      83.68164506      97.43641820
H      82.06342115      84.59249313      97.78979702
C      79.14568371      83.40007583     100.15006519
H      79.05875631      85.35027339     100.80391049
C      76.31298398      82.53647091     100.18974945
H      75.79330924      82.60261134     102.18152099
H      75.95771543      80.66564186      99.40551303
H      75.04875707      83.74400603      99.10315682
C      80.49683803      81.70688105     102.10026274
H      80.23605581      79.74912459     101.51822705
H      79.68992489      81.70688105     103.99187878
C      83.31819942      82.35505719     102.38750115
H      83.55063576      84.21454788     103.23787800
H      84.14400982      82.34182910     100.49966457
H      84.28573929      80.85461450     103.41551227
C      80.45337432      81.05303575      96.03802074
O      78.69214941      80.28391715      94.55458558
N      82.26373213      79.47889373      96.91107430
H      83.35221449      80.07793698      98.36049438
C      82.19192254      76.75957758      96.17408104
H      80.35888801      75.99612815      96.72966057
H      83.66590905      75.70133084      97.14729008
C      82.89301099      76.48934671      93.35082992
O      85.00383529      77.20555298      92.49667362
N      81.10155045      75.54448355      91.91841738
H      79.61622557      74.79804166      92.86139080
C      80.72927437      76.02258431      89.27657998
H      81.94058893      77.54003454      88.58682989
C      81.61555601      73.81349425      87.77046811
H      80.00550920      72.52659062      87.76857840
C      81.77807247      74.71300398      85.00012935
H      83.37300147      76.01502541      84.90564303
H      80.04330372      75.39519517      84.12707579
H      82.21648898      73.05382427      83.86251411
C      83.70559331      72.05226932      88.95154706
H      82.77584796      71.08472946      90.51435072
H      85.37800110      73.02358865      89.66397389
C      84.50305782      69.82428201      87.22055776
H      86.24727520      68.87374967      87.77424758
H      85.01706337      70.63875404      85.39886159
H      82.89301099      68.66965923      86.65363987
C      78.00428902      76.86540224      88.67564703
O      76.21660793      75.39519517      89.07815872
N      77.82854448      79.25401631      87.66653317
H      79.46504746      80.10817259      87.18276323
C      75.34922356      80.20832809      86.65741933
H      74.52530289      78.91953475      85.27602939
H      75.63079278      82.00167837      85.67854109
C      73.18926637      80.82626860      88.56415317
O      71.12757497      81.37806869      87.77613729
N      73.64658015      80.29714523      90.95843641
H      75.37945917      79.65085883      91.43464744
C      71.67748532      80.39352127      92.94075932
H      69.96539329      79.53180608      92.18486879
C      72.44660393      78.76079773      95.16496718
H      74.17759324      79.69810199      95.76967961
H      73.13068487      76.97311665      94.39773829
C      70.69482765      78.33560931      97.30035792
N      69.95027547      75.88652402      97.99010802
H      70.50207556      74.38986078      96.94319965
C      68.26652934      75.95455417      99.79479665
H      67.05332504      74.52025190     100.59604060
N      67.89614298      78.47733879     100.33903783
H      66.68293868      79.00268270     101.71475858
C      69.38902676      79.97022258      98.72710129
H      69.54776377      82.00356808      98.61749715
C      71.19182567      83.17519841      93.60027380
O      72.79809303      84.31659310      94.81158837
N      68.89202875      84.06714923      93.00312028
H      67.69583198      82.69709764      92.42675376
C      67.98873957      86.61827975      93.35649910
H      69.57421995      87.84282239      92.86894971
C      65.48296247      86.70709688      91.79558517
H      64.04299102      85.39751655      92.46643801
H      66.09145434      86.17986325      89.90207940
C      64.43605410      89.49255347      91.85794614
H      64.20550748      89.94986723      93.85538684
C      65.95728377      91.36338251      90.59371923
H      67.65992718      91.96053604      91.58771528
H      64.87447060      93.06224648      90.16286163
H      66.72451266      90.70575777      88.79847924
C      61.89815165      89.23744042      90.53702745
H      61.11958441      91.08181330      90.05514724
H      60.66982955      88.18297313      91.81070297
H      62.18350033      88.10927381      88.83816348
C      67.34623261      87.21732298      96.13817624
O      65.80610567      85.82459470      97.30980655
N      68.50652457      89.13728493      97.29090928
H      69.87657616      89.97254396      96.25722900
C      67.91881969      90.15962685      99.91573913
H      66.89647776      88.64973554     100.87194064
C      70.22617553      90.63205844     101.37082840
H      69.78775902      91.23488113     103.29079033
H      71.40158529      92.07202989     100.48265702
C      71.96661345      88.18864231     101.56924966
H      72.34833817      87.68219567      99.60960347
C      74.48939809      88.83114925     102.83914574
H      73.87712676      89.68152610     104.61170902
H      75.52496810      90.34670976     101.89806203
H      75.72527909      87.21543327     103.15095057
C      70.89513863      85.86616867     102.92796288
H      70.49073720      86.47277082     104.85548372
H      72.14235801      84.23722460     103.11315606
H      69.16036987      85.33893504     101.95097438
C      66.03854201      92.40462172      99.89684186
O      64.10535200      92.39328336     101.22720920
N      66.57711400      94.37371653      98.49844440
H      68.26463960      94.40584189      97.60649358
C      64.82344799      96.50343808      98.20931628
H      62.93750113      95.74376812      97.88050390
C      65.00675144      98.36481851     100.51667210