 %block lattice_cart
   142.669   0.000   0.000
   0.000 146.65   0.000
   0.000   0.000   162.396
 %endblock lattice_cart

 %block positions_abs
N      92.64399877      42.76245634      79.09001030
H      91.72937123      43.23866737      77.48374294
H      92.01471991      41.09193828      79.76842204
H      94.52049700      42.54135836      78.83867671
C      92.34920146      44.57470388      81.18571679
H      93.26193927      43.54669276      82.72017454
C      93.87799005      46.98788438      80.42226736
H      95.69401704      46.16585343      79.90259262
H      94.20869216      48.25022155      82.01530664
C      92.67045494      48.63005654      78.38892183
H      90.91867865      49.51066901      79.01820070
H      92.25282542      47.42252143      76.77320585
S      94.30317847      51.22843022      77.05666479
C      93.72681195      53.58869839      79.48685282
H      94.01594007      52.62115852      81.28209283
H      91.77661439      54.24821287      79.40181515
H      95.13465805      55.09103081      79.48874255
C      89.68846682      45.38539646      81.68271480
O      87.97070560      44.85060392      80.06510908
N      89.01383452      46.54190897      83.81999526
H      90.39144500      47.18819537      84.97272832
C      86.38522522      47.12583440      84.71194608
H      84.89423116      46.62694665      83.38157875
C      85.82208678      45.34760194      87.03064026
H      86.79907528      43.58259756      86.61867993
H      83.85677141      44.78257377      87.27063551
C      86.94647394      46.45498156      89.37768034
O      85.80507924      48.15573524      90.48505997
N      89.21036606      45.86160750      90.19215238
H      89.85854218      46.75166859      91.75117660
H      90.01538947      44.34793672      89.35311390
C      85.98649297      49.93018825      85.14847287
O      87.67968775      51.43441039      85.48295441
N      83.68480632      50.71253494      85.17870848
H      82.40924106      49.29524021      85.25429754
C      82.88545209      53.34681342      85.29020234
H      83.43536245      54.07057860      83.44016028
C      80.00172974      53.22965039      85.26563590
H      79.62756393      52.04101254      83.62535346
C      78.99450561      52.06935843      87.68637530
H      79.03230014      53.49988125      89.16981046
H      79.91102287      50.40261983      88.47817062
H      77.01218271      51.60070631      87.38401909
C      78.71482612      55.87715695      84.95761050
H      79.40835567      57.09036125      86.47128127
H      76.66069361      55.73353775      84.96894886
C      79.24394948      57.26421607      82.30632449
H      81.29241281      57.39838664      82.16270528
H      78.27640961      59.03866908      81.90759224
H      78.61845007      56.07368849      80.74541056
C      84.02306733      55.10047944      87.40669580
O      84.50116809      57.30579005      87.05142725
N      84.34054135      54.08758614      89.66680848
H      83.70748304      52.31880231      90.00506949
C      85.46870796      55.44818908      91.76818413
H      84.27062148      57.07524344      92.17069584
C      85.55185592      53.92506967      94.21726943
H      86.34554097      55.29890070      95.53251896
H      86.54396223      52.13171940      94.01128926
C      82.89679045      53.39216685      95.28685452
C      81.87444851      50.99599389      94.81064349
H      82.80986304      49.69586218      93.54830632
C      79.67480708      50.30813351      96.06542178
H      78.84710696      48.44297364      95.96526628
C      78.37845483      52.13738858      97.62822543
H      76.40747029      51.83881182      98.05719330
C      79.50095226      54.35781700      98.30474746
H      78.54853020      55.65605898      99.55952572
C      81.74405740      55.13827397      97.11044043
H      82.34310064      57.04500782      97.52806993
C      88.26928235      56.31746318      91.22961213
O      89.08375440      58.41883885      92.07431980
N      89.79618122      54.69985746      89.92003181
H      89.12343865      52.94619144      89.57610161
C      92.36809873      55.46330689      88.97516864
H      93.41500711      56.65005502      90.29419762
C      94.18412571      53.13327435      88.82399054
H      94.55451207      52.47187014      90.73828330
H      96.08708011      53.53767578      88.14557880
C      92.94446525      50.95630963      87.42748280
H      92.53817410      51.40984395      85.46027771
H      91.34575679      50.31191296      88.55564940
C      94.60175523      48.69052779      87.21961290
O      93.77216538      46.67041036      86.31065455
O      96.89777270      48.85115452      87.87534794
C      92.21692062      57.08091262      86.60167240
O      93.38666121      59.04811771      86.34277990
N      90.38388610      56.50076664      84.94627214
H      89.22359414      55.04756710      85.38279893
C      90.18546484      57.98987097      82.48962793
H      91.68779725      57.60814626      81.13091471
C      87.64945212      57.03933864      81.18382705
H      86.06586147      57.85759013      82.21939707
H      87.54551718      54.99087531      81.35768187
C      87.44158223      57.53066748      78.29254579
H      89.03273179      56.63871666      77.33823401
H      87.52473019      59.57157190      78.02420466
S      84.24227558      56.76532832      77.09823876
C      84.69769962      56.86737354      73.83279169
H      85.71248265      58.63426764      73.54555329
H      82.94025415      56.90138862      72.75942715
H      85.84854295      55.34803359      73.05611418
C      89.89255726      60.88115223      82.95261088
O      90.96970126      62.33813122      81.62980247
N      88.45636526      61.58035097      84.90847762
H      87.72315145      60.16305623      85.95727572
C      87.97826450      64.26565206      85.62657362
H      87.67401857      65.15004397      83.79164937
C      85.42902371      64.31667467      87.04575808
H      85.00572501      66.11947357      87.95093698
H      85.63311415      62.90693884      88.53297269
C      83.23127200      63.59857867      85.39035782
H      83.73582893      61.76554415      84.59478305
C      81.01462304      63.00142515      87.12701631
H      80.37022637      64.71540692      88.06998974
H      81.55508476      61.49720301      88.42714802
H      79.21938304      62.63481825      86.18971206
C      82.52451436      65.57712212      83.25874655
H      80.63856750      64.96107134      82.70127729
H      83.82653579      65.26531728      81.69216343
H      82.77395824      67.53487858      83.84834115
C      90.07397098      65.90593450      86.80387311
O      90.36687856      68.15659854      86.42403813
N      91.91834387      64.55666991      88.07754865
H      91.77094521      62.65560524      88.14557880
C      94.19357435      65.58279130      89.10367003
H      93.87610033      67.09268262      90.46805244
C      95.38410192      63.55133551      90.79686480
H      97.16611384      64.25053425      91.55653478
H      95.81495952      61.79766949      89.80475849
C      93.59264138      62.78977581      93.00406514
H      91.83141645      62.00364966      92.27841023
H      93.05973856      64.61336170      93.80152964
C      94.71135936      60.94351320      94.96371133
H      96.45557674      61.52365918      95.88967722
H      95.41244782      59.19740609      94.12467284
N      92.86320702      59.96274524      96.86099655
H      92.43801860      58.11459291      96.64745748
C      92.11109595      61.24964886      98.85843726
N      92.81596386      63.55700469      99.29874349
H      92.17345692      64.26376233     100.95036429
H      93.69090715      64.72296583      98.06664194
N      90.82986151      60.28399872     100.75761220
H      90.41790117      61.34224545     102.29018024
H      90.39900391      58.42450802     100.68769234
C      96.01716024      66.47285239      86.97961765
O      96.95824394      68.63091984      87.29520196
N      96.18723561      65.20484604      84.77808651
H      95.18946011      63.58913004      84.59478305
C      97.67633994      66.06278178      82.53120191
H      99.16544428      67.39125938      83.03764857
C      98.76671202      63.82723555      81.01186197
H      99.75503889      64.60391307      79.38102815
C     100.76793219      62.70284840      82.85434512
H     102.13609404      64.07667943      83.54787468
H     101.96412895      61.41594478      81.77909084
H      99.83251766      61.54444617      84.27919876
C      96.86942681      61.81089758      80.17093375
H      95.25182108      62.67828195      79.23551922
H      95.95668900      60.94162347      81.79798811
C      97.78405434      59.57535135      78.38325266
H      99.04450179      60.34446996      76.94706067
H      96.17400752      58.76087931      77.39114635
H      98.96135383      58.31112445      79.50386037
C      95.92078420      67.67282860      80.76997700
O      96.97147203      69.31122131      79.52464735
N      93.37532285      67.37614157      80.66415231
H      92.65344740      66.18183454      81.96617374
C      91.76527603      68.71028835      78.84812533
H      93.08430500      69.13169731      77.32311620
C      89.63366475      66.88481273      78.07522728
H      88.08597890      66.83756957      79.43016103
H      90.20625183      64.91760764      77.85790875
C      88.53573376      67.60857791      75.42394125
O      89.89066753      67.65015188      73.52098685
O      86.21326013      67.91471357      75.32945494
C      90.69191149      71.23496270      79.82322411
O      90.01916892      72.86768623      78.22451564
N      91.08497456      71.86802101      82.23451489
H      92.25660488      70.61135302      83.06788418
C      90.57474846      74.42104126      83.55165412
H      90.67301422      75.88179970      82.10412378
C      88.01794876      74.51174813      84.75540979
H      87.83275558      72.95461364      86.08955657
H      86.52695469      74.11301587      83.39291711
C      87.16568219      76.91170054      85.98562161
H      88.79084682      77.71672395      86.96449985
H      85.91279364      76.28242168      87.49362321
C      86.19058341      78.93748715      84.13368983
O      87.47937676      79.51574340      82.25530187
O      84.31975436      80.23005995      84.74218171
C      92.47014395      74.98795916      85.57744074
O      93.76082702      76.95705398      85.45838797
N      92.66667549      73.28342602      87.41047525
H      91.78039384      71.62235659      87.09678068
C      94.54317371      73.65381238      89.54019682
H      96.02282942      74.99740779      89.05075769
H      95.60142045      71.98518405      90.12034278
C      93.26760845      74.82355297      91.91558278
O      91.05284921      75.67392981      91.83999374
N      94.74915388      74.95772354      94.01506872
H      96.40266441      74.02230901      93.83365499
C      93.94790993      75.80054147      96.55675061
H      91.91078496      75.50763389      96.43958758
C      95.10442243      73.82010830      98.40112350
H      97.15099603      73.91837406      98.19136388
H      94.51671755      71.96439706      97.72460147
C      94.20113325      73.77853432     101.14500609
H      94.10664694      75.72495242     101.82341784
C      91.61031848      72.60879373     101.79885140
H      90.08908879      73.99207339     101.84987402
H      91.66889999      71.83778539     103.70747499
H      91.07930538      71.26897777     100.32486489
C      96.26093493      72.33856287     102.53962412
H      95.79606226      72.58611701     104.53139566
H      97.92389409      73.51208291     102.21837064
H      96.46313565      70.42238039     101.80452059
C      94.51104837      78.52552682      97.41468635
O      96.53116580      79.13968787      98.25750429
N      92.57218917      80.31887709      97.02540274
H      90.89222248      79.76140782      96.30919646
C      92.98414951      82.99472955      97.97026590
H      94.98725940      83.22905561      98.38411595
C      92.11676513      84.91469148      96.03707587
H      91.87488016      86.73827737      96.95926231
H      90.36498884      84.22116192      95.20181684
C      93.82129826      85.33232099      93.71838168
H      94.25026614      83.56353717      92.75840073
H      95.60708963      86.19592592      94.27585096
C      92.72714673      87.14834798      91.70771289
H      92.01471991      88.86421947      92.59588425
H      91.02261359      86.42647253      90.80253398
N      94.82096348      87.82675973      89.84633247
H      94.83986075      86.61166571      88.37612541
C      96.25526575      89.90734840      89.79342013
N      96.30439864      91.59865345      91.44882039
H      97.80673106      92.77406322      91.40346695
H      94.96647241      91.78195690      92.79619525
N      97.84263586      90.13600528      88.02841577
H      98.90277232      91.70825757      87.81298696
H      97.75003927      88.88878592      86.58844432
C      91.46291982      83.62022896     100.30596761
O      89.31808046      84.21738247     100.19258404
N      92.64777822      83.57676525     102.46781451
H      94.50915864      83.16102546     102.54718303
C      91.28906500      83.64479540     104.98870942
H      89.56941406      82.51851851     104.86020803
C      93.02383376      82.74150622     106.95402479
H      92.01094045      82.87189734     108.74170588
H      94.49782028      84.16447013     107.17323304
C      94.24081750      80.11667637     106.65544802
H      95.07796626      80.06943321     104.77328063
C      96.27794247      79.57999410     108.65477846
H      97.45335224      77.95482947     108.18234688
H      95.45213207      79.58755300     110.54261505
H      97.51382348      81.21838681     108.48470309
C      92.01283018      78.16647882     106.65355830
H      90.99615742      78.43481995     108.42801131
H      92.49471039      76.22006071     106.18301646
H      90.80529507      78.67103574     105.06429847
C      90.34042239      86.29797114     105.69168760
O      89.08753385      86.56820200     107.51149405
N      91.06040812      88.26706596     103.97959557
H      92.49848984      87.77951657     102.82119334
C      90.16467785      90.91646225     104.06841270
H      88.91556875      91.38322465     105.63877528
C      92.56463026      92.61910566     104.42179153
H      93.32052079      93.05374271     102.55285220
H      93.92523321      91.63833770     105.61420883
C      91.94291031      94.97181492     105.77105611
H      91.16434307      94.67701761     107.65700298
H      90.73726492      96.10376098     104.54273402
C      94.24648668      96.62532544     106.43435006
H      95.15166559      97.13744127     104.65422786
H      95.70913485      95.65400612     107.50960432
C      93.46036054      98.94590935     107.94802082
H      93.22603447      98.44702161     109.93223345
H      91.55551641      99.41078203     107.31118305
N      95.31985123     100.91122472     107.66834134
H      96.92044942     100.34241710     108.53950517
H      94.69624155     102.49103592     108.54139488
H      95.46536015     101.62176181     105.90144722
C      88.62455090      91.72526511     101.60420959
O      89.15367427      90.78040196      99.39134008
N      86.57986703      93.29373795     102.06152336
H      86.18302451      93.68491130     103.88699898
C      84.60888249      93.84364831     100.10754636
H      83.64890152      92.05029804      99.77873397
C      82.60955205      95.92990616     100.86343687
H      83.38056038      97.81207357     101.19035953
C      80.64045723      95.93746506      98.59009613
H      79.86188999      94.09498191      98.09876729
H      81.32075870      96.64044325      96.77784859
H      78.96426999      97.05051386      99.03796127
C      81.22627239      94.97370464     103.18591051
H      82.47160203      94.89055669     104.82619296
H      80.74061272      93.01972764     102.75694265
C      78.88301176      96.54028776     104.12888395
H      77.42792250      96.75571656     102.68513304
H      79.64835091      98.34686611     104.75627309
H      78.06664999      95.67290338     105.80885065
C      85.97704434      94.70347378      97.59043091
O      87.11654930      96.65367134      97.42035553
N      85.46114905      93.41279071      95.55330593
H      84.36888724      91.84998705      95.63456418
C      86.30774644      94.10632027      93.01729323
H      87.41512606      95.83919930      93.11555899
C      87.90834463      91.99927543      91.83999374
H      89.38611061      91.45503425      93.16847133
H      88.66990433      92.96114612      90.18648322
C      86.60821293      89.57853602      91.39212860
C      85.92602173      88.91524208      88.89957960
H      85.60665798      90.26639640      87.40480608
C      85.10210105      86.44725952      88.45171446
H      84.76950922      86.09388070      86.46939155
C      85.25516889      84.52918731      90.32254350
O      84.59943385      82.13490407      89.68948520
H      84.37644615      81.75695881      87.93014999
C      85.97515461      85.13956891      92.79052608
H      85.91846282      83.61455978      94.14734956
C      86.66868417      87.73794259      93.33476724
H      87.05418834      88.27084541      95.26606754
C      84.11377419      94.68268679      91.19370733
O      82.04074443      93.64144759      91.53952725
N      84.20259133      96.50438296      89.45893858
H      85.69169566      97.69491053      89.42681323
C      82.29774721      96.92201247      87.63535268
H      80.41557980      96.45902953      88.33266169
C      82.33554173      99.71691769      86.80765257
H      81.39067858     100.06084788      85.00863312
H      84.19881188     100.35186573      86.20105041
C      81.44359091     101.84852897      88.49895761
H      82.79663495     102.63087566      89.84066329
H      79.85622081     100.98492405      89.49106392
C      80.74628190     104.30706290      87.19315674
H      79.66913790     103.97069162      85.46783661
H      82.45459449     105.34452265      86.69048954
C      79.35922279     106.09096454      88.92981521
H      80.43636679     106.36686458      90.66458396
H      77.66413829     105.13476303      89.60822695
N      78.77907681     108.58729300      87.83377395
H      78.00050957     108.33406968      86.11034355
H      80.24928388     109.80427675      87.82243560
H      77.43548140     109.62664247      88.70304806
C      82.55852944      95.13811083      85.23917972
O      84.72982497      94.83008544      84.37935426
N      80.48927912      94.33119770      84.26408094
H      78.90946793      94.66756898      85.28075370
C      80.25873251      93.16712629      81.81310591
H      81.36044295      91.42668835      81.79042921
C      77.45437867      92.15423298      81.64114083
H      76.19771067      93.74160309      81.25752639
H      76.71360595      91.05441227      83.21906229
C      77.19926561      90.24938886      79.43205076
O      76.23361547      91.21692873      77.49130185
O      78.12523151      88.08754196      79.57189052
C      80.83509904      95.00205054      79.61535421
O      80.42124898      97.31318582      79.74952479
N      81.75539575      94.12332780      77.41760251
H      82.39601297      92.32808781      77.32122648
C      81.60421765      95.49337938      75.04788572
H      83.14056514      96.86343096      74.95528913
C      82.12578211      93.95136271      72.62903603
H      81.57587175      95.25527386      71.13615225
C      84.86210581      93.02539682      72.34746681
H      85.09076270      91.32464313      73.48697179
H      86.25483411      94.52017033      72.61769767
H      85.05674762      92.41690494      70.38971036
O      80.76139971      91.69502949      72.39093052
H      81.44548064      91.06008145      70.83568576
C      79.18914742      97.15633854      74.51309317
O      79.41780430      99.20669158      73.51909714
N      76.90257858      96.37210212      75.40315427
H      76.63612717      94.62599500      76.12880917
C      74.54608987      97.83097083      75.21229191
H      74.61034056      99.18968405      73.66649578
C      72.25196213      96.21336511      74.68505827
H      70.42459678      97.12799264      74.94017131
H      72.33133063      94.87165942      76.24786192
C      71.95716482      94.76394502      72.16605309
H      73.48028423      93.39200372      71.96952156
H      72.00251825      96.10187125      70.60135970
C      69.40036512      93.26917151      72.33045928
O      69.49107198      91.07708899      73.35847040
O      67.49174154      94.13277643      71.22874884
C      73.96594389      99.57329849      77.50075047
O      71.87590659     100.66556030      77.85412930
N      75.71394073      99.97392047      79.23551922
H      77.42603277      99.19157377      78.91993493
C      75.31331875     101.69357141      81.49752162
H      74.05665075     103.26960316      81.07422292
H      77.06698477     102.63843457      82.03042444
C      74.47617000     100.44068287      83.90881240
O      74.58199467     101.56129057      85.91192230
N      73.76941236      97.88199344      83.70283223
H      73.53697602      97.20547142      81.93404840
C      72.60156149      96.33052814      85.70783184
H      71.11623661      97.46058447      86.57899567
C      71.03686811      94.20647576      84.42659740
H      70.04476179      92.97815366      85.74751610
H      72.43715530      92.99138174      83.53086713
C      69.15659043      95.09653685      82.46506149
C      68.73518146      93.64900650      80.34478857
H      69.80665628      91.98226789      79.85723918
C      66.85490378      94.34820523      78.68749859
H      66.44105371      93.23326671      77.02831890
C      65.39981451      96.54406721      79.10512811
O      63.57244917      97.10342620      77.41004360
H      62.62002711      98.56796409      77.89759299
C      65.76264197      97.96892085      81.29721063
H      64.62313700      99.63943891      81.56177231
C      67.70717034      97.23948649      82.93560335
H      68.25897043      98.43946270      84.49273783
C      74.55553850      95.48771020      87.76007462
O      76.31676342      94.04962848      87.46149787
N      74.23617475      96.38721993      90.09388663
H      72.73762179      97.55507079      90.27907981
C      75.82165513      95.72014654      92.15746775
H      77.80397803      96.02061302      91.68503617
C      75.04308789      97.31696527      94.51017702
H      75.81598595      96.52328022      96.24683549
H      73.02674991      96.98626317      94.75773116
C      75.43615096      99.97014102      94.47427221
C      73.34800339     101.64254880      94.50639756
H      71.48473324     100.89421718      94.87300447
C      73.86389867     104.30517318      94.34766056
H      72.45227311     105.77538025      94.22860779
C      76.28463808     105.24436715      94.25695368
O      76.72683403     107.80872576      94.19459273
H      75.19426600     108.77815536      94.20971053
C      78.49372814     103.64943815      94.39868316
H      80.42880788     104.25793002      94.17569546
C      77.90602325     100.96980623      94.38545508
H      79.41969403      99.60353411      94.31553521
C      75.58165989      92.88366734      92.98705760
O      73.54075547      91.70447812      92.87178431
N      77.72838898      91.62510962      93.51051179
H      79.39323786      92.49627345      93.18358914
C      77.88712599      88.80563796      93.57098304
H      76.12023189      87.94770221      94.19270299
C      78.81309188      87.80030356      90.92725592
H      80.82754013      88.22927143      90.94993264
C      78.62600898      84.78996954      90.57765656
H      76.77974637      84.03785847      90.06365100
H      79.28174401      83.88479064      92.30864586
H      79.88645643      84.17580849      89.06776523
O      77.50351155      88.73004891      88.76918847
H      77.46004784      90.54418617      88.76162958
C      79.80519820      88.18013855      95.61755663
O      81.26973609      89.99616554      96.33565264
N      79.68047626      85.87089299      96.64367802
H      78.43703635      84.66902706      95.83109570
C      81.50784161      85.00350862      98.56175024
H      83.19347748      86.14490331      98.26506320
C      80.18314346      85.40791005     101.08642459
H      79.28552346      87.26173156     101.02217389
C      78.22916645      83.51629401     101.86499183
H      76.86856351      83.02307544     100.39856420
H      77.12367656      84.09266053     103.50527426
H      79.39890704      81.86467321     102.24671654
C      82.06720060      85.47405047     103.28795573
H      83.01773293      83.69581801     103.70747499
H      80.93147508      85.98238685     104.93012791
C      84.06653103      87.53385215     103.23504340
H      85.09076270      87.92691522     104.97737106
H      83.18969803      89.24594419     102.49805015
H      85.56886345      86.98205207     101.93869115
C      82.13901020      82.18592668      98.26317348
O      80.59888325      80.73650660      97.39956854
N      84.28195983      81.56231700      99.46881887
H      85.32508876      82.96260420     100.23982720
C      85.49705385      79.03197347      99.71070382
H      84.24227558      77.96427810     100.94658484
H      87.33764728      79.13779814     100.62911081
C      85.78996143      77.84711507      97.02918220
O      86.74994240      79.20960774      95.43992237
N      84.84698800      75.54542842      96.44903622
H      83.97771390      74.75741255      97.95703780
C      84.96793049      74.32655495      94.03774544
H      86.57797730      75.29598455      93.19303777
C      85.59531962      71.52409083      94.09065778
H      83.87755840      70.52442561      94.62922977
C      86.12066354      70.71528796      91.34110598
H      84.63155920      71.62424632      90.24506472
H      85.98460324      68.65926574      91.32220872
H      88.09920699      70.94772430      90.81954153
C      87.87055010      70.89859142      95.78007310
H      87.39055962      71.52220110      97.68302750
H      89.56941406      71.90959499      95.20370658
C      88.74171393      68.25675403      96.11644438
H      86.98615819      67.21929428      96.41124168
H      90.08530934      68.29454856      97.67546859
H      89.81885793      67.63692380      94.47238248
C      82.37711571      75.03142286      92.82643087
O      80.40991062      73.83522611      93.29508300
N      82.11066430      76.97784097      91.14457445
H      83.59787891      78.17025827      91.02741142
C      79.71260161      77.40302939      89.62901394
H      79.28363374      75.78542366      88.42525829
H      79.97527357      79.11890088      88.52163433
C      77.30320056      78.12301511      90.89891004
O      75.50229138      78.27986239      89.48350502
N      77.13690464      78.48584256      93.21949395
H      78.69781858      78.23261924      94.28718932
C      74.70671661      79.02819401      94.41002152
H      73.26863488      77.75640821      93.66168991
C      74.87112280      78.24395759      97.16713222
H      76.19582094      79.37968311      98.26317348
H      75.50229138      76.28431141      97.12177877
C      72.28219775      78.26096513      98.39545431
N      70.52286255      76.32966484      98.38411595
H      70.91214617      74.63080088      97.60365899
C      68.31188276      77.26696909      99.20425718
H      66.60357018      76.18037646      99.45748051
N      68.64825405      79.67259069      99.85054357
H      67.29709973      80.93870732     100.30596761
C      71.19560512      80.36234079      99.35732501
H      71.91748057      82.27096437      99.42724488
C      73.99617951      81.78908416      94.06798105
O      74.97316802      83.48983784      95.26606754
N      72.12724019      82.04797666      92.51273631
H      71.35056267      80.54942370      91.62267521
C      71.09544962      84.45359826      91.85322182
H      72.52219299      85.90490807      91.53385808
C      69.49863089      83.89423927      89.48728447
H      67.69583199      83.06653915      90.04286401
H      70.24507278      82.45426782      88.21738840
C      69.04509657      86.19592592      87.78653080
H      68.25330125      85.35877716      86.08199766
C      66.85679350      87.86266453      88.54242131
H      64.95572883      87.07275893      88.44226582
H      66.98907434      89.61066137      87.46338760
H      67.24985658      88.45036941      90.47561133
C      71.62457299      87.45448364      87.15158275
H      71.66236752      88.20848444      85.23540027
H      72.98895539      85.92947451      86.93048477
H      72.10645320      88.86044002      88.57832612
C      69.41548293      85.47216074      94.02640708
O      67.99251902      83.99439477      95.02418257
N      69.68382407      87.89478988      94.64434758
H      71.04064756      88.98705168      93.86955979
C      68.34211838      88.82642495      96.95359314
H      68.10023342      87.32031308      98.33687280
C      70.05421042      90.70670263      98.43891801
H      68.93738217      91.43991644     100.00550114
H      70.67593038      92.15234326      97.11044043
C      72.58833341      89.70703741      99.27984623
H      73.46894587      88.75650507      97.67924805
C      74.24184393      91.88211240     100.32675460
H      73.36501092      92.88744679     101.89711718
H      74.65947345      93.16901601      98.77339957
H      75.93503871      90.94102869     101.02595335
C      72.52975189      87.83431863     101.54562807
H      74.43081656      87.10488428     101.86121238
H      71.37323939      86.18836701     101.11099103
H      71.77953055      88.77918179     103.21614614
C      65.80799540      89.88656141      95.95014847
O      63.98251978      88.53351737      95.78574227
N      65.88925363      91.97470898      94.72560581
H      67.32166618      92.84398309      93.80908855
C      63.57811835      93.34098111      94.01695845
H      62.11924964      91.91045829      93.75995567
C      62.61246820      95.08330877      96.21282042