 %block lattice_cart
   142.669   0.000   0.000
   0.000 146.65   0.000
   0.000   0.000   162.396
 %endblock lattice_cart

 %block positions_abs
N      92.83864059      43.12811839      83.60078701
H      92.87454539      43.59110133      85.45271879
H      94.67734429      42.83521081      83.18504721
H      91.96747676      41.49917431      83.11890679
C      91.89566716      45.33909817      82.34033955
H      92.51360766      46.93591690      83.48362398
C      93.10320226      45.84554483      79.69661244
H      92.53628438      44.39234529      78.35301703
H      95.13465805      45.63389548      79.97818166
C      92.41912135      48.39856508      78.60813008
H      90.41412173      48.25683560      78.15837522
H      93.44713246      48.45903632      76.82611818
S      93.40366876      51.28039770      80.26730979
C      92.73470564      53.83719740      77.95428478
H      90.67679369      53.92034536      77.91460054
H      93.70224551      53.31563294      76.21384685
H      93.52839069      55.61165041      78.63647599
C      89.02139343      45.53562971      82.28742722
O      87.82519668      44.39045557      80.66604204
N      87.93669052      46.78473880      84.21494806
H      89.21036606      47.73338141      85.27319479
C      85.23627163      47.51606289      84.30376519
H      84.40479204      46.63356069      82.63891631
C      84.06653103      46.09687842      86.61679021
H      84.54463180      44.09565826      86.50907580
H      82.08609786      46.28774078      86.08199765
C      84.42179959      47.01339568      89.35500364
O      85.62555525      48.89178364      89.91247290
N      83.04607882      45.78507358      91.04630868
H      83.53740767      45.97215648      92.88123293
H      81.49272380      44.74950356      90.64757642
C      84.74494279      50.38655716      84.20927889
O      86.37388687      52.02494987      84.19983024
N      82.24672459      51.10276342      84.12235147
H      80.85966548      49.90656666      83.58377948
C      81.46815735      53.87877137      84.34722891
H      81.84043345      54.76316330      82.52364300
C      78.62978843      54.06963374      84.62879813
H      77.86633901      53.07752742      82.99040540
C      77.66224856      52.76383286      87.02308136
H      77.75484515      53.78050561      88.81265217
H      78.65435487      50.98749011      87.33677592
H      75.70638182      52.33486499      86.54687032
C      77.58854923      56.93445883      84.59856250
H      78.18003358      57.84341718      86.35033879
H      75.53630646      56.91178212      84.41147960
C      78.45215416      58.48970359      82.24207379
H      80.39101336      59.03772422      82.67293138
H      77.27107521      60.15077302      81.93782785
H      78.49939732      56.98548144      80.83422769
C      82.74561235      55.50204629      86.42592784
O      83.83220497      57.34263971      85.67192704
N      83.11032952      54.51938860      88.70493777
H      82.52073491      52.73170751      89.01863234
C      84.65801537      55.86109429      90.63434835
H      83.95125774      57.78105621      90.87056413
C      84.53707289      54.39277694      93.24028093
H      85.68791622      55.40000106      94.62167086
H      85.26272779      52.50305063      92.86422540
C      81.83287454      54.05640565      94.32687356
C      80.64612641      51.59220254      94.41191124
H      81.79885946      49.97081737      93.95459747
C      78.06665000      51.26339017      95.07331545
H      77.37312044      49.36232548      94.79741541
C      76.71738541      53.43468570      95.94258955
H      74.72372415      53.30618431      96.35832934
C      77.88334654      55.85920456      96.09187793
H      76.82132036      57.47303083      96.74572324
C      80.48927912      56.08597171      95.35299495
H      81.45681900      57.87932199      95.49094496
C      87.33575756      56.38643820      89.81231740
O      88.28440016      58.56718237      89.68948518
N      88.67368379      54.49671189      88.95249193
H      87.79307132      52.81107602      88.78808573
C      91.33063899      54.72347904      88.04731302
H      92.53250493      55.58330452      89.48161529
C      92.27739186      52.09486974      87.54275609
H      94.16522846      52.28384237      86.74151213
H      91.14922526      51.12732987      86.11790246
C      92.67990357      50.33364481      89.83121467
H      91.07174649      50.31852700      91.11811829
H      94.30884765      50.94213669      90.93481482
C      93.49437561      47.71070470      89.03563988
O      92.13566239      46.31986613      87.62968351
O      95.71291430      46.94725527      89.66302902
C      91.34386707      56.27872380      85.68704485
O      93.22036529      57.51082536      85.05776599
N      89.28595512      56.63210262      84.36045698
H      87.85732203      55.39622161      84.64202621
C      89.19713798      58.34986384      81.97940184
H      91.02072388      58.27994397      81.02509004
C      86.95403285      57.44090548      80.29376595
H      85.18902847      57.96058022      81.22162158
H      87.31875003      55.43779559      79.97818166
C      86.86332598      58.69379403      77.75775325
H      88.07842000      57.66389318      76.45006263
H      87.43591306      60.66855803      77.64625939
S      83.69236523      58.90733310      76.34423796
C      84.38778451      59.50070716      72.98052512
H      84.81864211      61.51326569      72.87281072
H      82.84576785      59.10764409      71.67283452
H      85.96003681      58.41978371      72.20006817
C      89.23304278      61.13721015      82.65214439
O      91.02828278      62.45434939      81.93593813
N      87.30552194      61.92522601      84.04298296
H      85.82964569      60.72336009      84.19038162
C      86.68569171      64.48202572      85.05965572
H      86.60443348      65.65365604      83.36646095
C      84.02117760      64.42344421      86.18782233
H      83.81897689      66.24514038      87.12701630
H      84.03251597      63.03260564      87.70716228
C      81.77429302      64.03605032      84.16581518
H      82.41679996      62.31261991      83.23795956
C      79.54630570      63.72613520      85.94593736
H      79.28741319      65.35885873      87.17236973
H      80.02251673      62.09908084      87.11567794
H      77.97027396      63.36141802      84.67226182
C      81.62878410      66.13553624      82.25908132
H      82.81553221      65.67822248      80.63769615
H      82.17113554      67.84195911      83.27953353
H      79.63134339      66.27348627      81.78287029
C      88.89478177      65.66499440      86.50907580
O      89.11965919      67.93644543      86.45616347
N      90.56341011      64.05494757      87.69204447
H      89.96436686      62.24458977      87.70527255
C      92.87454539      64.80705865      89.05831660
H      92.47392340      66.56072467      90.06176127
C      93.59453111      62.60174803      90.88001277
H      95.53339031      62.93433987      91.49795327
H      93.43579410      60.85753066      89.79908932
C      91.84842399      62.50915145      93.21193503
H      89.90389562      63.05339263      92.80186442
H      92.64588850      64.05116813      94.31931465
C      92.07897060      59.85408598      94.42324960
H      94.04617569      59.28716809      94.66513457
H      91.68590754      58.51238029      92.91146855
N      90.86198687      59.52905306      96.91579860
H      89.88877780      57.88688089      96.97060067
C      91.33252871      60.82351558      99.06063797
N      92.78572825      62.78883095      99.21370580
H      93.15989405      63.40866118     100.98059990
H      93.84208526      63.20457074      97.68113776
N      90.20247238      60.04116889     101.16390336
H      90.61254299      60.85564093     102.84009061
H      89.17257154      58.43301180     101.18280062
C      95.12520943      65.64231768      87.31598894
O      96.83730146      67.01047952      88.07943836
N      95.06284845      64.84674290      84.93682351
H      94.02538871      63.31039541      84.48895837
C      96.54250415      65.84073894      82.80143277
H      98.24514756      66.71190277      83.56488221
C      97.55161800      63.51259613      81.05532566
H      96.06440339      62.67355764      79.90259262
C      99.39221144      64.54438669      79.13347400
H     101.03627332      65.41177107      80.01597620
H      98.29617018      65.84073894      77.96373342
H      99.94212179      63.23102691      77.64625939
C      98.80450655      61.42822800      82.62379850
H      97.43445497      60.81217722      84.03164460
H     100.46557599      62.11986783      83.62157400
C      99.67567038      59.10197491      80.96461880
H     101.16477471      59.79739420      79.72306861
H      98.14121262      58.41600426      79.77409123
H     100.37675885      57.58263496      82.16648473
C      95.17245259      67.83628993      81.27453392
O      96.21180205      69.81105393      80.73785165
N      92.62888097      67.51125699      80.65848313
H      91.67834863      65.94467389      81.19138595
C      91.30607255      68.91343392      78.78576437
H      92.57218918      69.30082781      77.20784289
C      89.18957908      67.19945216      77.68216419
H      87.68535693      66.93111103      79.06544385
H      89.78484287      65.26248269      77.31366757
C      87.84409393      68.31439069      75.52031729
O      89.11210030      68.96634626      73.50775877
O      85.47815660      68.42588453      75.47307413
C      90.37254774      71.37574731      79.83834192
O      90.12310387      73.10295716      78.33034032
N      89.78673259      71.47779253      82.33844984
H      89.81696820      69.76947995      83.18882668
C      89.46925856      73.87018604      83.58000001
H      89.89444699      75.42732052      82.30065530
C      86.66868418      73.96089291      84.43793576
H      86.56096977      72.35651527      85.72672911
H      85.29296342      73.40153392      83.00930267
C      85.90334502      76.43265493      85.76452363
H      87.20914590      77.04681598      87.23473071
H      84.19692216      75.89786237      86.78875529
C      85.05863736      78.57560456      83.89369458
O      86.24538548      78.82693817      81.83200317
O      83.17269050      80.01368629      84.35478781
C      91.45725064      74.30104364      85.76074418
O      92.12621376      76.52714124      85.92892982
N      92.28873022      72.49635502      87.35189374
H      91.31930063      70.85418284      87.25362798
C      93.90822568      72.93099206      89.55909407
H      95.63354581      73.86829632      88.93170493
H      94.22758942      71.13575206      90.51718532
C      92.60809398      74.62607657      91.53952724
O      90.64466834      75.70133085      91.12000800
N      93.60209002      74.72245262      93.90357486
H      95.03261284      73.51302777      94.25884342
C      92.58163781      75.89030347      96.36210879
H      90.52750531      76.01691514      96.44525676
C      93.20902695      74.06482786      98.48238172
H      95.25749027      73.98356963      98.67324408
H      92.55140219      72.17888100      97.97404535
C      92.08086034      74.75646768     101.16957253
H      92.73848509      76.65942208     101.60609931
C      89.17635098      74.40875805     101.19035952
H      88.75494202      72.46611939     101.73082125
H      88.13322207      74.79993139      99.45937022
H      88.41668101      75.45566641     102.79473716
C      93.18257077      73.10673661     103.32952972
H      92.39455491      73.67932369     105.14366698
H      95.19323956      73.53003531     103.44480302
H      92.93312690      71.15275960     102.72859675
C      93.68334824      78.49623605      96.85532736
O      95.99070407      78.95354983      96.49816910
N      92.04306580      80.07037808      97.73593983
H      90.21192100      79.56015197      97.90790492
C      92.68935221      82.50434556      98.80552492
H      94.72080800      82.28135786      99.06252771
C      92.34920146      84.52257327      96.73438488
H      92.21314118      86.37828451      97.62066652
H      90.67490395      83.92541976      95.69503542
C      94.54695317      84.59249314      94.93158598
H      94.68679292      82.78213533      93.96215638
H      96.30439864      84.56036779      96.00872997
C      94.51671755      86.57103660      92.71115757
H      96.44801785      86.79969347      92.03652526
H      94.00649144      88.46643209      93.33476724
N      92.78950769      85.74522620      90.62867916
H      91.95613840      84.06714923      90.99150661
C      92.19235418      86.75434004      88.40636102
N      92.55896108      89.01445272      87.79975887
H      91.93724113      89.88750627      86.22183741
H      93.27516737      90.24277481      89.07154468
N      91.19079924      85.31436859      86.73017379
H      90.98481907      85.86616868      84.91414679
H      90.73915465      83.53424641      87.24228962
C      91.06607730      83.21110321     101.17713144
O      88.71525776      82.95032098     101.18658007
N      92.54195355      83.85549989     103.00638652
H      94.22003051      84.58682397     102.47726314
C      91.73693015      84.01990607     105.66334172
H      90.16278812      82.73111273     105.97892601
C      93.98003528      83.50590052     107.49070706
H      93.44902218      83.93108893     109.43334570
H      95.60331017      84.71910481     107.12598987
C      94.99670804      80.78280489     107.49637623
H      96.40266440      80.64485487     105.99593354
C      96.61431376      80.32738086     109.80184234
H      97.94279135      78.80615117     109.38988201
H      95.76015746      79.89274381     111.62542823
H      98.04294684      81.81081602     109.74326082
C      92.88021456      78.67198061     107.46803034
H      91.75393768      78.75323883     105.74459995
H      91.72370205      78.65308334     109.17256348
H      93.85153389      76.85973308     107.33574949
C      90.57474846      86.58048522     106.53072608
O      89.05540851      86.53135235     108.28250238
N      91.24749102      88.59871293     105.25516082
H      92.64399878      88.20942931     104.01739009
C      89.71492299      90.95520164     105.30240398
H      88.03495630      90.67552215     106.46269595
C      91.36843351      93.16807116     106.08097122
H      92.04495554      92.94697318     108.01416124
H      90.17223676      94.83858922     105.97892601
C      93.69657632      93.45341982     104.30462850
H      93.03139266      93.22854240     102.36954875
H      95.04017174      91.94919767     104.72414774
C      95.07229709      95.98754282     104.42935042
H      95.92456366      96.20675106     106.29262058
H      93.79484210      97.57113347     104.10998668
C      97.30028441      96.03478596     102.66056660
H      96.74092541      95.47731670     100.75761220
H      98.48514281      94.48898984     103.32763998
N      98.58907776      98.44985619     102.70403031
H      99.93834234      98.62749046     101.36421434
H      99.17111346      98.72953570     104.49927030
H      97.37398373      99.84447421     102.23537819
C      88.29195907      91.18007908     102.71914811
O      88.69069132      89.70420282     100.92768757
N      86.52506497      92.93374508     102.73048647
H      86.21892930      93.73876850     104.43501961
C      84.84887774      93.31358008     100.58753683
H      84.10243583      91.45030994     100.13211279
C      82.58876506      95.04834884     101.40200888
H      83.50150287      96.66406484     102.29395969
C      80.92391618      96.06880105      99.31008184
H      81.98594236      97.30279233      98.04774467
H      79.43481185      97.27066698     100.07353127
H      80.14534894      94.53056383      98.18191523
C      80.85210659      93.84270345     103.49393591
H      81.93869922      93.13027662     105.09453410
H      80.11889278      92.07958880     102.71914811
C      78.43892608      95.09559200     104.72981691
H      78.85655560      97.10437107     104.91878954
H      77.78319104      94.11293431     106.41545278
H      76.89124022      94.74410289     103.41834685
C      86.25105465      93.99955073      98.03451659
O      88.06519192      95.34692560      98.04585495
N      85.41201617      93.16996088      95.80652926
H      83.86810977      92.06069153      95.95581764
C      86.33420262      93.67451780      93.23272202
H      87.67968774      95.22598311      93.38012068
C      87.76283571      91.37283116      92.05920198
H      89.13099755      90.91740712      93.52940906
H      88.44124745      91.95486686      90.20160101
C      86.43813757      88.97476847      91.42614366
C      85.69169566      88.50233689      88.93737411
H      85.78807170      90.01033849      87.56354308
C      84.73549415      86.16663517      88.29297744
H      84.17802489      86.00411869      86.33522099
C      84.54841125      84.24667322      90.10900442
O      83.85299197      82.04136263      89.27563513
H      83.59787891      82.09994414      87.48039513
C      85.24760998      84.67564111      92.62989934
H      85.24383054      83.18653676      94.02640707
C      86.22081904      87.01512228      93.34043643
H      86.62899992      87.34960384      95.31331069
C      84.21770915      94.70252892      91.53385807
O      82.01617799      94.69308029      92.36344793
N      84.76761950      95.50377288      89.27752485
H      86.56096977      95.20330639      88.69926860
C      82.90812880      96.52422509      87.48228485
H      81.03541004      96.12171338      88.23439593
C      83.14623432      99.30968166      87.11378823
H      82.50372738      99.90872491      85.25240780
H      85.03785036     100.10525645      87.29331222
C      81.64579163     100.71374832      89.16792072
H      81.81208754      99.94840917      91.07276484
H      79.71449133     100.13360235      88.74084257
C      81.55697449     103.72786179      88.92792549
H      81.07320455     104.21352146      86.98528683
H      83.45803917     104.40249409      89.34366528
C      79.74661668     105.17161269      90.72127575
H      80.28518869     104.85602840      92.68470139
H      77.91358217     104.24942626      90.54175176
N      79.39323787     107.94762065      89.87845781
H      77.99484040     108.73941598      90.90835866
H      78.66191378     108.07234259      88.11912262
H      80.75006136     109.20428864      90.36033803
C      82.98749732      95.27511599      84.87446255
O      85.05107845      94.76111044      83.77464183
N      80.80486343      94.64961658      83.94093774
H      79.34788443      95.27889544      85.00107420
C      80.23227635      93.31546980      81.61468465
H      81.42658338      91.63739284      81.62413328
C      77.48272457      92.57091764      81.56366205
H      76.41880865      94.30001721      81.21028322
H      77.05564642      91.79990930      83.42693218
C      76.62856827      90.71142694      79.55488297
O      75.66102839      91.62794421      77.60090596
O      77.14257382      88.41918893      79.67771518
C      80.90879836      95.00866458      79.14670208
O      81.34343542      97.33302794      79.48307338
N      80.96171071      93.79357057      76.98863463
H      80.60833189      91.92085178      76.88469969
C      81.35666351      94.99543650      74.42805548
H      83.07253500      96.11793392      74.63592537
C      81.47193681      93.29090336      72.07156678
H      81.73838822      94.54379191      70.45774051
C      83.83031525      91.49755310      72.07534623
H      83.60543781      90.23521591      73.68728276
H      85.61799634      92.50288749      71.88259414
H      83.71315222      90.30324606      70.40104872
O      79.20804469      91.72243052      71.90149141
H      79.53118789      90.48843924      70.61269805
C      79.28930292      96.88894226      73.96507253
O      79.59354885      98.66150555      72.47218875
N      77.10099984      96.71319772      75.34457274
H      76.74195184      95.12393789      76.33856879
C      75.00907283      98.48387127      75.35402138
H      75.30953931      99.86337148      73.85546841
C      72.65258410      97.08169434      74.81733911
H      71.09544963      98.30056781      75.38614673
H      72.41258887      95.41495574      76.00408723
C      72.52219300      96.61304222      71.98463936
H      74.35522751      96.00266063      71.26465364
H      71.83622235      98.28733973      71.00009195
C      70.59845161      94.53812272      71.43283927
O      68.72951228      95.00299541      70.04011098
O      71.02364002      92.40084226      72.19061952
C      74.62545837     100.21297085      77.75397380
O      72.54675944     101.21074634      78.32089168
N      76.56998676     100.25832428      79.35835144
H      78.25184318      99.51566184      78.85001506
C      76.62289910     101.89104782      81.62413328
H      75.91992090     103.78833303      81.24429829
H      78.60711173     102.26332390      82.02664498
C      75.05820571     101.13704702      83.98251172
O      75.08277215     102.19907320      86.04420314
N      73.82799388      98.92039805      83.83511307
H      73.99617951      98.08135957      82.13057993
C      72.58077450      97.82435678      86.04420314
H      71.63969081      99.29456386      87.13835467
C      70.35467691      95.92329212      85.19760575
H      69.20572332      95.56991329      86.87190326
H      71.26930444      94.19230282      84.56265770
C      68.91281574      96.73020526      82.90914717
C      69.06588357      95.43007354      80.59990163
H      70.03531316      93.63672328      80.48084886
C      67.61646348      96.23509695      78.57789446
H      67.67315527      95.06157691      76.90548668
C      66.29554480      98.55379114      78.61379926
O      65.23729805      99.28889467      76.41415783
H      64.47006917     100.93106685      76.51242360
C      66.27097835      99.97486534      80.77375645
H      65.08989941     101.63215530      80.90225784
C      67.50496964      99.06968643      82.93371361
H      67.55410252     100.19596330      84.63635702
C      74.54420014      96.52233535      87.87723765
O      76.61345046      95.75132702      87.24795879
N      73.74106646      96.32202437      90.23939555
H      71.97984154      96.98153885      90.57009765
C      75.32087767      95.20897557      92.24061571
H      77.27485466      95.78345237      91.92692114
C      74.37034532      96.20864079      94.77851814
H      75.64969004      95.29779271      96.11455466
H      72.46172176      95.46408863      94.99016750
C      74.84655635      99.02055355      95.17347094
C      72.83966702     100.70618942      94.95804215
H      70.96127906      99.95974753      94.67458321
C      73.06643418     103.29133502      95.20748603
H      71.41481337     104.47619341      95.03930038
C      75.41914343     104.27588242      95.87455941
O      75.59299825     106.84213075      96.19959234
H      74.00184870     107.59424183      95.76684502
C      77.49973210     102.68095342      96.03896560
H      79.32331799     103.36881379      96.64178829
C      77.26351632      99.94462971      95.76306555
H      78.87545285      98.69174116      95.81786762
C      75.29064204      92.38950392      92.32376367
O      73.29320133      91.14228454      92.34077120
N      77.51107046      91.37283116      92.37100682
H      79.13623509      92.32336349      92.68848084
C      77.86444927      88.48910881      92.68281167
H      76.11645244      87.41952370      92.85855621
C      79.00584398      87.57259154      90.10333525
H      81.03352030      87.89573473      89.94081879
C      78.47672060      84.76823770      89.65358038
H      79.49528309      83.88006633      91.21071488
H      79.58221049      84.26368077      87.99062123
H      76.56242785      84.04825196      89.41169543
O      77.58476978      88.44753482      88.07565891
H      76.36967577      89.57003226      88.82399054
C      79.60299749      87.94486763      95.10922025
O      80.74628190      89.82325557      96.13156219
N      79.42536322      85.76601318      96.21282042
H      78.13279041      84.50367600      95.59676964
C      80.96737989      85.04035827      98.41435157
H      82.74372261      86.07781802      98.35765978
C      79.63512284      85.51278985     100.83887043
H      79.25717758      87.51967920     101.12610883
C      77.17091973      83.92730948     101.15256500
H      75.87078801      84.45643284      99.64456340
H      76.19960040      84.67375137     102.80607552
H      77.41091496      81.92230986     101.54562807
C      81.27729501      84.89295963     103.18968996
H      81.86311016      82.92197509     103.32197081
H      80.05275235      85.44664944     104.75060390
C      83.75283648      86.42741739     103.52795097
H      85.36288329      85.94364745     102.34120286
H      84.19503242      86.54458042     105.53673004
H      83.39189874      88.40974030     103.10087283
C      81.67602726      82.16797429      98.19514333
O      80.23038662      80.69398775      97.35610483
N      83.94180911      81.47633445      99.13811675
H      85.06430654      82.81615041      99.90723536
C      84.80919348      78.87607105      99.28740514
H      83.31441997      77.73089691     100.11888470
H      86.53640333      78.99323408     100.40234365
C      85.28729423      77.74979416      96.58698623
O      86.86521570      78.66631143      95.26228808
N      84.09298721      75.58038835      96.08809848
H      82.73616372      74.82260811      97.19358837
C      84.17235572      74.39364023      93.65791044
H      85.53295866      75.37818764      92.46360341
C      84.99438665      71.60251447      93.57287276
H      83.33520695      70.43655334      93.93192077
C      85.80129980      70.73701981      90.91780729
H      86.09798682      68.70556403      90.75151138
H      87.54362746      71.77636929      90.55309012
H      84.34621054      71.21512058      89.54019680
C      87.07875479      71.17354660      95.61188745
H      86.20948068      71.13197261      97.48082677
H      88.70013995      72.44344268      95.54952649
C      88.48660089      68.58462155      95.49661414
H      89.27650648      68.23880164      93.62389537
H      87.33953701      66.92355212      95.90668475
H      90.14200114      68.72446129      96.71359789
C      81.61366628      74.95677868      92.37478627
O      79.91480233      73.32783460      92.59399454
N      81.34154570      77.02224954      91.02552169
H      82.73805344      78.32427097      90.96316072
C      79.11355837      77.27736258      89.37957008
H      78.93592409      75.75613291      88.00384931
H      79.52551870      79.00079299      88.32888224
C      76.61345046      77.91231063      90.69670931
O      74.74073169      77.63074141      89.33988582
N      76.55486895      78.84016625      93.11366926
H      78.18570275      78.83638680      94.10199612
C      74.05287130      79.34283344      94.35899890
H      72.57321561      78.08427572      93.67302825
C      74.26074120      78.59828128      97.13500687
H      75.67236676      79.88896435      97.90412548
H      75.10355914      76.71989333      97.15012468
C      71.80220726      78.77213610      98.67324408
N      70.20727826      76.67831935      99.28929486
H      70.54553927      74.86229235      98.81119410
C      68.03976217      77.68554346     100.35699023
H      66.32955986      76.76713649     100.99004853
N      68.13046905      80.16486439     100.10943607
H      66.76230720      81.38940705     100.63478000
C      70.45861186      80.93587272      99.24961060
H      71.08789072      82.82748876      98.81308383
C      73.23084035      82.18498182      94.09254749
O      74.28341792      83.93486839      95.26606753
N      71.35434213      82.60072160      92.54486164
H      70.97072769      81.00957206      91.56409369
C      70.42837624      85.07059391      91.81164784
H      72.21038816      86.08915638      91.63401357
C      68.91470546      84.70020755      89.31342965
H      67.27064357      83.62306355      89.92759071
H      69.99184945      83.48322380      88.04731302
C      67.98496012      87.06425516      87.93014999
H      66.84356543      86.40474067      86.34655935
C      66.30310370      88.96531984      89.33043718
H      64.94061103      87.97132379      90.51340586
H      65.42060151      90.16718576      87.91125272
H      67.37079906      90.05947137      90.71182712
C      70.08822550      88.63272800      86.65647445
H      71.35812158      89.36216236      88.10400481
H      69.34745279      90.23899536      85.60200717
H      71.24473800      87.44786960      85.43193181
C      69.08478082      86.14206871      94.21915917
O      67.49552099      84.74178152      95.41913536
N      69.81043573      88.36438687      95.05063874
H      71.28442226      89.30358084      94.28340986
C      68.38936154      89.53790690      97.14256577
H      67.77520050      88.04313340      98.42002075
C      70.04098235      91.14228454      98.70347971
H      68.75407872      92.18919293      99.92235317
H      70.98962496      92.42540872      97.40145827
C      72.11023266      89.69664392     100.17179705
H      73.07021363      88.49288825      98.80174546
C      74.22483640      91.32747772     101.29618421
H      74.83710773      92.63327861      99.82408741
H      75.81976540      90.11805288     101.78184386
H      73.60122671      92.14383949     103.08197556
C      70.85545439      88.13950944     102.25238572
H      69.54020488      89.26767605     103.36732424
H      72.05543059      87.14551339     103.60165030
H      69.81043573      86.56914686     101.42468559
C      65.83067211      90.73032421      96.30541700
O      63.70661975      89.72876927      96.73249515
N      66.04043173      92.72776493      94.75206198
H      67.77709022      93.16429170      94.08687832
C      63.94094580      94.08836787      93.51240151
H      62.68427781      92.54824093      92.97005006
C      62.72207234      95.63038453      95.62511553