 %block lattice_cart
   142.669   0.000   0.000
   0.000 146.65   0.000
   0.000   0.000   162.396
 %endblock lattice_cart

 %block positions_abs
N      89.61193289      44.21660074      77.25981036
H      91.29189959      44.03140756      76.37163900
H      88.31747037      44.65690697      75.92755332
H      89.06580199      42.58198748      78.07806186
C      89.73854457      46.26317433      79.07016817
H      91.01788927      45.89467770      80.64053075
C      90.61348785      48.67446511      77.79460292
H      89.03745610      49.26594944      76.60596506
H      92.14227644      48.40801370      76.43966915
C      91.70197021      50.54340443      79.72023402
H      93.07769096      49.47948852      80.82572391
H      90.14105627      51.06496889      80.95800476
S      93.10981631      53.35531719      78.34073381
C      95.51732763      54.12065634      80.63864101
H      95.84991945      52.53895542      81.91420627
H      94.83324670      55.67590110      81.79893298
H      97.31823680      54.70080232      79.82227925
C      87.07592019      46.70348056      80.16431972
O      85.08981783      47.17780187      78.88686473
N      87.17607569      46.59198671      82.76269340
H      88.86549100      46.36521955      83.61684969
C      85.02556713      46.98693951      84.39730665
H      83.43252785      45.87578044      83.70944628
C      85.76822957      46.03829690      87.08071802
H      87.73165521      46.48616204      87.51913452
H      85.37516651      44.01817947      87.02024678
C      84.12605741      46.79607715      89.28224918
O      81.95287215      47.47826835      89.13862997
N      85.07470002      46.44269833      91.51590567
H      84.00322521      46.64489905      93.08059905
H      86.81702768      45.66224137      91.58393581
C      84.15629304      49.77428582      84.37085049
O      85.72854532      51.47126005      84.59761765
N      81.64106731      50.28073247      84.17431895
H      80.35983287      48.86532747      84.13463469
C      80.57337194      52.85453971      84.28203335
H      81.36138782      53.88633028      82.68143516
C      77.65752424      52.67879517      83.97778740
H      77.37784475      51.51472376      82.30348990
C      76.30825966      51.09331479      85.99412538
H      76.01157263      52.12888481      87.74968114
H      77.52335368      49.48704742      86.41931381
H      74.59049844      50.42435167      85.07760813
C      76.15330209      55.17512363      83.62818805
H      76.12873566      56.33352586      85.33083145
H      74.17664838      54.68757424      83.30504484
C      77.12462142      56.76249373      81.48334868
H      75.88874042      58.32151794      80.94099722
H      77.49311805      55.57385588      79.84306624
H      78.87639771      57.65255482      82.10317890
C      81.31036521      54.40789474      86.65552959
O      81.62405978      56.71336084      86.45332888
N      81.63728786      53.16256510      88.75690525
H      81.29902684      51.28795660      88.66430866
C      82.65585035      54.35687213      91.06993027
H      81.70909746      56.16345049      91.35149949
C      82.22499275      52.48037390      93.29224841
H      83.54402171      53.11910140      94.73977877
H      82.92608121      50.67568527      92.58738049
C      79.53591220      52.42368211      94.24844992
C      77.76334891      50.62844212      93.15996756
H      78.46443737      49.51728304      91.59527418
C      75.31615335      50.48104346      94.28435473
H      73.93098395      49.23193437      93.45476486
C      74.66608749      52.12699508      96.33281805
H      72.76313310      51.94369163      97.04524487
C      76.45376859      53.73515217      97.35138052
H      75.86039451      54.96536400      98.86883076
C      78.88017716      53.96380906      96.32903860
H      80.14062462      55.38110379      97.07925994
C      85.41296103      55.15811609      90.89040626
O      86.18774882      56.83997251      92.32281880
N      86.93608044      54.01483167      89.20666012
H      86.27278650      52.51438898      88.22589217
C      89.67051442      54.57419066      88.69076484
H      90.38861041      55.51338464      90.37640071
C      91.21253108      52.16101016      88.55092508
H      90.48876591      51.26905934      86.84261251
H      90.82891664      50.95725449      90.17797945
C      93.98475959      52.82052464      88.14274421
H      94.54600830      54.54773449      89.11406353
H      94.07924590      53.43279596      86.17742884
C      95.99353866      50.75883323      88.68131621
O      97.86247798      51.18402165      90.26301713
O      95.64015983      48.65934730      87.69109962
C      89.94074528      56.47525533      86.52513848
O      91.72275720      58.05317680      86.59316863
N      88.28723475      56.33730531      84.68454506
H      87.11371471      54.83686262      84.80926698
C      88.34203682      57.57885550      82.18443713
H      90.24499121      57.32185272      81.43421580
C      86.79246124      56.03116964      80.34006425
H      84.81202806      56.21258337      80.87296707
H      87.35748940      54.07908236      80.67265608
C      86.96631607      56.76438345      77.55271795
H      86.02334264      55.08819621      76.81194523
H      88.80313004      57.10264446      76.68722329
S      84.91974247      59.39299276      76.58139862
C      82.06058655      57.44090547      75.80850055
H      80.76234457      58.77316253      74.92410864
H      81.29524739      56.42990190      77.43177546
H      82.55758457      55.98959567      74.43277980
C      87.84692853      60.46635730      82.40175566
O      89.11304516      61.91010820      81.16398492
N      86.17641047      61.18823275      84.05337647
H      85.30146717      59.78605583      85.00579852
C      85.53201379      63.83951877      84.37462994
H      85.61327202      64.77493330      82.54159541
C      82.86183051      63.96802016      85.54248079
H      82.16452151      65.82940058      86.08105280
H      83.21520933      63.14598921      87.39819203
C      80.66029936      62.52804871      84.29904089
H      81.14784875      60.57218198      83.87196274
C      78.31703873      62.51104117      85.99790484
H      76.56337271      61.97813835      85.05682114
H      77.96554964      64.41399557      86.70277276
H      78.36050244      61.34696976      87.69865853
C      79.92330609      63.72424547      81.83105832
H      81.43319741      63.89432083      80.44021975
H      79.11639296      65.61586150      81.94822135
H      78.43420176      62.57151241      80.99579929
C      87.64850727      65.27004159      85.87507263
O      87.96787101      67.52826453      85.65775411
N      89.14517051      63.85841603      87.37929478
H      88.90517525      61.98191780      87.61929001
C      91.48843113      65.04705388      88.41108535
H      90.91584406      66.83284525      89.26524163
C      92.53156005      63.29338787      90.53135826
H      94.46097062      63.82440096      91.02079738
H      92.88871833      61.48303006      89.61673072
C      90.67206936      62.71702134      92.59871885
H      88.95430814      62.01215343      91.71243720
H      90.60781866      64.42155447      93.75712107
C      91.62071198      60.51171073      94.28435473
H      93.35926018      60.86508955      95.33315283
H      92.00810587      58.89599474      93.06737097
N      89.60059455      59.76904829      95.98888786
H      88.51400191      58.34041520      95.34449119
C      89.13950132      60.62320459      98.28301559
N      90.52089126      62.13876509      99.57369868
H      89.76311101      62.73024942     101.22342975
H      92.03267231      62.92678096      98.71954238
N      87.17607569      59.53094278      99.38283631
H      86.75844617      59.96557983     101.19130440
H      86.88505782      57.83774800      98.54946700
C      93.56713007      65.63475877      86.46466724
O      95.07324195      67.20890079      87.07315912
N      93.39894444      64.92611140      84.09117098
H      92.17440178      63.49936803      83.76424833
C      94.99954261      65.68011220      81.95389052
H      96.24865171      67.17299599      82.62474337
C      96.77021618      63.47102214      81.19044110
H      98.10814240      64.20234622      79.80527172
C      98.39538081      62.79261039      83.41653870
H      97.45051764      61.44523553      84.65808889
H      98.94340143      64.50659216      84.41809364
H     100.10936256      61.95735136      82.63797146
C      95.46819475      61.27516016      79.84306624
H      94.23420347      62.02916096      78.37852835
H      94.27199799      60.28494358      81.19800001
C      97.32012654      59.42889756      78.48813247
H      98.47285959      60.58352033      77.23146447
H      96.11826060      58.06829461      77.51492341
H      98.57679452      58.55962345      79.86952240
C      93.56146090      66.76103565      79.58984291
O      94.68773777      67.57928714      77.78137483
N      91.03678654      66.77993291      79.71078539
H      90.26577821      65.58184643      80.98068148
C      89.37949657      68.19911737      78.01570090
H      90.43396384      68.72824074      76.32628557
C      87.03434620      66.46812807      77.27114872
H      85.46398365      66.97646445      78.50325029
H      87.25544418      64.42533393      77.43744464
C      86.11593923      67.21456997      74.63875997
O      87.84314908      67.29771792      73.01737479
O      83.90495943      67.68700154      74.21168182
C      88.55179643      70.74835817      79.19489011
O      88.19085871      72.67020983      77.89664813
N      88.41573615      71.00914040      81.61940897
H      88.40061833      69.36129906      82.58127967
C      87.95464293      73.41476200      83.05182152
H      87.85637715      74.95110949      81.68176994
C      85.27690073      73.36562911      84.18376757
H      85.07281030      71.89542204      85.61051094
H      84.12038824      72.86863109      82.55293377
C      84.48132595      75.78258907      85.41775886
H      85.49232954      76.00557677      87.19788105
H      82.57081265      75.36495955      86.06782472
C      84.57014309      78.21844629      83.85495520
O      84.33014786      80.25746098      85.01146771
O      85.13139182      78.16364422      81.50980484
C      90.02389324      74.02325387      84.96989372
O      91.11804477      76.10006309      84.81304644
N      90.51711181      72.23179333      86.62529398
H      89.57602809      70.57828280      86.45899805
C      92.23865248      72.39053034      88.82682512
H      93.96208287      73.44310789      88.41108535
H      92.70730460      70.42521497      89.22555739
C      91.11993449      73.83050179      91.07937889
O      88.97320540      74.78481358      90.82615556
N      92.21219630      73.73601547      93.38106555
H      93.87326573      72.80249067      93.48500050
C      91.39205509      74.83961564      95.76023098
H      89.33792259      74.77536494      95.62228096
C      92.08558465      73.01980920      97.88428335
H      94.14160688      72.91965370      97.90884979
H      91.28623042      71.16220823      97.48744082
C      91.37126810      73.72089766     100.67729883
H      92.23487303      75.43487943     101.41996127
C      88.51967110      74.11585046     100.90784544
H      87.99243745      75.72211783      99.73432540
H      88.06991622      74.80938002     102.79568203
H      87.54646203      72.30549265     100.76800571
C      92.05345930      71.59117611     102.50088472
H      91.54701264      72.42643514     104.31313227
H      94.06979728      71.20000276     102.34403744
H      91.05946325      69.79593611     102.33458881
C      92.37849223      77.51924755      96.36305366
O      94.66884051      78.09372435      95.97377005
N      90.78356321      79.12929437      97.45909492
H      88.95619787      78.59828127      97.61594221
C      91.35804002      81.63696119      98.65718140
H      93.37626772      82.02435508      98.76867527
C      90.41317685      83.80636699      96.90162567
H      88.44030259      84.18809171      97.35327026
H      90.40750768      83.14496278      94.95142810
C      91.58480718      86.50867562      97.09248802
H      91.44496742      87.10015996      99.06158285
H      90.54734742      87.83148404      95.90196045
C      94.09625345      86.53135234      96.03802074
H      93.97531095      87.15874147      94.08026427
H      94.97686591      84.66808219      96.06636664
N      95.55701189      88.38328412      97.54035315
H      96.46597023      87.79746897      99.11449518
C      95.26221458      90.89473039      97.65940592
N      93.62382186      92.10604496      96.34037695
H      93.33847318      93.91829249      96.86194141
H      92.71864296      91.25377839      94.89095686
N      96.66439149      92.34981965      99.09937737
H      96.59069217      94.24899460      98.95197871
H      98.25932051      91.61660585      99.84770898
C      90.01633434      81.74278586     101.31791606
O      87.89984086      80.76012818     101.55035240
N      91.12182423      83.11472716     103.13583278
H      92.96241765      83.58526901     102.96197796
C      90.10704119      83.42275255     105.62838178
H      88.45919985      82.22088662     105.91373046
C      92.08558465      82.45143323     107.40283479
H      91.38638590      82.84449630     109.30012000
H      93.88460409      83.44164981     107.22520052
C      92.49943470      79.45621702     107.13827310
H      93.02288889      79.12929437     105.17106802
C      94.57057474      78.50379496     108.91083639
H      93.82413285      78.55292784     110.83079832
H      96.11637086      79.85872873     108.77288637
H      95.32457554      76.66698098     108.35714658
C      90.38672069      77.73089690     107.88660473
H      89.44185753      78.22978464     109.64782965
H      90.80246048      75.72211783     108.10203352
H      88.86171155      77.94254624     106.52033260
C      89.03556638      86.13450981     106.38049285
O      87.73543467      86.46710164     108.23431436
N      89.49854932      87.95431625     104.71564396
H      90.46986864      87.46865659     103.14717112
C      88.62549577      90.56969747     104.65517272
H      87.35370995      90.66607351     106.27277846
C      90.81379884      92.47076214     105.09925842
H      90.02200350      94.35481927     104.85548371
H      92.04401067      92.48210050     103.44763761
C      92.37093332      92.16840593     107.60503550
H      93.29689920      90.34293031     107.82613348
H      91.31079686      92.70130875     109.28689192
C      94.43073499      94.21120007     107.58424852
H      93.71074928      96.13494146     107.44440876
H      95.63260093      93.90317468     105.94018661
C      96.27888734      93.93152058     109.88215571
H      97.33713406      92.16840593     109.77066186
H      95.28678102      93.99199182     111.68684433
N      98.05711980      96.11226474     109.88782488
H      99.07946172      96.11037502     111.49787170
H      97.10469774      97.75443691     110.07679752
H      99.07190282      96.11982365     108.27021917
C      87.14017089      90.99488589     102.26088949
O      87.36882776      89.48310484     100.49021594
N      85.72854532      93.00555469     102.17018262
H      85.69264053      94.14694938     103.69897122
C      83.57614706      93.29846226     100.41273716
H      82.57459210      91.54857570      99.98754873
C      81.77145842      95.25054954     101.44641745
H      82.56703321      97.11192996     101.82436270
C      79.76645881      95.78345237      99.20520204
H      80.73588840      96.29367847      97.46098466
H      78.42475312      97.32924849      99.43763838
H      78.83860319      94.00521990      98.72899101
C      80.31258972      94.19230281     103.80668561
H      81.49933784      93.61026711     105.38649681
H      79.13906968      92.62571970     103.16417867
C      78.26034694      96.16895653     104.80635083
H      79.27135051      97.89427666     105.29956939
H      77.30603515      95.56991329     106.53356068
H      76.99234058      96.83980937     103.33047458
C      84.98021371      94.27167131      97.86538609
O      86.66018039      95.85715169      98.04491008
N      84.30747113      93.22665266      95.66385493
H      83.27757030      91.62416475      95.76023098
C      85.14084045      93.96931510      93.09004770
H      86.14806456      95.72676058      93.46043404
C      86.96253660      91.86982917      92.01479342
H      88.60281904      91.61282639      93.23366689
H      87.65984561      92.75422109      90.28947329
C      85.95720221      89.15996164      91.65196596
C      85.55280078      88.40218139      89.14618888
H      85.71153778      89.87049873      87.74023249
C      84.68163695      85.92663992      88.65486004
H      84.39061910      85.25389735      86.75190564
C      84.14117523      84.19376089      90.69954391
O      83.33237236      81.88829479      89.98711708
H      83.43630731      81.61428447      88.19754626
C      84.55313556      84.93831305      93.15240865
H      84.15629304      83.83660261      94.82292673
C      85.61516174      87.43653124      93.61350187
H      85.74744258      88.05825120      95.55425081
C      83.00733944      94.70252891      91.24567480
O      80.77179320      93.98254319      91.53669267
N      83.60071350      95.92140239      89.10272517
H      85.43374802      96.42784904      88.94587788
C      81.58248579      96.66973401      87.28669819
H      79.76834854      96.32391409      88.19754626
C      81.60327279      99.56479472      87.10717418
H      83.47599156      99.95218861      86.34750421
H      81.37272617     100.46430444      88.94587788
C      79.62472934     100.70996886      85.27413967
H      77.89374004      99.64794268      85.62562876
H      80.35038424     100.11659480      83.43732568
C      79.23355599     103.49353572      85.66342328
H      79.01812718     103.95084949      87.65708455
H      77.40241120     104.04722553      84.89997386
C      81.60138306     104.98075033      84.54659502
H      82.43475237     103.64471383      83.21811744
H      83.04513396     105.34168806      85.97144866
N      80.82470555     107.19173012      83.18032290
H      79.49244849     106.66449648      81.91987546
H      82.28924344     107.85313433      82.15042206
H      80.03668967     108.46162620      84.36896075
C      81.62972895      95.22409338      84.81682589
O      83.53457307      94.64961658      83.70944628
N      79.43575670      94.45686449      83.97022850
H      77.91830648      94.81969195      85.06815950
C      78.74978605      93.04901839      81.61751925
H      80.01779240      91.42385376      81.61373979
C      75.87173287      92.28934841      81.73657200
H      74.75112517      93.96553565      81.32461166
H      75.44087527      91.62605448      83.63952639
C      75.20654921      90.17852412      79.99424434
O      75.06481974      88.06769983      81.03548355
O      74.78136080      90.46198307      77.72657277
C      79.31670395      94.54757136      79.14953668
O      79.59260399      96.81146348      79.16843395
N      79.38095465      93.28523418      76.84785003
H      79.13906968      91.39361814      76.87808566
C      79.49433821      94.40017270      74.27971197
H      81.01556791      95.78912154      74.25892498
C      80.07637393      92.55768955      72.16699795
H      80.20487532      93.51956024      70.34908125
C      82.78435174      91.33881608      72.81895353
H      82.89584558      90.61316117      74.74458465
H      84.27912524      92.63327860      72.24636645
H      83.01111889      89.72121035      71.56228554
O      78.41341476      90.46198307      71.85519311
H      78.66852783      89.71743090      70.22057986
C      77.10572416      95.91195375      73.64287420
O      77.37784475      97.92262255      72.54305349
N      74.86072931      95.16173241      74.63687025
H      74.74356626      93.45530955      75.48346764
C      72.53825567      96.59414495      74.33640377
H      72.47967414      97.59569990      72.53549459
C      70.25546628      94.77622824      74.46868460
H      68.70778043      96.13305173      74.55939147
H      70.21011284      93.71798151      76.23557870
C      70.03814775      92.83169986      72.32573497
H      68.80982564      91.42763321      73.20256797
H      71.89007954      92.17407511      71.70779445
C      68.72289824      93.96931510      69.97491544
O      69.71311482      95.86849005      68.89399198
O      66.75002396      92.91673755      69.21524546
C      72.39841591      98.93173640      76.29227049
O      70.98679036     100.66272571      75.95778893
N      73.86106409      98.82780146      78.24624751
H      75.02513548      97.31979986      78.12719474
C      73.95932985     100.94807438      80.11329710
H      73.15241671     102.73008629      79.46701071
H      75.89251986     101.40916760      80.65753828
C      72.78203035     100.33202360      82.76458311
O      72.48345359     101.91561425      84.37462994
N      72.03369874      97.98687325      83.07827768
H      72.08661108      96.69807990      81.67421104
C      70.89797322      96.94185460      85.48011983
H      69.61484906      98.09836710      86.60450699
C      69.42587643      94.45308504      84.69966286
H      68.49235162      93.79735001      86.41553436
H      70.81671500      93.02256222      84.19132648
C      67.67410014      94.40395216      82.43388101
C      67.29426514      92.11549359      81.20744863
H      67.84228577      90.35615839      82.08428165
C      65.93744166      92.00399974      78.93032842
H      65.44989227      90.17096522      78.17632762
C      64.96045315      94.26033296      77.88719951
O      63.54315842      94.14505965      75.72724232
H      62.76837063      95.77022428      75.50614434
C      65.27036827      96.57146824      79.28937643
H      64.53337500      98.29300891      78.47868383
C      66.62719175      96.67729291      81.46256168
H      66.90687124      98.33458289      82.62096392
C      73.06737903      96.43162849      87.38118450
O      75.32560198      96.19730243      86.64419123
N      72.45699744      95.87793868      89.77735746
H      70.60317592      95.58692083      90.11183902
C      74.23334016      95.09370226      91.87495368
H      76.19109663      95.31857969      91.27213098
C      73.74768051      96.61304222      94.38451022
H      74.63396214      95.73620921      96.02290293
H      71.72189389      96.62438057      94.76245547
C      74.70010257      99.27377687      94.19364785
C      73.02013587     101.30901210      93.74200326
H      71.03970269     100.90839013      93.45854432
C      73.86295380     103.75431795      93.61728134
H      72.37762893     105.14326679      93.43775733
C      76.50101173     104.30800776      93.88562247
O      77.38540366     106.66260675      93.69098066
H      75.85094588     107.57345483      93.36405801
C      78.20554487     102.25765471      94.11994853
H      80.22377257     102.54111366      94.02357248
C      77.29847624      99.80478996      94.13317661
H      78.63451274      98.26844247      94.25033964
C      74.32215730      92.31958403      92.27935511
O      72.38140838      91.09315166      91.90896875
N      76.45943776      91.31047018      92.99178192
H      77.99956471      92.43107789      93.14862920
C      77.00556866      88.54580059      92.92564150
H      75.17442386      87.62172442      93.12406276
C      78.45876821      87.61983469      90.49734319
H      80.47699590      88.03179503      90.56348361
C      77.87484277      84.82681920      90.05514723
H      79.03702445      84.16730472      88.48856412
H      75.88118151      84.49800682      89.66019443
H      78.13751472      83.67597588      91.74456255
O      77.45910298      88.78957528      88.28258396
H      78.46821683      88.33982042      86.84261251
C      78.68364564      87.80880732      95.26701241
O      80.07637393      89.46042812      96.32714886
N      78.44365039      85.45231861      96.23455227
H      77.23233583      84.20887870      95.44653640
C      79.87984238      84.48099929      98.22254435
H      81.66941321      85.49767204      98.22632380
C      78.88584635      85.46554670     100.85871256
H      78.76112442      87.50645111     100.62060705
C      76.32148775      84.13328965     101.31224687
H      75.45032391      84.83059866     103.04323619
H      76.57093162      82.09049550     101.39161538
H      74.87395739      84.65485411      99.94408502
C      80.42786302      84.75500960     103.19819373
H      80.40896575      82.70276683     103.35882047
H      79.36394710      85.42208299     104.83280699
C      83.04891341      85.90018375     103.31913622
H      84.08448344      85.42208299     101.60515445
H      83.86905463      84.86839318     104.90272688
H      83.09615658      87.91463200     103.74621437
C      80.35227396      81.65018927      98.04302036
O      79.22221763      80.41430826      96.38573038
N      82.00011531      80.60328089      99.66818499
H      83.14717918      81.68609407     100.74154953
C      82.64262225      77.97845104      99.66062608
H      80.96643502      76.85595361     100.07069670
H      83.91062862      77.64585921     101.24799619
C      83.88417244      77.16397900      97.24744558
O      85.46776310      78.45655180      96.10605089
N      83.20576070      74.82827728      96.53690848
H      82.20798520      73.61129353      97.61594221
C      83.32670319      73.98356962      93.86672520
H      84.79313081      74.92843277      92.77068395
C      83.70086900      71.08661918      93.65696558
H      82.03224066      70.24758070      94.52623969
C      83.95598205      70.45356087      90.83182475
H      82.49144416      71.37007813      89.70932731
H      83.73866352      68.44478180      90.43309250
H      85.78712684      71.01480958      90.07593422
C      86.19341800      70.04915943      94.88528769
H      86.54112764      71.14898015      96.59360028
H      87.82992099      70.39686908      93.68531147
C      86.18774882      67.21268024      95.64684740
H      86.17830019      66.09585199      93.91585808
H      84.62116571      67.01803843      96.96965582
H      87.77700864      66.84796306      96.90540512
C      80.85494117      74.79426221      92.67619763
O      78.95387650      73.54137366      93.17319564
N      80.67919661      76.86162279      91.40063237
H      81.98121804      78.25435109      91.47433169
C      78.56081342      77.65152839      89.71877595
H      78.31136954      75.95644389      88.57549152
H      79.35260874      79.05370532      88.43376205
C      75.83960753      78.28647643      90.58805005
O      74.01035246      77.91986953      89.17453478
N      75.51457461      79.02157997      92.98800248
H      76.85628028      79.32960536      94.31081088
C      73.09194547      79.61495403      94.09916154
H      71.81826993      78.32238123      93.12784221
C      73.18643178      78.92142447      96.94130992
H      74.35995182      80.21966645      98.03168200
H      74.33916483      77.22822970      97.14540035
C      70.57294029      78.39419083      98.23577245
N      69.31627230      76.07171719      98.66663005
H      69.73768126      74.42198612      97.80302511
C      67.15442540      76.66509126      99.83637063
H      65.71067450      75.24023762     100.05368916
N      66.93332742      79.21811151     100.17085219
H      65.46312034      80.13651849     100.96642697
C      69.26147023      80.22722536      99.45842537
H      69.92098472      82.15474620      99.58125757
C      72.31904740      82.41930788      93.86294575
O      73.43965511      84.06714922      95.06481168
N      70.18932585      82.98244632      92.51746062
H      69.06682843      81.48200363      92.15841262
C      69.22178598      85.54113575      92.42486403
H      70.84884034      86.63150783      91.78991598
C      67.14119731      85.57326110      90.36317263
H      65.97334645      83.89707386      90.61450623
H      68.16353925      85.42964190      88.58305043
C      65.59351147      87.99966968      90.15152327
H      66.81805411      89.45853840      90.93575970
C      65.17021277      88.79902391      87.41897902
H      66.96923222      88.88973078      86.41742408
H      64.33117429      90.63961734      87.03347486
H      63.84362489      87.51778947      86.50435150
C      63.15009534      88.21698821      91.67653240
H      63.44300292      88.82359035      93.62484023
H      62.34318220      86.32726189      91.51590567
H      62.26759316      89.77790214      90.66174937
C      68.34117352      86.60127221      95.12339321
O      67.19599937      85.13862404      96.57281328
N      68.80982564      89.00122463      95.72432617
H      69.73390181      90.11049397      94.47899653
C      67.91598511      90.26734126      97.96176213
H      67.25836034      88.70264787      99.12961298
C      70.12885461      91.73187915      99.24866575
H      69.38052300      93.13405607     100.55824607
H      70.94332665      92.96964989      97.81625320
C      72.02802955      89.95175696     100.56580498
H      72.64408034      88.52501360      99.21276095
C      74.32215730      91.14417427     101.41051265
H      74.14641276      92.58414572     102.87316082
H      75.15741633      92.00211001      99.73243569
H      75.68087052      89.76089461     102.10782166
C      70.85450951      88.55335949     102.86182246
H      69.30115449      87.32692711     102.28734565
H      70.34806287      89.92530079     104.31124253
H      72.27936315      87.37228055     103.76511164
C      65.78059436      92.07958879      97.16618734
O      63.79071255      92.08525797      98.45120124
N      66.23601841      93.60459793      95.23299733
H      67.99913305      93.82947536      94.54135749
C      64.29904894      95.28834407      94.24278075
H      62.43199934      94.42095969      94.26356774
C      64.02503863      97.56357455      95.99644677