 %block lattice_cart
   137.793   0.000   0.000
   0.000 143.498   0.000
   0.000   0.000   162.326
 %endblock lattice_cart

 %block positions_abs
N      84.09651360      39.05106561      77.62165289
H      85.63286109      38.72792241      76.53506026
H      83.11574564      40.14143769      76.40277942
H      82.92488329      37.57329963      77.90889129
C      84.59918080      40.52316241      79.94223680
H      85.67443507      39.32885538      81.22914042
C      86.28670640      42.82862851      79.23925861
H      85.06027402      44.14765748      78.24148313
H      87.87974568      42.47147024      77.98070089
C      87.64352989      44.13820884      81.47102539
H      89.15720067      42.98547579      82.25904126
H      86.24135297      44.38765272      82.95824000
S      88.68476909      47.13531478      80.39010194
C      91.02425026      47.70223267      82.78438518
H      92.56626694      46.34162972      82.65399406
H      90.27969810      47.52837785      84.69867793
H      92.10328399      49.45589869      82.78627490
C      82.19733866      41.26015567      81.17811781
O      80.37564249      41.97258249      80.00837722
N      82.37875238      41.49448173      83.66688736
H      84.04738072      41.25259676      84.56072792
C      80.36241441      42.49036750      85.19756569
H      78.72213197      41.34330363      84.70812657
C      81.20712207      42.17289348      88.01514761
H      82.74157983      43.49570190      88.38175452
H      81.84018038      40.23592401      88.31561410
C      78.99614228      43.02704977      89.70834240
O      79.42699988      44.74292126      91.20689536
N      76.93067142      41.72880779      89.79149034
H      75.72124658      41.91778043      91.25791796
H      76.49981382      40.42300691      88.46868193
C      79.71990746      45.18700695      84.68544986
O      81.38664607      46.86508391      84.14120868
N      77.29538860      45.84652143      84.86875330
H      75.95368292      44.55205891      85.28638281
C      76.60185904      48.48835882      84.17900321
H      77.57317837      48.91921642      82.41588855
C      73.63309901      48.69244926      83.65932847
H      73.04539412      47.15232231      82.42155772
C      72.12698713      48.13875945      86.17644391
H      70.15222314      48.59418349      85.80416782
H      72.73925846      49.57684117      87.51814959
H      72.38965909      46.29816602      87.06461529
C      72.77327353      51.24735923      82.68611941
H      73.38932431      52.76858892      83.93144906
H      70.72669994      51.07161469      82.83729752
C      73.70301888      51.78593123      80.01782585
H      72.86775985      53.49991300      79.23736890
H      72.98681261      50.45178446      78.61942838
H      75.74959248      52.01458812      80.08774573
C      77.57128864      50.55949886      86.05361170
O      78.51615180      52.53993203      85.34118488
N      77.69412085      50.11352345      88.56316824
H      77.01570911      48.41276976      89.10174025
C      78.64276346      51.77270315      90.40565141
H      77.85285786      53.66998837      90.26014247
C      77.93222637      50.88642151      93.02859152
H      78.66544018      52.43599708      94.16998621
H      79.02259845      49.27259524      93.70133409
C      75.12598279      50.54816050      93.73345944
C      73.78994629      52.43599708      95.07894457
H      74.91244372      54.01013910      95.73278987
C      71.33897126      52.06750045      96.04459472
H      70.74748693      53.41487531      97.45811000
C      70.21836356      49.82817477      95.74223851
H      68.48170508      49.17243974      96.59261535
C      71.41456031      47.90821284      94.40431227
H      70.40733619      46.18856189      93.97156495
C      73.82018191      48.24269440      93.36307308
H      74.71591218      46.61375031      92.52025514
C      81.64175912      52.02592647      90.05983148
O      82.62252708      53.91376306      90.88942133
N      82.97212644      50.15887688      89.07150463
H      82.14064687      48.44300538      88.96567995
C      85.77837002      50.22123785      88.46679220
H      86.55315781      51.38341953      89.98046299
C      86.92354416      47.54916484      88.74836142
H      88.97200749      47.72112993      88.60474222
H      86.38497217      46.14131874      87.34807422
C      86.72890235      46.43233659      91.36563236
H      87.85517924      44.74103154      91.71145228
H      84.73902055      46.06761941      91.74168790
C      87.79281827      48.43166703      93.25157923
O      86.70622564      48.78693557      95.35106516
O      89.73734665      49.66376858      92.70544832
C      86.37741326      51.38341953      85.86274934
O      88.29359574      52.64386698      85.74936576
N      84.78248425      51.14531401      83.96168468
H      83.35574089      49.88864601      84.14498812
C      84.80894042      52.56638820      81.51826855
H      86.60040097      52.25269363      80.55261840
C      82.82850724      51.47790584      79.79672788
H      81.01248026      52.23379637      80.40521975
H      82.76803600      49.43133225      80.01404641
C      83.15731962      52.34529022      77.06229390
H      85.02247949      51.75002643      76.42923559
H      83.10440729      54.40131245      76.93379251
S      80.52493087      51.09051195      75.23492856
C      80.99169327      52.81205262      72.37766237
H      82.66410106      52.12986142      71.38555607
H      81.19578371      54.83405978      72.71781311
H      79.21157108      52.53993203      71.38366634
C      84.47823832      55.39341876      81.75259461
O      85.75569330      56.74268335      80.42222728
N      82.74535929      56.38930453      83.30028047
H      81.38097689      55.16476188      83.82940383
C      82.16332358      59.06137754      83.25114758
H      82.23324346      59.52058103      81.24425823
C      79.44778687      59.40908718      83.89365453
H      79.07929024      61.42731488      84.07317853
H      78.74858813      58.92531724      85.77015275
C      77.49192014      58.22989796      81.93778779
H      77.86608595      56.22300862      81.67322610
C      74.85008275      58.64185830      82.88265094
H      74.15655319      57.06582655      84.01270728
H      73.43845720      58.92909670      81.41055415
H      75.03338620      60.38607568      83.96357441
C      77.65065715      59.39585910      79.31295794
H      76.78327277      61.26479842      79.33752438
H      76.64343302      58.18076508      77.99014952
H      79.57061908      59.71333312      78.62887702
C      83.98313002      60.80748465      84.67033204
O      83.87163617      63.16208364      84.31128404
N      85.88797415      59.70766394      85.97991237
H      85.84073099      57.81604790      86.21234871
C      87.50180042      61.35928473      87.59373865
H      86.29048585      62.54414313      88.76536896
C      89.33672467      59.79837080      89.17543957
H      90.40253031      61.14952511      90.30738564
H      90.38930222      58.56626924      87.90554348
C      88.13863818      58.11840411      91.16343165
H      86.77047633      56.89008200      90.23368630
H      87.15031132      59.40908718      92.42765855
C      90.22678576      56.58016689      92.57127775
H      91.47589485      57.91431367      93.51992036
H      91.24345852      55.43499274      91.19366727
N      89.15531094      54.74524264      94.49690886
H      89.48034387      52.89520058      94.16620676
C      88.15186627      55.25924820      96.73245509
N      87.73801621      57.51180196      97.52802988
H      86.62118795      57.93321093      99.01524448
H      88.56004715      58.92531724      96.54537219
N      87.07472227      53.51503081      98.01368953
H      86.17332282      53.91376306      99.64641307
H      86.86496265      51.76325452      97.28803464
C      88.90775679      63.50223437      86.23880488
O      89.26491507      65.49967509      87.25358791
N      89.85450968      62.93720621      83.94467713
H      90.06615902      61.05881825      83.68389491
C      91.08661123      64.77968936      82.25715153
H      92.08627645      66.16485875      83.40610513
C      93.19365607      63.60427959      80.72836295
H      93.99678975      65.29180519      79.86097857
C      95.31203927      62.38162667      82.36108649
H      94.64118643      60.89630179      83.61964421
H      96.29847640      63.78002414      83.50815035
H      96.73122373      61.56148545      81.11197739
C      92.60406146      61.33093884      78.80273184
H      91.55526336      59.92687219      79.88554501
H      94.30292542      60.53914351      77.94857554
C      91.06393452      62.34383214      76.52939109
H      92.10517372      64.03702692      75.99459853
H      89.15720067      62.81059454      77.14733158
H      91.08661123      61.10984086      74.87966001
C      89.26680479      66.31414713      80.59608212
O      90.13985835      68.09237959      79.27516341
N      86.77047633      65.76612650      80.61308965
H      86.09773377      64.41875164      81.78660969
C      84.96200825      66.94531572      78.93501268
H      85.89931250      67.21743630      77.12087542
C      82.55638666      65.19353942      78.52494207
H      81.62475158      65.19731888      80.36364577
H      83.32172581      63.31893092      78.15077626
C      80.86508161      66.36705946      76.41600750
O      78.68433744      66.95098489      76.86387265
O      82.00836602      66.48044304      74.33541883
C      84.36107528      69.72699285      79.53783538
O      83.81494438      71.15184649      77.82196389
N      84.43855406      70.66996628      81.85463984
H      84.68799794      69.29991470      83.16044071
C      84.49713558      73.36093655      82.54816940
H      85.20389322      74.51555933      80.99292463
C      81.84018038      74.29824080      82.74659065
H      81.16932754      73.18141255      84.34340939
H      80.75169803      73.68219002      81.10819795
C      81.44333786      77.08558711      83.25114758
H      82.63764489      77.73187351      84.80072316
H      79.43644851      77.50699608      83.44956885
C      82.21812565      78.68051612      80.95701983
O      80.65910144      79.64049709      79.51515865
O      84.50658421      78.79578942      80.59797183
C      86.46245094      73.87494211      84.59852245
O      87.23156955      72.29513091      86.13864938
N      87.44699835      76.15962122      84.33585048
H      86.66654139      77.37282551      83.08485167
C      89.48034387      77.03834395      85.97046374
H      90.54237005      78.67673667      85.30528008
H      90.80126256      75.45853276      85.93266921
C      88.57327524      77.44274538      88.64442648
O      86.91220581      79.00932850      88.89764981
N      89.68065486      76.18418766      90.51336580
H      91.20944344      75.15050737      90.02014723
C      88.78681431      76.29379179      93.02103261
H      86.74779962      76.02545065      92.93221549
C      89.86206858      73.95809006      94.40053282
H      91.88596546      73.74077154      94.08683825
H      89.01169174      72.24977748      93.62385532
C      89.67120622      73.99210514      97.35984423
H      90.67654062      75.63427730      98.09494777
C      86.84984484      74.10926817      98.20833134
H      86.01836526      72.55969259      97.13685652
H      85.95033511      75.71364581      97.27669627
H      86.72890235      73.92218526     100.25490494
C      90.82582900      71.61482943      98.41431151
H      92.77602656      71.86049386      97.79637101
H      90.13418917      69.79880245      97.72834086
H      90.29481591      71.80569179     100.39474469
C      89.28759178      78.77500243      94.47612187
O      91.48156403      79.08113810      95.15075418
N      87.54337440      80.58724997      94.89753084
H      85.78592892      80.34158555      94.19266294
C      88.00635734      82.94940786      96.27136187
H      90.05482067      83.11759350      96.43198861
C      86.68921810      85.11881367      94.85973633
H      86.19410981      86.77799337      95.97656457
H      84.86374248      84.33268752      94.32116432
C      88.18399162      86.21863438      92.56182913
H      90.16442479      86.50020360      93.05126823
H      87.41109355      87.98741821      91.83806395
C      88.05737995      84.50087316      90.46234320
H      86.18088172      83.68262167      90.23746576
H      89.38396782      82.92862087      90.47557127
N      88.39942042      85.88604255      88.15687708
H      89.25357671      87.59246541      88.17955380
C      87.60951482      85.32668356      85.90810277
N      86.41331806      83.29333805      85.50559107
H      85.33428434      83.28766887      83.93144906
H      86.38497217      82.02533169      86.93044471
N      87.98934981      86.77421392      84.00136892
H      87.30337915      86.35091522      82.27226935
H      88.75468896      88.49575459      84.31317377
C      86.97834623      82.72075098      98.90375063
O      84.79382261      81.91950702      99.16075340
N      88.25769094      83.31790449     100.92386805
H      90.12474054      83.61081207     100.66308582
C      87.20889284      83.21207982     103.42586569
H      85.40042476      82.22375296     103.49956502
C      89.24979726      82.03667005     105.10772212
H      88.44855330      82.30123173     106.98611007
H      90.92409477      83.22908735     104.96599265
C      90.03025422      79.19641140     104.87150632
H      90.92976395      78.77311271     103.06681769
C      91.87084765      78.48020513     106.93319773
H      93.74167670      79.26066210     106.56848055
H      92.25635182      76.46197743     107.05414021
H      91.07527287      79.16428606     108.70576101
C      87.53392576      77.64872555     105.34582763
H      86.80260168      78.16651056     107.19964914
H      88.03659296      75.65317457     105.26078994
H      86.06182897      77.98320711     103.94365070
C      86.16387419      85.71596718     104.51623779
O      85.35696105      85.66872402     106.69320249
N      86.34150846      87.78710722     103.00823619
H      87.41487301      87.50742773     101.45488115
C      84.95822880      90.09068360     103.44476296
H      84.02659373      89.95084385     105.27590775
C      86.89519827      92.30733256     103.74711917
H      88.23123477      92.00497635     102.20888195
H      87.98746008      91.82545235     105.42519613
C      86.09584404      95.11735559     103.86617192
H      84.58973217      95.51041866     105.21354679
H      85.17365760      95.75797281     102.13707236
C      88.58083414      96.76897639     104.34049323
H      90.04348231      96.01308586     103.10272249
H      89.23089999      96.31733180     106.24155790
C      88.35406698      99.63569120     103.96443770
H      90.20221932     100.44260434     104.38395694
H      86.93299280     100.35189748     105.27401803
N      87.54526412     100.32355158     101.30748250
H      88.60729031      99.42971104      99.99790216
H      87.60195591     102.21138817     101.03347218
H      85.70089124     100.00607756     100.93898588
C      83.09117920      90.51020284     101.30559277
O      83.75069369      89.80722465      99.27035754
N      80.89720695      91.76120166     101.80448053
H      80.74791857      92.37347298     103.60727943
C      78.96212721      92.18827980      99.85050351
H      78.37820178      90.28721513      99.31382124
C      76.67177892      93.66415606     100.89174271
H      77.46735369      95.50097003     101.38118182
C      74.67055875      94.01375542      98.92075816
H      75.39621366      94.89814734      97.20866612
H      72.95090781      95.02664873      99.43098428
H      74.20568608      92.10891130      98.29336903
C      75.53038422      92.30733256     103.25956978
H      76.91177416      92.01442498     104.76001247
H      74.67811766      90.52721038     102.66997517
C      73.41011130      93.96273281     104.33293432
H      72.88665711      93.34479231     106.22644010
H      71.86242545      93.30510806     103.14429647
H      73.72569559      95.96017353     103.93231234
C      80.16588287      93.41471218      97.50724288
O      81.36963853      95.40459399      97.85117307
N      79.80872460      92.58512233      95.24335077
H      78.78449293      90.97507551      95.29437337
C      80.68933706      93.55077248      92.70733805
H      81.75514270      95.30443849      92.88497232
C      82.75480792      91.78387837      91.32972756
H      84.41587735      91.64025917      92.53915240
H      83.30849773      92.86669155      89.66865814
C      81.97246122      89.25164511      90.52281444
C      81.47546320      89.03999577      87.99625036
H      82.07639617      90.49130558      86.69233920
C      80.68933706      86.64760225      87.04571801
H      80.41721647      86.21296520      85.07095401
C      80.52682060      84.49898344      88.72001554
O      79.91832872      82.21241460      87.68822496
H      79.38920536      82.30501119      85.95534593
C      80.89342750      84.86370062      91.37508100
H      80.97657546      83.25743325      92.63174899
C      81.66821529      87.23908659      92.21034004
H      81.89876190      87.60569350      94.20400129
C      78.29694355      94.13280818      90.98390765
O      76.27871584      92.98196486      91.16154192
N      78.77504430      95.68805294      89.15087312
H      80.49469525      96.46662018      88.86741419
C      76.77571386      96.27953727      87.13831460
H      74.81606768      96.14914616      87.75814483
C      77.18578447      98.88924931      86.24447406
H      78.94889912      98.91570548      85.18055814
H      77.69412085     100.07032826      87.85263115
C      75.09763690     100.09300497      84.73836218
H      73.22491812      99.54120489      85.39220749
H      75.36408831      99.50718981      82.78249546
C      75.29227871     102.93893280      84.94812180
H      77.15743858     103.45293836      84.23947444
H      75.50392806     103.53608631      86.90776800
C      73.22491812     104.36000699      83.58562913
H      71.57518705     104.65291457      84.78371562
H      72.78839134     103.10333899      82.01148711
N      74.16222237     106.89790942      82.72580367
H      75.62298081     106.90357860      81.49559183
H      74.91055399     107.87867738      84.18278265
H      72.81673724     107.73127873      81.65810829
C      76.94956868      94.33500890      85.01048277
O      79.03960599      93.55833138      84.55694846
N      75.00504031      94.18383079      83.41744350
H      73.46869282      94.98129530      84.22435663
C      74.65166149      92.49252574      81.20646370
H      76.34296654      91.33034406      81.02316025
C      72.38587964      90.73130082      81.62976240
H      70.53772730      91.59112629      81.32740619
H      72.50115294      90.08690414      83.58373941
C      72.55784473      88.52410048      79.91767036
O      74.20379635      86.93673038      80.34852797
O      71.30873564      88.61669707      77.95235499
C      74.60630806      93.98918898      78.63832566
O      74.02616208      96.24930165      78.61186948
N      75.14676978      92.73063126      76.51994245
H      75.78171782      90.94861934      76.76749660
C      75.00126086      93.88147458      74.04818043
H      76.04250005      95.65025841      73.89889205
C      75.97635963      92.26386886      71.96759176
H      75.45101572      93.36179984      70.30652233
C      78.73158060      91.77065029      72.00727602
H      79.68967184      93.46951424      71.34209235
H      79.08495942      90.16627265      70.76383610
H      79.15676902      91.24341665      73.95180439
O      74.63654368      89.96596166      71.78050887
H      75.38676502      89.06645194      70.39344974
C      72.25926798      94.57878359      73.31118718
O      71.71880625      96.00930641      71.58964650
N      70.45835880      93.50541904      74.71903328
H      70.89299585      92.05221951      75.87554578
C      67.72392482      94.35957534      74.62832641
H      67.34220011      95.02664873      72.71781311
C      66.35576297      91.98229964      75.60153546
H      66.41434449      91.86324688      77.65566796
H      67.19291173      90.34768638      74.66801066
C      63.58164475      92.10702157      74.79273260
H      62.71426037      93.96462254      74.99115387
H      62.37599936      90.63303505      75.57885874
C      63.43991527      91.82545235      71.91278970
O      62.69725283      93.78320881      70.69391623
O      64.11643729      89.78265821      70.89800667
C      67.08897678      96.55165786      76.48592738
O      64.97248331      97.72328818      76.52939109
N      68.90878322      97.40959361      78.06195913
H      70.58308074      96.49118662      78.11676119
C      68.58752975      99.35979116      79.90633200
H      67.57085699     100.72606329      78.74604005
H      70.36576221     100.08544607      80.64521499
C      66.80551784      98.59823146      82.10030425
O      65.59042382     100.25174198      83.27193456
N      66.75071577      96.25119138      82.66911187
H      68.16045160      95.48396249      81.64110076
C      65.84931632      94.86602199      84.80072316
H      64.64745039      96.18883041      85.82306509
C      64.52650790      92.30355311      83.76704286
H      64.03328934      91.30199816      85.49803216
H      65.92490537      91.17727623      82.75225983
C      62.02451026      92.40370860      82.14565768
C      61.31775262      90.20595690      80.73214240
H      62.44780896      88.51087240      80.61875883
C      59.13133928      90.33634802      79.22603053
H      58.43969945      88.70551421      78.21124751
C      57.65924248      92.55488671      78.94635103
O      55.65991204      92.57378397      77.38921655
H      55.04953044      94.24619176      77.03772746
C      58.53796522      94.70728498      80.17656286
H      57.53452055      96.44016401      79.79105870
C      60.73382719      94.70728498      81.60141651
H      61.56341704      96.37402359      82.43856526
C      68.06029611      94.29721437      86.65265494
O      70.18245876      94.84145555      85.84385208
N      67.47259123      93.42605054      88.80883266
H      65.64522588      93.37880738      89.36063275
C      69.36231754      93.16337858      90.71745624
H      71.14999863      93.70950949      89.85196159
C      68.88799623      94.86602199      92.94355384
H      69.99726558      94.24430203      94.56304929
H      66.89244525      94.81499938      93.45755939
C      69.91033817      97.43604978      92.34451060
C      68.26816600      99.30498910      91.56972281
H      66.28017392      98.88169041      91.38075018
C      69.11854284     101.76541276      91.17288028
H      67.76738853     103.20916366      90.66643363
C      71.69612953     102.44004505      91.53948718
O      72.59185981     104.88346118      91.11618850
H      71.14243973     105.79052981      90.51336580
C      73.36286814     100.52953175      92.34073114
H      75.32818351     101.08133183      92.31427497
C      72.52571939      98.04643137      92.57316748
H      73.85419698      96.56866540      93.03426070
C      69.72892444      90.41760625      91.47901595
O      67.79762415      89.10991564      91.76247489
N      72.00604465      89.77320958      92.11018454
H      73.51404625      90.93161181      91.94955779
C      72.97358452      87.09168794      92.27648045
H      71.50148772      85.82935076      92.97567918
C      74.22836279      86.21107548      89.77448281
H      75.71368768      84.84480335      90.18833288
C      72.37832073      84.99976091      87.92444075
H      71.50715690      83.30467641      88.70300799
H      73.49136953      84.47441699      86.27470968
H      70.81551707      86.33201796      87.76003456
O      75.44723627      88.29355387      88.55182988
H      76.64910220      89.07968002      89.66109923
C      74.86520056      86.71752213      94.44966571
O      75.99903635      88.49197514      95.37752133
N      75.36786776      84.41016630      95.28303501
H      74.06206688      83.09491679      94.82383153
C      77.29538860      83.48042095      97.11984899
H      78.99803201      84.57835194      96.74568318
C      76.50737273      84.26654710      99.80515008
H      75.74203357      86.16194259      99.54814731
C      74.19623745      82.57902150     100.65363720
H      73.23814621      83.05334281     102.41297239
H      75.02015812      80.71386163     100.95788314
H      72.77516326      82.55445506      99.16075340
C      78.75803677      84.27788546     101.64007433
H      80.34351714      85.23219725     100.74056461
H      79.60274443      82.40138723     101.74400927
C      78.27048738      85.44384659     104.16852814
H      77.38231601      84.10214091     105.45354203
H      77.01948856      87.07845985     104.07026237
H      80.06950683      86.09013299     104.93386729
C      77.95679281      80.66283902      96.63229961
O      76.47524738      79.49687789      95.34917543
N      80.01659449      79.81246218      97.68109770
H      81.00681108      81.01810757      98.78091842
C      80.62319664      77.18196315      97.51858124
H      78.97913475      76.17095958      98.24234642
H      82.21623592      76.74165692      98.74501362
C      81.32995428      76.29379179      94.79737535
O      82.07072699      77.81124202      93.19299771
N      80.88775832      73.87305238      94.16998621
H      80.12619862      72.80724674      95.55893505
C      80.78382337      73.08692623      91.51492074
H      82.13308796      74.17162914      90.39998223
C      81.65876666      70.20320388      91.09729124
H      80.02415340      69.14495714      91.76814407
C      81.85529819      69.52290241      88.26459148
H      82.43922362      67.57270485      87.94333801
H      83.24613676      70.77579095      87.40854547
H      80.15454451      69.96698809      87.19122694
C      83.94533550      69.72699285      92.83017026
H      83.62219230      70.05202577      94.83705960
H      85.41932202      71.06680880      92.30104689
C      85.00547196      67.10972190      92.46356335
H      83.64486901      65.75856759      93.21945388
H      86.78559414      66.65429786      93.39897788
H      85.37585831      66.51445812      90.52848361
C      78.15521407      73.90328800      90.38297468
O      76.30706174      72.56536177      90.39809250
N      78.10230174      76.18985684      89.28882316
H      79.84462940      76.95330627      89.11496832
C      76.03683088      77.58069541      88.13609010
H      75.97824936      76.92873983      86.18400281
H      76.38076106      79.60648201      88.28159902
C      73.49325926      77.40117141      89.40976563
O      71.56384869      77.77344749      88.16065654
N      73.35719896      76.88149667      91.89664546
H      74.98236359      76.73409802      92.88875178
C      70.96669518      77.13849945      93.31205047
H      69.70624773      75.76844787      92.42954828
C      71.38999387      76.59236854      96.15986802
H      72.23470153      78.26855578      97.00835514
H      72.73169955      75.03145461      96.26380297
C      68.89177569      76.11615751      97.42031547
N      67.39322272      74.00344349      97.14063599
H      67.87132348      72.62205356      95.91231387
C      65.08964634      74.22076202      98.29903821
H      63.47393035      72.97732211      98.36517863
N      65.14255868      76.61882471      99.37051304
H      63.70258723      77.42573785     100.33238372
C      67.48581931      77.82635983      98.84516911
H      67.92423581      79.76332930      99.32326987
C      69.75349089      79.83135944      93.18543880
O      71.01771779      81.63415835      93.79959985
N      67.35164874      80.09025195      92.32939278
H      66.40111641      78.50099212      91.86452011
C      65.84931632      82.34280571      92.07050028
H      66.89244525      83.86592512      91.15398303
C      63.51361460      81.51132614      90.24124521
H      62.69914256      79.81435191      91.07839396
H      64.07486331      81.14849868      88.29293739
C      61.34987797      83.55789973      90.16565615
H      60.61855389      83.78277716      92.07994892
C      62.14545275      86.23186247      88.94678269
H      63.22259675      87.27121194      90.36218770
H      60.42391208      87.35813935      88.82772993
H      62.82197477      85.86336583      87.03626938
C      59.08787557      82.59791877      88.58395523
H      58.30552888      80.90094454      89.44756016
H      59.65479347      82.42406395      86.61297070
H      57.53830000      83.94907308      88.72379498
C      64.85721001      83.27066133      94.54982121
O      64.13155510      81.88738167      96.13908103
N      64.82697439      85.77832815      94.87485413
H      65.45814298      87.08412903      93.63519367
C      63.82352971      86.92350230      97.16520242
H      63.49282761      85.42305960      98.53525400
C      65.82663961      88.64126352      98.42564987
H      64.91579152      89.98674865      99.68987678
H      66.72236988      89.90926987      97.07071611
C      67.61243097      87.01987834     100.00924052
H      68.38532903      85.42683906      98.95855269
C      69.82719021      88.51465185     100.88229408
H      70.91189311      87.43939758     102.26557374
H      69.23192642      90.30044322     101.71755312
H      70.94401846      88.96818617      99.21177602
C      66.25560748      86.12414807     102.47155392
H      64.87421754      87.54333253     103.03280263
H      67.31007476      85.58557607     104.15530005
H      65.29184706      84.38371013     101.94054081
C      61.34609852      88.27276688      96.53592356
O      59.26173040      87.68884145      97.31071135
N      61.60688075      90.47996722      95.19232815
H      63.20369948      90.83523576      94.20778074
C      59.35999616      92.11080103      94.48368078
H      57.60444042      91.03176730      94.43643762
C      59.01228652      94.27264793      96.34884065