 %block lattice_cart
   137.793   0.000   0.000
   0.000 143.498   0.000
   0.000   0.000   162.326
 %endblock lattice_cart

 %block positions_abs
N      89.62301820      40.66016756      79.68806862
H      90.90425264      40.76032306      78.27833279
H      88.44193925      39.19373994      79.38193295
H      90.43937998      40.18962571      81.34913805
C      88.24162827      43.01854600      79.97530701
H      89.57766477      44.55867295      80.28711186
C      86.94905547      43.68750912      77.39961005
H      85.29932439      42.47052537      77.18607098
H      88.10745771      43.37759400      75.72342280
C      86.16670877      46.44650953      77.31079291
H      84.62658183      46.57879037      78.67139586
H      85.08578532      46.73941711      75.58358306
S      88.52886667      48.75197563      77.67928955
C      89.91781550      48.65370987      74.56880003
H      88.56855092      49.58345521      73.31969093
H      90.28064296      46.67138696      74.14361161
H      91.78108565      49.52865315      74.66895553
C      86.32733551      42.83713227      82.07479294
O      85.18216136      40.81701485      82.33179573
N      86.06277384      44.76276339      83.63570689
H      87.26086032      46.24808827      83.60169181
C      84.13714271      45.14826756      85.51598456
H      82.55922125      43.84624613      85.29299685
C      85.22562507      44.97630246      88.17293976
H      87.08133631      45.85691492      88.33734594
H      85.78498407      43.04311244      88.60568708
C      83.76675635      46.08746153      90.39147845
O      81.68616768      46.98886098      90.11368868
N      84.90626133      46.41060473      92.50608220
H      84.03887694      47.20806924      94.00841462
H      86.66181707      45.66416284      92.60056852
C      82.92960761      47.70317753      85.01142764
O      84.29210027      49.55888877      84.49931181
N      80.43705859      47.88837071      84.94906667
H      79.40715775      46.31611842      85.27787905
C      79.19361868      50.26186696      84.04010831
H      80.05911334      51.10846435      82.37147997
C      76.35713949      49.67227235      83.42405754
H      76.44406689      48.23230090      81.95385047
C      74.65638580      48.89559483      85.70306747
H      75.45762977      47.51042545      86.99941972
H      72.79689511      48.32111803      85.02654544
H      74.42961865      50.53965673      86.92383066
C      75.04377969      51.90970830      82.11447721
H      74.76787966      53.37991537      83.53177193
H      73.21074517      51.13681024      81.57779493
C      76.43272853      53.03031601      79.81657001
H      77.73474996      54.51942034      80.39293652
H      75.15527356      53.86557504      78.43140062
H      77.56467460      51.47318152      79.08335619
C      79.50353380      52.41993441      85.93550380
O      79.88903796      54.54398678      85.14370847
N      79.49408517      52.03443024      88.38458911
H      79.56967421      50.19383681      88.88536658
C      80.10068731      53.86746476      90.30455104
H      79.24842075      55.70238901      89.93038524
C      78.89504192      53.11913314      92.80087950
H      79.24464130      54.62146556      94.16526190
H      79.78321329      51.45050481      93.61724127
C      76.08501889      52.54087689      92.76308497
C      74.37670632      54.35312443      93.68905086
H      75.04944887      56.23340211      94.11234957
C      71.73108948      53.88258257      93.80621389
H      70.49142901      55.21294990      94.73217979
C      70.79189550      51.60546237      92.90292473
H      68.82091095      51.09334654      93.02575694
C      72.42272930      49.76297921      92.01475335
H      71.79156072      47.92427551      91.39114367
C      75.04566942      50.14848338      92.09979103
H      76.23619701      48.67638658      91.33256216
C      82.98818911      54.44572102      90.50108257
O      83.72707210      56.09356236      91.89948005
N      84.57555923      53.25141399      88.91371247
H      83.88769884      51.85679597      87.80633285
C      87.17771235      54.02809150      88.71907067
H      87.42526650      55.35089992      90.27809487
C      88.72728793      51.57711647      88.87591794
H      88.62335298      50.56233344      87.08634713
H      87.87124191      50.35635327      90.29321269
C      91.32755134      52.21017479      89.87180371
H      92.05887542      53.52353457      88.46584734
H      92.41603370      50.47729576      90.10801951
C      91.40880956      53.51786540      92.42671370
O      91.54109041      55.85545684      92.57411235
O      91.10267390      52.21395424      94.32777837
C      87.52920144      55.63813832      86.37392030
O      88.65736806      57.70927836      86.62714363
N      86.48796225      54.59311967      84.23475013
H      85.79065324      52.82433584      84.39348714
C      86.67693489      55.53798282      81.58157438
H      88.53264612      55.17704510      80.76143316
C      84.96484284      53.95439217      79.86570289
H      82.99007884      54.15848262      80.41561325
H      85.35034701      51.96828982      80.25309678
C      85.22940453      54.52508952      77.16339426
H      86.97740136      53.73707365      76.41128319
H      85.52798129      56.52630969      76.78166954
S      82.71984799      53.45739415      75.05634942
C      80.72807644      56.27875554      74.80123636
H      79.34857625      55.95939179      73.30646286
H      82.06033350      57.75841124      74.26644382
H      79.69250643      56.87212960      76.48120307
C      86.03064849      58.44627162      81.34724832
O      87.35156717      60.05442871      80.29845022
N      83.88202967      59.03775596      82.46218685
H      82.74063498      57.70549891      83.21618765
C      83.02220420      61.58321730      82.45651767
H      83.01653501      62.12556875      80.47041531
C      80.25942432      61.53597414      83.26532053
H      79.46384954      63.42947991      83.44862398
H      80.08745923      60.59866989      85.09079614
C      78.39048500      60.25284998      81.42283737
H      79.01976386      58.29320379      81.33402023
C      75.60313869      60.47583768      82.21652242
H      74.60347347      62.23139342      81.82534908
H      75.49920374      60.42103562      84.27254464
H      74.34458097      59.13413200      81.29055652
C      78.41127198      61.44526728      78.80934588
H      76.99397726      60.47016850      77.67551010
H      80.26887296      60.97472543      78.04967591
H      78.22985826      63.49373060      78.68273421
C      84.73807568      63.38601620      83.99097543
O      84.97807092      65.55731174      83.14626777
N      86.23284920      62.49595511      85.83723803
H      86.59945611      60.62512606      85.73519282
C      88.06588372      64.07387658      87.13925946
H      87.18716098      65.81053506      87.81389176
C      89.26208048      62.64146403      89.31244473
H      91.00818760      61.79486665      88.62269462
H      87.93171315      61.31865562      90.16471130
C      90.16347992      64.28363620      91.63869782
H      88.55721256      64.31198210      92.92371171
H      90.62457314      66.19225978      91.01319840
C      92.29320148      63.15924904      93.13725079
H      92.85256047      64.37623279      94.70194417
H      93.82387979      62.67736883      91.84467799
N      91.65825344      60.68559730      94.34856536
H      91.83021854      59.08310939      93.32622342
C      90.84567112      60.22450408      96.72773077
N      90.72094920      61.80620500      98.53241940
H      90.23717926      61.22227957     100.28230597
H      91.25007256      63.62979090      98.34344678
N      90.11434704      57.90769962      97.03764589
H      89.27341884      57.34645091      98.65714134
H      90.28064296      56.73795903      95.53720320
C      90.19560527      65.07921098      85.46118250
O      91.52030343      66.84610508      86.20762439
N      90.62268342      64.05119986      83.10658351
H      89.63057710      62.58666197      82.39037724
C      92.33288573      65.08488016      81.14882705
H      93.45916261      66.52863106      82.08991076
C      94.35867235      63.13846206      80.44773860
H      95.67581158      63.92647793      79.07390756
C      96.15202261      62.49028593      82.68895400
H      96.80397819      64.26662866      83.49964658
H      97.83954822      61.64557827      81.86692306
H      95.37156565      61.23361793      84.12325628
C      93.52719276      60.49473494      79.49909598
H      92.16281036      59.68215263      80.81434549
H      95.19015193      59.27775120      79.56712613
C      92.22706106      60.58355208      76.80623599
H      90.38646764      61.43959810      77.15394563
H      91.88313088      58.68248741      76.09002972
H      93.17192421      61.81376391      75.45319195
C      91.00629786      66.38690159      78.98886988
O      92.36690082      67.37144900      77.39205114
N      88.48162351      66.54752832      78.92839863
H      87.59912132      65.91824946      80.50065093
C      86.96039382      67.80797577      76.94607573
H      88.11123715      67.59821615      75.24910150
C      84.63414073      66.22438512      76.56813048
H      83.53620975      66.35666597      78.30478896
H      85.25019151      64.28363620      76.25821536
C      83.04299119      67.56042163      74.56880003
O      80.90571073      68.38056285      75.03934188
O      84.19005505      67.66246685      72.48254218
C      86.68071434      70.67091114      77.48464773
O      85.62435733      72.17702301      76.00877148
N      87.32889045      71.40223522      79.72964260
H      88.08478099      70.04163228      80.83702222
C      86.99062944      73.98171164      80.87670646
H      87.55187817      75.25727690      79.36114597
C      84.14092217      74.33698019      81.25465173
H      83.47195905      72.70614638      82.32045736
H      83.54187892      74.51083501      79.29122609
C      83.30566314      76.80307302      82.45273821
H      83.91982419      76.97125867      84.41049467
H      81.32522997      76.39678187      82.85147047
C      83.83100705      79.19357681      80.98820032
O      86.12891425      79.80962759      80.67261602
O      82.05466433      80.45591399      80.21341252
C      88.55343311      74.42390760      83.27098971
O      89.16948389      72.72315391      84.75631458
N      89.36601543      76.82763947      83.56011783
H      88.48540296      78.15044789      82.50376083
C      91.31243352      77.62510397      85.43850579
H      92.16658982      79.33341656      84.67316662
H      92.75051525      76.21347841      85.86558394
C      90.11434704      78.10887391      88.01231302
O      87.90336726      78.82319045      88.12947605
N      91.36534586      77.28495323      90.04565854
H      93.19271120      76.89000043      89.65448518
C      90.53008683      77.52305875      92.73095962
H      88.52508721      77.05062717      92.76119524
C      91.85289525      75.52939749      94.26919684
H      93.79742362      76.20969896      94.32588863
H      91.84533634      73.70581160      93.30921588
C      90.88346566      75.21570292      96.98284383
H      90.96850334      76.96369976      98.06754673
C      88.14336250      74.15178701      97.10567604
H      88.02053029      72.37922373      96.06443685
H      86.90748149      75.46703652      96.11356973
H      87.75218915      74.14233838      99.12768320
C      92.67303648      73.29763071      98.19415840
H      94.61189567      73.97226301      98.35478514
H      92.78075087      71.53073661      97.13780139
H      92.02297062      72.76661762     100.07443607
C      90.75874372      80.28772835      93.70227895
O      92.91303171      81.31007028      93.80999336
N      88.64791942      81.40644632      94.39958796
H      86.97173219      80.50315715      94.53753799
C      88.69516258      83.76482476      95.87546421
H      90.65102931      84.32796320      96.19293823
C      87.29109593      85.97391482      94.47517701
H      87.47061994      87.58018219      95.75074227
H      85.31255248      85.39565857      94.46005920
C      88.38713720      86.89988071      92.01097391
H      90.34678339      87.50270341      92.19994653
H      87.17204317      88.47024328      91.46673272
C      88.26241526      84.85141739      89.89448044
H      86.47662389      83.89521588      90.26675651
H      89.87624152      83.58530076      90.09479142
N      88.12446524      86.12887238      87.50775610
H      88.42115226      88.00159116      87.71562599
C      87.67660011      85.26526745      85.24764343
N      87.29298565      82.83129996      84.91694132
H      87.11157194      82.09430670      83.16516504
H      87.63691585      81.73147925      86.43817101
N      87.67471037      86.54272244      83.21429792
H      87.48762747      85.64888190      81.53811067
H      88.18871594      88.37386724      83.36736575
C      87.53298090      83.54561651      98.47572761
O      85.37869291      82.47603142      98.74595849
N      88.88035576      84.31851457     100.49584504
H      90.36379092      85.49959352     100.28797515
C      87.95627959      83.99537137     103.16224888
H      86.79598763      82.29839714     103.29641944
C      90.30142996      83.43223293     104.96693751
H      89.57199560      83.42656375     106.89256862
H      91.62990755      85.00259550     104.86111283
C      91.98517609      81.07574422     104.57954360
H      92.53319672      81.21936342     102.60100015
C      94.43804084      80.86409487     106.26895894
H      95.63990678      82.52894375     106.08565549
H      95.61534034      79.33152683     105.55653211
H      94.30198056      80.31607424     108.24939210
C      90.37701900      78.69657879     104.65324293
H      88.94838591      78.63232810     106.13667809
H      91.63935617      77.07141416     104.57576416
H      89.29420583      78.83074936     102.90524609
C      86.37646839      86.19501280     104.16758327
O      85.58656279      86.22335869     106.39179114
N      85.99285395      88.17355625     102.66903031
H      87.03787260      88.16032817     101.07221157
C      84.37902768      90.38831549     102.88634884
H      83.80455088      90.46957372     104.86300255
C      85.89836765      92.77881927     102.63690496
H      87.28920620      92.63897953     104.15057574
H      84.81366474      94.52681611     102.76162690
C      87.51597337      92.98857890     100.20293747
H      86.16292932      93.21345633      98.66658997
H      88.63280162      91.28215603      99.91191962
C      89.13924826      95.40553885     100.42781489
H      88.11879605      97.09306445     101.01929924
H      89.30365445      95.81183001      98.41714611
C      91.49384725      94.80838533     101.96605211
H      92.60311659      93.46478993     100.86812113
H      90.97228279      94.09028934     103.82554282
N      93.10578380      97.04771102     102.61611797
H      92.45571795      98.18343653     104.00695654
H      93.50262632      98.06816322     101.05331431
H      94.83866283      96.58850752     103.27752218
C      82.15670954      90.32217507     101.10622665
O      82.04710542      88.92755705      99.30531747
N      80.56178053      92.26859317     101.50684863
H      80.87358538      93.32117073     103.06965229
C      78.78543780      93.34573717      99.65302712
H      77.90104589      91.74513898      98.70249478
C      76.96941082      95.18444087     100.80198071
H      78.32812404      96.58661780     101.46527464
C      75.21007561      96.21056226      98.83477561
H      76.28721961      97.27258845      97.43637815
H      74.01954803      97.65053371      99.70216000
H      74.27277136      94.55894146      98.03920084
C      75.76565515      93.94100096     103.09799818
H      77.23208277      93.59707077     104.50395456
H      74.55623031      92.39520483     102.47438849
C      74.06868092      95.80805055     104.43214495
H      74.84535844      97.71667413     104.45482168
H      73.71908156      95.32428062     106.40123977
H      72.19029296      95.95733893     103.60066538
C      80.41249215      94.37752774      97.34756101
O      81.86002251      96.05182525      97.62913022
N      79.84935372      93.49313582      94.93438051
H      78.46985351      92.17977603      94.78509213
C      80.48997094      94.83106205      92.56655344
H      80.91326962      96.76047262      93.15047886
C      82.69339181      93.44589266      91.23996557
H      84.11635573      93.03393233      92.67048838
H      83.46628988      95.00302714      90.13069622
C      82.10757666      91.02326353      89.78487630
C      82.65748701      90.67933334      87.17705399
H      83.09401379      92.16843768      85.85235585
C      82.30410819      88.22268913      86.17738877
H      82.54599316      87.83151579      84.18939669
C      81.61057863      86.15532855      87.76475887
O      81.46317998      83.74592750      86.78966010
H      81.70695467      83.83663436      84.99442011
C      81.53498959      86.45957448      90.37447092
H      81.15893404      84.98558796      91.73885332
C      81.81844853      88.88409334      91.43082793
H      81.62947589      88.96157212      93.46039398
C      78.08434933      95.18633060      90.85068195
O      76.01887848      94.63453051      91.66704372
N      78.24308634      96.47890340      88.68505559
H      79.92116332      97.05715965      87.98207740
C      76.14926959      96.93054798      86.91816148
H      74.58646594      95.93844167      87.82334040
C      75.59369005      99.78781417      87.00319918
H      77.23019304     100.69299307      86.13770453
H      75.36881263     100.43976975      88.94394809
C      73.12570750     100.35095261      85.48007976
H      71.60069835      99.37774356      86.46651689
H      73.44129179      99.88230049      83.49775686
C      72.19974160     103.13074002      85.47819003
H      71.73486893     103.43309623      87.46429240
H      70.54623108     103.17231400      84.25175766
C      73.94395898     105.14518827      84.61080566
H      73.97986378     105.11873210      82.55289371
H      75.79400104     104.77291218      85.43661606
N      72.98586775     107.59427357      85.30244550
H      73.91750282     108.79613950      84.14782272
H      73.32412876     107.82293045      87.16760537
H      71.09236197     107.66608317      85.06622970
C      76.68784160      95.87230125      84.17805834
O      78.90071110      95.79671220      83.37492466
N      74.61670155      94.98224016      83.01020748
H      73.02933144      94.86696685      84.06278502
C      74.63937827      93.61596803      80.66127767
H      76.53288403      92.83362134      80.46285640
C      72.69484990      91.36908344      80.69151328
H      70.79945441      92.13442260      80.94662634
H      73.12003831      90.14265107      82.29022174
C      72.51721561      89.81005924      78.35959102
O      74.21607958      88.27749120      77.75865805
O      70.81835166      90.21824012      76.82702298
C      74.44284673      95.43199502      78.48620268
O      73.49231439      97.52959123      78.84903014
N      75.10803039      94.59484626      76.20530301
H      75.91872298      92.86574668      76.13916260
C      74.96819064      95.97623620      73.84125540
H      76.16816686      97.63919535      74.02644858
C      75.87903872      94.33217430      71.56602492
H      74.32757342      93.10952138      70.98587894
C      76.73886420      95.87797043      69.07914510
H      75.06645642      96.83984112      68.35349018
H      77.37003279      94.50224967      67.68263735
H      78.15048975      97.24235283      69.69897533
O      77.96151713      92.80149599      72.45041683
H      79.40526802      93.87675026      72.22931886
C      72.30367655      97.08361582      73.25166080
O      72.02399705      99.33994903      72.52978534
N      70.28166939      95.62096765      73.93952117
H      70.64071738      93.96556740      74.82013364
C      67.62282446      96.50913902      73.88849855
H      67.36960114      97.36707476      72.03089759
C      65.84648173      94.24524689      74.27778219
H      65.54601524      93.86352218      76.27900234
H      67.03134013      92.70511995      73.59370125
C      63.44086013      94.25469552      72.70552989
H      62.18041268      95.66443135      73.52189166
H      62.49788670      92.49158087      73.20252790
C      63.82825403      94.54949283      69.82558699
O      63.83581293      96.60929451      68.71820736
O      63.99077049      92.51803704      68.60104433
C      66.83291886      98.52547699      75.84814474
O      64.89594940      99.64986415      75.49854538
N      68.45052459      98.99223939      77.76621696
H      70.12293238      98.07383240      77.74920941
C      68.08580742     100.92542941      79.82790836
H      67.11826754     102.51279951      78.93973700
H      69.90750359     101.75501926      80.31356802
C      66.98409697      99.80293198      82.28077312
O      66.18096329     101.07282806      84.04388776
N      66.61937979      97.36896449      82.53021698
H      67.64172174      96.32205611      81.30378461
C      65.69341390      95.89686769      84.70718170
H      64.46887125      97.16676377      85.76920789
C      64.17785339      93.76525641      83.68106031
H      63.58447933      92.67677405      85.32701194
H      65.45908783      92.74102475      82.43573068
C      61.87238729      94.26603388      82.08046212
C      60.81603028      92.08339999      80.82190440
H      62.05380102      90.46768399      80.70663110
C      58.66741147      92.25158563      79.19296033
H      58.19497989      90.72090732      77.92684370
C      57.43908936      94.70445039      79.13626853
O      55.50778907      95.01058605      77.65283338
H      55.04102667      96.73401645      77.33157990
C      58.51434363      96.68677329      80.49498175
H      57.49011197      98.45177767      80.49687148
C      60.82925837      96.60740478      81.87637168
H      61.53223656      98.16453927      82.99131021
C      67.87415806      95.12774908      86.48730389
O      70.04545361      94.94633536      85.64070650
N      67.34503469      94.76681136      88.83812343
H      65.52144881      94.53059557      89.35023926
C      69.27633499      94.44177843      90.73540863
H      71.06401608      95.30160390      90.17982910
C      68.57335681      95.63608546      93.17315559
H      70.16828581      95.05216003      94.33722699
H      66.69496885      95.18822032      93.89125159
C      68.82280067      98.53681535      93.10701517
C      66.74410173     100.13552381      92.64970139
H      64.98098708      99.20010929      92.21884379
C      66.91417710     102.75090503      92.09412185
H      65.44019058     103.92442507      91.30799572
C      69.41050555     103.79025450      92.29443285
O      69.84325288     106.00501374      91.14547925
H      68.36359719     106.71744056      90.37447092
C      71.43251272     102.22556111      93.28464944
H      73.27121641     103.07215850      93.54732139
C      71.13771542      99.69332785      93.85345706
H      72.70996770      98.57838933      94.52430990
C      69.89805494      91.60529923      90.98296278
O      68.52422391      89.83840513      90.17227019
N      72.14493953      90.91743886      92.02420199
H      73.49609384      92.25725481      92.17726982
C      73.28822396      88.32284463      91.76719920
H      71.80478880      86.89610126      91.68594097
C      74.60158374      88.12442337      89.14047964
H      76.07179081      89.55116673      89.35212897
C      75.68250719      85.61864627      88.26175690
H      74.33891178      84.06907070      88.46017815
H      77.21696496      85.10842017      89.53732215
H      76.37225729      85.88131823      86.33612579
O      72.82146155      88.58740631      87.19406152
H      71.28700378      89.32250985      87.82145067
C      75.20818589      87.68411713      93.78920636
O      76.50831759      89.50392357      94.69060581
N      75.50109346      85.34085651      94.48651537
H      74.35025014      84.01993781      93.73251457
C      77.48341636      84.52827419      96.28175536
H      79.22574402      85.62053600      96.15892315
C      76.23808672      84.77582834      99.02941743
H      75.84691338      86.74303343      99.49995927
C      73.81734732      83.33396716      99.60767368
H      73.12570750      83.53805760     101.53708425
H      74.17261586      81.34597508      99.21083115
H      72.26777175      83.81017819      98.33777760
C      78.18828429      83.97458438     101.08921910
H      80.03454690      84.33363238     100.25018062
H      78.21851990      81.95824641     101.50873836
C      77.71018352      85.25014964     103.50428933
H      76.54233267      83.94434876     104.58710251
H      76.48753060      86.89988071     103.33610370
H      79.36558378      85.52982914     104.69859637
C      78.22985826      81.70124363      95.76397035
O      76.92027792      80.33308178      94.27297630
N      80.40682297      80.93212502      96.70694379
H      81.48018752      82.25871289      97.56298981
C      81.29877379      78.42634793      96.38191086
H      79.74730849      77.22826144      97.01685891
H      82.89181307      78.23737530      97.67259393
C      82.35513080      77.96147525      93.65125635
O      84.19194479      79.17278982      92.80654868
N      81.18350048      76.04340305      92.43049314
H      79.70573451      75.21192347      93.30354669
C      81.82978689      74.99082549      89.83778865
H      83.27353780      76.20969896      89.01953715
C      82.57055960      72.18836137      90.01164347
H      80.95106415      70.98649543      90.43305242
C      83.40581864      71.36444070      87.30366566
H      81.90726566      71.74049623      85.93928326
H      83.72707210      69.32920546      87.30366566
H      85.17838191      72.28095796      86.78966010
C      84.89681269      71.77829076      91.71428687
H      84.23918793      72.43024634      93.55299057
H      86.34812250      73.15401151      91.21161967
C      85.97395669      69.14212255      92.04498897
H      87.61612885      69.35755135      93.26953162
H      86.61268419      68.33709914      90.25730789
H      84.51130853      68.10277308      93.05221309
C      79.48841598      75.52561804      88.09168152
O      77.85758218      73.98171164      87.35657799
N      79.15015497      78.05218212      87.58334514
H      80.43516887      79.35231382      88.13136578
C      77.12247865      78.83452881      85.90148874
H      77.08468411      77.91423210      84.05900558
H      77.49286500      80.80740308      85.43661606
C      74.53733304      79.02350144      87.15059783
O      72.93295541      79.97214405      85.70684692
N      74.10080626      78.15233761      89.45984338
H      75.48408592      77.12054704      90.27431542
C      71.60447780      78.14855816      90.69572439
H      70.36481735      76.95803058      89.55810915
C      71.43440244      76.81252166      93.31488506
H      72.84980744      77.72336974      94.50163319
H      71.99754089      74.83397821      93.29787753
C      68.90783837      77.15456212      94.53564825
N      66.93496408      75.56719202      94.20305642
H      66.52111403      74.42579732      92.73095962
C      65.01500215      76.51961408      95.50129841
H      63.10826830      75.81663589      95.68082241
N      65.68396527      78.49626780      96.88268833
H      64.69941786      79.32396793      98.29242416
C      68.24832387      78.91767677      96.34222662
H      69.48609461      80.47292152      96.79765065
C      70.46119340      80.83007980      90.80343878
O      71.30023188      82.37965537      92.28498421
N      68.45430404      81.24015041      89.36157762
H      67.71731078      79.63577277      88.63592270
C      66.74410173      83.35853360      89.52220435
H      67.77400257      85.08196400      89.06489058
C      64.55768839      83.03539040      87.55877870
H      63.70353209      81.21180451      87.98963631
H      65.31924810      82.77649790      85.66149348
C      62.33537024      84.91188863      87.50586637
H      61.14106321      84.79283588      89.18205362
C      63.36905053      87.69356577      87.40382116
H      64.40273083      87.77104455      85.62558868
H      64.49343769      87.93167128      89.11213374
H      61.75522426      88.97480021      87.40193143
C      60.59115285      84.69268038      85.26276123
H      59.53101639      86.36319844      84.69017417
H      59.16629921      83.23381167      85.55944827
H      61.67585576      84.06907070      83.62814798
C      65.55546388      83.59474939      92.20183626
O      64.07580817      82.08674780      93.18638366
N      66.35292838      85.67911752      93.39236383
H      67.31101963      86.83185057      92.21128490
C      65.71231116      86.62209095      95.96050190
H      65.43263167      85.11408935      97.33433292
C      68.08013823      88.02426787      97.13213221
H      68.38438417      89.34896602      95.58633608
H      69.55601448      86.58996560      97.10756577
C      67.66439844      89.36975301      99.62468121
H      66.32836194      90.88909296      99.23917705
C      66.73276337      87.61608699     101.66369590
H      68.09714578      86.08729840     101.86589663
H      64.80335281      87.06239718     101.19882324
H      66.72520446      88.67433372     103.43247974
C      70.05301250      90.59240593     100.56576492
H      69.77333301      91.93789107     102.10022269
H      70.85992565      91.73191090      99.05020441
H      71.39849764      89.30361258     101.44259793
C      63.02134089      87.82206716      95.85656694
O      61.12027622      86.62587040      96.58222186
N      62.79457373      90.06517229      94.80020993
H      64.51800413      90.66610526      94.23896122
C      60.59682203      91.65821157      94.42793386
H      58.79402313      90.66232580      94.34856536
C      60.33037062      93.62352694      96.44238211