 %block lattice_cart
   137.793   0.000   0.000
   0.000 143.498   0.000
   0.000   0.000   162.326
 %endblock lattice_cart

 %block positions_abs
N      86.41142833      39.72286331      76.93001306
H      85.68577344      38.19029527      77.80684607
H      87.99501899      39.15594542      76.03050334
H      85.08484046      40.51465864      75.81129509
C      87.15409078      41.54833894      78.91044624
H      88.43910467      40.51843809      80.14443752
C      88.65642320      43.79900297      77.68590359
H      87.41109355      44.97063329      76.53883972
H      90.02647477      42.98075148      76.38199243
C      90.11907136      45.50920528      79.57185045
H      91.30959893      44.33190579      80.76993693
H      88.75090952      46.57123148      80.68678897
S      92.07493809      47.88270153      78.05251049
C      94.45788298      46.10824852      76.55395753
H      93.74356644      44.95362574      75.00816140
H      95.42353313      44.95929492      77.96747281
H      95.84683182      47.41215969      75.76972111
C      84.97901579      42.63115210      80.51482388
O      82.74724901      42.69351307      79.67767512
N      85.48546244      43.13570904      82.86375369
H      87.25802572      42.94484667      83.54216543
C      83.67888408      44.04844685      84.74781082
H      82.03671193      42.80878639      84.60419162
C      84.87697056      43.54577964      87.35941258
H      86.64575439      44.58323938      87.55783385
H      85.23223911      41.52188277      87.47090644
C      83.36896898      44.18261741      89.61385608
O      81.28838031      45.14259838      89.25669780
N      84.18911019      43.61947897      91.86074066
H      83.11196619      43.74420090      93.43110323
H      85.97490156      42.97130284      92.04215439
C      82.73780038      46.72618902      84.12987032
O      84.27603760      48.41749407      83.82751411
N      80.15832396      47.10413429      84.04672236
H      79.09251833      45.53755118      84.26782034
C      78.92244295      49.39259286      83.36264143
H      79.47613277      50.01998199      81.48047403
C      76.01604389      48.94850718      83.03004960
H      75.83840962      47.64081656      81.44834868
C      74.79528070      47.69561862      85.32417735
H      74.73480944      48.96740444      86.94178307
H      75.78738700      45.94384233      85.76070412
H      72.84130368      47.15137744      84.96512935
C      74.57985190      51.14814861      82.01526657
H      74.94078961      52.79410022      83.20012497
H      72.57296254      50.73618826      82.22502619
C      75.14488006      51.80010418      79.12776477
H      74.72158137      50.15037310      77.97125226
H      77.12720296      52.23285150      78.76682704
H      74.02238263      53.48385033      78.73281197
C      79.34574165      51.38247467      85.35819242
O      79.90132119      53.52920375      84.78938480
N      79.44967659      50.61335605      87.82239553
H      79.37786700      48.78221125      88.35151890
C      80.06950683      52.36702207      89.92944037
H      79.06606215      54.10557028      89.46456770
C      79.44589715      51.23885547      92.46923254
H      80.31328152      52.19316726      94.07738963
H      80.37564249      49.40204148      92.42198938
C      76.62831522      50.76453415      93.18165936
C      75.35274995      52.65992965      94.67643287
H      76.34296654      54.38713950      95.12429800
C      72.70335366      52.43127277      95.18098979
H      71.60353294      53.93549491      96.01057965
C      71.39188361      50.22407243      94.50635750
H      69.47192166      50.32611766      95.19043843
C      72.65988995      48.32489748      93.24402032
H      71.44290621      46.73374793      92.85473670
C      75.24503556      48.60646671      92.58828529
H      76.13320692      46.95862537      91.77759270
C      82.86252233      53.20795028      89.86329995
O      83.57683886      55.14491976      90.87619325
N      84.53115066      51.91159803      88.66143401
H      83.92643823      50.33367657      87.77704210
C      87.26369490      52.61079677      88.39687233
H      87.65486825      53.98462779      89.88030749
C      88.83594720      50.30155122      88.61797031
H      90.80882146      50.74185744      88.22301751
H      88.21422723      48.92583045      87.21579339
C      88.48634782      49.18661269      91.30894058
H      89.56727127      47.43294667      91.35807346
H      86.47189957      48.81433660      91.51114129
C      89.38774727      51.03665474      93.26669704
O      87.93076829      51.14814861      95.12618773
O      91.28314278      52.41048577      93.00024563
C      87.89864295      53.96384081      85.94589730
O      89.69388294      55.49451912      85.96668429
N      86.32072147      53.66337433      84.02782510
H      85.02058976      52.29899192      84.34529912
C      86.45300231      55.10523550      81.66377748
H      88.32761081      55.17137592      80.81529036
C      84.86752193      53.81455243      79.62287306
H      84.61618834      54.96350603      77.93156801
H      82.98346480      53.31377495      80.28238754
C      86.06938788      51.46184317      78.75548868
H      87.31849696      50.76642388      80.23892384
H      87.47723398      51.99285627      77.34764258
S      84.00391701      49.01842704      77.54039466
C      82.26536880      50.90059446      75.13666279
H      83.78848822      51.39192329      73.84031054
H      81.11641520      52.42182413      75.91711976
H      80.88586860      49.73463331      74.15022566
C      85.50058026      57.78675714      81.88865491
O      86.79882224      59.63113003      81.07229314
N      83.25558539      58.17604076      82.84296670
H      82.32395032      56.63024463      83.47035583
C      82.16899276      60.68181786      83.45523802
H      82.30505306      61.89691186      81.79794805
C      79.28904986      60.47583769      84.03160455
H      78.72969088      62.37690235      84.59474299
H      78.93000186      59.07932994      85.50181162
C      77.77159964      59.46294438      81.74314598
H      78.28749491      57.51085710      81.33496510
C      75.06362182      59.52341562      82.65210434
H      74.63087450      61.48684126      83.10374893
H      74.85197247      58.36690311      84.34529912
H      73.76726958      58.95271827      81.15733083
C      78.09663255      60.98984323      79.36587028
H      79.98446915      60.61567743      78.62698729
H      77.59963453      62.89846682      79.96302380
H      76.66233028      60.42859452      77.99959816
C      83.84140055      62.11612012      85.53204724
O      83.59573613      64.34221772      85.75314522
N      85.61774329      60.93882063      86.90587827
H      85.66687617      59.03775595      86.75281044
C      87.43565999      62.05753861      88.72190526
H      86.38308244      63.54664295      89.68377595
C      88.41264850      60.01096501      90.63052883
H      90.03403368      59.12846282      89.71590130
H      86.93488252      58.58422164      90.80249393
C      88.71878417      61.09944737      93.22134361
H      86.81960921      61.70038034      93.75235670
H      89.89797339      62.78886268      93.17410045
C      89.60884526      59.22861832      95.00335552
H      89.91876038      60.15269448      96.81749278
H      91.37384963      58.42737435      94.30982596
N      88.05926969      56.99496181      95.36807270
H      88.52036290      55.25452388      94.73501438
C      86.16576391      56.87023987      96.96489143
N      85.28893091      58.62390589      98.46722385
H      83.77337040      57.96250169      99.41964591
H      86.08450568      60.36056437      98.44076768
N      84.79382261      54.83122518      97.09906200
H      83.70722998      54.49107444      98.63163004
H      85.70089124      53.22873728      96.59828453
C      89.75057474      63.40302374      87.47468589
O      90.92220504      64.99795275      88.65198538
N      90.51024471      62.61878732      85.15410198
H      89.71655965      61.22416931      84.12231141
C      92.46989090      64.07765604      83.63665175
H      93.59049859      65.36266993      84.78938480
C      94.37851448      62.27485714      82.43478581
H      95.74478659      63.45404636      81.44267950
C      95.86950853      61.01440969      84.67222177
H      96.51768465      62.39768935      86.05361170
H      97.28680327      59.68593209      83.97869221
H      94.53536175      59.82766156      85.70023288
C      93.35239309      60.31521095      80.59797184
H      91.95399561      61.24495629      79.40366481
H      92.70799641      58.65792097      81.63732131
C      95.44998929      59.16247789      78.90477706
H      95.83549346      60.42292534      77.32307614
H      94.79614399      57.32566391      78.24526258
H      97.24333956      58.74484838      79.83263268
C      91.15653110      65.51384803      81.47291512
O      92.30926415      67.34499283      80.64521499
N      88.75090952      64.84677464      80.75481912
H      87.94777582      63.28019154      81.48992266
C      87.32983533      66.22438512      78.67989963
H      88.33139028      65.89935220      76.90922607
C      84.72957191      65.04708564      78.19801942
H      83.32550527      65.48550214      79.63988060
H      85.00547196      63.00618121      78.19423997
C      83.57305942      65.68770285      75.50326970
O      82.82661753      67.88734428      74.95524907
O      83.55416216      63.93025739      73.83842082
C      87.18243668      69.13645338      78.95202022
O      87.73045731      70.45170288      77.13599323
N      86.81394004      70.15123640      81.18945617
H      86.52481192      68.83031771      82.53494131
C      86.67410030      72.82141968      81.93400834
H      87.30904833      74.07997740      80.43167592
C      83.89053343      73.55841295      82.40077074
H      84.05871907      75.16845976      83.67444627
H      82.92866274      71.97482229      83.30405992
C      82.45812088      74.46548157      80.08963546
H      80.44745210      74.42201787      80.52616224
H      82.72646203      73.11999644      78.55139824
C      83.18755524      77.14889295      79.49815112
O      81.54160362      78.76271921      79.61720388
O      85.45333709      77.73659782      79.06729352
C      88.36162590      73.35432250      84.22246691
O      88.99657394      71.55908250      85.51126025
N      89.12696505      75.77317218      84.40199091
H      88.81516020      76.86165454      82.86564341
C      90.86929270      76.69724835      86.30683503
H      91.86895793      78.33753079      85.56606231
H      92.20532921      75.18924675      86.74336181
C      89.60884526      77.33597584      88.80505321
O      88.30304437      79.34664464      88.86363473
N      89.98490080      75.77128245      90.87241380
H      90.32883098      73.89667395      90.75903022
C      89.13263423      76.44213530      93.45189022
H      87.07850172      76.52906271      93.60495805
C      90.19088097      74.53918090      95.32649872
H      92.21855729      74.47304048      94.95611236
H      89.47467468      72.68724912      94.78225754
C      89.74112609      74.95303096      98.17242655
H      90.45166319      76.78417577      98.79414650
C      86.90653663      74.72437408      98.72044718
H      85.79537756      75.92057083      97.46377918
H      86.47567903      75.12121661     100.69332145
H      86.20166871      72.82330941      98.35950945
C      91.03558863      72.98015669      99.82026789
H      93.06515468      73.29196153      99.64452335
H      90.54992896      71.13389408      99.05114928
H      90.30615427      72.97637724     101.74778873
C      89.84317133      79.08775214      94.16431704
O      92.00690794      79.98726186      93.57094298
N      88.28225738      80.50315715      95.53814807
H      86.43599477      80.02694612      95.42476449
C      88.71878417      82.79917461      96.93843527
H      90.73890160      83.07507465      97.23134284
C      87.55849220      85.38432022      95.94254950
H      87.52069769      86.67878273      97.54503741
H      85.71222961      84.72480573      95.31327064
C      88.96633832      86.66366492      93.64842175
H      90.97889684      86.32162446      93.92621152
H      88.53737043      88.67811317      93.60684778
C      88.22556559      85.29550307      91.34295565
H      86.24513242      84.73992354      91.38830908
H      89.14397259      83.46813773      91.57161254
N      88.88508008      86.77515879      89.10740942
H      90.02458504      88.27182202      89.43244235
C      88.51847317      86.20446143      86.61108096
N      87.69644222      84.02560699      85.86463907
H      87.65864770      83.67600762      83.99003057
H      87.37707848      82.85397668      87.33673587
N      89.23656917      87.86742058      84.82151015
H      89.21578218      87.38365065      82.97713727
H      89.75246445      89.61352770      85.39976640
C      87.55471275      82.40611155      99.55003703
O      85.51758779      81.19668670      99.88640831
N      88.60540058      83.67222818     101.43787362
H      90.35906660      84.33363239     101.06937699
C      87.45644698      83.93490013     104.04569593
H      85.92765839      82.56295882     104.21388157
C      89.72600829      83.15822261     105.78046468
H      89.29893014      83.43034320     107.77601567
H      91.28314278      84.41867007     105.29480502
C      90.39308168      80.40111192     105.51023382
H      91.24912769      80.11198380     103.65830203
C      92.40564020      79.61498579     107.47176973
H      93.78136095      81.13999492     107.62483757
H      93.32593691      77.92368073     106.74044565
H      91.65541885      79.24270970     109.35204742
C      87.99501899      78.51138561     105.61038932
H      86.74402016      78.82696990     104.00412195
H      86.94433116      78.50571643     107.38106287
H      88.70366635      76.58386477     105.47243929
C      86.26780913      86.47658202     104.55592203
O      84.60484999      86.63153958     106.05258527
N      87.04259692      88.44945629     103.12728894
H      88.33327999      88.07906993     101.77046545
C      85.93899676      90.93633612     103.11595058
H      85.19255487      91.24247178     105.01134607
C      88.02714434      92.87141587     102.37706759
H      87.33928395      94.78759834     102.07471138
H      88.93610270      92.13253287     100.68198309
C      89.95844462      93.16999262     104.52001723
H      90.78803448      91.35774508     105.04347142
H      89.21767191      93.85785300     106.31336750
C      92.24690320      94.69122230     104.06459319
H      93.22578142      93.67077009     102.56226077
H      93.69065409      94.76681136     105.53102081
C      91.54014555      97.40675901     103.14051702
H      89.99623915      97.92265430     104.39907475
H      90.57260568      97.24046310     101.33015922
N      93.74545615      99.07538735     103.03847180
H      94.27268980      99.62529770     104.78835837
H      93.08972112     100.49835126     101.94620999
H      95.24589884      98.33461463     102.11628536
C      83.80549575      90.94956421     101.18276056
O      83.98879920      89.59652017      99.21555547
N      81.86852627      92.44811717     101.75534764
H      81.84207011      93.13408782     103.53546982
C      80.03738148      93.20778714      99.88451859
H      79.04527516      91.61096842      99.03792120
C      77.80561470      94.80460589     100.87851463
H      78.49536482      96.33339447     102.07471138
C      76.39209942      96.11796567      98.64863758
H      77.67900305      97.34061859      97.60550865
H      74.93701017      97.51825286      99.04359038
H      75.47936162      94.82161342      97.33527779
C      76.02549251      93.04527068     102.36761896
H      77.20468173      92.02292875     103.71310410
H      74.97858414      91.86230201     101.04292082
C      74.21324499      94.62697162     103.92097399
H      72.96224616      93.35140635     104.94709538
H      72.85831122      95.70033616     102.80225601
H      75.08440882      95.75891767     105.40818860
C      81.35452073      94.40209418      97.56582440
O      82.59985036      96.37307872      97.84928335
N      80.40587811      93.69344682      95.26224803
H      79.24936560      92.17788631      95.38319051
C      81.45845567      94.46823460      92.75080176
H      82.69433668      96.08773005      93.05693742
C      83.28015183      92.43110963      91.69633447
H      84.56705546      92.03615683      93.25724841
H      84.22690472      93.34573717      90.11085410
C      82.14064686      89.99903188      90.70233843
C      81.88553382      89.35652493      87.96790446
H      82.10663179      90.77004021      86.51281520
C      81.39798443      86.88476291      87.23280092
H      81.54349335      86.32162446      85.27693419
C      81.12397411      84.98558796      89.09229161
O      80.97846519      82.45524442      88.40065178
H      80.62319663      82.03005600      86.67155221
C      81.43766869      85.59596956      91.68688584
H      81.39798443      84.03505562      93.00213536
C      81.98379958      88.10552610      92.54671131
H      82.21623592      88.50614808      94.53470340
C      79.44778688      95.10885183      90.76469940
O      77.15365913      94.50224968      91.04437890
N      80.19233904      96.20489308      88.63497785
H      82.08962426      96.34095337      88.46679220
C      78.53315933      96.69811164      86.47502067
H      76.54705698      96.68866302      87.00981322
C      79.18133547      99.34372848      85.56228286
H      79.75770198      99.41175863      83.58562914
H      80.80650010     100.10906764      86.57139671
C      76.83807484     101.03881300      85.54905478
H      75.95179319     101.22400616      87.39720711
H      75.47558217     100.19977450      84.25081280
C      77.54672220     103.82237985      84.76481836
H      78.42733467     103.98489632      82.91099684
H      78.84874364     104.40063610      86.25203297
C      75.39810338     105.61195066      85.17299924
H      76.13887610     107.53380232      85.07473347
H      74.80472932     105.28880746      87.11752762
N      73.60286338     105.40408077      83.14343318
H      74.39843817     105.58549449      81.42000278
H      72.17423030     106.64941041      83.37209006
H      72.87342902     103.64096612      83.16422017
C      79.15487930      94.65153805      84.47191078
O      81.39420497      94.46445515      83.77460177
N      77.32562422      93.06983712      83.78594013
H      75.53416368      93.36652417      84.37364501
C      77.70167976      91.17255191      81.82440421
H      79.64620813      90.50547853      81.68834392
C      76.17856036      88.90299060      82.72580367
H      74.35686418      89.56061536      83.42500240
H      77.37286738      88.24914530      84.27159979
C      76.32595901      86.65799574      80.97213765
O      74.22647306      85.66588943      80.52427251
O      78.31017164      85.96257646      79.93089845
C      76.94767896      92.28371098      79.19957437
O      76.50737272      94.53815447      78.97091748
N      76.70579399      90.70201006      77.25693572
H      77.01003993      88.83496046      77.50826932
C      76.70201454      91.45790058      74.68123875
H      78.40087850      92.59929528      74.44880241
C      76.84752346      89.29794340      72.78584326
H      76.95334813      89.88186883      70.81296899
C      79.31928548      87.84474387      73.30362827
H      79.73313554      86.58618614      71.72948625
H      79.76148145      87.03594101      75.14611142
H      80.75736720      89.24692079      72.84253505
O      74.77071424      87.53482875      73.01638987
H      75.42078009      85.86997987      72.70836448
C      74.51371147      93.15109536      73.64755846
O      74.93701017      95.09184428      72.38711101
N      72.18367892      92.46890416      74.23148389
H      71.69801926      91.08373477      75.45224709
C      70.12954643      94.23957771      73.83842082
H      70.07852381      94.69122230      71.82775202
C      67.72770428      92.44811717      74.23148389
H      67.48770903      91.91521435      76.20813761
H      68.34186533      90.63586963      73.46614473
C      65.18791211      93.56494542      73.23937757
H      65.14255868      95.57750394      73.66645572
H      63.54196049      92.62386171      74.04629071
C      65.40523064      93.17566180      70.28762507
O      66.33875543      94.89531274      68.96859611
O      64.57186133      91.17633136      69.25205505
C      70.03128066      96.62252259      75.59397656
O      68.38910849      98.26658448      75.52594641
N      71.90588915      96.82472331      77.30606860
H      73.38743458      95.62096766      77.32685559
C      72.18367892      98.92798869      79.05217571
H      71.55817951     100.69677253      78.20179887
H      74.21324499      99.10373325      79.36209083
C      70.95535682      98.75602360      81.60519596
O      71.01204861     100.54181497      83.01682152
N      69.83852857      96.52425682      82.02093575
H      69.82719022      95.36774432      80.50348552
C      68.44013109      95.87419097      84.27726897
H      67.34031039      97.51825286      84.85741495
C      66.56552260      93.65754201      83.82562438
H      66.03073005      92.81661381      85.62842328
H      67.85242622      92.34418222      82.89398931
C      64.38288870      93.94100095      82.02282548
C      63.44747418      91.74135954      80.82662872
H      64.28084348      89.92533254      81.24425824
C      61.45381293      91.82261776      79.12398531
H      60.84532104      90.09729763      78.21880641
C      60.41824290      94.19989347      78.57029550
O      58.62867208      94.24902634      76.74293016
H      58.36222067      95.98379510      76.28750612
C      61.31775262      96.48457258      79.69657239
H      60.56375182      98.27225366      79.06540380
C      63.22637621      96.39764517      81.60141651
H      63.92746467      98.12296528      82.43856527
C      70.21080466      95.26947855      86.59029398
O      72.30273168      94.31516677      86.17644391
N      69.40200179      95.88741906      88.90331898
H      67.52361383      96.22945952      88.92599570
C      70.96102600      95.08239565      91.06705561
H      72.96980507      95.36585460      90.72123570
C      70.20135602      96.79637741      93.33472719
H      71.50337746      96.21812116      94.82194179
H      68.27383518      96.35040200      93.91109371
C      70.12765669      99.61395935      93.03615043
C      67.78817552     100.90653214      92.69222024
H      66.04017869      99.85206487      92.70166887
C      67.61432070     103.45766267      92.44466609
H      65.73404301     104.23811963      92.55427022
C      69.83663884     104.95054645      92.08372837
O      69.84041829     107.56025849      91.92310163
H      68.25871738     108.07804350      91.20500563
C      72.25359880     103.65230449      92.38608458
H      73.85986616     104.91086221      92.30671607
C      72.43690225     101.06526915      92.80371409
H      74.31340049     100.26591492      92.79237573
C      70.82118626      92.36874866      91.81727696
O      68.84453253      91.12152930      91.93821944
N      73.04728386      91.42577523      92.75458121
H      74.46646832      92.69000214      92.92087712
C      73.79750519      88.65354673      92.55804967
H      72.15722275      87.47624724      92.97189973
C      74.56662380      87.90521511      89.92944037
H      76.44501177      88.53638370      89.36819166
C      74.54394709      85.11786881      89.26992589
H      72.63721324      84.56984817      89.82739515
H      75.88754250      84.10875495      90.45667401
H      75.07307045      84.82307149      87.29894134
O      72.86587013      88.94267487      88.14175928
H      73.56506887      90.59807512      87.88664623
C      75.70801850      87.92222265      94.58572601
O      77.16121804      89.40376808      95.59672958
N      75.39621365      85.61864627      95.58728095
H      74.20190662      84.47536186      94.63485889
C      76.88909745      84.46780295      97.68109771
H      78.53315933      85.66777916      97.99857173
C      75.36408832      84.66811395     100.21522069
H      74.48158612      86.52571491     100.30970701
C      73.12476263      82.80484379     100.13585219
H      72.08163371      82.98814724     101.90274629
H      73.76537984      80.87165377      99.81837817
H      71.96069123      83.30562126      98.51068756
C      76.86264128      84.38087554     102.63029092
H      77.39932355      82.39099373     102.69265189
H      75.71368768      84.47914131     104.33860351
C      79.24369644      86.03060661     102.82493273
H      80.01281504      85.82651617     104.72410768
H      78.48591617      87.91655348     102.49423063
H      80.68933707      85.76604493     101.38118183
C      77.60908317      81.79006076      96.80804415
O      76.34674599      80.68268114      95.23579186
N      79.57628827      80.80740308      98.17431627
H      80.88397887      81.88076762      99.05492874
C      80.25470001      78.11643281      97.93999021
H      78.88842788      76.80874221      98.75257253
H      82.07828591      77.78195125      98.83761021
C      80.97468573      77.49093340      95.23579186
O      81.97813041      78.90255896      93.74857725
N      80.31328152      75.25349744      94.21533965
H      79.54983209      73.97226301      95.40397750
C      80.82917681      74.38611307      91.59428925
H      82.43355444      75.12877552      90.53604252
C      81.60018514      71.64034073      91.52436938
H      79.95423352      70.60099126      92.19333249
C      82.27103798      70.61232963      88.84851692
H      82.72268257      68.60921973      88.99213612
H      83.93399713      71.39278659      87.91688185
H      80.61752746      70.77106663      87.63153317
C      83.70722998      71.03940778      93.48968474
H      83.23668813      71.97671202      95.26224803
H      85.45711655      71.84065173      92.75458121
C      84.16265402      68.16324432      94.05660264
H      85.02814867      67.07854142      92.53726268
H      82.36174485      67.43003051      94.73690411
H      85.40231449      68.04419156      95.69688508
C      78.44245247      74.98893576      90.21667877
O      76.75870633      73.38077868      89.55716429
N      78.28749491      77.47581560      89.50236222
H      79.71801774      78.60776165      90.05983149
C      76.33162818      78.44713491      87.69389414
H      76.28627475      76.98070730      86.24636379
H      76.92122280      80.25371327      86.89642964
C      73.75404149      78.75705003      88.70300799
O      72.11753850      79.11420830      87.12508652
N      73.24759484      78.76649867      91.22957207
H      74.69701493      78.79673428      92.46923254
C      70.72481022      78.60587193      92.24813456
H      69.66656348      77.37754983      90.97634875
C      70.77394309      77.32274777      94.73690411
H      72.09297206      78.35075887      95.94065977
H      71.63754803      75.45569817      94.64241780
C      68.26438656      77.05440662      96.08994815
N      66.82252537      74.74894052      96.32994339
H      67.15700693      72.95747997      95.76680495
C      64.84020247      75.45380843      97.80204019
H      63.40590021      74.11210275      98.36517863
N      64.76650315      77.91612182      98.23100806
H      63.48337899      78.74004249      99.37618221
C      66.94724731      79.00082473      97.27858600
H      67.60109261      80.93401474      97.28803463
C      69.50026757      81.26849630      92.53159350
O      70.30151152      82.88232257      94.01313893
N      67.75793991      81.72392034      90.82706037
H      67.37243573      80.41056055      89.49669304
C      66.27828419      84.08985768      90.43966648
H      67.68613031      85.50904216      89.93321982
C      64.51894900      83.50971171      88.15498736
H      63.45125364      81.84297310      88.72568471
H      65.57719574      82.90310956      86.49580766
C      62.41946307      85.49392434      87.41799410
H      60.95870462      85.35597431      88.86552446
C      63.92368521      88.05828295      86.99469541
H      62.78984942      89.29038450      85.79660892
H      65.62821834      87.73136030      85.88542606
H      64.33375582      88.98424884      88.78993540
C      61.32531153      84.47725158      84.91410674
H      59.61888868      85.60352846      84.67789095
H      60.80752653      82.50815676      85.23724994
H      62.59709734      84.70968792      83.31161882
C      64.85343055      84.89677082      92.94166411
O      63.26228100      83.51160144      94.04337455
N      65.21058883      87.19089856      93.85251220
H      66.52583834      88.29827819      93.02292234
C      63.91612630      88.06773157      96.11640432
H      63.42479746      86.55028135      97.42031548
C      65.57341629      90.01792914      97.36740314
H      64.56241270      91.02137380      98.85461775
H      66.01372251      91.40309852      95.90853442
C      68.05462694      88.86330635      98.31037657
H      68.89177568      87.51215204      97.00079623
C      70.20513548      90.97791010      98.69588074
H      71.89455080      89.84596403      99.02658284
H      69.94813269      92.13442260     100.37962688
H      70.42434372      92.24402673      97.08583392
C      67.52928302      87.75214728     100.83883038
H      66.33686572      86.09863676     100.55726115
H      66.38410887      88.85952690     102.14463126
H      69.17145518      87.21357528     101.96321753
C      61.33476016      89.01070500      95.40397750
O      59.39779069      87.77671372      95.98034402
N      61.31208344      91.22168480      94.37218693
H      62.98449124      91.94356025      93.80148959
C      59.09354475      92.72590693      93.69566491
H      57.29263557      91.72813145      93.78070260
C      58.92346938      94.88586411      95.60050904