 %block lattice_cart
   137.793   0.000   0.000
   0.000 143.498   0.000
   0.000   0.000   162.326
 %endblock lattice_cart

 %block positions_abs
N      90.39686113      38.38871654      82.74186634
H      89.49735140      37.67062053      81.22252638
H      89.68443431      37.60448012      84.32923644
H      92.14107851      37.61581847      82.76832251
C      90.24568302      41.18362175      82.89871362
H      91.62140378      41.86203349      84.27632411
C      90.56693649      42.52154798      80.25309679
H      89.65797814      41.33857931      78.83202260
H      92.59839228      42.59902675      79.91861523
C      89.76758226      45.32779155      79.91105632
H      87.71722921      45.34101964      80.09624950
H      90.22111658      46.11580742      78.06101426
S      91.11873658      47.33279117      82.18817653
C      94.41252954      47.41026995      81.16583459
H      95.53502697      48.77465236      82.22219160
H      94.31804323      48.21907281      79.27610828
H      95.37062078      45.59046352      81.16394487
C      87.56605111      41.80345199      83.71696512
O      85.95978374      40.52221754      82.74753552
N      86.80827086      43.47208031      85.45740305
H      88.27280875      44.28844208      86.36636141
C      84.20233827      43.67239130      86.55344431
H      82.94189082      42.36281098      85.58779417
C      84.20044855      42.99775901      89.35401871
H      85.70845014      44.07112355      90.25730789
H      84.53681983      40.97764159      89.57700641
C      81.84584956      43.63837624      90.91493264
O      81.59640569      45.58290461      92.02798144
N      79.94667462      42.08124176      90.72029083
H      78.60496893      42.12659518      92.07522460
H      80.18478013      40.42584150      89.80188384
C      83.00803124      46.42761227      86.28321345
O      84.58028353      48.17182965      86.51564979
N      80.57406375      46.58445956      85.75220036
H      79.34385192      45.12748056      85.82589968
C      79.47991222      49.04299348      85.06622970
H      80.40587811      49.45117438      83.27287943
C      76.51115218      49.07322911      84.57490086
H      76.25225967      47.27231993      83.60925072
C      74.88598755      49.06378048      86.91816149
H      74.73669917      50.80610814      88.00664385
H      75.49825887      47.61625013      88.24852882
H      72.89799547      48.93149964      86.40415593
C      75.59274519      51.39003357      82.84580129
H      76.50548300      53.15125850      83.39760137
H      73.54428187      51.58845484      82.91005198
C      76.32784873      50.99508076      80.07924196
H      78.38387095      51.08011845      79.98097620
H      75.65888561      52.55599470      78.91328083
H      75.68156233      49.17527432      79.36114597
C      80.11297053      51.24641436      86.71407105
O      81.13909192      53.07755916      85.78432570
N      80.11108080      50.95728624      89.18772279
H      79.99013832      49.18283323      89.88314208
C      80.66477061      53.05488244      90.97162443
H      79.58951634      54.75941558      90.54832574
C      79.68967184      52.19127752      93.62668990
H      80.09596299      53.69172021      94.97784422
H      80.78571310      50.54721564      94.20872561
C      76.89665635      51.44294591      93.86290569
C      75.11464443      53.30243660      94.73973870
H      75.68723151      55.19405263      95.24996481
C      72.52760911      52.69394473      95.20650110
H      71.34275071      54.01108396      96.21939440
C      71.67156309      50.25619778      94.51864072
H      69.70057855      49.82534019      94.83611474
C      73.30428663      48.56489272      93.29031862
H      72.61831597      46.78477055      92.56466371
C      75.91588839      49.13370036      93.11835352
H      77.19523310      47.69372889      92.44183150
C      83.45778611      53.78242709      91.28909845
O      84.05682935      55.72695546      92.49852329
N      85.15853979      52.19505697      90.50108258
H      84.53681983      50.46217795      89.99463593
C      87.87596622      52.82055639      90.04187909
H      88.52414235      54.23974085      91.38925395
C      89.52569730      50.39603752      90.36880174
H      91.34172428      50.94783761      89.57133723
H      88.69043827      48.80299824      89.36346734
C      89.99245970      49.79699428      93.21095011
H      90.91653586      47.95640085      93.18449395
H      88.18399161      49.52487369      94.15770300
C      91.60817569      51.70561787      94.44683112
O      90.76346803      52.82055639      96.38191087
O      93.70766163      52.20828506      93.50763714
C      88.07627721      53.87313394      87.42649787
O      89.32160685      55.75341162      87.22618688
N      87.15975995      52.66181938      85.41393935
H      86.25647077      51.04610338      85.87881202
C      87.09361953      53.54432156      82.75887388
H      89.06649380      53.72195584      82.19384571
C      85.49302134      51.78120691      80.98442087
H      83.52392653      51.92860556      81.57212575
H      85.86907688      49.76675866      81.19040104
C      85.71600905      52.47662620      78.09502934
H      87.70211140      52.39725770      77.55834706
H      84.77114589      54.27564564      77.75298887
S      83.96234303      50.39225808      75.83302694
C      84.41965680      51.99096653      72.85103882
H      84.30627322      54.02620177      73.14772585
H      83.06850248      51.29554726      71.46208998
H      86.39253107      51.52042469      72.49199082
C      86.18844063      56.26552745      82.35258272
O      87.58683810      57.69982973      81.15827569
N      84.27981705      57.17637553      83.60736099
H      83.38975596      56.05198839      84.86780844
C      83.20078333      59.83711019      83.37303493
H      82.81905861      60.14135613      81.37181476
C      80.62508636      59.98450883      84.74119678
H      79.99391777      61.94226529      84.63726183
H      80.84240489      59.54231289      86.74241694
C      78.44056274      58.53130931      83.44106508
H      79.04905462      56.57166311      83.27098971
C      76.03116169      58.86012169      84.87914680
H      74.67622793      57.73573452      83.80578225
H      75.56817875      60.85945212      85.04355299
H      76.48469601      58.02108320      86.70462242
C      78.00970514      59.62735057      80.76332289
H      77.64687769      61.65313717      80.86725784
H      76.35052544      58.64469288      80.03766799
H      79.53093483      59.01696896      79.51421380
C      85.07917128      61.84777898      84.35569261
O      84.82027878      64.01718479      83.54311030
N      87.03125856      61.15235971      85.81267160
H      87.23723873      59.33633271      86.36069223
C      89.12885477      62.90602571      86.86146970
H      88.33327999      64.79764176      87.04855261
C      89.78458980      62.08210504      89.56944751
H      91.58360925      62.89090790      90.17227020
H      90.24568302      60.08466433      89.36346734
C      87.67376551      62.35611537      91.46673273
H      85.82939263      62.04431053      90.60123808
H      87.70400113      64.29497456      92.16026228
C      87.83628197      60.62890551      93.77030910
H      88.03092378      58.63713397      93.28464944
H      86.25647077      60.91992337      95.05910245
N      90.10017410      61.44337755      95.27831070
H      91.57416062      62.19170917      94.32777836
C      90.54992896      61.02952749      97.71416792
N      89.03058900      59.71616770      99.06910168
H      89.28192260      59.28531011     100.91158484
H      87.77392100      58.55587575      98.22061457
N      92.33194087      62.09344341      98.84422425
H      92.20532921      61.77785911     100.72450193
H      93.50357118      63.22349973      97.84644876
C      91.56471199      62.98161477      85.31189413
O      92.99523481      64.81275956      85.63314760
N      92.08249700      61.06354256      83.72641375
H      90.72000433      59.72750607      83.66594251
C      93.94576714      61.32810424      81.53811068
H      95.34038516      62.72461199      82.12959501
C      95.53313725      58.81287853      80.88048592
H      96.33816065      59.04720459      79.00020824
C      97.63640263      58.26485789      82.71541017
H      98.77968705      56.67370834      82.08613131
H      96.86917375      58.01919348      84.61080566
H      98.92708570      59.85222799      82.97808213
C      93.80403767      56.48095626      80.77655097
H      92.19777030      57.16314746      79.68428916
H      93.21255333      56.06710620      82.70596154
C      94.80370289      54.02053259      79.65972272
H      95.93564895      53.08322835      81.10347363
H      95.79769893      54.44383129      77.90794643
H      93.21822251      52.76764405      79.26476992
C      92.91019712      62.74539899      79.22508567
O      94.35394803      63.76396147      77.69251763
N      90.36284605      62.72272227      79.03800277
H      89.38396782      61.38668577      79.98664538
C      88.67154100      64.65969173      77.59803132
H      89.53514593      64.73906024      75.72720227
C      85.90120223      63.67703406      77.10103330
H      84.78815343      63.35578058      78.80178698
H      85.94088648      61.82888173      76.19774412
C      84.45367187      65.06031372      75.12437957
O      82.57717364      66.25651047      75.93318243
O      85.39664530      65.22471991      72.95119431
C      88.87941090      67.41680242      78.94918563
O      89.64663978      69.21204242      77.64905393
N      88.19910942      67.90624155      81.43606546
H      87.19944420      66.66658108      82.48864301
C      88.21422723      70.53485084      82.47730466
H      89.18176711      71.82175446      81.19418049
C      85.48168299      71.47971401      82.67194647
H      85.31160762      72.84976557      84.20073505
H      84.61429861      69.72037880      83.29744588
C      84.59351162      72.59843198      80.17750773
H      82.59040173      73.04440738      80.35703173
H      84.80705069      71.21326260      78.66761641
C      86.06560842      75.01728166      79.48586790
O      87.27314353      76.27394965      81.15449624
O      85.86340770      75.81285643      77.29000593
C      89.51057949      70.71626457      85.15693657
O      89.68632403      68.99472389      86.78966010
N      90.54048033      72.93102380      85.63503732
H      90.34016934      74.27272949      84.29522137
C      91.78769969      73.44502937      88.00097467
H      93.18042799      74.90956726      87.60791160
H      92.96877864      71.87655653      88.62836380
C      89.93576791      74.09887467      90.32533803
O      88.05926968      75.49538241      89.91904688
N      90.37796386      73.17479851      92.56088426
H      92.00312849      72.22615590      92.88780691
C      88.68098963      73.37699922      94.68493664
H      86.82527839      73.41479374      93.79865500
C      88.68854854      70.95248037      96.36679306
H      90.62740774      70.72571321      97.01685891
H      88.39753069      69.37077944      95.07799971
C      86.78748387      71.03751805      98.35100568
H      86.80827086      72.96503889      99.07288114
C      84.17588210      70.26084052      97.51763638
H      83.10818674      70.03785282      99.26563322
H      84.12296977      68.69992659      96.17404097
H      83.40676349      71.93324831      96.59733967
C      87.43565999      69.26117530     100.39191010
H      86.04482143      69.09865884     101.89991170
H      89.31215822      69.63912057     101.15346981
H      87.27692298      67.38656681      99.55098189
C      89.34806302      75.79962836      96.04364986
O      91.11684685      76.02828523      97.57621790
N      87.68321414      77.72903891      95.75263200
H      86.03159334      77.47392587      94.83233529
C      88.11407174      80.26883108      97.01874863
H      90.16820424      80.41622974      96.95071849
C      87.05582501      82.45524442      95.38224565
H      87.05015583      84.17111592      96.51797116
H      85.07728156      82.09619642      94.92682161
C      88.37296425      83.05995684      92.90859390
H      90.42331729      82.92767600      93.07488982
H      87.71533949      84.84574821      92.12057803
C      87.70967031      81.12109765      90.91304292
H      85.76136248      80.55795921      91.26075256
H      89.11373696      79.62065495      91.03965458
N      87.82872307      82.03761492      88.30900006
H      88.21044778      83.90088506      88.12569661
C      86.99346404      80.89244077      86.20384494
N      86.49079684      78.48492945      86.04888739
H      85.94277621      77.59297863      84.45206865
H      86.98968458      77.40400600      87.54177117
N      86.92732362      82.13021151      84.10246928
H      86.42843587      81.43479221      82.39604642
H      87.39408602      83.97836384      84.21396314
C      86.96322842      80.23481600      99.62657095
O      84.97901579      79.02350144      99.97994977
N      88.23879368      81.51416073     101.37456779
H      89.59939662      82.64232734     100.64891288
C      87.76069292      81.46502784     104.07876614
H      85.90687141      80.57874620     104.24128260
C      89.45766715      79.64144194     105.60566500
H      89.38207810      77.78195125     104.72316281
H      88.84350610      79.32018848     107.54830365
C      92.26013127      80.21969820     105.53385540
H      92.96688891      80.19135231     103.60066538
C      93.17097935      82.60075335     106.76784668
H      92.60217173      84.31095566     105.77385064
H      95.22889131      82.66311433     106.86422272
H      92.50012651      82.62343007     108.71615451
C      93.48845337      78.32241298     106.94737068
H      92.58327447      78.29784653     108.79552302
H      95.47077628      78.76082948     107.28752142
H      93.34294445      76.61032095     105.80975544
C      87.53770521      84.18434400     105.22960946
O      87.08228117      84.49425912     107.54641392
N      87.98934980      86.04005524     103.64601881
H      88.76602732      85.58841065     101.96227267
C      87.17109831      88.72157688     103.68381334
H      86.33205983      88.95779268     105.55086294
C      89.42743153      90.59240593     103.52507633
H      90.25513165      90.33729288     101.65613701
H      90.63874609      89.86108185     105.02362930
C      88.67909991      93.35707552     103.90491132
H      87.44132917      93.54793789     105.53763485
H      87.72289839      93.93911124     102.17392202
C      90.95999957      95.13530798     104.31309220
H      92.23178538      95.21089704     102.69548648
H      92.09761481      94.47390377     105.89668285
C      89.86395831      97.84517553     105.00662176
H      88.65453347      97.89052896     106.67336037
H      88.66776155      98.44043931     103.44003865
N      91.80092778      99.79537307     104.89134845
H      92.93476356      99.60073127     106.41446786
H      90.89574887     101.46778087     105.05008546
H      92.81571081      99.73301211     103.27374273
C      85.09239937      89.04660981     101.63346029
O      85.22468021      87.90332538      99.65113739
N      83.12330455      90.57161895     102.09644324
H      83.03448741      91.24625123     103.88034488
C      81.12397411      91.41443688     100.29742379
H      80.05816847      89.75525717      99.70027027
C      79.28149095      93.32872964     101.39724450
H      80.57973293      94.67232505     102.26084943
C      77.75459209      94.58539763      99.33366337
H      79.25314506      95.64931355      98.40202830
H      76.30895146      95.86285262     100.05364909
H      76.95145841      93.21156661      98.02786249
C      77.76970990      92.30071851     103.55720168
H      78.84685390      91.31806084     105.01040121
H      76.49981382      90.85129843     102.83343650
C      76.21635487      94.22068046     105.08221081
H      77.12531323      96.04993552     104.82331831
H      75.92911647      93.50636391     106.99461384
H      74.31529020      94.46823460     104.32632029
C      82.40331882      92.51047813      97.81810286
O      84.05682935      94.05249481      97.93526590
N      81.32617482      91.61663759      95.66948405
H      80.11674998      90.18422505      96.02664232
C      82.04238110      92.46701444      93.10890489
H      82.85496341      94.33784349      93.39047411
C      84.32328076      90.72279704      92.17538009
H      85.75947275      90.68122307      93.64936662
H      85.19822404      91.70356501      90.58800999
C      83.47668337      88.05450350      91.22484776
C      83.29715937      87.51593149      88.56033366
H      84.11163141      88.79905566      87.19784099
C      82.28804552      85.14243525      87.78932532
H      82.42410581      84.69834957      85.80133324
C      81.30538783      83.37176168      89.43527694
O      80.39642948      81.05117778      88.70017340
H      80.66855007      80.86220514      86.91627176
C      81.37152826      84.04639399      91.99963555
H      80.55138704      82.64421706      93.23173710
C      82.29749415      86.35563953      92.87835828
H      82.34284758      86.66555465      94.89469626
C      79.97691024      92.58228773      91.17193542
O      78.32150999      90.97979982      91.12847172
N      80.12052944      94.39264554      89.45984338
H      81.48113238      95.67387999      89.84534755
C      78.28182573      94.73657574      87.44161568
H      76.33540763      94.64775859      88.11246852
C      78.57851276      97.28392680      86.01109286
H      77.17066666      97.30660352      84.50687072
H      80.43989318      97.50124533      85.15315711
C      78.20056750      99.60640044      87.69672873
H      79.71234855      99.75568882      89.08756730
H      76.54705698      99.31160314      88.88725631
C      77.92655719     102.11217754      86.26053673
H      76.65477138     102.07249329      84.63915156
H      79.85596775     102.50902006      85.65771404
C      76.89287689     104.36095184      87.84601711
H      78.13064763     104.61795463      89.46929201
H      75.03905538     103.73545244      88.49608296
N      76.70201454     106.75901454      86.42305320
H      75.90643976     108.14607366      87.46051294
H      75.67967260     106.52657820      84.82812419
H      78.41599630     107.44498519      85.93361408
C      78.69000662      92.61252336      85.43094688
O      80.91232476      92.21001165      84.77143240
N      76.61130767      91.36530400      84.47663509
H      75.03338620      91.61285814      85.52165375
C      76.27871584      89.67588867      82.33179573
H      77.69601058      88.20379188      82.58690878
C      73.56884831      88.78204812      82.43762040
H      72.35942347      90.45067646      82.43006150
H      73.11531399      87.99592197      84.28766246
C      72.70713311      87.01704374      80.45718723
O      73.65766545      84.82685095      80.54978382
O      71.18212398      87.68789659      78.78477944
C      76.78705222      90.96657175      79.85814399
O      77.14987967      93.37219333      79.78633439
N      76.53571862      89.78549280      77.68306900
H      76.21635487      87.91277401      77.50165527
C      77.10074679      91.11208067      75.31146248
H      78.70701415      92.37630757      75.57413443
C      78.24592093      89.63809414      73.16473339
H      77.97569007      90.77948883      71.47342833
C      80.96334737      88.75748168      73.78267389
H      82.21434619      89.80439005      72.52600589
H      81.15609946      86.90743962      72.89639225
H      81.54538308      88.66488509      75.75743789
O      76.64721247      87.53482876      72.47876273
H      77.12153378      86.98491839      70.81769330
C      74.81795740      92.77692955      74.51021852
O      75.35274995      94.71389902      73.29890395
N      72.45202006      92.38197675      75.49665566
H      72.17800974      90.59051621      76.09758862
C      70.44891017      94.27359279      75.20941726
H      70.65111088      95.13530798      73.34992656
C      67.79384470      92.97913027      75.25666041
H      66.27639447      94.33973320      74.95997338
H      67.40645080      92.31772606      77.16717372
C      67.70313783      90.83996007      73.46142042
H      69.08452777      89.43211397      74.05101503
H      68.48926398      91.55049718      71.69452631
C      65.21058883      89.43589342      73.19496901
O      64.44147022      88.06017267      74.92784804
O      63.80463245      90.12564353      71.37516257
C      70.66244924      96.42410133      77.15583536
O      68.84264280      97.93966184      77.43173540
N      72.72792010      96.65275822      78.53722529
H      73.79939492      95.07672647      78.47864378
C      73.09641673      98.57272016      80.51765847
H      72.07407480     100.19599505      79.76743712
H      75.08062936      98.81271539      81.02221539
C      71.88699189      98.00391254      83.05934036
O      72.34052621      99.36073602      84.92072078
N      70.39599783      96.04804580      83.34657876
H      70.26371699      94.64397915      82.05778541
C      69.05240242      95.50758408      85.78054625
H      68.52327905      97.33494942      86.57423130
C      66.52205889      93.97879549      85.42905716
H      65.36932584      94.38886609      87.08445741
H      66.87543771      91.95867806      85.62747842
C      64.85532028      94.55516200      83.19162120
C      64.32619691      92.66354598      81.41527847
H      64.98760112      90.77948883      81.83668744
C      62.85032066      93.13408782      79.16083498
H      62.58953843      91.59963006      77.83802656
C      62.01695136      95.68521835      78.71863902
O      60.65823814      96.12552457      76.49632087
H      60.58264909      97.93777210      76.42451128
C      62.49694184      97.52014260      80.52143792
H      61.64656500      99.36640521      80.34380365
C      63.88211123      97.00991649      82.67194647
H      64.17879826      98.59539686      83.92294529
C      70.62276499      94.05249481      87.81200204
O      71.54495143      92.03048766      87.28854785
N      70.52260949      95.01625523      90.11179896
H      69.43790659      96.56394109      90.37258119
C      71.93045560      93.97501604      92.31710957
H      73.91277850      94.33973320      91.89003142
C      71.31440482      95.33939843      94.80209967
H      72.23659126      94.29060032      96.31766017
H      69.29239766      95.50002517      95.16870657
C      72.29895223      97.98123581      94.64525238
C      70.58686019      99.92198473      94.33533727
H      68.58941947      99.72545321      94.71139281
C      71.35030962     102.33327551      93.62102072
H      70.07285463     103.91686616      93.79487554
C      73.93545521     102.93798793      93.34512068
O      74.58174161     105.27935884      92.88969664
H      73.34208115     106.60405698      92.85946102
C      75.75148220     101.08416643      93.71361731
H      77.71868729     101.60384115      93.56621866
C      74.90488481      98.54626398      94.31077083
H      76.42800422      97.25558091      94.73029007
C      71.45046511      91.26514850      92.81032814
O      69.29428739      90.41477166      93.08811790
N      73.34208115      89.74202909      92.93316035
H      75.07873963      90.49980934      92.69694456
C      73.54995105      87.07940472      93.46984262
H      71.84541791      86.85830674      94.60556813
C      73.63876818      85.37109212      91.11713336
H      73.87120452      83.43034320      91.76341976
C      71.35975825      85.64510244      89.28787829
H      71.32574318      87.59718972      88.63403298
H      69.58341552      84.81551260      89.91715715
H      71.78305694      84.64354750      87.53799172
O      75.71368767      86.10430594      89.40882077
H      76.72847070      87.36664311      90.22707227
C      75.65888561      86.29138885      95.31799495
O      77.35963929      87.74647810      95.85656695
N      75.36975749      83.99159191      96.50285335
H      74.16978128      82.67445267      95.82444160
C      77.36719820      82.79350543      98.14313579
H      79.13409230      83.80261928      97.82944122
C      76.32406927      83.12420754     100.89646703
H      76.20690624      85.13487634     101.33110408
C      73.62931955      81.92612106     101.27630202
H      73.77860793      79.87765774     101.12323419
H      72.26493715      82.51571566      99.84955865
H      72.89043656      82.47225196     103.12067490
C      78.28749491      82.26816153     102.88256938
H      78.75047786      80.27261054     102.67658922
H      77.52404548      82.50815676     104.78174433
C      80.78382337      83.58341104     102.68036867
H      80.60618910      85.60919764     102.99784269
H      81.93655642      83.22814249     101.01174033
H      81.84207011      83.03539040     104.36033536
C      77.93411609      80.14977832      97.25874388
O      76.68311727      79.37688027      95.50318813
N      79.84273967      78.74760141      98.39068994
H      81.02003916      79.65844949      99.58499697
C      80.62508636      76.16056607      97.70093983
H      79.16999710      74.86988300      98.38124131
H      82.28804552      75.49727215      98.71950232
C      81.05972341      76.04529278      94.88146817
O      82.92110383      77.14133403      93.87424405
N      79.47235331      74.74327135      93.47929125
H      78.34607643      73.44124991      94.30132220
C      79.15676902      74.71870491      90.63903260
H      80.11297053      76.37410515      89.86613454
C      80.17155205      72.37166483      89.27087075
H      79.24558615      70.74838991      90.13825513
C      79.55550127      72.50961484      86.43061210
H      80.44556236      74.14233838      85.54244074
H      77.52971466      72.45670251      86.06589492
H      80.17722123      70.70681594      85.65204486
C      82.97401617      71.82742365      89.75842014
H      83.46156556      72.01450654      91.75208140
H      84.14942594      73.09354028      88.63781244
C      83.63731010      68.93992184      89.27087075
H      82.84740451      68.12167035      87.55310953
H      82.74913874      67.90246210      90.80910797
H      85.65175835      68.66591153      89.59401395
C      76.22391378      75.23082074      90.07211471
O      74.59119024      73.65667871      90.46517778
N      75.66833424      77.39833681      89.00819879
H      77.18389475      78.54351095      88.80221863
C      73.36475787      78.35453832      87.84034793
H      72.97169479      77.08086280      86.26998537
H      73.79183601      80.12899133      86.88981560
C      71.11031438      78.47548081      89.78487631
O      69.17145518      79.36176245      88.95717618
N      71.36164798      77.68179577      92.03554035
H      73.05862220      76.99015593      92.57033289
C      69.49837783      77.94068827      93.99140708
H      67.79762415      77.11487787      93.18071449
C      70.28072452      76.70291754      96.53308897
H      71.73392406      77.82352524      97.46661377
H      71.07629930      74.88500082      95.97750944
C      68.18690777      76.19458116      98.34344678
N      66.31418899      74.32564182      98.03164194
H      66.19324651      73.12566563      96.55387596
C      64.84965110      74.28784731     100.07632581
H      63.12055152      73.21448276     100.23884227
N      65.56585737      76.23804485     101.63346029
H      64.74004697      76.70669699     103.28886054
C      67.68802002      77.31707858     100.67536905
H      68.41367493      79.03483980     101.50306917
C      68.71225168      80.76960855      94.39580851
O      70.36198276      82.21524919      94.95516750
N      66.32930680      81.30818056      93.98573790
H      65.07641826      79.88143719      93.79865500
C      65.29940596      83.91600286      93.66637415
H      66.82063565      85.09708181      92.93693980
C      63.12811043      83.85931107      91.79176565
H      61.61254993      82.71980612      92.59867879
H      63.53251186      83.09586165      89.92093660
C      62.11332740      86.45012586      91.20406077
H      61.55207868      87.38931984      92.95016788
C      63.79140437      88.10363638      89.58267559
H      62.97693232      89.99525242      89.53543243
H      63.87077287      87.38365065      87.65326503
H      65.76994782      87.95623772      90.13825513
C      59.60566058      86.08540867      89.93038523
H      58.34143368      85.13487634      91.24941420
H      60.09698942      85.02338249      88.23530073
H      58.88189540      87.96379662      89.49196873
C      64.52650790      85.09519209      96.30065264
O      63.34731868      84.15032894      98.08077482
N      65.43168681      87.51404177      96.61434720
H      66.28584310      88.14521035      95.02886683
C      64.93657851      89.24881053      98.64013381
H      64.17501881      88.34741107     100.32765941
C      67.49337821      90.62264156      99.38090653
H      67.04173362      92.12875343     100.70938412
H      68.47981535      91.32750946      97.71416792
C      69.26594149      88.67244400     100.64702316
H      69.03161543      86.98302867      99.49051065
C      71.86620490      89.51904139     100.60166972
H      73.00382014      88.04316514     101.48039246
H      72.16289193      91.36152455     101.46905410
H      72.51816048      90.12186407      98.74028931
C      68.50249206      87.79750072     103.29830917
H      68.56863248      89.33762766     104.66458130
H      69.61365114      86.25737377     104.09766340
H      66.59197876      87.03405129     103.18492559
C      62.79929805      91.12530875      97.68582202
O      60.72626829      91.13286766      98.90847495
N      63.34542896      92.70134050      95.82633133
H      64.87799700      92.33095414      94.75107706
C      61.63711637      94.81405452      95.07799971
H      59.71337498      94.09784824      95.23106754
C      61.48971772      96.86818701      97.19449318