 %block lattice_cart
   137.793   0.000   0.000
   0.000 143.498   0.000
   0.000   0.000   162.326
 %endblock lattice_cart

 %block positions_abs
N      84.39131090      39.99876335      76.79867708
H      82.83417643      40.87559637      76.13349342
H      84.05682935      38.23753842      77.45441211
H      85.71222959      39.68128934      75.45886113
C      85.31727679      41.78455471      78.90572192
H      87.02558938      40.91339088      79.66350217
C      86.24891188      44.33379552      77.95896904
H      84.74846917      45.72463409      78.21030264
H      87.02936883      44.36025168      76.05412491
C      88.21044778      45.27109977      79.92239468
H      89.70144185      43.88026120      80.20207417
H      87.08795036      45.32968129      81.64771480
S      89.83939187      48.23797008      79.39516104
C      91.82171476      47.42727749      76.69852159
H      93.59994722      48.45150915      76.53033595
H      90.79748310      47.77876658      74.94485557
H      92.39808129      45.45251350      76.80434626
C      83.12330456      42.13415409      80.76332289
O      81.04649534      42.82957337      79.83546727
N      83.53715461      42.14171300      83.33901985
H      85.31727679      41.76943691      83.92105556
C      81.56239061      42.73130760      85.21362835
H      80.02415339      41.39905056      84.88859543
C      82.74157984      42.43462057      87.94617260
H      84.29682460      43.74042146      88.29577197
H      83.54093406      40.54867372      88.16160140
C      80.71201378      42.92216996      89.97195921
O      78.56339496      43.70451666      89.61858039
N      81.22979878      42.54422469      92.33411710
H      79.73124581      42.21919177      93.46984261
H      82.93055247      41.92817392      92.94071925
C      80.69689597      45.42227788      84.99253037
O      82.13497768      47.17594390      85.54055101
N      78.27237711      45.93439371      84.41238440
H      76.98736321      44.52276815      84.34246452
C      77.54672221      48.52142903      83.60169181
H      78.83362582      48.98441198      82.05967514
C      74.70835328      48.75764482      82.67950537
H      74.33796692      47.17405417      81.41527846
C      72.77138380      48.09435088      84.64293101
H      72.29706250      49.64392645      85.91282709
H      73.35341951      46.30855951      85.48763867
H      70.98937190      47.76742823      83.66594250
C      74.35308474      51.12169243      80.98253114
H      74.60630805      52.86590981      82.04644705
H      72.35942347      51.11980270      80.45907695
C      75.87053496      51.16893558      78.52966638
H      75.43022873      49.57400659      77.30134428
H      77.85285787      51.31822397      79.06634866
H      75.43778764      52.96228586      77.60936967
C      77.79805580      50.46784713      85.80511269
O      78.41599630      52.65615019      85.28165850
N      77.71301812      49.51920451      88.16727058
H      77.34452149      47.65026520      88.28632334
C      78.07017638      50.97807323      90.61446616
H      76.92500225      52.64859130      90.23652089
C      77.13665159      49.48518945      92.91237335
H      77.58451672      50.47729576      94.66037019
H      78.30639217      47.79010494      92.86890965
C      74.25103952      48.88425648      93.20717066
C      72.78083244      50.71540128      94.45816948
H      73.74837231      52.40481659      95.06855108
C      70.17489986      50.34690464      94.92682160
H      68.95980583      51.73018430      95.80743406
C      69.15255791      48.08301253      94.17282080
H      67.13055076      47.82600975      94.23518177
C      70.61331635      46.16494031      93.05788228
H      69.62687923      44.44339964      92.57411234
C      73.09830645      46.58634928      92.44372123
H      74.14710457      45.12181139      91.48751971
C      80.79705146      51.86813432      90.92816072
O      81.26381385      53.58022637      92.46828767
N      82.58284283      50.98941160      89.37480569
H      82.06505781      49.74975113      88.01987193
C      85.31538707      51.55255003      89.50897626
H      85.76514194      52.63725294      91.20028131
C      86.79504277      49.06189076      89.85668590
H      88.79059377      49.29621681      89.40504132
H      86.14308719      47.82789947      88.33923568
C      86.23190433      47.86758373      92.44561095
H      86.85173456      45.90604781      92.56277398
H      84.23635334      47.39704187      92.64214249
C      87.47345452      49.20550995      94.68871609
O      86.26591941      49.41526957      96.71828215
O      89.57294046      50.33178684      94.53753798
C      86.09395431      52.91882216      86.98052246
O      87.81360525      54.41359567      86.96540465
N      84.95255962      52.04954806      84.82056528
H      83.84706973      50.50753139      85.03599408
C      85.60262547      52.86968927      82.31856764
H      87.54148467      52.34245564      81.86881278
C      83.69022244      51.67160279      80.40427489
H      81.83262147      52.35379398      80.97308251
H      83.87919507      49.67038263      80.85402975
C      84.14753622      51.94939256      77.54700870
H      86.07694678      51.56010894      76.94418601
H      83.67699436      53.87691340      76.99142917
S      82.15198523      49.91037787      75.73098171
C      80.80461037      52.15159327      73.49921494
H      80.09596300      51.13303079      71.85515305
H      82.28993525      53.54810102      73.20819709
H      79.12275394      52.92638107      74.40061439
C      85.24546720      55.72128627      82.02377034
O      86.71567427      56.88346796      80.69718247
N      83.39164568      56.77953301      83.50720549
H      82.66032161      55.68727121      84.89048515
C      82.56205583      59.47428274      83.50720549
H      82.77181545      60.28497533      81.62692781
C      79.77093007      59.70482935      84.20640423
H      79.43266906      61.64746799      84.80166802
H      79.65943621      58.59556000      85.94117298
C      77.91710855      58.66359015      82.24675804
H      78.31584080      56.66425971      81.94818128
C      75.21102047      59.04342514      83.24264381
H      73.85041753      58.60878809      81.75920865
H      75.21857938      60.93504117      84.05333640
H      75.01070949      57.65258657      84.74875568
C      77.94356472      60.19615819      79.78822411
H      79.68022321      60.01474447      78.69407257
H      77.74136401      62.22194479      80.10947758
H      76.42044531      59.54609233      78.56557118
C      84.34595748      61.22605902      84.84891117
O      84.18155128      63.47105389      84.41616385
N      86.22245570      60.25851916      86.14148397
H      86.52292218      58.38391065      86.34746414
C      88.28981629      61.77974884      87.34901909
H      87.50746960      63.21972028      88.59812818
C      89.95088571      60.04875954      88.93260974
H      91.59116815      61.08432955      89.62991875
H      90.57260568      58.45383053      87.78554587
C      88.38430260      59.14736009      91.28720872
H      86.99724349      57.82833111      90.52564902
H      87.40731410      60.60622880      92.36435272
C      89.93765763      57.41259132      92.99174186
H      91.20566400      58.56910384      94.13313655
H      91.01669136      56.12568771      91.79743483
N      88.52414236      55.90081027      94.81154830
H      88.71311499      54.00541478      94.68493663
C      87.50369015      56.57922203      97.03575617
N      87.47345452      58.92815183      97.73117545
H      86.78559415      59.44215739      99.43570858
H      88.16131490      60.30387259      96.59922939
N      86.38119271      54.91437314      98.43793309
H      85.58750767      55.56065955     100.04609018
H      86.10340294      53.11724342      97.85589739
C      89.90553228      63.30664769      85.44417496
O      90.95999957      65.28141170      86.04132848
N      90.08694601      62.27296741      83.11792187
H      89.26302534      60.60244934      82.70596154
C      91.50046130      63.49751006      81.03733320
H      93.00090399      64.64835339      81.85558470
C      93.14263346      61.72872623      79.52555215
H      94.51835421      62.90791545      78.54289447
C      94.71866521      60.07521571      81.23197501
H      95.56904205      61.29975835      82.65493893
H      96.23233598      59.08121967      80.24742760
H      93.58671914      58.69571550      82.25998613
C      91.50235102      60.16970201      77.54133952
H      89.69388294      59.84088965      78.47486432
H      92.44910390      58.36879285      77.21819632
C      91.33605510      61.54353305      75.07524668
H      93.23900950      61.89313241      74.37037877
H      90.34961798      63.34633195      74.94674529
H      90.46300154      60.41347672      73.58803208
C      89.77514117      65.13590276      79.40838912
O      90.71433515      66.86500234      78.23486908
N      87.36762985      64.55386707      79.28555691
H      86.83472703      63.08177027      80.37592899
C      85.50624944      65.69337203      77.65472310
H      86.36607491      65.61589326      75.78389405
C      83.08173057      64.09844302      77.60370049
H      82.12174960      64.04931013      79.42728638
H      83.40298405      62.08399478      77.31457237
C      81.20712206      65.07543152      75.71775363
O      79.18322518      66.05430975      76.35270167
O      82.05938864      65.20204320      73.47653822
C      85.13964252      68.55063821      78.28022251
O      84.80327124      70.03974256      76.48687224
N      85.06405348      69.25928559      80.71796945
H      85.27948227      67.77396070      81.89526895
C      85.12263498      71.84632090      81.53622095
H      86.02025499      72.90645736      80.01688099
C      82.41087773      72.63811623      81.93873265
H      81.32050564      71.55719278      83.31067396
H      81.53026526      72.27717850      80.11136731
C      82.29938387      75.29885088      82.93272869
H      83.34818198      75.66356805      84.66749745
H      80.32839934      75.47459543      83.50153631
C      83.05338467      77.48337449      81.17717295
O      85.08861992      77.33219639      79.86003371
O      81.94222561      79.53372754      81.52866204
C      86.73268180      72.12033123      83.93050419
O      86.57205508      70.54052002      85.64637568
N      88.44855330      73.98171165      84.08924120
H      88.78303486      75.10987825      82.58690878
C      89.94521654      74.51083501      86.41738401
H      91.08472151      76.16812498      85.97518806
H      91.07527287      72.83464776      86.80666764
C      88.57894441      75.21759264      88.83245424
O      86.60607014      76.48370927      88.72285012
N      89.38774728      74.29729593      91.04721348
H      91.02047082      73.31652797      91.19083268
C      88.33516972      74.73382272      93.53409331
H      86.33394956      74.30296511      93.31488506
C      89.53136647      72.81952995      95.43137853
H      91.56849145      73.09543000      95.29909769
H      88.83594719      71.02240023      94.70194417
C      88.96255885      73.24660810      98.36423377
H      89.64663978      75.14578305      98.76863520
C      86.02970361      73.33164578      98.92926193
H      85.32483570      74.79429396      97.65936585
H      85.88986388      73.56786157     100.96827662
H      85.25302611      71.47593455      98.48328652
C      90.31938235      71.32286672     100.08388471
H      90.51780361      72.21481753     101.93014732
H      92.17320387      71.02051051      99.23728732
H      89.31404796      69.52384727     100.11412033
C      88.81327047      77.36243201      94.54131743
O      90.89763860      78.31107463      94.48651537
N      86.90275718      78.90255896      95.37846619
H      85.12074527      78.26383146      95.13658122
C      87.28070243      81.41022578      96.47072800
H      89.19499519      82.16989575      96.42159512
C      85.55916176      83.16767124      95.03075655
H      84.97334661      84.77582834      96.17593070
H      83.84140054      82.17556493      94.47895647
C      86.84984483      84.40355225      92.57222262
H      88.62240812      85.23503184      93.21283984
H      85.58750767      85.85675179      91.84089853
C      87.29959970      82.43067799      90.50675176
H      85.59128712      81.28361411      90.56911272
H      88.81138075      81.09464148      90.92627100
N      87.37707848      83.78183230      88.08223290
H      88.47878893      85.33707705      87.98774658
C      86.17899199      83.08074383      86.02243122
N      85.32105626      80.73370375      85.71440583
H      84.81649932      80.11765297      83.97963707
H      85.53648505      79.38254944      87.04666288
N      86.04860088      84.61709133      84.12136654
H      85.80671591      83.86875971      82.38281834
H      86.75724826      86.37831626      84.31600835
C      86.53992973      81.34219563      99.29019966
O      84.44044379      80.47670097      99.66814492
N      88.15186626      82.06218135     101.13268281
H      89.92253983      82.57618691     100.63757452
C      87.59439700      82.64043761     103.83688117
H      85.94277621      81.58219087     104.46993948
C      89.82049460      81.85053200     105.42425127
H      89.37451920      82.18690329     107.40657417
H      91.33227565      83.17145070     104.95937860
C      90.91275641      79.18790764     105.12945397
H      91.72155928      79.08775214     103.23783793
C      92.96310947      78.90066923     107.18736592
H      94.41252954      77.78006152     106.24439249
H      92.20910867      77.76872317     108.73505177
H      93.73600752      80.71480649     107.78073998
C      88.98334585      77.09787033     105.26362453
H      90.05671040      75.38766802     105.66991569
H      87.92131965      76.86732372     103.51373797
H      87.73045730      77.68179577     106.79052340
C      86.76291742      85.29361334     104.41513742
O      85.70278096      85.73202985     106.47304937
N      86.91031609      86.97546976     102.56887481
H      87.86651760      86.48603065     100.99095334
C      85.93899676      89.50770302     102.72005292
H      84.97901579      89.61919688     104.53796963
C      88.30304437      91.18011081     102.87878993
H      87.55660248      93.09251384     102.70682483
H      89.56349182      90.97602038     101.26307393
C      89.83750215      90.89854159     105.29386016
H      90.73890159      89.06739679     105.57920883
H      88.39753068      91.10263203     106.75272887
C      91.64974968      93.20778714     105.67936432
H      92.94232247      92.97157135     107.26862415
H      90.55559813      94.87452575     106.20092879
C      93.17853826      93.82194820     103.26051464
H      91.79903806      94.16965785     101.77141031
H      94.34827885      92.19300411     102.79564197
N      94.89440975      96.05938416     103.51562769
H      96.69531893      95.53781969     103.87467569
H      94.31804322      97.45967135     104.67591965
H      95.20810432      96.81527468     101.79219730
C      84.13997731      90.26170382     100.70749439
O      84.26091980      89.14109613      98.68170779
N      82.30694278      91.99080340     101.36889860
H      82.45623116      92.75614256     103.11122626
C      79.89943146      92.51047813      99.92703743
H      79.30227794      90.63775936      99.31098665
C      77.91899828      93.87863998     101.54275342
H      78.80527993      95.57183476     102.31187203
C      75.52282532      94.64586887     100.04986964
H      74.35308474      95.55293751     101.48039246
H      74.50615257      93.02070425      99.29964829
H      76.12753774      95.98190537      98.60044955
C      77.13665159      92.12308425     103.72916677
H      78.86764089      91.42955468     104.60222032
H      75.92533703      90.60185456     103.05075502
C      75.84029933      93.64620365     105.87211641
H      75.57573765      92.41221237     107.49917076
H      74.05072853      94.48335241     105.28252180
H      76.91366389      95.32239089     106.39746032
C      80.39642948      94.11674550      97.46094459
O      81.51892692      96.14631156      97.61779187
N      79.72557664      93.01314534      95.35012030
H      78.78638266      91.36152454      95.54665183
C      80.41154729      93.88619889      92.70828291
H      81.07484123      95.83072728      92.56466371
C      82.55071747      92.14198151      91.60468274
H      84.20422801      91.96245751      92.81977676
H      83.42377103      93.07361658      89.99274620
C      81.74947352      89.61730715      90.75997508
C      81.62853104      89.03338172      88.23530073
H      82.33339896      90.33918260      86.83123408
C      80.67799870      86.76571014      87.35468827
H      80.55894595      86.33485255      85.36102701
C      79.86352666      84.85141739      89.01008852
O      79.09440806      82.58563555      88.15782195
H      79.42888960      82.14343958      86.43061210
C      80.22446439      85.37109213      91.61413138
H      80.03171230      83.89710560      93.01441857
C      80.95011930      87.78238290      92.55521508
H      81.09184877      88.03560624      94.57533251
C      77.89821130      93.85596327      91.17193542
O      75.93100620      93.42132623      92.23207188
N      78.14009627      94.29815923      88.66804805
H      79.80116570      94.79704698      87.87247328
C      75.93856511      94.41910171      86.91627176
H      74.20379636      94.37563801      88.02365138
C      75.79872536      97.13274870      85.68605993
H      74.06773605      97.10062335      84.56923168
H      77.28782969      97.37463366      84.28199328
C      75.48881024      99.33427985      87.62491913
H      77.28216051      99.39097164      88.63781243
H      74.09419223      98.90342225      89.07811866
C      75.04850401     101.83438777      86.49108334
H      73.32696334     101.77958571      85.36291673
H      76.50737273     102.31815771      85.11914204
C      75.05606292     103.64474558      88.68316586
H      76.92689197     104.33449567      89.19906115
H      74.44757104     102.59783719      90.34990447
N      73.31184554     105.74612124      88.36002266
H      73.96947030     106.80058852      86.91060258
H      73.49136953     107.00467896      89.78298658
H      71.64132747     104.85228068      88.15215277
C      76.11241992      92.33851304      84.96607421
O      78.08907365      92.07017190      83.84357678
N      74.02616208      91.18200054      84.47096591
H      72.60130843      91.40120880      85.72007501
C      73.48570036      89.61730715      82.34502381
H      74.68189711      87.94111992      82.27699366
C      70.63788281      88.68000290      82.47919438
H      69.56829770      90.43366892      82.33557518
H      70.57741155      87.92033292      84.39348713
C      69.83663885      86.64287794      80.51009956
O      68.61398592      87.25892871      78.55423283
O      70.47158688      84.40922143      80.86914756
C      73.75782094      91.01759435      79.67861998
O      73.63876819      93.35140635      79.41405830
N      74.03561071      89.71368320      77.59992104
H      74.33985664      87.83340551      77.76243750
C      74.08852304      90.63397991      74.91839940
H      75.56817875      92.03048766      74.58580757
C      74.72347108      88.53449398      73.16662311
H      74.65355121      89.40943726      71.30335296
C      77.32751394      87.65766096      73.75243827
H      77.32184477      86.75626151      75.60248033
H      78.85252309      89.03905090      73.72598210
H      77.82451196      86.05139361      72.56191069
O      73.34586060      86.34241146      73.54834782
H      71.72447543      86.42744914      72.73576551
C      71.52038498      91.82261777      74.01511022
O      71.38999387      92.70511994      71.91940374
N      69.56073880      91.92088352      75.63271595
H      69.67223265      90.77004021      77.15205590
C      67.22503707      93.43644403      75.36059536
H      67.15889666      94.40209418      73.54267864
C      65.01594701      91.74135952      75.59870087
H      64.16368045      91.66199102      77.47141965
H      65.66790259      89.90076611      74.94107612
C      62.77473162      92.45378634      73.76377662
H      62.24749797      94.40965309      74.13794243
H      61.18925124      91.41821633      74.57257948
C      63.19425085      92.09662807      70.97265086
O      62.65567885      90.10863600      69.76511574
O      64.18824689      93.91454479      69.80102054
C      67.04740280      95.60962929      77.33346963
O      65.04996209      96.71700891      77.74354024
N      69.12610174      96.47323421      78.58446845
H      70.74370748      95.64553410      77.99865329
C      69.09019695      98.58594824      80.44017969
H      67.97525842      99.96355871      79.39138158
H      71.00071026      99.22278601      80.86347838
C      67.92234608      98.00769198      83.11792187
O      67.91667691      99.52703193      84.88670570
N      67.03039526      95.66254163      83.40327055
H      67.65022550      94.30571813      82.21274297
C      65.88711084      94.63830996      85.70873665
H      64.61343532      95.95166975      86.65737926
C      64.35454280      92.12875342      85.18717218
H      63.39645156      91.60907869      86.93516902
H      65.68302041      90.71523815      84.48986318
C      62.39300689      92.24024728      83.15949585
C      61.38956222      90.02926749      82.03699842
H      61.96781847      88.20190214      82.73997661
C      59.77573595      90.06895174      79.81279055
H      59.48849755      88.37953642      78.70163148
C      58.90079267      92.43866853      79.05690003
O      57.22838488      92.50291923      77.08969493
H      56.84477044      94.25280580      76.80056681
C      59.65290374      94.73090656      80.36837009
H      59.15968517      96.54504381      79.57279531
C      61.42357729      94.60051544      82.36203135
H      62.33631510      96.31638693      82.98564103
C      67.98092761      94.03170782      87.56066843
O      69.95002242      93.05282959      86.88225669
N      67.38755355      94.33595375      90.07211470
H      65.60743135      94.85373877      90.52942847
C      69.29050793      93.53282008      91.97695883
H      71.11598355      94.17532703      91.27020119
C      68.78973046      95.02003468      94.40525714
H      70.04261901      94.23579826      95.83766969
H      66.90378361      94.90476137      95.22539836
C      69.46247303      97.82060907      94.29943247
C      67.43290697      99.54970866      94.43927221
H      65.54884983      98.77114142      94.52430990
C      67.91478718     102.11406727      94.82288665
H      66.30851981     103.36695581      94.93627023
C      70.48670469     102.93420848      94.58856059
O      70.95724655     105.52502325      94.36935234
H      69.43412714     106.50579122      94.34100645
C      72.48792486     101.24479315      94.58289141
H      74.39654843     101.95533025      94.68682636
C      72.03250081      98.61618386      94.45816948
H      73.42522912      97.13274870      94.63769348
C      69.57396689      90.67555388      92.38513971
O      67.86376458      89.24881052      92.07333487
N      71.92100697      89.81005923      92.76686443
H      73.19657223      91.18955945      93.09000763
C      72.81484751      87.23247254      93.05221310
H      71.07251985      86.14399020      93.21850902
C      74.19623745      86.47658202      90.64659150
H      75.41700065      84.97424960      91.34956969
C      72.21013509      85.42400446      88.77576245
H      70.49426360      86.56350944      88.78899054
H      71.91155833      83.45113019      89.28976801
H      72.69201530      85.26715719      86.77832174
O      75.53227395      88.34741107      89.46551256
H      77.23680709      87.92600210      89.92849550
C      74.64032313      86.85641701      95.32366413
O      76.02549251      88.64031866      95.95861217
N      74.73103000      84.52449474      96.25718893
H      73.41955993      83.36231306      95.49940868
C      76.55272615      83.47758636      98.08644400
H      78.23836203      84.55662008      97.60267406
C      75.63620890      83.92545150     100.90969511
H      75.16377732      85.90210522     101.24417667
C      73.51215652      82.04706355     101.61645275
H      73.03594549      82.26627179     103.60822428
H      74.07718468      80.08174818     101.37834723
H      71.83030010      82.43634717     100.49017587
C      77.79049689      83.33963635     102.76351662
H      78.23647231      81.33274699     102.68981730
H      76.78138304      83.65522063     104.53230045
C      79.86352666      85.37487158     102.41580698
H      80.48902606      85.57896202     100.46560943
H      81.56239061      84.65677558     103.33610370
H      79.26070397      87.14176568     103.28697081
C      77.14987967      80.66000443      97.41370143
O      75.53983285      79.27294532      96.32710880
N      79.25881424      79.67923647      98.31510088
H      80.57784320      80.74126266      99.19760307
C      79.78037871      76.93724359      98.02030358
H      78.11364009      75.88655576      98.61745709
H      81.24491660      76.26828047      99.30342774
C      80.32461989      76.26450103      95.27642097
O      81.34696181      77.84053277      93.89314131
N      79.82006295      73.96470410      94.44872084
H      79.17755600      72.59276280      95.60712307
C      79.56494990      73.53384650      91.84656771
H      81.05783369      74.46737131      90.77887235
C      80.01470477      70.67658031      91.41382039
H      78.55394632      69.63723084      92.42860342
C      79.85974720      69.86777745      88.53198776
H      81.21279125      70.82775842      87.30744511
H      78.00970514      70.42902618      87.82334039
H      80.00903558      67.82687303      88.29388224
C      82.77937436      69.96415349      92.14136502
H      83.07795111      70.88256048      93.96117146
H      83.96990193      70.87311185      90.72596001
C      83.49936009      67.24483733      92.75552607
H      83.38030732      66.03919194      91.08878746
H      82.20489757      66.57776395      94.21250506
H      85.42310148      67.42814078      93.46417344
C      76.96846594      74.28784730      90.92060182
O      75.09763689      72.98393615      91.21917858
N      76.82295702      76.68779972      90.01542291
H      78.48213673      77.59864780      90.27053597
C      74.74047863      77.60620670      88.45450898
H      74.57418272      76.38733323      86.80099846
H      75.06551156      79.59230906      88.01609248
C      72.19501729      77.79139989      89.82645028
O      70.16923067      78.14666843      88.54710557
N      72.01171382      77.29440186      92.27931504
H      73.55562022      76.90133880      93.33189259
C      69.68735047      77.44557998      93.63613853
H      68.40044685      76.08308730      92.78387196
C      69.86309501      76.47804009      96.39324922
H      70.92512120      77.88588620      97.45716514
H      70.49993277      74.52028363      96.37057251
C      67.25905216      76.26639076      97.60645351
N      65.93435400      74.14233837      97.40992198
H      66.35198352      72.56630664      96.41403621
C      63.67991051      74.56752679      98.54186804
H      62.21348289      73.15968069      98.71761259
N      63.59298310      76.96936894      99.32988391
H      62.08120205      77.59486836     100.31065187
C      65.84742660      78.13344035      98.74784821
H      66.26883556      80.08552763      99.16169827
C      68.59508865      80.23670574      93.41693028
O      69.93868406      82.07918890      94.01975297
N      66.17245952      80.40111192      92.71017264
H      65.43546627      78.80618291      91.96562047
C      64.80429767      82.72736502      92.22829243
H      66.18946705      83.98403301      91.36090805
C      62.52906719      82.10186561      90.36313256
H      60.83209296      81.86376010      91.50452725
H      62.87866655      80.29906671      89.42960776
C      62.27962331      84.32796321      88.35813294
H      62.51016992      86.07218059      89.43149748
C      64.23926950      84.00293027      86.36447168
H      66.01939169      84.09930633      87.39626224
H      64.38477843      85.47502707      84.93016941
H      64.04651742      82.22847728      85.34024002
C      59.65290374      84.00859945      87.19973071
H      58.56631111      84.50181802      88.87780767
H      59.10488311      82.09997588      86.65926898
H      59.46204138      85.27093663      85.58023526
C      63.79518382      83.90466450      94.60367840
O      62.70481173      82.66311432      96.22128413
N      64.33186609      86.34619091      95.07610998
H      65.52050395      87.19656774      93.84778788
C      63.19614057      87.67088906      97.14913975
H      62.40623498      86.41233132      98.57588311
C      65.23137582      89.34329684      98.32265979
H      64.26194623      90.75681212      99.46594421
H      66.12332663      90.31461617      96.73906914
C      67.37243573      87.64632260      99.79853604
H      68.48170508      86.49169983      98.50029406
C      69.01460789      89.32439958     101.14402117
H      70.32418824      90.22957847      99.83822029
H      70.06529572      88.07906993     102.40635835
H      68.01305296      90.64153882     102.37045355
C      66.19135678      85.80383946     101.81487401
H      67.65967413      84.87031466     102.91658445
H      64.72870861      84.52071528     101.13835199
H      65.24649362      86.95090332     103.23783793
C      60.83020323      89.04660981      96.26852728
O      58.75150429      88.14332063      96.75418695
N      61.18169233      91.28215603      95.19138329
H      62.94669671      91.64687321      94.56399415
C      59.13889818      93.13975700      94.50919209
H      57.32098147      92.24402672      94.14447491
C      58.94425637      95.06538811      96.71072324