 %block lattice_cart
   137.793   0.000   0.000
   0.000 143.498   0.000
   0.000   0.000   162.326
 %endblock lattice_cart

 %block positions_abs
N      81.96490231      39.07468718      81.14788219
H      80.46256989      39.56979549      80.07829710
H      81.55294198      37.55912668      82.23258509
H      83.30282854      38.80445632      79.81373541
C      83.02314905      41.06267926      82.80895162
H      84.71067465      40.25387640      83.67066683
C      83.71100943      43.23586452      81.04772669
H      82.11419069      44.07112357      80.04806147
H      85.05460483      42.33068563      79.77594089
C      85.30215898      45.30133539      82.23069538
H      84.11541086      46.18383757      83.66688737
H      85.72734740      46.80177808      80.88709997
S      88.30682382      44.39804622      83.76704287
C      89.77703089      47.61436039      83.40232568
H      89.35184247      48.61591534      81.65432885
H      91.81604558      47.61247067      83.68956409
H      88.94744104      48.57623109      85.02371086
C      81.07862067      41.83746705      84.74403137
O      78.83740526      42.17761779      84.19790047
N      82.01592492      42.38548769      86.97390842
H      83.74691423      41.69006840      87.37075094
C      80.52493086      43.64404542      88.91465734
H      78.72402169      42.69918225      89.24913889
C      81.78348859      43.27176933      91.43933169
H      83.63164092      44.13915370      91.16154192
H      82.01025574      41.29511560      91.97601396
C      80.45690071      44.54166541      93.54637654
O      78.65221209      45.95707042      93.15709291
N      81.19767343      43.93695299      95.87829880
H      80.47579798      44.86858806      97.38063123
H      82.37308320      42.44784866      96.07672006
C      80.02604312      46.47485543      88.15876682
O      81.78348859      48.13025569      88.34018055
N      77.61097289      47.28743774      87.62775372
H      76.35241516      45.85691492      87.73924758
C      76.72658097      49.86313471      87.19689612
H      77.69412085      50.50942111      85.49803217
C      73.72947504      49.82345045      86.41643916
H      73.49514898      48.29466186      85.05583620
C      71.87187407      49.22818666      88.61419086
H      69.91789707      48.72362974      88.20223053
H      71.83218982      50.92327117      89.78204171
H      72.78839134      47.82412001      89.81227734
C      72.97736397      52.18371862      85.06906430
H      73.27405100      53.77486817      86.34273982
H      70.97425408      51.92482611      84.66277314
C      74.31151075      52.95850641      82.71257558
H      73.42333938      54.63658338      81.90944189
H      74.35875390      51.37680548      81.39543635
H      76.25414939      53.21172973      83.34563389
C      77.54483247      51.75664047      89.24346972
O      78.35552505      53.76919899      88.56694770
N      77.44467697      51.08200818      91.68310639
H      77.12720295      49.26220174      92.16876605
C      78.18922914      52.91126326      93.54070735
H      76.98547348      54.56666351      93.30449157
C      77.79427634      51.89081104      96.22978789
H      78.60307920      53.18905302      97.60739838
H      78.80716964      50.09935049      96.35262010
C      75.14865950      51.49774797      96.95733252
C      73.85041752      53.59534418      97.97400529
H      74.87464919      55.20917044      98.68643210
C      71.14243972      53.55565993      97.98345391
H      69.94057378      54.99941082      98.78091843
C      69.96514023      51.30877533      97.31638052
H      67.96580979      50.95917598      97.52991961
C      71.30873563      49.12236199      96.65308659
H      70.33174713      47.42160832      96.08427897
C      73.92789630      49.29999626      96.21089063
H      74.83118548      47.75608988      95.22823296
C      80.97846518      53.53109348      93.47456693
O      81.59262623      55.66837394      94.05660263
N      82.68110859      51.89836994      92.66954352
H      82.11419069      50.39414780      91.63964268
C      85.24546719      52.61079676      92.36340786
H      85.91254058      53.76541955      93.93188070
C      86.69866673      50.05588679      92.45222499
H      88.70744580      50.45272931      92.22923729
H      86.02214471      48.69528384      91.06138644
C      86.44166395      48.60079753      94.94288428
H      86.98212567      46.70162258      94.35895884
H      84.43855406      48.57245164      95.42476448
C      88.04982104      49.48518944      97.11229009
O      90.11340217      48.42127353      97.35039560
O      87.27503325      51.38058493      98.38029644
C      85.44199873      53.95628190      89.71401158
O      86.84228593      55.79498561      89.39653755
N      84.16832319      52.96228586      87.72790922
H      83.38219705      51.23129657      87.87908733
C      84.58595271      53.70872775      85.07662319
H      86.41520778      53.17582494      84.29049706
C      82.85685313      52.12891655      83.40043596
H      80.96334737      52.70717281      83.96168467
H      83.24235730      50.13336557      83.74058669
C      83.25558538      52.63725293      80.47891907
H      82.62819625      54.50997171      79.89121420
H      82.14253659      51.24641438      79.44523878
S      86.62496740      52.48607483      79.73058746
C      86.64953384      53.57644691      76.51049382
H      85.69333233      52.25930767      75.24626692
H      88.54303961      53.79565516      75.73003686
H      85.55349258      55.31121566      76.32719037
C      84.05871907      56.56599394      84.63820670
O      85.49869052      57.85478729      83.22469141
N      82.08206534      57.69038109      85.75314521
H      81.02003916      56.58867066      86.89265019
C      81.50191937      60.42292534      85.40165612
H      81.46601457      60.89535693      83.39665651
C      78.72780114      60.66858977      86.48635902
H      78.17222160      62.64524349      86.65265494
H      78.48024699      59.89758143      88.38175452
C      76.60941794      59.30987655      84.99725470
H      76.98547348      57.29920775      85.22024239
C      74.22647306      59.94671432      86.26148159
H      74.30206211      59.41948067      88.25136341
H      72.58052144      58.88846759      85.61519519
H      73.82585108      61.96305229      86.37675490
C      76.37320215      59.85411772      82.27226934
H      75.91210893      61.79864610      81.77905079
H      74.80094986      58.73351003      81.55417335
H      77.94167499      59.02452787      81.22536098
C      83.26881347      62.29753384      86.73013373
O      83.37463814      64.50662390      86.15754664
N      85.23412883      61.37345768      88.25514286
H      84.98279523      59.54231289      88.73135389
C      87.19944420      62.73217090      89.53259784
H      86.54937835      64.67291983      89.77070335
C      87.74557510      61.41314193      91.97223451
H      89.48790276      62.18226054      92.76025039
H      88.16131489      59.39680395      91.89664547
C      85.39097612      61.67392416      93.60873750
H      83.65053818      61.01251995      92.72812504
H      85.13964252      63.69971077      93.87518891
C      85.80671591      60.18293010      96.08238925
H      86.45678176      58.31965996      95.49279463
H      83.98690947      60.23962189      97.04425993
N      87.64919906      61.48117208      97.68487716
H      88.57138550      63.02318875      97.05181884
C      87.90620184      61.12779327     100.10183711
N      87.01425102      59.26830256     101.30937223
H      87.25235654      59.17570599     103.20098827
H      85.85206934      57.95305305     100.56104060
N      89.26113561      62.71138391     101.43598389
H      89.69577266      62.34288728     103.25768006
H      89.91120146      64.32709990     100.65363719
C      89.57294045      63.08554972      88.01703735
O      90.94110230      65.03196782      88.21545861
N      90.09072546      61.52841523      86.04983225
H      89.03058900      59.96750130      85.76448357
C      92.02958466      62.07832559      84.07695797
H      93.48278419      63.38412647      84.73080329
C      93.33160609      59.70293962      83.10752838
H      94.28780760      60.50040412      81.46724595
C      95.34227488      58.86579087      85.03693895
H      96.64429631      60.42481507      85.37331023
H      96.21721817      57.21039062      84.18278266
H      94.34449939      58.51052231      86.80383305
C      91.51746882      57.57510780      82.29683579
H      90.33450015      58.32532913      80.78883419
H      90.32505152      56.84189398      83.80861684
C      93.01602179      55.57955680      80.76426775
H      94.44843434      54.54398679      81.82062476
H      93.88907535      56.43560282      79.10508805
H      91.70644146      54.10934973      80.16144506
C      90.93543312      63.64490871      81.94912615
O      92.39997101      64.74850887      80.58663347
N      88.46556083      64.15513481      82.00014877
H      87.60573536      63.65624706      83.63098257
C      87.13519351      65.80675562      80.19923958
H      88.20666832      65.73872547      78.44179411
C      84.45367187      64.82409792      79.80050733
H      83.21401141      65.12456441      81.41811305
H      84.55004791      62.77374487      79.63421142
C      83.26692374      65.62723161      77.33063505
O      84.64642395      65.31542677      75.47681353
O      81.07673095      66.36989406      77.15489049
C      87.04448664      68.42591628      81.28772194
O      87.31282778      70.23249463      80.02916422
N      86.53803999      68.75472867      83.67822573
H      86.18088172      67.23538870      84.77615671
C      86.64386466      71.23782904      84.95946016
H      87.62841207      72.58898335      83.75759423
C      83.95478412      72.49638676      85.21835268
H      84.25714033      74.00060890      86.59407343
H      82.63575515      71.21137287      86.13864939
C      82.66599077      73.78706983      82.82595915
H      80.65532198      73.94391712      83.24547841
H      82.78693326      72.57575526      81.16488974
C      83.64108955      76.50827573      82.33274059
O      83.24802648      78.12210199      83.96546413
O      84.65965203      76.95047168      80.21246766
C      87.83250251      71.14523245      87.56350302
O      87.37329902      69.37833835      88.96001078
N      89.22523081      73.20314441      88.22679697
H      89.28381232      74.67713093      87.01548239
C      90.21922685      73.71337051      90.66076445
H      91.31337838      75.44624953      90.46423291
H      91.53069691      72.22804562      91.22201316
C      88.22745531      74.23682469      92.69599970
O      86.32639064      75.49349270      92.17821469
N      88.86051363      73.48471362      95.06760622
H      90.37796386      72.41512853      95.50602272
C      87.26558462      73.85698971      97.23323257
H      85.34373296      73.86076915      96.49245985
C      87.73801620      71.64412019      99.01146503
H      89.66931649      71.44569893      99.70121513
H      87.55093329      69.99060966      97.79637102
C      85.90120222      71.30207973     101.23000372
H      85.66687616      73.17668824     102.05581413
C      83.31983608      70.27028916     100.42687004
H      81.96112286      70.23438436     101.97077644
H      83.47668336      68.40701902      99.55948567
H      82.26725852      71.40790440      99.07004654
C      86.97834622      69.53707535     103.21799580
H      85.67821452      69.61077468     104.81481454
H      88.66020264      70.54996866     103.83404659
H      87.19377502      67.59821616     102.55092242
C      87.76258264      76.41000995      98.49934920
O      89.85073022      76.77283741      99.46310962
N      85.96167346      78.16367598      98.42564988
H      84.33272938      77.60431698      97.60361893
C      85.87285633      80.67512224      99.67097951
H      87.76447237      81.48203537      99.79759118
C      84.27981705      82.74248282      98.39163479
H      84.17777183      84.44701596      99.54625757
H      82.45245170      81.85431146      98.06471214
C      85.54026450      83.57774185      95.91798306
H      87.45455725      84.24292553      96.27514132
H      84.59351161      85.14243525      94.97123017
C      85.64608917      81.49904292      93.82227657
H      84.00958618      80.25371327      93.94132934
H      87.35440176      80.38410439      94.10573553
N      85.82372344      82.61020199      91.32216866
H      86.23379405      84.47158240      91.19177755
C      85.47412408      81.40455660      89.16977040
N      84.58217326      79.11609803      89.14142449
H      84.22501498      78.36587669      87.42366327
H      84.50658420      78.10698419      90.75903023
N      86.15442555      82.51193621      87.04382829
H      85.84073098      81.45368948      85.48669380
H      86.35473654      84.40922143      87.01548239
C      85.02814867      80.55040030     102.37517787
O      83.18944496      79.32396793     102.94209577
N      86.34906736      81.92423134     104.02112948
H      87.75691346      83.02405205     103.35216637
C      85.79348782      82.06974026     106.71965866
H      84.07005743      81.00393462     107.10138338
C      87.90431211      80.67890169     108.27679314
H      88.06304912      78.92334596     107.21098750
H      87.45266753      80.61465100     110.28557222
C      90.33638988      82.17934438     108.08404106
H      90.30804398      83.36420279     106.40029491
C      90.87685160      83.77616312     110.44808868
H      92.81949025      84.40922143     110.19297563
H      91.13196466      82.59130473     112.11293756
H      89.59561716      85.38809966     110.56525171
C      92.38485320      80.24804409     107.86294309
H      94.21032882      81.18156889     108.05569517
H      92.33761004      79.15011311     106.12061542
H      92.15052714      78.82885964     109.33881934
C      84.96200825      84.77582834     107.69286772
O      83.74313477      84.97235987     109.68463924
N      85.56483094      86.71846699     106.07337226
H      86.53237081      86.21579979     104.50678914
C      84.50658420      89.47179823     105.94865032
H      83.72423751      89.91210446     107.80247184
C      86.74590988      91.21601562     105.28913585
H      87.26747435      90.66421553     103.37295337
H      88.43532521      90.81161418     106.39651546
C      86.23001460      94.04682564     105.47810847
H      85.92576866      94.39453527     107.48499781
H      84.44233351      94.49469077     104.55781175
C      88.36729506      95.87797043     104.56348094
H      88.73579169      95.29593472     102.62273201
H      90.14174807      95.66821081     105.58582287
C      87.30337915      98.57838933     104.47277407
H      85.88986386      98.59350715     105.97132705
H      86.29048584      98.74468524     102.68698270
N      89.06460407     100.63441156     104.50678914
H      88.11596146     102.27091454     104.75812275
H      90.01702613     100.94810612     102.88351424
H      90.37796386     100.52291770     105.89006880
C      82.32584004      89.61541743     103.92475344
O      82.43355444      88.31906517     102.05203467
N      80.48713634      91.27837659     104.34238296
H      80.55705621      91.98891367     106.11116678
C      78.58607167      92.06072328     102.46021555
H      77.40877217      90.43555865     101.99723260
C      76.84563373      94.21501127     103.43153488
H      77.88498320      95.93655195     103.87940001
C      74.80094986      95.01814495     101.35472566
H      73.52538460      96.51480820     101.96321753
H      73.85986616      93.29093511     100.75001324
H      75.63053971      95.94411085      99.71066376
C      75.42078009      93.45156185     105.74267015
H      76.80594948      92.41221237     106.85949841
H      73.83907917      92.21568084     105.27779749
C      74.35686418      95.58695257     107.44342384
H      73.41389075      94.74413465     109.07047819
H      73.16255715      97.00802676     106.55336274
H      76.05194868      96.61118425     108.01034173
C      79.98257941      92.97724055     100.15096999
O      81.99135848      94.14509141     100.26624330
N      79.09440804      92.24402673      97.85495252
H      77.51459685      91.23113342      98.20077244
C      79.79360678      93.01503506      95.35106516
H      80.84618434      94.73468601      95.76869468
C      81.60585431      91.14042656      94.23234719
H      82.93622164      90.60941347      95.71200289
H      82.81338943      91.82450748      92.71111751
C      80.51926168      88.74614332      93.16843127
C      80.52115141      88.21324051      90.63241855
H      80.82917680      89.66644005      89.23402108
C      79.70667937      85.80761890      89.69511431
H      79.62731086      85.23503184      87.73546813
C      78.90165596      84.08040906      91.44878033
O      78.33095861      81.75037651      90.57194731
H      78.89976623      81.37621070      88.88820118
C      78.98102446      84.59630434      94.01502866
H      78.24592093      83.30751100      95.41720559
C      79.79927596      86.92822661      94.91075893
H      79.78037869      87.13042732      96.94221472
C      77.52404548      93.78982285      93.78637177
O      75.43211845      94.01092083      94.84650823
N      77.62231125      94.04304618      91.24846934
H      79.30416766      94.13186332      90.35273907
C      75.39810337      94.21879073      89.61952525
H      73.76537984      93.74635915      90.78170693
C      74.93323070      96.89275346      88.59907305
H      73.32129416      96.98157059      87.31972834
H      76.44501175      97.39164120      87.28760299
C      74.47213748      99.02814419      90.33762125
H      76.17478089      99.47978878      91.40342689
H      73.08318864      98.74846471      91.83428449
C      73.25137428     101.21833700      89.02426146
H      71.28983837     100.59283758      89.01481283
H      73.72947504     101.55659800      87.04949747
C      73.78049765     103.56726679      90.43021784
H      73.09074755     103.40852978      92.36340786
H      72.53705774     104.91653138      89.49102386
N      76.39020969     104.34772376      90.30360619
H      76.85130291     104.57260120      88.46490248
H      77.53916329     103.39719143      91.49413376
H      76.80594948     106.11839733      90.88753162
C      75.74770274      92.43488908      87.38775847
O      77.84151950      92.03993628      86.32384257
N      73.66333462      91.51270265      86.40132134
H      72.07218506      92.06261301      87.30272079
C      73.27216127      90.04060585      84.15254703
H      74.86898001      88.74425360      84.28671759
C      70.84008351      88.42677957      84.29616623
H      69.35097917      89.61919688      83.51948871
H      70.24859917      88.29449874      86.26337133
C      71.21046987      85.76604493      83.07162358
O      69.36420726      84.36386801      83.13398455
O      73.15688797      85.33707705      81.90188299
C      73.36853731      91.81883831      81.82062476
O      73.44412637      94.09406879      82.01148711
N      73.45168527      90.73035595      79.63043196
H      73.65388599      88.83307073      79.57940935
C      73.59719420      91.97379586      77.16055968
H      75.21479992      93.24558167      77.03205829
C      73.45924418      90.13131271      74.83808604
H      71.55628978      89.36975300      74.63966477
C      73.97136001      91.35396563      72.16412331
H      72.61831597      92.81850354      71.64444857
H      74.17356072      89.87242020      70.75060802
H      75.71557740      92.42733019      72.39655963
O      75.23369719      88.11308501      74.82863740
H      76.90610497      88.74614332      74.51872228
C      71.39377332      93.82194820      76.67112055
O      71.98147820      95.83072728      75.63555053
N      69.17145517      93.34951662      77.63299126
H      68.90122431      91.60718896      78.36242560
C      67.02661581      95.22601486      77.61220427
H      67.07007951      96.11040676      75.75271358
C      64.54918461      93.70667489      77.83141252
H      63.05063165      95.05404975      78.25849067
H      65.07641825      92.37252813      79.30917849
C      63.83864752      92.72212749      75.14044225
H      65.24649362      91.37097318      74.47714830
H      63.99738453      94.27737224      73.80062628
C      61.23271493      91.51648210      75.05729429
O      60.80563679      89.17322147      75.58641765
O      59.36566534      92.73724529      74.16723319
C      67.25905214      97.39731038      79.44523878
O      65.45058406      98.97712158      79.62665251
N      69.26972094      97.69588715      80.80395200
H      70.69457458      96.44110887      80.59797184
C      69.76860869      99.53648057      82.82595915
H      69.57963606     101.41297880      81.99636931
H      71.70935761      99.20010928      83.42500240
C      68.10753926      99.07727707      85.18811705
O      67.04173362     100.87251708      86.33896037
N      67.85998511      96.82094387      85.99880963
H      68.66311880      95.39231077      85.01993140
C      66.25938693      96.09528896      88.14742846
H      65.42979707      97.80549127      88.93922378
C      64.40934486      94.06761262      87.22146256
H      63.33975977      93.26825840      88.78804568
H      65.45814297      92.40654319      86.60919123
C      62.51394937      95.03326277      85.42244311
C      61.65034445      93.37975224      83.67066683
H      62.22104179      91.42199578      83.58184969
C      59.67369072      94.20178320      82.10786316
H      58.82520361      92.83929052      80.84363626
C      58.67780496      96.71889864      82.25337208
O      56.71248959      97.35006723      80.68300952
H      55.91880454      98.93365787      81.07229315
C      59.77195649      98.43099068      84.05995044
H      58.91024129     100.26780465      84.27726896
C      61.56152731      97.60895973      85.78716030
H      62.27395413      98.94688596      87.15154269
C      67.98092760      94.91987919      90.19967124
O      69.69490936      93.41565705      89.66487868
N      67.58597480      95.45467174      92.66009489
H      66.20080541      96.67354520      93.14575455
C      69.20358052      94.52114694      94.71989658
H      71.15377808      95.09751346      94.38541502
C      68.56107357      95.94033140      97.25401955
H      69.62498949      95.15987443      98.83761021
H      66.56741231      95.66632108      97.69054633
C      69.26972094      98.71822907      97.24079148
C      67.34597956     100.55693279      97.11040035
H      65.42034844      99.88985940      97.21433530
C      68.06218583     103.10995304      97.15764351
H      66.45591846     104.36662103      97.22189421
C      70.63977252     103.88285109      97.05181884
O      71.19724178     106.40185626      96.72867565
H      69.74215252     107.48088999      96.84772840
C      72.51627075     102.05926521      97.06315721
H      74.45512994     102.54681458      96.64363797
C      71.86998435      99.51191413      97.08583391
H      73.35908868      98.12296530      96.95355308
C      68.98626199      91.73380063      95.37185215
O      66.79984865      90.71712788      95.44177203
N      71.05173286      90.46957373      95.49279463
H      72.67122831      91.46168004      95.30760145
C      71.40133222      87.76159592      95.74979741
H      69.66467374      86.95279306      96.50379821
C      72.14588439      86.54083271      93.18732854
H      72.57674199      84.54339201      93.45000050
C      70.12387724      86.83374029      91.23902071
H      70.78906090      85.81328808      89.57795128
H      69.86309500      88.81228375      90.72690488
H      68.41367492      85.85675179      91.84373312
O      74.18867853      87.94867883      92.38230512
H      75.62676026      87.42522463      93.35929362
C      73.27027155      87.32317941      97.88329842
O      74.57985188      88.97291048      98.87729447
N      73.26460237      84.98747769      98.57871771
H      72.21391454      83.76482477      97.55637576
C      74.98614304      83.57396241     100.31726592
H      76.89098716      84.31284539     100.05270422
C      74.02427235      83.96702548     103.01957455
H      74.06017715      86.00792990     103.29358486
C      71.31062536      82.91633765     103.11217113
H      71.22936713      80.86787433     102.92319850
H      69.97458886      83.74403777     101.78180381
H      70.56607319      83.23381167     105.00567689
C      75.62487053      82.94657327     105.19842897
H      75.95746236      80.93212503     104.92252894
H      74.46079912      83.06373630     106.89540321
C      78.13064762      84.51693583     105.48566737
H      79.47424303      84.22024880     103.95120962
H      79.22101971      84.04639398     107.16941353
H      77.74514346      86.51815600     105.78424413
C      75.36219858      80.82252089      99.79192199
O      73.92600658      79.58097070      98.36517864
N      77.27271188      79.55262482     100.86339681
H      78.67866825      80.27261053     101.93298191
C      77.31428586      76.79362439     100.57615842
H      75.57762737      75.77884136     101.01457493
H      78.80339019      75.93190920     101.70999420
C      78.34607642      76.26828048      97.86062170
O      80.38320139      77.06763471      97.31449080
N      76.89098716      74.96436932      96.31293586
H      75.38676502      73.99493972      96.97622979
C      77.33696257      74.88122137      93.55582516
H      78.71457305      76.35709762      93.14386483
C      78.38576068      72.31119358      92.51458597
H      77.04405499      70.82397898      92.99079700
C      78.62008674      72.07686752      89.60440744
H      80.19233903      73.09920945      88.75214088
H      76.89476661      72.79118406      88.73324361
H      78.64276345      70.09643434      89.04315873
C      80.88208914      71.56664141      93.75046697
H      80.41721646      71.61199484      95.75735632
H      82.16521330      73.05763547      93.14197511
C      81.81183448      68.91535539      93.01725316
H      83.57116968      68.51851287      94.01313894
H      82.23891263      68.50339506      91.04437889
H      80.40398838      67.51128875      93.55393543
C      74.83685466      75.59742764      92.44277636
O      73.10775508      74.06296987      92.57316748
N      74.45701967      77.96525472      91.66987830
H      75.99714662      79.03295008      91.31272003
C      72.18178919      78.97058911      90.31683427
H      71.52794389      77.76683345      88.78048677
H      72.74870708      80.85275651      89.69700403
C      69.65333538      79.09909049      91.72657009
O      67.65400494      79.39388780      90.58328567
N      69.69490936      78.82319046      94.22100882
H      71.34464043      78.77216784      95.17343088
C      67.29306722      78.92901512      95.54381724
H      66.04584785      77.59675807      94.58761573
C      67.79384469      77.83486360      98.14786011
H      69.06752023      79.12554667      99.12673833
H      68.72925922      76.00182908      98.10628612
C      65.50538613      77.47203615      99.55003702
N      63.95959000      75.46703652      99.39318975
H      64.26950512      73.94958630      98.28014094
C      62.12466575      75.82419479     101.09016397
H      60.47871413      74.62421858     101.22055510
N      62.60654596      77.90667319     102.34494224
H      61.48593826      78.69657879     103.67341985
C      64.62288394      79.06885487     101.38118182
H      65.47704023      80.78850583     102.07282165
C      66.28962255      81.69935390      95.47767683
O      67.43290697      83.20357604      96.79481606
N      64.27139484      82.38910400      94.18699376
H      63.62888790      81.24770931      92.79804491
C      62.97504259      84.78338725      94.52903421
H      64.27517430      86.26493267      93.93188070
C      60.72437855      84.70590846      92.61663118
H      59.76628731      82.88799176      92.72623531
H      61.48215881      84.64732695      90.70044870
C      58.81197553      86.86397591      92.69788941
H      57.71404454      87.08318417      94.42698899
C      60.14234285      89.38865028      92.07994891
H      61.29318617      89.37542219      90.36974660
H      61.25350192      89.96501679      93.71834162
H      58.49828096      90.60374429      91.82861532
C      57.00917662      86.47280258      90.47179182
H      55.37078391      87.70301441      90.70422816
H      56.37800803      84.51693583      90.61352129
H      57.62333767      86.88098345      88.54805043
C      62.23426988      85.47124763      97.04803939
O      60.84721076      84.09552686      98.22722862
N      63.06763918      87.76537536      97.88518815
H      64.50194145      88.54583234      96.89875101
C      62.13789384      89.00692555     100.18687479
H      61.29318617      87.46868833     101.26590852
C      64.25438731      90.20879149     101.78747298
H      63.22637619      91.06672724     103.35405610
H      65.22759636      91.73569036     100.80670502
C      66.08742183      88.12631310     102.64162927
H      66.14789307      86.55595053     101.30559278
C      68.66500852      89.39998863     103.14240675
H      68.55918385      90.97413065     104.46521516
H      69.59097442      89.95556817     101.38874073
H      69.92734570      87.89576648     103.76412670
C      65.09342579      87.04349991     105.13417828
H      63.08653645      86.58996561     105.03402278
H      65.40712036      88.40788231     106.64595933
H      65.96458962      85.22369348     105.54046944
C      59.87967089      90.83051144      99.73145075
O      57.74050071      90.37319768     100.66308582
N      60.45225797      92.81472408      98.41242178
H      62.22293152      92.96968164      97.71700251
C      58.67024605      94.71767847      97.48267645
H      56.99216909      93.64242420      96.97245033
C      57.79152332      96.60551506      99.48956578