 %block lattice_cart
   137.793   0.000   0.000
   0.000 143.498   0.000
   0.000   0.000   162.326
 %endblock lattice_cart

 %block positions_abs
N      88.57988927      40.68284429      82.31762278
H      88.08856043      39.85892361      83.96924357
H      90.48662312      40.72252854      82.21746728
H      88.02997892      39.61703865      80.83418762
C      87.67660009      43.37948374      82.19668029
H      88.39847555      44.50954007      83.76137368
C      88.61012489      44.75142504      79.88932447
H      87.13991782      46.14982251      79.53972511
H      88.82744342      43.44751387      78.30951328
C      91.04787184      46.19517594      80.34474851
H      92.48028438      44.73063804      80.56962594
H      90.67559575      47.19484115      82.10786316
S      91.88502060      48.70095303      78.20746805
C      89.31310308      50.93083008      79.04650653
H      89.76852712      52.88858654      78.58919276
H      89.05232085      50.96295543      81.08930067
H      87.51786308      50.07289434      78.51171399
C      84.85712845      43.43239606      82.53116185
O      83.60235016      42.01321161      81.04394724
N      83.73841047      44.82323463      84.24325389
H      84.77020103      45.54888954      85.67755616
C      81.08334499      45.00842781      84.76292863
H      79.97785510      44.11269754      83.27193456
C      80.50508874      43.71207556      87.30838997
H      81.41593682      41.86581296      87.29894135
H      78.46607405      43.46641115      87.46334753
C      81.38381147      45.03299425      89.61763552
O      81.70884440      47.27420967      89.76314446
N      82.02253897      43.58735362      91.52058992
H      83.03354254      44.42261266      92.90575931
H      82.01498006      41.70329650      91.20689536
C      80.30288803      47.81278167      84.50970530
O      81.93561156      49.41904902      84.04672235
N      77.90860478      48.57623110      84.97079852
H      76.60847308      47.27987884      85.49047326
C      76.98452862      51.18594313      84.91788619
H      77.67616845      51.89270078      83.11130783
C      74.05734256      51.15381779      85.12197663
H      73.36381300      50.29777177      83.38153870
C      72.93484513      49.75542032      87.38775847
H      73.70774319      50.51131084      89.14142449
H      73.57357262      47.79766386      87.34240504
H      70.89583045      50.02943063      87.48224479
C      72.71563688      53.69738940      85.11063827
H      72.77799784      54.92760123      86.76225906
H      70.74465233      53.09456670      85.10874854
C      72.94996294      55.29420813      82.67289132
H      74.76032075      56.27308636      82.78438518
H      71.42684353      56.66236998      82.46124199
H      72.96508075      54.08856274      81.00426299
C      78.07679042      52.99630094      86.93989335
O      78.37914663      55.17515538      86.30305558
N      78.66638503      52.00797407      89.14898340
H      78.96874124      50.13525530      89.35685329
C      79.84557425      53.32889276      91.27681524
H      78.75898162      54.97106494      91.88341737
C      79.84179480      51.84356788      93.76747452
H      80.56178053      52.93582970      95.36051380
H      81.12680869      50.23730053      93.73156971
C      77.27932592      51.09712599      94.36084857
C      75.94328942      52.57489196      95.97089539
H      76.54611211      54.47595665      96.40553244
C      73.64727195      51.75664047      96.90253046
H      72.62304029      52.91693243      98.23100806
C      72.60225330      49.38692367      96.30537694
H      70.78433658      48.72174002      96.94977362
C      74.00631995      48.00364401      94.53848284
H      73.13893557      46.28588279      93.86007111
C      76.37414702      48.71418112      93.61818614
H      77.41160676      47.51798436      92.33317223
C      82.54599315      54.26241756      90.71745624
O      82.92960761      56.53953777      90.63619801
N      84.11257627      52.51442073      89.88597667
H      83.35101656      50.78154170      90.13919999
C      86.66748624      52.62591458      88.72001552
H      87.79754258      53.52542431      90.19211232
C      87.84856519      50.11257859      87.95278665
H      89.43404557      50.39414781      86.66588302
H      86.32733552      49.26409146      86.85485565
C      88.53075639      48.61024616      90.26959111
H      86.88669450      48.67449686      91.50925156
H      90.15025184      49.40015177      91.26736659
C      88.76508245      45.78321561      89.39464782
O      89.99340455      44.39804622      90.86863435
O      87.51219391      44.89315450      87.58429001
C      86.43127045      54.35501415      86.36730626
O      87.89769807      56.10490073      86.23880488
N      84.64169964      54.11690865      84.55505874
H      83.65715223      52.50875155      84.84985604
C      84.29021054      55.70805819      82.33085087
H      85.87947037      55.61924106      81.02316025
C      81.91104511      54.88035808      80.89843831
H      80.17816609      55.46617322      81.84708093
H      82.16615817      52.84701255      80.70001706
C      81.88269922      56.22395348      78.22258586
H      83.41148782      55.61924106      76.98103568
H      81.86380196      58.27430653      78.42667631
S      78.87803438      55.50585748      76.63143630
C      80.17060718      56.16159252      73.46047556
H      78.76843026      55.49451913      72.10743152
H      81.88458895      55.02586700      73.32252553
H      80.63359013      58.16092296      73.28662073
C      83.89336803      58.50674286      83.07729276
O      85.30499357      60.19048902      82.21746728
N      81.98285471      59.25885393      84.59663271
H      80.82256277      57.96439142      85.38275886
C      81.40459846      61.95549339      84.95568071
H      81.36680395      63.06287301      83.22091195
C      78.80811451      62.05564889      86.28604803
H      78.44150760      63.69971077      87.47090644
H      78.54355282      60.43237397      87.52570850
C      76.55745047      62.03675162      84.46813133
H      76.89004230      60.82165759      82.83918724
C      74.13482134      61.19771314      85.79093975
H      73.50176302      62.57721335      87.18366803
H      74.41261110      59.50640809      86.93422417
H      72.72508551      60.93504118      84.31128404
C      76.09257780      64.58977187      83.33996471
H      75.39715852      66.01840495      84.65143477
H      74.76976938      64.59166160      81.76015351
H      77.92750205      65.32676513      82.76359820
C      83.56266591      63.28586071      86.37864462
O      84.26942355      65.47983296      85.85896990
N      84.67760445      61.96116257      88.21923805
H      84.14281189      60.14702530      88.48757919
C      87.00007807      62.77752434      89.60251771
H      86.48796224      64.69748627      90.14864862
C      87.37046443      61.17314669      91.86263039
H      89.13357908      61.84588927      92.68655107
H      87.47817883      59.16247790      91.43177278
C      85.26341959      61.43392893      93.85818138
H      83.40959808      60.80653978      93.22134361
H      85.19916890      63.44837717      94.28336979
C      85.70372582      59.89380198      96.35262010
H      86.46339580      58.14769486      95.56271451
H      83.91793446      59.50073890      97.30504217
N      87.72573298      61.07110147      98.08360941
H      89.13735853      62.18981944      97.44677164
C      88.07911180      60.48906576     100.49867964
N      86.87535614      58.69949494     101.68164832
H      86.83567189      58.66547988     103.59216161
H      85.58845252      57.62235096     100.77646941
N      89.79498329      61.61345293     101.84227504
H      90.14269293      61.31298644     103.69231711
H      91.31432325      62.06887697     100.78024885
C      89.41325858      62.89090791      87.91688184
O      91.19527049      64.07954577      88.73324361
N      89.24129348      62.21816535      85.41677393
H      87.70872544      61.21094121      84.89143001
C      91.08755609      63.09688809      83.61208530
H      92.45571794      64.28741566      84.58718408
C      92.39335697      60.96338707      82.34218922
H      93.90135857      61.98950847      81.38031852
C      94.13379491      59.62735057      84.24514362
H      95.61911979      60.85567268      84.96890879
H      95.33188139      58.14202569      83.46279692
H      92.95460569      58.81476826      85.72668905
C      90.74362590      59.28153065      80.77749583
H      89.59845176      60.45694042      79.53216620
H      89.66270245      58.26107845      82.20234947
C      92.27808367      57.53920300      79.02949899
H      92.96027487      55.89325137      80.06128956
H      93.82954897      58.43115382      78.01093651
H      91.24629310      56.56599395      77.53472548
C      90.09922923      64.89590753      81.50315073
O      91.61856918      66.35099680      80.41277865
N      87.61045968      64.82220821      80.94001230
H      86.76386229      63.26129427      81.64110076
C      86.32733552      66.40768859      79.09941886
H      87.68982818      66.36611461      77.55551248
C      83.86124267      65.06031372      78.23770367
H      82.40426368      65.10566715      79.69090320
H      84.29210027      63.05909356      77.99581870
C      82.96173294      65.98627962      75.58263820
O      84.43382974      65.94659537      73.80629546
O      80.73185589      66.84610509      75.54862312
C      86.02119984      69.11944584      79.98570051
O      86.32922523      70.72193375      78.47014000
N      85.75852790      69.55597262      82.42344746
H      85.61679841      68.07064773      83.61586475
C      85.81710940      72.12033123      83.50626064
H      86.53709514      73.65667871      82.34029949
C      83.17338229      72.86299367      84.32829157
H      83.31889122      74.44847404      85.63409246
H      82.26820340      71.28885164      85.30339035
C      81.27798680      73.44313965      82.17400358
H      79.41282693      72.98204643      82.91666602
H      81.63325535      72.35087784      80.46191154
C      81.12680869      76.17001472      81.40677469
O      82.60079522      76.80118330      79.67200594
O      79.60557901      77.71014166      82.47447006
C      87.56699597      72.22993535      85.81172673
O      89.16759416      73.94958630      86.14809802
N      87.41203841      70.36666521      87.57862083
H      86.14970123      68.98716500      87.18933721
C      88.72917766      70.42713645      90.07872874
H      90.62646288      71.20948315      89.89920474
H      88.65169887      68.51851287      90.84595763
C      87.36101580      72.03529355      92.08750781
O      85.93616216      73.74360612      91.48090568
N      87.67282064      71.27751328      94.53470339
H      88.68193449      69.67124592      94.75391165
C      86.27253344      72.34142920      96.64363796
H      84.23729821      72.54740938      96.40364272
C      86.44638826      70.32698095      98.74501361
H      88.39280637      70.15879532      99.40074866
H      86.09678890      68.54874849      97.76991485
C      84.60390511      70.77673581     100.88040435
H      85.11224149      72.60599088     101.68353803
C      81.79199236      70.30997342     100.10561656
H      80.65437712      70.21548710     101.82148806
H      81.88080949      68.49961561      99.12862807
H      80.99263813      71.80096748      98.92831707
C      85.22751479      68.66780126     102.91941904
H      84.12391463      68.97015746     104.63151108
H      87.14936645      69.21393215     103.42397597
H      85.03854216      66.79319274     102.08416001
C      87.10401303      74.92090563      97.69054633
O      89.11090237      75.17034949      98.84138966
N      85.45428195      76.83519838      97.42409492
H      83.77998444      76.26261131      96.70788865
C      85.86246283      79.46569741      98.20455189
H      87.87880081      79.80773787      98.45777522
C      84.99696819      81.26282713      96.13152213
H      84.94405585      83.14121508      96.97434006
H      83.16015421      80.77716747      95.34161653
C      87.05865959      81.24015042      94.02069783
H      87.24574250      79.26916587      93.44811076
H      88.76886190      82.00171011      94.88052330
C      86.36513003      83.00515479      91.77570298
H      88.07155289      83.17523015      90.63241856
H      85.84356557      84.80606397      92.62985928
N      84.50752907      81.89021627      90.10518491
H      83.58534263      80.27450027      90.53226306
C      83.94439063      82.50059787      87.85830033
N      84.44327837      84.64165777      86.80194332
H      83.89147829      84.78149753      84.98024716
H      85.25964014      86.08351896      87.74869621
N      82.79354730      80.74315239      86.58273506
H      82.19639379      81.04361888      84.79505398
H      82.45717602      79.02350144      87.33673586
C      84.60579484      79.88899609     100.69521117
O      82.39103560      79.38821863     101.07315644
N      86.32922523      80.58441538     102.46210527
H      88.08289125      81.10409012     101.91975383
C      85.72829228      81.12865656     105.13984747
H      84.16926806      80.08174818     105.98455512
C      87.89580835      80.15733723     106.72154838
H      87.58967268      80.76393939     108.66607676
H      89.61356957      81.19101753     106.24911680
C      88.50430022      77.35676283     106.68753331
H      89.19594005      76.86921344     104.80725563
C      90.56977108      76.89755935     108.63773086
H      92.16847954      78.18068351     108.41852262
H      91.17826295      74.95681043     108.31458766
H      90.14647239      77.19991556     110.63328185
C      86.17993685      75.85820988     107.20909778
H      86.55599239      73.83809245     107.34326834
H      85.18027164      76.08119758     105.42141668
H      85.30121413      76.59898259     108.91930009
C      85.01775517      83.82718574     105.84093592
O      83.91982418      84.20135154     107.87239171
N      85.30310385      85.57140313     104.02868840
H      85.90781627      84.79094616     102.39596486
C      84.23918793      88.19623297     104.20443293
H      83.30566313      88.53827344     106.00723184
C      86.27631290      90.33540315     103.73011164
H      86.54465403      90.45445591     101.69109694
H      88.20005428      89.87053049     104.30458843
C      85.55443745      92.95078437     104.67308506
H      84.22407012      92.98290972     106.24533736
H      84.61713319      93.80872011     103.05169988
C      87.96194877      94.47201406     105.45543175
H      88.91815028      93.55738652     107.03146350
H      87.47250965      96.45622669     105.71432427
C      89.91214632      94.71956821     103.25201087
H      89.01263660      95.90442660     101.82904697
H      90.19182582      93.01314534     102.13329289
N      92.37068026      95.72301287     104.16663841
H      92.17603845      97.48423779     104.87528577
H      93.58010511      95.84962454     102.69454161
H      93.00562830      94.45311679     105.44220368
C      81.89970676      88.38331587     102.46966418
O      81.86191223      87.20790611     100.48545155
N      80.07234141      90.08406955     102.99122864
H      80.19139417      91.09507314     104.60505491
C      78.04088563      90.86452653     101.33582839
H      76.86169641      89.20534683     101.01457492
C      76.38737510      92.89409258     102.61328339
H      77.42105539      94.48713186     103.41452734
C      74.47119263      94.09406879     100.75757214
H      73.33546712      95.37908269     101.89707710
H      73.28822395      92.67299460      99.85050351
H      75.55022634      95.03137304      99.27413698
C      75.00409544      91.63364513     104.87339606
H      76.40627236      90.98924845     106.23966817
H      73.86270075      90.10485655     104.09671853
C      73.50554247      93.57439405     106.41541272
H      72.90083006      92.94133575     108.28057259
H      71.73486893      94.26036471     105.61605849
H      74.73575431      95.14475662     106.92941828
C      79.01409468      91.76781571      98.80548486
O      80.55800107      93.58384269      98.78280814
N      77.92183287      91.01192518      96.71733728
H      76.41383127      89.84785376      96.80804414
C      78.60213434      91.89631710      94.13408141
H      79.21062621      93.86163246      94.26258280
C      80.69784083      90.23335794      93.10229084
H      82.08867939      90.41288194      94.60840272
H      81.44428271      91.04405053      91.35996318
C      79.80777973      87.54616712      92.52592432
C      79.01220496      86.80350467      90.14486917
H      78.84401931      88.23024804      88.69733881
C      77.97852466      84.33363239      89.87652803
H      77.42672457      83.77049394      87.99436062
C      77.99553219      82.54217184      91.90987354
O      77.06200739      80.19513176      91.80215914
H      76.73886420      79.72647964      90.07872874
C      78.98196933      83.26782675      94.26447253
H      78.96685152      81.99982039      95.86507072
C      79.91171467      85.74903740      94.58572600
H      80.58823669      86.42366969      96.38852490
C      76.29477851      91.96245751      92.35395922
O      74.33702205      90.85507789      93.03426070
N      76.49319977      93.21912550      90.12219245
H      77.98419384      94.37941747      89.85385131
C      74.23875628      93.33061937      88.45356411
H      72.59658412      93.00558643      89.65354032
C      73.83813430      95.96489784      87.33673586
H      72.30745599      96.01214099      85.95912538
H      75.56156470      96.55827190      86.37675490
C      73.46018904      98.08328103      89.37197111
H      74.80378445      98.08706050      90.93477477
H      71.47786614      97.82627826      89.86141023
C      73.81356786     100.67409582      87.86396951
H      72.27911011     101.13518903      86.57139671
H      75.76754487     100.95377531      87.27626462
C      73.76065553     102.78869955      89.84818214
H      75.11180984     102.54114542      91.38452963
H      71.97864361     102.74901531      90.88186244
N      73.95340761     105.27368965      88.51403536
H      72.42272930     105.65163492      87.43689136
H      75.48786538     105.44187530      87.39153794
H      74.17639531     106.67964604      89.78582117
C      74.13860079      91.24436151      86.43911586
O      76.10202643      90.36185932      85.58873902
N      71.92762100      90.60752374      85.81739591
H      70.40639133      91.27270741      86.75470017
C      71.23409145      88.96157213      83.72735861
H      72.10903473      87.11341979      83.97680248
C      68.34092046      88.35496998      83.77271204
H      67.10314973      89.87997911      83.15099208
H      67.71542105      87.99025280      85.70023288
C      67.79667928      85.97769428      82.21557755
O      68.38060471      83.97458438      83.34563389
O      66.98976615      86.20257170      79.98003133
C      71.97675389      90.27493191      81.21024316
O      72.16194706      92.57094939      80.96268901
N      72.23186694      88.89732143      79.17122846
H      72.24509502      86.99625676      79.33752438
C      72.17895461      89.91966337      76.51994245
H      73.79278087      91.14231630      76.13254855
C      72.38115532      87.80316989      74.59809079
H      70.83535919      86.45768476      74.79651205
C      72.37548614      88.78771731      71.94680477
H      73.28822395      87.30239243      70.85076351
H      73.52632946      90.49036071      71.82775202
H      70.60103313      89.38487083      71.08886902
O      74.63937826      86.40477243      74.89288810
H      74.01765830      85.26148801      76.15522527
C      69.82624534      91.56939444      75.96436291
O      70.16639608      93.68399819      74.95335934
N      67.78723065      90.92688750      77.07552198
H      67.72864913      89.22235436      77.92778855
C      65.39105770      92.40276375      77.13221377
H      65.30035082      93.44400294      75.35776078
C      63.10448885      90.64720800      77.31551724
H      61.37538928      91.70923418      77.66700633
H      63.41629369      89.26581807      78.81218047
C      62.57725521      89.03716117      74.88721891
H      60.75177960      88.26804257      75.45602653
H      63.89817390      87.46112944      74.98737441
C      62.08592636      90.19745314      72.30396305
O      62.29001682      88.83873992      70.37266275
O      60.96342893      92.34040278      72.15656440
C      65.60081732      94.55894147      79.06351406
O      63.65250948      95.84395536      79.41878261
N      67.64550119      95.06160866      80.37120468
H      69.25176854      94.03359756      80.41277865
C      67.76266422      97.43321518      81.89432408
H      66.82724968      98.96578322      80.88332051
H      69.76955355      97.80360155      82.16833440
C      66.46442224      97.26502955      84.50403612
O      66.78378598      99.11885106      85.95345620
N      64.96586928      95.39042104      85.18055814
H      64.50666578      93.98824412      83.96924357
C      64.31013423      94.95011482      87.84696197
H      63.69030401      96.74535481      88.64820592
C      62.07647773      93.07928576      88.08317777
H      61.33192557      93.07928576      90.00502943
H      62.70953606      91.21412589      87.48224479
C      59.84660068      93.73124135      86.42210833
C      58.88850944      91.89631710      84.82528960
H      59.70676094      90.02737776      84.91032728
C      56.70965501      92.29693907      83.31728800
H      56.00856654      90.88153406      82.02660493
C      55.56826032      94.75169354      83.35886197
O      53.57270932      95.22412513      81.72235899
H      53.05681404      96.96267334      81.72802817
C      56.56981527      96.72645755      84.98024716
H      55.89329324      98.65208866      84.93111427
C      58.80536148      96.19922390      86.43722614
H      59.57448009      97.69210770      87.59751809
C      66.39072291      94.07706126      89.59306908
O      67.90628341      92.65598707      88.73702307
N      66.04490300      94.56272091      92.06294137
H      64.77122746      95.84584509      92.67143325
C      67.85148134      93.47990775      93.93188070
H      69.75065629      93.81060985      93.20811552
C      67.60581692      95.01247579      96.33183311
H      68.02344644      93.85218382      97.98156418
H      65.59703785      95.35262651      96.62852014
C      69.15350277      97.39353094      96.12018378
C      67.98565191      99.78403472      96.20144200
H      65.94852695      99.93332310      96.22789817
C      69.41428501     102.01958095      96.16742693
H      68.47887048     103.79025451      95.77436385
C      72.09580664     101.77958571      96.04837417
O      73.41294588     103.91308672      96.04459472
H      72.39816285     105.38329379      95.73467960
C      73.26554723      99.37963328      96.07483034
H      75.28755440      99.16609422      95.90286525
C      71.81234770      97.21400694      96.05215363
H      72.70429852      95.38097242      95.99546184
C      67.62093473      90.62075182      94.50068832
O      65.64428102      89.61163798      94.51958559
N      69.88104741      89.32817904      94.93343565
H      71.42495381      90.39020521      94.57627738
C      70.18718307      86.54461217      95.20366651
H      68.45619377      85.62431546      95.83105564
C      70.64449684      85.23503184      92.63552844
H      70.55190025      83.19223770      92.88308259
C      68.58091570      85.83596481      90.72879460
H      68.67918147      84.46213377      89.19622657
H      68.57713625      87.77293427      90.03148559
H      66.77811680      85.32573869      91.58673034
O      72.88382252      86.00226072      91.50358239
H      73.26365751      87.73702947      91.87585848
C      72.09769637      85.58652093      97.21055585
O      73.50743221      87.20034720      98.12329366
N      72.14304980      83.22436303      97.99101282
H      70.65583519      82.16233686      97.44677164
C      74.18584395      82.22847728      99.70121513
H      75.88281818      83.32073908      99.28925479
C      73.37893081      82.80106435     102.40541348
H      72.69673961      84.74559272     102.36950868
C      70.83913865      81.40833606     102.86461698
H      70.21930842      81.81651693     104.78457891
H      71.19062775      79.38254944     102.77768957
H      69.29145280      82.06974027     101.67786885
C      75.24975987      82.14910876     104.47844326
H      75.69573527      80.13843997     104.45009735
H      74.27655081      82.78405681     106.17730720
C      77.62136638      83.62498502     104.27057335
H      78.90827000      82.47036225     103.15185538
H      78.48119186      83.87631862     106.12628460
H      77.33790744      85.43912228     103.33515884
C      74.67906251      79.44868987      99.17020204
O      73.05011843      78.13155063      98.14786010
N      76.91082929      78.38099449      99.80703981
H      78.21851990      79.60742688     100.46466456
C      77.57979240      75.72592902      99.52358086
H      75.99809148      74.57508571     100.17175699
H      79.32589952      75.24593855     100.50245909
C      78.13159249      75.08720154      96.63985850
O      80.11202566      75.92435029      95.55137615
N      76.48375114      73.47148553      95.56271451
H      74.98330845      72.88000120      96.58316671
C      76.34580112      73.05952520      92.88497232
H      77.49475472      74.44847404      91.88530710
C      77.47396773      70.45926180      92.18577358
H      76.30233742      69.13456365      93.23835114
C      77.43617320      70.01895556      89.32283822
H      75.61258731      70.50461522      88.49891755
H      77.98041438      68.07064773      88.93355460
H      78.84212958      71.21326260      88.40821069
C      80.28399076      70.24950218      93.26669703
H      79.97974482      70.20225901      95.30193227
H      81.40270874      71.89545379      92.73568394
C      81.85624305      67.92135935      92.62607981
H      80.81878330      66.14312689      92.67899216
H      83.52487139      67.89112374      93.83361493
H      82.71795825      68.35977587      90.80816310
C      73.71152264      73.76628285      91.78515160
O      72.04667376      72.24883261      91.32783784
N      73.42050479      76.27017020      91.09918095
H      74.72630567      77.55140465      91.64909131
C      70.94874277      77.07897306      90.10329520
H      70.34780980      76.13222018      88.37797507
H      71.31345995      78.87799252      89.16977040
C      68.63382805      77.51927930      91.78326189
O      66.67229213      78.12966090      90.66643363
N      68.74721162      77.31329913      94.27770062
H      70.35347898      76.72559424      95.12429800
C      66.53623183      77.42857244      95.93688031
H      65.08303231      76.16245581      95.21122542
C      67.22787166      76.31552364      98.58438689
H      68.42217869      77.55140465      99.72200213
H      68.20297044      74.53351172      98.24045669
C      64.76366855      75.69002423      99.91664393
N      63.61660468      73.40345539      99.83727543
H      64.31013423      71.82553391      99.01713420
C      61.58136944      73.60754583     101.25834962
H      60.09415483      72.21292782     101.36606401
N      61.05035634      76.01127770     101.82148806
H      59.43653007      76.59331341     102.65674708
C      63.13850392      77.45124915     101.11662014
H      63.45030877      79.42223370     101.53802912
C      65.61215567      80.13843997      96.08427898
O      66.88016202      81.77872242      97.09339282
N      63.40873478      80.60520238      94.88808221
H      62.58859356      79.31073985      93.75235670
C      62.17663323      83.11097946      94.92965619
H      63.52589781      84.33552212      93.96967523
C      59.90518221      83.22247332      93.11362920
H      58.72221353      81.59730869      93.57283270
H      60.57225560      82.94090410      91.18421865
C      58.37450390      85.64888190      93.10229084
H      57.94175656      86.05328334      95.07516511
C      59.82770342      87.94111992      91.94388861
H      61.53412628      88.29827819      93.03992988
H      58.61449914      89.60596879      91.95144752
H      60.31714254      87.59907945      89.97290408
C      55.98588983      85.29172363      91.62074542
H      54.65741223      86.83751976      91.92310163
H      55.09771846      83.55506515      92.28214963
H      56.40162962      85.08196401      89.61385608
C      61.79301879      84.04450426      97.52802988
O      60.74611042      82.78216708      99.19098902
N      62.69819770      86.33296282      98.16864709
H      63.44652931      87.27215680      96.68710167
C      62.23521474      87.72758085     100.62907076
H      61.77790099      86.22146898     101.95565862
C      64.67674114      88.98424884     101.65330241
H      64.03045475      90.25225520     103.14240675
H      65.36649124      90.29949835     100.22655905
C      66.68929966      87.42144518     103.04225125
H      67.48487444      85.99659155     101.78558325
C      68.87193355      89.07495571     103.71121437
H      70.30812555      87.89198703     104.59371656
H      68.40517115      90.24280656     105.34204818
H      69.55979393      90.25981411     102.17486687
C      65.45341865      85.94178948     105.17008309
H      64.19108148      87.08885335     106.32092640
H      66.69496884      85.34463596     106.70265113
H      64.56902675      84.28072004     104.33293432
C      60.06013977      89.64376332     100.55537142
O      58.32159155      89.49258522     102.16730797
N      59.93352809      91.25947933      98.59761496
H      61.47932422      91.43333415      97.49401480
C      58.02301479      93.13408782      98.34250191
H      56.15407547      92.48780143      98.92075816
C      58.54457926      95.27514774     100.26057412