 %block lattice_cart
   137.793   0.000   0.000
   0.000 143.498   0.000
   0.000   0.000   162.326
 %endblock lattice_cart

 %block positions_abs
N      87.78431450      39.39121634      78.77722053
H      87.27597812      37.76605171      79.63704601
H      89.43026612      39.11342657      77.84936491
H      86.67693488      40.07529727      77.38071279
C      87.89202890      41.48314337      80.73497699
H      89.03531332      40.70079669      82.26187585
C      89.39247159      43.74514577      79.75231931
H      88.02619947      44.83929731      78.66572668
H      90.93637799      43.24625802      78.48242322
C      90.30709913      45.39298711      81.90093812
H      91.33511024      44.06073007      83.08390679
H      88.61768380      46.24714340      82.71541016
S      92.06832405      48.13686972      80.71041055
C      93.25507218      49.07606370      83.79255416
H      94.52307853      47.63420252      84.53710633
H      91.51463424      48.94000340      84.88670570
H      93.83710788      51.05271742      83.82656925
C      85.25775042      42.05762017      81.77054701
O      83.53243030      42.71524494      80.42506187
N      84.93649695      41.60030640      84.18183778
H      86.40670402      40.67245079      84.96796394
C      82.75386306      42.31273323      85.78054624
H      81.30255325      40.99937344      85.13992903
C      83.30188369      41.83274274      88.66615832
H      85.01019627      42.94390181      88.96662482
H      83.66282141      39.82207394      88.91560220
C      81.05310937      42.31840241      90.46517778
O      80.69406137      44.41221916      91.26453200
N      79.39015022      40.46269117      90.84501276
H      77.79144176      41.16944881      91.61602111
H      79.96462702      38.64477445      90.79210043
C      81.81655880      45.07740283      85.33079138
O      83.33400903      46.74414143      85.18339273
N      79.39770912      45.39676657      85.44039551
H      78.42072062      43.76971221      85.65393459
C      78.28655005      47.85530051      84.59946730
H      79.32023034      48.53749171      82.95351568
C      75.58613115      47.48869360      83.82845896
H      75.53699827      45.87108788      82.55478343
C      73.78144252      46.93122433      85.94495243
H      71.90305457      46.51926399      85.20795917
H      73.87403911      48.36363688      87.42460813
H      74.47497208      45.15299187      86.71974022
C      74.36536795      49.78282135      82.39604642
H      74.30867616      51.36830172      83.71129593
H      72.50587726      49.04582807      81.90093812
C      75.53888799      50.61052146      79.80523164
H      75.22897288      49.07228424      78.47108486
H      77.57034378      50.95067220      79.90349741
H      74.66205498      52.28292925      78.98320069
C      78.70417957      50.11730290      86.27754427
O      79.21629540      52.18277375      85.23063589
N      78.87614466      49.67699666      88.79654944
H      78.67772340      48.01025806      89.70550780
C      79.75864685      51.66876820      90.59745861
H      78.78354807      53.46400819      90.32533804
C      79.17283169      50.82783999      93.34134122
H      80.18383527      52.00702921      94.69627499
H      79.82100782      48.88709106      93.58322619
C      76.42705936      50.92043658      93.90825911
C      75.51999073      52.57394711      95.82444160
H      76.89193203      53.83817400      96.65403145
C      73.02555200      52.55882930      96.20049713
H      72.22619777      53.94588840      97.46661376
C      71.39093874      50.86374480      95.01563873
H      69.36704185      50.99602564      95.24051617
C      72.29989709      49.08362261      93.24118574
H      71.24354008      47.60018744      92.31899929
C      74.82268172      49.11763767      92.73851853
H      75.70329418      47.75514500      91.49696834
C      82.56866988      52.08072853      90.28943323
O      83.38881110      54.04793362      91.27020118
N      84.05777421      50.47446118      88.91182274
H      83.38881110      48.79449448      88.30333088
C      86.78275955      50.95067220      88.42049391
H      87.60856995      52.04671346      89.95306195
C      88.16603922      48.42977731      88.93072001
H      90.15025184      48.70378761      88.45261926
H      87.31377265      47.08618189      87.62302940
C      88.24351799      47.40743536      91.71995604
H      88.86712768      45.45534808      91.92404649
H      86.32544579      47.44900935      92.47206712
C      90.17859774      48.95701095      93.32433368
O      91.61667946      47.84963132      94.82855584
O      90.27119433      51.34373528      93.06733091
C      87.29865484      52.35662858      85.82778940
O      88.48918242      54.34273093      85.77865653
N      86.30276907      51.35318391      83.77743635
H      85.22940453      49.77526244      83.88704048
C      86.63725063      52.56449848      81.31701270
H      88.62902216      52.38686421      80.82001467
C      85.09523396      51.21901333      79.21941648
H      83.07511653      51.23602088      79.61814874
H      85.94939025      49.35007401      79.07012812
C      85.90781627      52.32828268      76.64560925
H      87.88635972      51.87096891      76.30545851
H      86.13458343      54.37296655      76.76088255
S      84.11257627      51.20200580      73.77700470
C      81.31578133      53.23724104      73.81668896
H      81.77309510      55.24035094      73.65795194
H      80.19517363      52.85551632      75.49854537
H      80.09501813      52.70244849      72.24443666
C      85.88136010      55.38963931      81.25276200
O      87.38747197      57.05259847      80.61592423
N      83.54943783      56.01702845      82.12770528
H      82.78598840      54.65264604      83.22752599
C      82.60079522      58.59083569      82.36203134
H      82.45717602      59.25412962      80.41750297
C      80.00431127      58.42076032      83.31445340
H      79.31078171      60.33694279      83.61303016
H      80.28399076      57.49857387      85.13425985
C      78.00876028      56.92976625      81.51732368
H      78.62292133      54.97956870      81.26599008
C      75.57479279      57.19999712      83.01776637
H      75.99998121      56.69355047      84.96796394
H      74.18206450      55.98112364      82.11636692
H      74.87370433      59.13507687      82.94784651
C      77.75553696      58.01446917      78.94162672
H      79.46195982      57.89352667      77.79456285
H      77.28688483      60.00435097      79.20240895
H      76.25698399      56.96000187      78.00054301
C      84.24107766      60.19899278      84.17994806
O      84.01808996      62.48934106      84.08924119
N      86.00797177      59.11617960      85.58968389
H      86.27442318      57.22645328      85.50086675
C      87.69738709      60.46355447      87.35279854
H      86.71472941      62.26446363      87.54744035
C      87.67471037      59.15586385      89.82645028
H      89.07121812      57.65542116      89.62991874
H      85.85490393      58.23178769      90.10612977
C      88.31532759      60.76591068      92.13380611
H      86.98873972      60.57315859      93.69472004
H      88.30209951      62.82004318      91.97506911
C      90.82677386      60.03647632      93.25063436
H      92.32532683      60.57882776      91.94861293
H      90.98740060      57.98234382      93.21283983
N      91.45227327      60.97378056      95.85845667
H      92.82232485      62.28147118      96.07199574
C      90.63213205      60.16497770      98.05620837
N      88.90870166      58.47556238      98.29809334
H      88.41359336      58.09761711     100.10278197
H      88.44949816      57.50613278      96.72017187
N      91.35967668      61.14007649     100.20671692
H      90.65102932      60.54670242     101.87723499
H      92.37068026      62.75957193     100.22939363
C      90.38268818      61.14007649      86.23974974
O      91.50707534      62.65941643      87.49074856
N      90.95338553      60.34639144      83.93995281
H      89.73073260      59.08783371      83.19162119
C      93.07365845      61.34038747      82.40360533
H      94.35678262      62.37028831      83.64326578
C      94.70260253      59.23145290      81.36047640
H      96.05942602      59.86829067      79.94696111
C      96.50918089      58.23178769      83.36169657
H      97.54097145      59.73789955      84.31600835
H      97.78474615      56.85417720      82.50942999
H      95.36589647      57.00913476      84.56167277
C      93.23239546      57.14141560      79.93940222
H      92.06643433      57.88785749      78.41439307
H      91.86234388      56.33450246      81.24898254
C      94.91614161      55.07972419      78.96430343
H      95.60022253      53.94588840      80.54222490
H      96.54886514      56.05482298      78.17439783
H      93.89002022      53.90809388      77.61692858
C      92.15903091      63.12428911      80.28900158
O      93.45538317      64.69087222      79.27988774
N      89.63435656      63.07137677      79.63326655
H      88.78208999      61.45566077      80.18695637
C      88.37012966      64.75323320      77.70574571
H      89.22995513      64.52457630      75.84625502
C      85.73963063      63.73089125      77.69440735
H      84.58878731      64.34127285      79.28933636
H      85.80388132      61.67297930      77.68684844
C      84.19005505      64.43575918      75.45886112
O      82.24552668      65.78880322      75.61003924
O      84.85901817      63.76868579      73.37827246
C      88.45138789      67.50467470      78.35203212
O      89.52853189      69.04291192      76.97820108
N      87.54053981      68.16040974      80.65560849
H      87.37046444      66.74689445      81.92550456
C      87.44416376      70.67563545      81.85558469
H      88.66870641      71.83592741      80.67072629
C      84.64169964      71.69986711      81.69306823
H      84.63225101      73.63305714      82.40360533
H      83.36235493      70.72665807      82.97997186
C      83.50975358      72.00411306      79.03233358
H      81.62569645      72.71465015      79.46508090
H      83.28487615      70.18052717      78.10258823
C      84.89681269      73.96186951      77.52433198
O      85.50341484      75.98954585      78.51265884
O      85.57522444      73.43085643      75.30957274
C      88.48729269      71.10082388      84.45395837
O      88.97862153      69.23944345      85.95440106
N      89.58522368      73.28534749      84.95851530
H      89.52475243      74.57981003      83.55822810
C      91.09511500      74.00155377      87.29799647
H      91.98517609      75.84403693      87.05989096
H      92.49540220      72.51244944      87.54177117
C      89.49073736      74.43619083      89.66582354
O      87.36101581      75.25255258      89.34457007
N      90.60378616      73.97887705      91.77664783
H      92.46705630      73.56124754      91.80121429
C      89.36979488      73.86738321      94.27108657
H      87.32322128      73.78990443      94.05376804
C      89.83277782      71.18964102      95.51074703
H      91.81510073      70.62650257      95.52586485
H      89.22050650      69.81203053      94.10857010
C      88.38902692      70.77579095      98.09022346
H      88.96161399      72.36505078      99.26941266
C      85.60546006      70.38461760      97.69149119
H      84.62091265      69.56258665      99.30342774
H      85.30121413      69.08070645      96.12490809
H      84.82311337      72.24977748      97.30220757
C      89.33955926      68.27190358      99.16925717
H      88.94271673      66.70154102      97.89747137
H      88.50807968      68.09615905     101.04575540
H      91.38802258      68.41552279      99.31476610
C      90.06143471      76.07269381      96.12112863
O      92.21950216      76.23521027      96.96772602
N      88.38335774      77.82635982      96.47450745
H      86.68638351      77.64494611      95.61657170
C      88.74807492      80.29056293      97.66881448
H      90.80031770      80.47953556      97.74062408
C      87.63691585      82.27477556      95.99073751
H      87.50463501      83.96608062      97.16047810
H      85.63947514      81.86659468      95.69405048
C      88.97295235      83.01554828      93.54732139
H      90.92692936      83.52955384      93.94983310
H      87.95627959      84.65016155      92.80843840
C      88.77642081      80.96330550      91.52153479
H      87.11346166      79.81435190      91.92215676
H      90.51685875      79.87860260      91.71050741
N      88.50241050      82.31634955      89.06300085
H      89.46806065      83.95096280      88.87780767
C      86.77142120      81.88738168      87.28665811
N      85.42026688      79.81057245      87.24130469
H      84.15037080      79.76521902      85.82023050
H      85.40703880      78.51233047      88.63970215
N      86.42560128      83.65994495      85.54999963
H      85.02720381      83.61837098      84.25364738
H      86.93393766      85.44762604      85.98085724
C      87.81077067      80.43418213     100.48072723
O      85.67349021      79.86159506     101.24417666
N      89.47939900      81.25810282     102.15313502
H      91.33888970      81.39227338     101.73172605
C      88.79342835      81.43384736     104.84032584
H      87.41014869      79.94285329     105.17102794
C      91.22172666      80.69307464     106.30864318
H      91.75462948      78.82224559     105.62834171
H      90.56599163      80.39827733     108.23805375
C      93.42136809      82.45240985     106.43525485
H      93.88057159      82.88326743     104.47560866
C      92.98862077      84.83913417     107.96971261
H      94.65346965      86.02399257     108.21537704
H      92.16470009      84.44229165     109.81597523
H      91.52030342      86.01454394     107.12878440
C      95.61911979      81.01999729     107.48783240
H      95.03519436      80.13749510     109.25472650
H      97.17058510      82.36737215     107.64278996
H      96.32209798      79.54790049     106.22738495
C      87.32322128      83.73553401     105.66235679
O      86.31410743      83.70907783     107.76184272
N      87.26463976      85.69140075     103.97294146
H      88.13391387      85.30778629     102.31943093
C      86.39347593      88.28221551     104.28096686
H      85.43349497      88.49575458     106.09132465
C      88.49296187      90.34012748     104.02774352
H      89.29042637      90.09446306     102.14557611
H      89.88757989      89.70328971     105.40346428
C      87.55943707      93.01031076     104.89701762
H      86.57677939      92.53787918     106.64312474
H      86.43693964      93.65659715     103.29641944
C      89.65325382      94.99641310     105.07843135
H      91.10078418      94.48996646     106.45226238
H      88.51941804      96.49118662     105.92880820
C      90.70394165      95.69750157     102.49328576
H      89.23751403      95.76364198     101.04764513
H      92.18359736      94.39736987     101.89613224
N      91.93793294      98.26374990     102.68414811
H      92.92248035      98.66248215     101.10055746
H      93.20027011      98.19571975     104.11467093
H      90.81732523      99.69994189     103.25295574
C      84.36768933      88.79244163     102.24006243
O      84.50563935      87.81734285     100.10278197
N      82.39481506      90.17383155     102.85800294
H      82.36268971      90.69917548     104.69292719
C      80.45784558      91.17538651     100.98150470
H      79.37314268      89.53699378     100.36545393
C      78.50386858      92.91960388     102.29486449
H      79.54699750      94.52776098     103.05264474
C      76.80122517      94.17627189     100.28608542
H      77.93317123      94.97562612      98.76296601
H      75.57101334      95.59545635     101.13079308
H      75.76376542      92.68716756      99.31098664
C      76.95429300      91.63458999     104.27340795
H      77.97852466      90.69350629     105.79274790
H      75.87336955      90.05855826     103.50617906
C      74.94740366      93.31644642     105.66991570
H      75.79211132      95.06633297     106.35210689
H      74.25387410      92.36780380     107.36311046
H      73.30523149      93.62447181     104.46804975
C      81.81088962      92.46229013      98.63635435
O      83.61746798      93.87958485      98.78186329
N      80.80555523      91.81222426      96.37813141
H      79.52432079      90.39681927      96.41592593
C      81.51042314      92.76842579      93.93282557
H      82.59134659      94.48996646      94.25596876
C      83.54376865      90.91271455      92.84434321
H      85.12169013      90.30989185      94.02164269
H      84.29965918      92.06166814      91.30799571
C      82.60079522      88.40504773      91.62358000
C      81.80711017      88.36536348      89.18016388
H      82.00364171      90.03966099      88.02743083
C      80.79799632      86.17328095      88.14648359
H      80.00242154      86.05989737      86.26998536
C      80.74886344      83.93962444      89.64692628
O      79.82478727      81.84202824      88.48852405
H      78.88748302      82.11603855      86.96162519
C      81.85813278      83.89805047      92.07522459
H      81.99797253      82.04800840      92.92560143
C      82.84268019      86.21107548      93.14103024
H      83.81210979      86.15060424      94.93627023
C      79.18605978      93.14637104      92.24341023
O      77.05444850      92.71740317      93.15236859
N      79.54888723      93.97407118      89.81700165
H      81.26097927      94.39925959      89.08945703
C      77.50609308      94.29532464      87.98774658
H      75.80533940      93.54510329      88.87591794
C      76.79366626      97.02030999      87.24130469
H      75.23842151      97.06188396      85.89204010
H      78.40371308      97.79509777      86.21707302
C      76.22296892      98.96861781      89.37480569
H      77.61947666      98.70783558      90.86768948
H      74.36347823      98.44705336      90.09101196
C      76.11336479     101.80509702      88.48096514
H      76.04533464     103.08066228      90.09668114
H      74.42961865     102.02241553      87.31311428
C      78.40371308     102.94838143      87.00130944
H      78.94417481     101.64069083      85.50275647
H      80.10824622     103.10900817      88.14837332
N      77.66860955     105.41636400      85.93550380
H      79.19739813     106.21193877      85.11158313
H      76.88626285     106.63523746      87.17705399
H      76.42516963     105.03274956      84.54277552
C      77.96529658      92.75141824      85.56133800
O      79.93817085      92.28465585      84.62214401
N      75.74864761      92.03710169      84.44450974
H      74.11592408      92.28087640      85.40260098
C      75.62203595      90.66705013      82.12014637
H      77.13570673      89.27243211      82.21085324
C      72.91972732      89.39715405      82.11636692
H      71.49109423      90.86169194      81.87637168
H      72.72319579      88.42394498      83.92294528
C      72.62493002      87.48664074      79.87515151
O      73.96285625      85.44006715      80.09435978
O      71.22464282      87.85891682      78.06857316
C      76.19840248      92.15615446      79.70318642
O      75.96407641      94.52965070      79.66161245
N      76.29855797      90.83334604      77.52433198
H      76.31178605      88.92850191      77.63393611
C      76.34391140      92.08434486      75.07524668
H      77.84435409      93.48652179      75.23020424
C      77.07334576      90.30422268      72.92284841
H      77.14893481      91.48908106      71.23910226
C      79.48085708      88.89070739      73.34047793
H      79.56022559      88.43150389      75.34547754
H      81.03610184      90.23997198      73.29134504
H      79.76998521      87.22963795      72.15750925
O      75.62392568      88.28410525      72.33514354
H      74.64126799      88.82078752      70.90651044
C      73.77199389      93.61502318      74.57068975
O      73.77577334      95.46317551      73.32347040
N      71.63849288      92.87236074      75.74609952
H      71.61581617      91.09223854      76.43584963
C      69.18751785      94.24052259      75.82546804
H      68.98531714      95.22884945      74.02644858
C      67.11259836      92.32811956      76.15428040
H      65.30790973      93.31833614      76.20341329
H      67.45274910      91.48908106      78.00621219
C      66.55134965      90.12280895      74.22864929
H      65.49121319      88.58646146      75.09792341
H      68.40328143      89.32723416      73.78834306
C      65.52333853      91.17160705      71.75688727
O      63.23487997      91.00720086      71.10115224
O      67.12204699      92.27331749      70.45297612
C      69.12704661      96.28898591      77.95329985
O      67.25999701      97.66848612      78.20841291
N      71.16795103      96.88047024      79.34413842
H      72.76288004      95.85245912      79.13437880
C      71.41361545      98.93271301      81.13937842
H      70.55567970     100.46528105      80.06412416
H      73.36948218      99.36168088      81.62314835
C      70.00576935      98.59445200      83.59224317
O      69.90561385     100.35378721      85.07000915
N      69.21019457      96.22662493      84.06278502
H      69.63160354      94.90003706      82.75509442
C      67.76266421      95.39325564      86.40415593
H      67.02189150      97.13369356      87.22240743
C      65.63672211      93.60368482      85.61802978
H      64.66918224      92.96117786      87.31689375
H      66.41906881      91.90671059      84.74875568
C      63.81880540      94.57878360      83.67728087
C      63.06291487      92.95550869      81.65905315
H      63.94541706      91.14893033      81.31134351
C      61.16751938      93.81911361      80.03199881
H      60.51556380      92.80811003      78.38226773
C      59.89762330      96.20772768      80.51387902
O      58.10616275      97.06944287      78.87170684
H      57.98144082      98.83255752      79.27799801
C      60.96909812      97.92359917      82.24675804
H      60.29257610      99.84167138      82.40171560
C      62.86071416      97.17904699      83.83412814
H      63.51266974      98.37713347      85.35346810
C      69.52577886      94.12524927      88.36947129
O      71.52510930      93.20306283      87.58901432
N      68.96830960      94.34823698      90.77887234
H      67.22598194      94.80555075      91.41004093
C      70.86748455      93.59045672      92.65537057
H      72.72130606      94.07044722      91.89948004
C      70.46119339      94.98696448      95.12902232
H      71.26621680      94.05910886      96.78253284
H      68.50154720      95.08711996      95.76208063
C      71.37393120      97.69494228      95.18004492
C      69.73931794      99.63569121      94.40525714
H      67.88927588      98.91948493      93.91770775
C      70.49898792     102.20004981      94.22384341
H      69.22342265     103.69482332      93.67960223
C      73.09925132     102.57421562      95.02697709
O      73.94584871     104.92125570      95.37090729
H      72.52477452     105.97761271      94.97217503
C      74.81323309     100.60890026      95.61657170
H      76.77476900     101.10022910      95.88680256
C      73.90994391      98.19383003      95.71294774
H      75.34991536      96.76708666      95.95294300
C      70.66906328      90.72752137      93.04843365
O      68.65083558      89.63525956      93.17504531
N      72.79311566      89.46329446      93.35645904
H      74.40316248      90.45729051      93.60023373
C      73.37704109      86.64193307      93.24118574
H      71.70652303      85.58179662      93.80810363
C      74.17450559      85.98619805      90.51431066
H      75.04000025      84.11914845      90.42738325
C      72.15060871      85.51187674      88.60946653
H      70.96197086      83.87726348      88.99308097
H      72.85736635      85.24164587      86.69139433
H      71.04889827      87.23719686      88.37891992
O      75.67494829      87.97796958      89.32945227
H      77.42483485      87.80222503      89.76975849
C      75.60124896      86.04666929      95.07422026
O      77.28688483      87.56600925      95.52964429
N      75.52754963      83.87348403      96.13435671
H      74.02332749      82.72453043      95.90003065
C      77.55333624      82.76043523      97.69905010
H      79.30700226      83.70151893      97.16992673
C      77.28877456      83.55601000     100.56198546
H      76.62926007      85.50242811     100.64324369
C      75.31401056      81.98186799     101.84321990
H      74.69040088      82.86437018     103.59499621
H      76.08879835      80.08080331     102.02274390
H      73.71719183      82.01966251     100.54308820
C      79.82100782      83.45207505     101.92447814
H      81.06066828      84.52354987     100.67536904
H      80.74130453      81.60770217     101.91313978
C      80.09123868      84.64449236     104.62489704
H      79.02354331      86.40382757     104.71182445
H      82.04710541      84.95629720     105.19181493
H      79.22763376      83.46530315     106.07431712
C      77.95395822      79.88616150      97.33244319
O      76.35524976      78.45374896      96.43860265
N      80.22918870      78.85059148      97.93715561
H      81.47262861      79.98442728      98.84044479
C      80.95295388      76.17284930      97.49306993
H      79.25031047      75.06735940      97.83133094
H      82.39103560      75.64561567      98.87257014
C      81.83356634      75.69852800      94.85690173
O      83.28676588      77.22164740      93.85912623
N      80.73563535      73.92218526      93.42259945
H      79.31456117      73.00755772      94.30321191
C      81.09468335      73.40251052      90.68438602
H      82.87480554      74.29635107      90.15526266
C      81.16271350      70.57736969      89.99274619
H      80.04588525      69.60605036      91.42515874
C      79.92305304      69.68163942      87.57011706
H      77.87458971      69.78179492      87.72318490
H      80.29910857      67.69553706      87.17327454
H      80.76776070      70.80224713      86.06211546
C      83.96895707      69.98966480      90.32344830
H      84.70217088      70.50744982      92.17726982
H      85.05932916      70.98177112      88.88347685
C      84.61524347      67.11917053      90.12124758
H      83.75352827      66.29147041      88.44317062
H      83.85179404      66.08549025      91.73129440
H      86.59945610      66.66563623      89.80377357
C      79.20306731      74.96720391      89.04599331
O      79.54132832      75.28845738      86.77832174
N      77.18861906      75.87994173      90.20061610
H      77.17161153      75.66073348      92.09979103
C      75.32345919      77.46731182      89.01008851
H      75.05322833      76.85693022      87.06178069
H      75.96407641      79.41750938      88.86457959
C      72.70618825      77.28211864      90.22140308
O      70.85803591      77.20841932      88.83245424
N      72.54745124      77.15550698      92.73662880
H      74.17072614      77.20275015      93.73818375
C      70.14182964      77.35581798      94.17093107
H      68.84169794      76.20308493      93.06355145
C      70.25521322      76.16151095      96.77308421
H      71.48920450      77.15550698      98.09022346
H      70.74654206      74.18296749      96.48017663
C      67.66250872      76.14639314      98.06754673
N      65.77467213      74.54579495      97.37968635
H      65.89372489      73.40628999      95.85278750
C      63.78101087      74.80090799      98.95382838
H      61.93474826      73.93730307      98.92548248
N      64.52934249      76.44308016     100.73773001
H      63.52022864      76.83614324     102.30809258
C      66.93307436      77.39739195     100.20293746
H      67.82502518      78.67673666     101.52196643
C      69.31979870      80.23765060      94.04242969
O      70.23253651      81.71352685      95.48051141
N      67.36393196      80.76677396      92.61568632
H      66.20364001      79.32491279      92.14325474
C      66.29056742      83.29711750      92.03554035
H      67.71731078      84.72008142      91.60468274
C      64.70319731      83.10247570      89.61669066
H      63.03645871      81.95730155      90.00219483
H      65.82569474      82.18784816      88.14837332
C      64.01155748      85.83501994      88.50364186
H      65.85593036      86.64004335      88.05388700
C      62.68496961      85.83690967      85.91849627
H      63.72431908      84.55000605      84.69206389
H      62.65473399      87.74364352      85.13992903
H      60.73288233      85.21141026      86.13392506
C      62.76055866      87.88537300      90.24974898
H      61.03145909      87.25231468      91.17382514
H      62.24844283      89.63714928      89.29543718
H      64.05502119      88.47307788      91.74074303
C      64.75421992      84.14560461      94.46194893
O      62.78701483      83.05712227      95.07610999
N      65.71042144      85.95974187      95.86412585
H      67.30912990      86.76665501      95.20839082
C      64.65784388      86.89137694      98.14691523
H      63.65439921      85.40983152      99.16925717
C      66.76299899      87.80411476      99.75129287
H      66.03167491      89.16471770     101.11567528
H      68.01399781      88.97007590      98.60044955
C      68.51855474      85.88793227     100.96071772
H      69.55223503      85.09046778      99.36578871
C      70.40639133      87.29955784     102.61611797
H      71.48164560      88.52787993     101.35944997
H      71.54211684      85.90682954     103.61956265
H      69.39727747      88.42583472     104.01451545
C      67.09748055      83.89238130     102.59911044
H      66.04868245      82.51099135     101.48795137
H      65.85404064      84.91472322     103.88601405
H      68.42784788      82.80389894     103.73105649
C      62.53757096      89.06078275      98.14313578
O      60.65918300      88.79811079      99.35634008
N      62.77189702      90.89192755      96.38758004
H      64.36115685      90.75964672      95.33689221
C      60.76689740      92.68527782      95.87924366
H      58.92063480      91.77442974      95.92648682
C      60.39273159      94.66193154      97.91636862