 %block lattice_cart
   137.793   0.000   0.000
   0.000 143.498   0.000
   0.000   0.000   162.326
 %endblock lattice_cart

 %block positions_abs
N      88.02903406      39.27499817      80.01310155
H      89.51435894      38.74020563      78.93973700
H      86.65142357      38.38493708      79.03611303
H      88.16887380      38.52666655      81.76487783
C      87.49424151      41.95085063      80.36081118
H      88.86051363      42.96374394      81.52488260
C      87.27314353      43.27743851      77.71708408
H      85.93332758      42.10769792      76.68151406
H      89.11940614      43.20373918      76.80623599
C      86.43599478      46.05344646      77.78889367
H      84.58406299      46.28021362      78.65438833
H      86.44922286      46.88492604      75.90483653
S      88.46745056      48.18316801      79.62570765
C      90.63685637      49.16771542      77.13504836
H      91.94076752      47.60302204      76.81946408
H      91.90864218      50.65493003      77.77755532
H      90.05671039      49.39637231      75.17351246
C      85.07161238      42.19273560      81.71952440
O      83.05905385      41.48030878      80.74631536
N      84.92610345      43.10358368      84.13270490
H      86.51914273      43.86136394      84.86213926
C      82.67921886      43.30956385      85.72385446
H      81.43010977      41.75998828      85.18906191
C      83.37652787      42.92028023      88.49986241
H      84.74091027      44.36592086      89.04221387
H      84.44800269      41.16661421      88.63592271
C      81.24869605      43.01476655      90.40092709
O      79.20590190      43.74231118      89.71684616
N      81.54916253      42.21352259      92.65915003
H      80.20178767      42.22675068      94.01030435
H      83.22534977      41.39905055      93.07111037
C      81.39420497      45.88337109      85.29299686
O      82.77181545      47.67294191      85.30244550
N      78.91110460      46.22730128      84.53899606
H      77.95490308      44.65693871      84.01743160
C      77.63175988      48.67827631      84.18183778
H      78.54071824      49.76108949      82.68517454
C      74.82173686      48.24930844      83.14815749
H      75.44345681      47.22885623      81.46819081
C      73.06618111      46.65059997      84.71663033
H      74.24159088      45.21440798      85.61047089
H      71.73770351      45.78888478      83.40138082
H      72.08919261      47.88648098      86.04321820
C      73.61609147      50.72484991      82.08802103
H      74.89354646      51.84167816      80.92205989
H      72.44824061      51.61869045      83.52988222
C      71.68857063      49.96706965      80.00365292
H      69.87254364      49.26976064      80.68395438
H      72.54839610      48.62158452      78.70163149
H      71.25960276      51.61491100      78.84336096
C      77.65632632      50.36202245      86.57801076
O      77.88687294      52.66748856      86.28699291
N      77.93600582      49.22440721      88.85513097
H      77.94923390      47.32145282      88.97985289
C      78.37631205      50.67571702      91.23996557
H      77.07240089      52.26686658      91.31744435
C      77.63364961      49.00141951      93.48685016
H      78.56339496      49.87825252      95.10256616
H      78.60685866      47.20617951      93.22417820
C      74.75370671      48.78410098      94.20872561
C      73.44979555      50.71540127      95.57121828
H      74.50615256      52.24418986      96.41592593
C      70.82496570      50.55855399      96.03798068
H      69.86309501      51.95884119      97.17181647
C      69.52294427      48.42316326      95.04587437
H      67.65022550      48.09246115      95.78286762
C      70.70213349      46.48808351      93.68527141
H      69.62121004      44.83079353      93.19016312
C      73.32318389      46.67705614      93.20528093
H      74.40410734      45.28621758      92.17915955
C      81.17310699      51.70372814      91.56499849
O      81.67010501      53.22306809      93.28842890
N      82.67354969      51.06689037      89.69039000
H      82.14631604      49.69305934      88.47529597
C      85.22845966      52.02876106      89.32378309
H      85.50813916      53.34212085      90.88469703
C      87.32605587      49.88581142      89.47685091
H      89.21011300      50.70595264      89.33323172
H      87.29393052      48.55166465      87.90837808
C      87.12574488      48.12458650      91.75775057
H      88.35406698      46.49942187      91.46106355
H      85.19255486      47.43105694      91.90892869
C      87.97423199      49.54188123      94.07833448
O      90.29103645      50.09179159      94.14069546
O      86.57394480      49.74975113      96.06443684
C      85.73868577      53.43660716      86.87658752
O      87.10684762      55.26208278      86.80477791
N      84.36863419      52.82433584      84.84135227
H      83.29904910      51.26531163      85.09835505
C      84.70500547      54.07911411      82.15416146
H      86.65898248      53.61802089      81.68928879
C      82.80960998      52.69016527      80.29089131
H      80.97090628      53.26464207      81.02221539
H      82.87386068      50.66815812      80.68017493
C      83.12897373      53.33645167      77.54700870
H      84.97145688      52.84701255      76.76466200
H      82.87386068      55.38113554      77.51677309
S      80.71957268      52.12324738      75.35114673
C      77.99836679      54.21517441      76.21286192
H      78.23080312      56.21639457      76.63805035
H      76.96846595      53.43660716      77.81723956
H      76.62075631      53.92604628      74.71241923
C      84.00202728      56.91559331      82.27132449
O      85.21901103      58.52375040      81.12048117
N      81.94600506      57.52219545      83.66783223
H      81.26948304      56.17104114      84.83379336
C      81.00681108      60.20560682      84.07223366
H      81.00681108      61.05787338      82.19573543
C      78.09474283      60.21694518      84.91694133
H      77.43900780      62.13501738      84.54655497
H      77.95679281      59.71994716      86.91249232
C      76.54894671      58.32343941      83.22374655
H      77.52026603      56.51686105      83.04611228
C      73.92600658      57.80376467      84.36136179
H      72.80161943      56.75685630      82.98942049
H      72.93201054      59.59522522      84.59568785
H      74.12064839      56.81921726      86.16038123
C      76.13320692      59.43270876      80.55545299
H      77.94923390      59.77852867      79.64649464
H      75.18267458      61.26007410      80.51009956
H      75.12031361      58.09100307      79.36492541
C      82.81149971      61.73061595      85.77487706
O      82.43922362      63.94537519      85.91282710
N      84.55193764      60.57410345      87.29988621
H      84.73524109      58.67492850      87.31878346
C      86.12041048      61.98572900      89.20473033
H      84.85240412      62.86067229      90.57100246
C      87.74557511      60.02419309      90.67682712
H      89.18554656      60.97472543      91.80310400
H      88.49390673      58.61256754      89.37669543
C      86.23190433      58.56154493      92.59489934
H      84.73335137      57.60912286      91.54988069
H      85.37396859      59.87679444      93.92526666
C      88.04415187      56.59245011      93.83644953
H      89.66931650      57.52975436      94.68493664
H      88.77925540      55.47940131      92.26797669
N      86.68354892      55.08822796      95.71672721
H      86.24891187      53.28731879      95.25752371
C      86.33205983      55.77986779      98.09589264
N      87.01425103      57.97006059      98.83666535
H      87.09550926      58.31210105     100.71316358
H      87.89864294      59.13980118      97.61212270
N      85.26814391      54.50997171      99.73617508
H      84.63319587      55.61546160     101.15535954
H      84.41209789      52.84323310      99.37145789
C      87.70589086      64.02474370      87.93483424
O      87.93076829      66.04297140      89.07244948
N      88.34650808      63.55987102      85.68417020
H      88.01202652      61.78730774      85.05489134
C      90.00379805      65.08299043      84.01365215
H      90.82204955      66.69114752      85.00953792
C      92.10139426      63.29908879      83.02910474
H      93.22200197      64.71827325      82.04077788
C      93.73033834      62.15391465      84.98308174
H      95.50668108      61.32054534      84.35758233
H      92.84594643      60.71394320      86.16038123
H      94.36150693      63.68081351      86.21329357
C      91.02047081      61.34133233      81.31134352
H      89.42743153      61.95171393      80.15861047
H      90.03025422      59.88813280      82.38659780
C      92.96121973      59.97694993      79.61814875
H      93.97411304      61.46605427      78.61659380
H      91.91998054      58.66547987      78.42006226
H      94.34449939      58.81665798      80.61025506
C      88.60540058      66.25651047      81.85369497
O      89.70711102      67.53774491      80.31734747
N      86.09773377      66.29808445      82.06345459
H      85.20956240      65.56865009      83.58846372
C      84.43288488      67.46782504      80.10569814
H      85.42310147      67.22971952      78.31423759
C      81.96490232      66.12989881      79.85436454
H      80.95011929      66.04675085      81.64582508
H      82.55638665      64.22694441      79.33657952
C      80.26981782      67.21460171      77.86637246
O      78.33284834      68.08198609      78.64304996
O      80.76681584      66.84610508      75.61192895
C      84.07950606      70.30052478      80.51009956
O      83.93588686      71.72348870      78.73375683
N      84.26091979      71.14145299      82.97430267
H      84.40831844      69.90368226      84.41805357
C      84.55382737      73.88344587      83.71885485
H      85.55349259      74.69602819      82.11258747
C      81.88364409      75.14578305      84.22341177
H      81.08428986      74.34831854      85.94684216
H      80.75169803      74.43335623      82.65493893
C      81.97813040      78.12399172      84.36325152
H      82.60551954      78.80429319      86.20384495
H      79.96557188      78.56996713      84.37270015
C      83.37085870      79.24081997      82.09180048
O      85.73868577      79.41467479      82.21085325
O      82.11608042      79.80962759      80.11325704
C      86.37552353      74.28784730      86.07723329
O      86.18277145      72.87244229      87.84034794
N      87.94777583      76.19647088      85.97518805
H      87.76258265      77.22070254      84.37647960
C      89.88096584      76.94858195      87.93672398
H      90.75779885      78.64177673      87.15815674
H      91.29070167      75.50105159      88.33923567
C      88.64130538      77.63266288      90.48974423
O      86.63063659      78.91011786      90.49541340
N      89.75057473      76.72937370      92.67426783
H      91.23778934      75.54073585      92.54009727
C      88.80949102      77.17912856      95.19327301
H      86.75346880      77.05251690      95.25374425
C      89.93198845      74.92090562      96.89402670
H      91.97856205      74.89444945      96.66914926
H      88.92476433      73.21448276      96.33088825
C      89.46333633      75.36877075      99.76263124
H      89.97545216      77.29440187     100.28230598
C      86.84795511      74.64500558     100.68670740
H      86.85362429      74.89255972     102.73139127
H      86.21489680      72.74583063     100.20482720
H      85.53081587      76.01316743      99.88546344
C      91.47967430      73.87021779     101.14969035
H      93.42420268      74.09509522     100.50718341
H      91.14708247      71.84065173     101.27819174
H      91.43432087      74.43335623     103.12823381
C      89.48979250      80.00237967      95.98128888
O      91.66864694      80.76960856      96.32143963
N      87.50557987      81.39888742      96.55387595
H      85.76703166      80.63732771      96.34033688
C      87.30526888      83.79317066      97.75007271
H      89.28003288      84.35441937      97.91069946
C      85.96734265      85.39754830      95.79042652
H      85.27759255      87.13798623      96.64836228
H      84.25903006      84.35819882      95.29720797
C      87.33361477      86.40099297      93.34134123
H      89.22523081      86.97924922      93.91203857
H      86.52670164      88.21135078      92.78198223
C      87.66998606      84.30906594      91.30043681
H      85.94844539      83.17523015      91.32122380
H      89.13641368      83.00893424      91.93727458
N      88.01202652      85.43912228      88.74552683
H      88.95688968      87.09641225      88.66237888
C      87.24668736      84.47914131      86.64415117
N      86.10718240      82.33997112      86.57612102
H      85.94655566      81.58974978      84.83001391
H      86.12607966      81.26471685      88.15404249
N      87.69833195      85.76226547      84.60324675
H      87.00102294      85.07440510      82.96296431
H      88.13674846      87.58963082      84.93394886
C      86.07883650      83.94434876     100.37679230
O      83.71100943      83.74970695     100.63001561
N      87.70022168      84.23914607     102.25329052
H      89.46711578      84.46024404     101.56920959
C      86.90653663      84.36008855     104.87623064
H      85.40231448      83.04105958     105.36566975
C      89.05704517      84.00482000     106.57887404
H      88.41642795      84.39221390     108.49694626
H      90.52158306      85.35786404     106.06108904
C      90.38363304      81.45935866     106.64501448
H      91.16031056      81.25148877     104.74772925
C      92.46989089      81.83541420     108.77473603
H      93.49223283      80.14410915     109.35677172
H      91.64219077      82.47981087     110.54729930
H      93.96277468      83.16389179     108.26828937
C      88.95877940      79.14066447     107.45192761
H      87.56794084      78.81941100     105.96849245
H      87.95533473      79.67734675     109.17157855
H      90.05860012      77.43424161     107.80530642
C      85.69711179      87.04727937     105.45637662
O      84.54815819      87.21546501     107.52373721
N      85.70656042      88.91810842     103.71404896
H      86.17332282      88.30961654     101.96605211
C      84.47823831      91.46923894     103.78207911
H      83.46912446      91.59774033     105.57353965
C      86.64953385      93.42321595     103.55720167
H      87.43188054      93.11708028     101.67692400
H      88.11785119      93.24936113     104.99150395
C      85.47790353      96.10473759     103.81609418
H      85.04515621      96.48646230     105.79274790
H      83.72045806      96.27859241     102.75406800
C      87.17676749      98.21934133     102.78997280
H      88.97200749      97.98123581     103.77074075
H      86.63252631     100.08450120     103.47216399
C      88.01013679      98.34784272     100.05364909
H      89.19688492      96.68299384      99.79097713
H      89.19121574     100.01836078      99.79664632
N      85.78592892      98.58783796      98.35856459
H      85.05460484     100.34717316      98.23195293
H      84.33272939      97.47100971      98.89335714
H      86.12230021      98.17209817      96.52364034
C      82.47323870      91.60718896     101.81676375
O      82.74535929      90.31272644      99.75507233
N      80.30950207      92.77315010     102.49706521
H      80.09974245      93.55360706     104.22427507
C      78.30072300      93.43833376     100.59033136
H      77.50325849      91.61096841     100.07254636
C      76.30706174      95.36585460     101.67692400
H      77.20468174      96.89086373     102.73328101
C      74.40599707      96.52614655      99.74751342
H      73.32507362      95.14853607      98.66658997
H      75.35841913      97.62785699      98.28864472
H      72.89043656      97.59762137     100.64324371
C      74.74992726      94.00525165     103.68570307
H      76.10297130      93.14164673     104.97638614
H      73.60853256      92.57472883     102.73895018
C      72.81673724      95.19011005     105.36189031
H      71.25204385      96.07072251     104.35466618
H      74.12253812      96.49402121     106.27651783
H      72.09675151      93.77092559     106.67147063
C      79.75770198      94.60240517      98.24896047
O      81.13720219      96.30693830      98.64958244
N      79.43455879      93.87297081      95.84900805
H      78.08529420      92.57094938      95.49562922
C      80.64776308      95.08428538      93.68338169
H      81.40932278      96.95133497      94.10290094
C      82.84740451      93.47423856      92.47206712
H      84.39509036      93.00558643      93.74763239
H      83.70911971      94.45311679      90.87902784
C      81.84018038      90.95901284      91.27587037
C      81.89498244      90.58673675      88.68127613
H      82.33150922      92.11930479      87.40571088
C      81.28460085      88.22079941      87.61358078
H      81.55672143      87.91277402      85.61236060
C      80.48902607      86.14021074      89.15748717
O      79.66132594      83.94434876      88.12947605
H      79.32117521      84.22402826      86.37014085
C      80.44745209      86.52949436      91.78042730
H      80.03738148      84.91944754      92.96339596
C      81.21279125      88.92188787      92.85946101
H      81.15232000      89.19022901      94.88335789
C      78.55772578      95.49624571      91.75775057
O      76.19934734      95.23546348      92.36624245
N      79.24369643      96.31827666      89.39370296
H      81.03515697      96.73023700      88.87780768
C      77.25759407      96.67543493      87.39248280
H      75.36219858      96.12741430      87.98774658
C      76.98547348      99.49868604      86.76698339
H      76.26170831      99.49490659      84.83757281
H      78.75992649     100.49646154      87.07689849
C      75.17700540     101.02936436      88.60757681
H      75.39432393     100.65897800      90.62013534
H      73.40822157     100.29237110      87.85168628
C      75.09952662     103.98867576      88.40159665
H      77.04405500     104.65196970      88.55466448
H      74.13009702     104.73133820      90.06077634
C      74.24914978     104.97322317      85.93172436
H      72.19501728     104.82582452      85.95062161
H      75.05039374     103.97355795      84.31600836
N      74.70835328     107.67742153      85.66905239
H      73.76915930     108.31992847      84.13648435
H      76.55650561     108.07237433      85.39504209
H      74.04316961     108.49000384      87.26209167
C      78.00214624      95.04460112      85.04355298
O      80.09596299      94.82161342      84.09302066
N      76.09163294      93.84273519      83.99853433
H      74.40599707      94.60807435      84.46529674
C      75.95746237      92.28749043      81.77054702
H      77.57506809      91.01948408      81.62503808
C      73.50459762      90.80972446      82.09180048
H      71.80573366      91.97001641      82.03321898
H      73.31184553      89.78549279      83.86625349
C      73.09263728      88.77637894      79.99987345
O      74.68756629      87.11153006      79.87893098
O      71.61298158      89.39620917      78.33691430
C      75.71179795      93.77659477      79.32524116
O      75.23369719      96.17654719      79.44429393
N      75.89132195      92.70511995      77.06701821
H      76.23903159      90.82862172      76.99520861
C      75.80250481      94.13942222      74.66895553
H      77.10641597      95.71734369      74.88816378
C      76.75681660      92.48780142      72.48443191
H      77.07807007      93.96556740      71.08414472
C      79.27582178      91.05727860      73.00599637
H      79.82195268      89.98958324      71.33169886
H      79.06795188      89.80627978      74.62927128
H      80.80650009      92.36496921      73.44063342
O      74.84819302      90.81539364      71.73043111
H      75.80250481      90.15776888      70.33581309
C      73.42900856      95.63419573      74.02266912
O      73.57073804      97.61651864      72.80946483
N      71.26149248      94.79893670      75.03556244
H      71.23503631      93.05471932      75.81035023
C      68.85776061      96.28804104      74.86548706
H      68.62532428      96.98535005      72.93985596
C      66.48804382      94.55705174      75.36815426
H      66.04962731      94.45122706      77.37693333
H      67.05685144      92.78448845      74.48187262
C      64.01628180      95.15987443      73.99243351
H      63.12811043      96.90409182      74.63305073
H      62.62355350      93.76525641      74.59336648
C      64.11076811      95.13719771      71.14272622
O      63.67046188      97.11952062      69.82747671
O      64.60398668      93.09629330      69.99377263
C      68.83130444      98.68988318      76.65127843
O      66.78284112      99.65364360      76.84025106
N      70.78906090      99.58372373      78.05723481
H      72.38965909      98.59161741      77.73787107
C      70.51127114     101.56226718      79.98286592
H      69.32074356     102.99279000      79.10225346
H      72.33296730     102.51468924      80.12837484
C      69.25460314     100.80637665      82.49242247
O      69.44924495     102.08005219      84.43884056
N      68.26438655      98.48579274      82.68895400
H      68.35509341      97.17621241      81.30189488
C      67.21369872      97.35573640      85.08701669
H      66.44269038      99.01491611      86.03187984
C      65.09153607      95.48679708      84.45962755
H      64.26383594      94.99357851      86.27943400
H      66.13466499      93.88430917      83.69428840
C      62.91835081      96.27859241      82.87603691
C      61.74672050      94.68555312      81.02977430
H      62.53284664      92.82228298      80.76143316
C      59.74550033      95.60584984      79.62759737
H      58.96315364      94.23390854      78.33502458
C      58.77229128      98.06249405      79.78066520
O      56.87122661      98.85428937      78.28211223
H      56.40446421     100.60228621      78.40872390
C      59.88534008      99.67065114      81.56645657
H      58.99716871     101.49045758      81.80834154
C      61.81853010      98.79003868      83.14437804
H      62.83142340      99.97489707      84.45584811
C      69.15444764      96.13875266      86.81611627
O      71.27661029      95.50758407      86.18872713
N      68.40044684      95.79482247      89.18205362
H      66.59953767      96.34095337      89.49385846
C      69.88388200      95.14475662      91.31744435
H      71.77927749      95.73435123      90.76375454
C      69.08830722      96.39197599      93.82889062
H      69.98970667      95.54159914      95.47295250
H      67.17779392      95.72868205      94.22762287
C      69.21869834      99.35128739      94.10857011
C      66.97937266     100.85739926      94.24274067
H      65.04996209     100.23567931      94.01597352
C      67.32708230     103.45766267      94.23896122
H      65.70569712     104.68409505      94.41281604
C      69.64577648     104.57449092      94.78320240
O      69.80073404     107.15207761      94.98351339
H      68.28517354     108.14418393      94.91737298
C      71.88321244     103.14207838      94.90225517
H      73.61609147     104.17764839      95.20650109
C      71.59219459     100.52102798      94.51108182
H      73.27972018      99.37585383      94.50163319
C      69.92923543      92.20434248      91.73507387
O      67.91100773      90.89098269      91.68972042
N      72.22336318      91.14042656      91.97884856
H      73.93734494      91.97946504      91.89381088
C      72.57674200      88.33796244      92.32088902
H      70.87409859      87.38931983      92.98418295
C      73.37609623      87.17767048      89.62235985
H      74.17545046      85.30495171      89.92471606
C      71.31818427      86.70712863      87.75342051
H      72.09486179      85.46368872      86.30589016
H      70.65866979      88.40221313      86.78399093
H      69.65711484      85.83029562      88.59812819
O      75.18078485      88.68567208      88.28443362
H      76.68689673      89.09007351      89.21228924
C      74.72347109      87.74458838      94.32588864
O      76.17100144      89.40565781      94.94382914
N      74.77638342      85.49581406      95.34067167
H      73.59152503      84.07851933      94.86257091
C      76.47902683      84.67189339      97.35323019
H      78.24970039      85.52793941      96.73528968
C      75.47747189      85.36542295     100.05553882
H      74.37198199      87.09263280      99.86467645
C      73.61042229      83.46246855     101.40102395
H      74.74614780      81.98092312     102.27218778
H      72.32351867      82.57807664     100.05931827
H      72.65800023      84.31851457     103.01485023
C      77.83962978      85.85108261     101.76007196
H      79.15487929      86.88287318     100.55631629
H      78.80527992      84.10686522     102.27974668
C      77.26704270      87.26081844     104.22427507
H      75.80817399      86.22146897     105.23905809
H      76.32595900      89.01070501     103.68192361
H      78.95078885      87.41577600     105.39968483
C      77.11208515      81.79006076      97.43637814
O      75.99525690      80.17056531      96.20805605
N      79.30983685      81.07763394      98.70249477
H      80.59107129      82.44201634      99.06910168
C      80.03738148      78.50949589      98.85556260
H      78.41032712      77.42101353      99.49617983
H      81.61719268      78.41878902     100.17648131
C      80.99736245      77.59297862      96.35923414
O      82.12930851      79.07830351      95.02130791
N      80.37186304      75.29129197      95.60712308
H      79.40432316      74.23304524      96.86379107
C      80.58729184      74.54107063      93.00874939
H      82.27481743      75.30263033      92.10546021
C      80.95767819      71.65167910      93.01252884
H      79.61030333      70.85988377      94.35234481
C      80.68177815      70.12289051      90.50297231
H      80.83106653      68.11978062      90.96784497
H      82.25592017      70.62744743      89.27276048
H      78.79394157      70.58398373      89.82078111
C      83.70722998      70.89956802      94.02164269
H      84.49335613      72.17135383      95.44082717
H      84.75224863      71.21137286      92.27364586
C      84.03226290      68.21237721      95.27453124
H      83.50880872      66.77618521      93.89503103
H      82.54504830      68.08009636      96.69371570
H      85.93899675      67.83254222      95.96050189
C      78.07962502      75.39900637      91.82200127
O      76.09541239      74.15367673      92.00152528
N      78.10041201      77.69691357      90.64281206
H      79.45156632      79.01972199      90.91493264
C      76.39209942      78.26950064      88.53576721
H      76.44879121      76.61599012      87.30933483
H      77.09318788      79.86442965      87.43783623
C      73.61609147      78.76649866      89.21984814
O      71.98147821      79.10286995      87.54366089
N      73.06996056      78.99515555      91.63113892
H      74.47024776      78.62476919      92.87457883
C      70.53016840      78.96303020      92.54387672
H      69.35664836      77.71392111      91.40248203
C      70.66622869      77.57975054      95.15547849
H      71.76604941      78.78728565      96.41214648
H      71.53928225      75.72403930      94.96272641
C      68.07163447      77.14889294      96.32899853
N      66.60520685      74.96814877      96.23262249
H      66.96803430      73.29385126      95.39169427
C      64.42446268      75.43680090      97.53086447
H      62.81252614      74.18958153      97.64991722
N      64.49060310      77.85754031      98.38880020
H      63.13000016      78.85153635      99.28453049
C      66.58441986      78.98003774      97.61401242
H      67.19480146      80.90566885      97.90880972
C      69.19980107      81.54439634      92.71962128
O      70.08797244      83.24703975      93.96117145
N      67.05307198      81.78439159      91.47996080
H      66.55040478      80.13655024      90.66359905
C      65.32208268      83.97080493      91.26642173
H      66.58630958      85.58841065      91.06800047
C      63.51928378      83.52860897      89.03276523
H      61.96970820      82.30217660      89.60346258
H      64.22226197      82.49870813      87.39248280
C      62.58575898      86.06462168      87.95373151
H      61.74483077      87.25136981      89.40882077
C      64.46981611      87.58396164      86.37769976
H      66.17245952      86.57295806      85.80889214
H      65.12933060      89.10330160      87.60413214
H      63.72148449      88.25103503      84.58057005
C      60.17446820      85.74147849      86.33990524
H      59.64534484      87.46301916      85.34212974
H      58.59843646      85.10842017      87.50775609
H      60.38800728      84.18056455      85.01331737
C      64.03706879      84.73047491      93.74196320
O      63.10354399      82.98436779      94.96839558
N      63.98982563      87.15688349      94.33344755
H      65.30885460      88.16410762      93.39047411
C      62.82575422      88.12631309      96.67481844
H      62.38355826      86.43689777      97.76896998
C      64.83453329      89.57951263      98.20738649
H      63.86321397      91.04405052      99.28075103
H      65.95703072      90.70956896      96.90158561
C      66.58630958      87.95623772      99.94593470
H      66.98126238      86.09863676      99.14847019
C      68.99004145      89.45857014     100.47316833
H      68.55918385      91.40876770     100.97394580
H      69.95758133      89.17322147      98.67603861
H      70.13521560      88.40032341     101.81865347
C      65.32964159      87.29861297     102.41769670
H      64.45469830      88.95968240     103.26240437
H      66.73559796      86.38587516     103.61200374
H      63.80841190      85.92100248     102.22683435
C      60.37666892      89.78927225      96.48962527
O      58.32820560      89.26014888      97.51574665
N      60.73004774      91.79805132      95.00241066
H      62.13411439      91.63931431      93.72117622
C      58.77985018      93.63675502      94.41281604
H      57.00728690      92.61252336      94.18982834
C      58.65323852      95.67387999      96.52175062