 %block lattice_cart
   137.793   0.000   0.000
   0.000 143.498   0.000
   0.000   0.000   162.326
 %endblock lattice_cart

 %block positions_abs
N      86.84984485      39.80790099      75.92089921
H      88.15942517      40.04411678      74.55084764
H      85.20389323      40.07813185      74.99493332
H      87.29015107      38.11281649      76.68056919
C      87.24668736      41.83368761      77.86542759
H      88.71689444      40.97386213      79.02382982
C      88.41264851      44.22608111      76.68245892
H      86.98590513      45.10858330      75.48815189
H      90.08883574      43.76687762      75.57507930
C      89.36318083      46.23674991      78.66667155
H      90.62740774      45.36558608      80.04050258
H      87.74179566      47.21751786      79.47736413
S      91.20188454      48.68583521      77.16433913
C      92.18265249      50.48674439      79.78161007
H      93.52435818      49.33212161      80.83040817
H      90.52914198      51.11224380      80.83796708
H      93.16153073      52.13458574      79.02760927
C      84.87697056      42.67650553      79.34886274
O      82.89464766      43.09980424      78.26604957
N      85.02247949      42.85980900      81.90188299
H      86.74213045      42.60847539      82.69556804
C      82.95889836      43.57223581      83.69901272
H      81.31294675      42.36281098      83.43823049
C      83.70722998      42.99397955      86.36163709
H      85.48924190      43.93317354      86.79060497
H      84.55382737      41.11559160      86.37675490
C      81.74569406      43.54577964      88.41576959
O      80.04683012      44.99708946      87.96412501
N      81.93844615      42.44595892      90.58139595
H      80.47201854      42.52910688      91.80026942
H      83.54471351      41.44062453      90.80249393
C      82.13875714      46.34257459      83.11508729
O      83.49369090      48.15104266      82.95824000
N      79.66321568      46.65815888      83.19823524
H      78.87708953      45.12370111      84.01459701
C      78.27237711      48.95795580      82.49147760
H      78.97157585      49.68172098      80.69245815
C      75.45101573      48.30411049      82.16266522
H      75.24125609      46.74886574      80.82851845
C      74.20757581      47.58412477      84.79694370
H      73.37987569      49.17149488      85.81172673
H      75.63809862      46.65815888      85.95345621
H      72.79972971      46.18761703      84.23758472
C      73.99025728      50.73618826      81.12898493
H      73.79939493      52.33867617      82.40643992
H      72.05139809      50.05210733      81.00237327
C      74.88598755      51.83033980      78.58919277
H      76.49414465      52.95472695      79.21469218
H      73.37609622      52.86779954      77.64432961
H      75.72124659      50.28832312      77.50826932
C      78.72969088      51.02909585      84.46435187
O      78.97157585      53.33267221      83.88042644
N      78.97535529      50.32233821      86.85674539
H      78.63709429      48.48741396      87.25547764
C      79.80116569      51.97584872      88.90898816
H      78.58229223      53.62369007      88.69544909
C      79.15676903      50.58123070      91.29760222
H      80.12430889      51.66593360      92.75836066
H      80.08084519      48.74819618      91.12374740
C      76.39398915      50.47540603      91.94766807
C      75.31306570      52.33111727      93.47078748
H      76.42800422      53.99596615      93.87518891
C      72.79217080      52.04009942      94.30415679
H      71.86809464      53.59156472      95.25846857
C      71.28794865      50.02754090      93.54259708
H      69.29050795      49.92927512      93.96211632
C      72.39532827      48.16805021      91.92121190
H      71.26149249      46.57123147      91.33917620
C      75.02582731      48.33056666      91.25224879
H      75.95368292      46.73374793      90.37919523
C      82.56961474      52.80543857      88.78804568
O      83.34818198      54.52319979      90.03715477
N      84.03226290      51.45050482      87.21201393
H      83.19511415      50.16171146      86.08195760
C      86.56449616      52.19694671      86.54494054
H      87.21456201      53.63124897      87.87341814
C      88.41453823      50.02187171      86.40321107
H      90.29670563      50.53776700      85.73991714
H      87.77770046      48.73118864      84.93111427
C      88.94366159      48.50820094      88.82772993
H      90.40064059      47.14003909      88.32506273
H      87.28070245      47.62002957      89.65920951
C      89.64852952      50.26753614      91.05193780
O      88.48067864      50.02943062      93.21756416
O      91.25479687      51.97017955      90.88942134
C      86.69866674      53.80132434      84.02215592
O      88.05737996      55.62868968      84.04294291
N      85.49869053      52.94905777      81.90944190
H      84.78059452      51.18594313      81.74881516
C      85.70089124      54.32477854      79.54917373
H      87.69077305      54.29454292      79.01627091
C      84.10974169      53.23251672      77.55362275
H      84.43666434      54.43060320      75.90956085
H      82.08395508      53.29865714      77.92022965
C      84.87508084      50.52453892      77.08686035
H      84.67288013      49.52109425      78.87265171
H      86.84984485      50.46406767      76.50104519
S      83.08928948      48.73874755      74.81918877
C      83.12519427      50.65870948      71.91845888
H      82.34095785      49.64581619      70.30652234
H      85.07539184      51.27664998      71.67657391
H      82.08206535      52.41048577      72.21892537
C      84.81271987      57.18204471      79.89877310
O      85.89931250      59.02641759      78.94824077
N      82.92110383      57.49195983      81.52771718
H      82.28237635      55.92915617      82.41588855
C      81.84584956      59.90136088      82.22502619
H      81.93655643      61.01063022      80.49214716
C      79.16432792      59.56876905      83.09619002
H      78.33662781      61.30731726      83.82940383
H      79.36274918      58.12312842      84.54749983
C      77.44845643      58.62768534      80.96646847
H      77.94167501      56.76252547      80.24648274
C      74.84063412      58.51430176      81.98503095
H      73.40255240      58.00407567      80.60175129
H      74.23403197      60.35300547      82.68989887
H      74.56851353      57.11968374      83.47413529
C      77.50136878      60.52497056      78.74604005
H      76.72469125      62.29375440      79.45657714
H      76.40154806      59.48184164      77.35331176
H      79.24558615      60.87456993      77.70669058
C      83.41999159      61.43014946      84.18089293
O      83.07039221      63.75451283      84.35663747
N      85.20200349      60.21127600      85.43378147
H      85.90120223      58.54642712      84.82151015
C      86.91220580      61.42637001      87.12697625
H      85.96923238      62.75106816      88.39309288
C      88.16509435      59.39302450      88.80505321
H      89.44443906      58.13068732      87.79782909
H      86.66276194      58.40280791      89.80849789
C      89.74301583      60.54008837      90.97445902
H      88.78114514      61.40936248      92.57316748
H      90.86740298      62.11989957      90.28092947
C      91.35117292      58.53508875      92.21789894
H      92.67209161      59.43081903      93.52181009
H      92.43776555      57.69227083      90.68533090
N      90.13418918      56.49229461      93.49157447
H      90.18899124      54.83878409      92.53915241
C      89.38207811      56.41859529      95.82160701
N      90.04348230      58.03431129      97.77747375
H      89.56538156      57.60723314      99.57460347
H      91.06582425      59.58199714      97.32582916
N      88.17265326      54.41548539      96.55482082
H      87.79659772      54.23596139      98.41620124
H      87.72667784      53.12102288      95.22445350
C      88.94366159      63.03830656      85.74936577
O      90.02269533      64.88834862      86.72068509
N      89.42176235      62.51674209      83.38153870
H      88.83405747      60.80653978      82.76926737
C      91.27369413      63.91324984      81.96802341
H      92.19021140      65.46282543      82.97146809
C      93.44309995      62.23517287      81.17811782
H      94.77724672      63.19893329      79.94034708
C      94.78669536      61.40936248      83.57807023
H      96.64240659      60.59300071      83.21713251
H      93.85695001      60.03931091      84.80072316
H      95.35550298      62.99295314      84.76670808
C      92.63051764      59.90514033      79.63043197
H      91.24345852      60.57788290      78.26415984
H      91.89730382      58.42737435      80.86631297
C      94.95488099      58.48784559      78.37187424
H      95.38951805      59.45727520      76.60686986
H      94.24812336      56.60189873      77.93912692
H      96.63673741      58.21005583      79.52838674
C      90.19088097      65.51951722      79.81373542
O      91.47022567      66.49461598      78.15077626
N      87.70400113      65.75573299      79.72680801
H      86.75535853      64.84299520      81.10630822
C      86.23568379      67.05019552      77.71235976
H      87.38652712      66.83098727      76.01916498
C      83.68266354      65.74250491      77.30039942
H      82.13497768      66.88012016      78.04306186
H      83.57305942      64.16080400      78.61564894
C      83.58250804      65.35700074      74.52817092
O      82.30694279      66.72516260      73.12410427
O      85.01870005      63.77341009      73.44346802
C      85.92009950      69.93769733      78.05440022
O      86.08261595      71.21137287      76.16278418
N      85.62152273      70.71059539      80.36553550
H      85.43443984      69.42747123      81.76582270
C      85.97868102      73.37321977      81.15355137
H      86.39253107      74.20091989      79.31295794
C      83.46345528      74.38422334      82.10030426
H      83.66376628      75.23460019      83.96546413
H      81.95734341      72.98960532      82.28360771
C      82.41465718      76.48559900      80.41844784
H      80.51548224      76.80874221      81.14977192
H      82.42599555      76.04151332      78.40777904
C      84.02092456      78.90633841      80.59797184
O      83.23668813      80.90944830      81.57496034
O      86.21111735      78.96303020      79.54539428
C      88.14241764      73.83242327      83.04705714
O      89.08350135      72.22804562      84.47380051
N      88.99846365      76.23615514      82.97524754
H      87.93076830      77.33408612      81.83763230
C      91.21700236      77.03550936      84.68356013
H      92.07304837      78.80618291      84.07317853
H      92.61162037      75.52183858      84.75159027
C      90.31182345      77.45880805      87.46334753
O      88.55815743      78.93090485      87.90365376
N      91.29448113      76.23048595      89.47779578
H      92.77224711      75.03806864      89.27559507
C      90.29481591      76.46481201      92.03648521
H      88.24635258      76.32119282      91.88908656
C      91.26613524      74.33320074      93.72401081
H      93.31270883      74.30674457      93.48968474
H      90.33638989      72.54929909      93.28370458
C      90.64252556      74.53351172      96.62096125
H      91.62518323      76.27017020      97.12551817
C      87.90809158      74.90200835      97.53369905
H      87.29015107      76.66701274      96.67198386
H      87.84195116      75.05318646      99.58594183
H      86.82149895      73.30141016      96.82505169
C      92.01068740      72.50394567      98.22722861
H      94.00623839      72.21670726      97.80204019
H      91.37762908      70.56697619      97.93243131
H      91.72722846      73.10487864     100.17553644
C      90.73323242      79.27672476      93.07205523
O      92.84216697      80.10442489      93.29882239
N      88.54681906      80.43512700      93.93377043
H      86.89519827      79.54317617      93.59928887
C      88.55248825      82.60831226      95.52680971
H      90.53292142      83.02594177      95.91987278
C      87.35818122      85.06873592      94.33628213
H      87.56794084      86.56728888      95.73656933
H      85.33239461      84.75504136      94.13786087
C      88.58839305      85.90021549      91.83428449
H      90.59528239      86.29516829      92.08939755
H      87.93643748      87.84096442      91.60940706
C      87.99879843      84.46969268      89.59117936
H      86.14875638      83.60230830      89.86707940
H      89.30459932      82.87854312      89.68188622
N      88.14052792      85.98336346      87.31594888
H      88.33327999      87.87686921      87.48980370
C      87.59817646      85.11975852      85.12953554
N      87.21267230      82.82185134      84.53616147
H      86.14308720      82.37398620      83.02060097
H      87.39030657      81.63888266      86.02337608
N      87.17676750      86.62964985      83.30783937
H      86.89141881      86.06651141      81.50693019
H      87.19188530      88.52126589      83.57995996
C      87.21645175      82.25304372      98.01368954
O      85.43066038      80.85464624      98.16864710
N      88.20666834      83.58908021      99.93176175
H      89.75057474      84.62087078      99.48767606
C      87.16164969      83.72891997     102.58493749
H      85.66876590      82.31540469     102.69643134
C      89.33483494      82.99570615     104.44631791
H      88.54114990      82.89555065     106.34360313
H      90.76535777      84.46780295     104.27057336
C      90.55748786      80.52961331     103.75467808
H      91.13574411      80.51827495     101.77991408
C      92.73445258      79.73781798     105.39685024
H      94.08938634      81.28361411     105.52913108
H      93.53569653      78.15422734     104.35372132
H      92.04281275      79.28806312     107.28468683
C      88.55626770      78.33186161     103.79436233
H      86.99913322      78.62854864     102.47911282
H      88.01769570      78.35453832     105.78235441
H      89.55404320      76.54607024     103.55247736
C      86.14497692      86.46335394     103.24067252
O      84.85996304      86.71846698     105.19087007
N      86.41520779      88.26048366     101.52858048
H      87.46589561      87.77860345     100.00924052
C      85.06972266      90.73602514     101.46055033
H      84.02659372      90.98546900     103.21988553
C      86.80827086      93.05849876     100.95410368
H      85.66120699      94.70822985     100.50623854
H      87.96289364      92.56716993      99.32138015
C      88.58839305      93.75013861     103.17453210
H      87.63030181      93.21912550     104.91874949
H      88.94933078      95.77592520     103.05736907
C      91.02425027      92.16654795     103.38807117
H      92.01257713      92.42544046     101.60039008
H      90.58961321      90.21257094     103.87373083
C      92.65130462      93.41187759     105.30047420
H      91.84628122      93.21534605     107.18642106
H      92.75334985      95.46223065     105.13039883
N      95.14574336      92.33284387     105.31181256
H      95.01724196      90.42988947     105.38740161
H      96.24556406      92.89220285     106.76879155
H      96.24556406      92.82228299     103.83026713
C      82.91921410      90.67177444      99.43665345
O      83.11196619      89.19967764      97.70755388
N      81.09373849      92.38386648      99.68609733
H      81.19200426      93.49502555     101.23189345
C      79.14732039      92.61252337      97.76424566
H      78.53315934      90.81539363      96.96867089
C      76.70012481      94.14320168      98.72800608
H      77.24814545      95.91387522      99.62562608
C      74.79717041      94.55516200      96.66253522
H      73.89955042      92.79204735      96.08805843
H      75.82518153      95.27136828      95.02981169
H      73.52727434      96.06694307      97.24835038
C      75.41700065      92.61252337     100.94465505
H      76.97035568      91.91143489     102.09927783
H      74.47969640      90.97224092     100.12640356
C      73.23058731      93.82005847     102.58682722
H      73.96002166      95.48112790     103.56003627
H      72.51627075      92.60118501     104.08538018
H      71.74526243      94.71767847     101.47566814
C      80.38320140      93.85218382      95.37563161
O      82.12363934      95.43955392      95.63452411
N      79.63675951      92.92243847      93.15898264
H      78.48591617      91.40120880      93.15520319
C      80.84618434      93.80683038      90.81005283
H      81.80238585      95.61907792      90.98579738
C      82.75480792      92.06828219      89.82739515
H      84.33461911      91.75836707      91.11240904
H      83.55038269      92.81661381      88.07939831
C      81.75514270      89.60596879      89.20567519
C      81.17499672      88.94834404      86.60730151
H      81.27137276      90.37697714      85.15410198
C      80.92177340      86.44634640      85.97235347
H      80.31706098      85.88698741      84.10530387
C      81.23546796      84.49803857      87.82239553
O      81.15232001      82.06974025      87.02493103
H      80.90098640      81.94879778      85.23158076
C      81.68333311      85.16322223      90.36029797
H      81.85718793      83.72891997      91.80215915
C      81.90254135      87.67655824      91.12185767
H      82.25969962      87.88442812      93.12118811
C      78.63520456      94.27359279      88.96756968
O      76.83240566      92.89598231      88.81450185
N      78.77315458      96.26725405      87.37264067
H      80.00903559      97.69399741      87.65987907
C      77.09696734      96.50535956      85.22591158
H      75.10330608      96.25402596      85.68700480
C      77.16499749      99.17932230      84.20167992
H      79.04149571      99.34939766      83.36642089
H      76.91555362     100.49835126      85.76448358
C      74.99937114      99.55537784      82.21746729
H      73.36286815      98.85428937      83.25303731
H      75.37353694      98.59539686      80.43167592
C      75.04283483     102.55059404      81.85086038
H      76.83240566     103.30648457      81.16866918
H      74.50993202     103.55025926      83.57051133
C      72.82618588     103.09294549      80.08774573
H      71.06118149     102.79436873      81.10819794
H      72.74681736     101.79470351      78.49092700
N      73.06807084     105.61384039      78.81029075
H      73.61609148     106.98200225      80.02160531
H      71.48259047     106.41697407      78.11865091
H      74.38332035     105.59494313      77.42701108
C      77.88120376      94.62319215      83.07918249
O      80.11108081      94.49091132      82.34785840
N      76.05572815      93.05849876      82.21935701
H      74.26426760      93.16243371      82.86942287
C      76.63587412      91.17255190      80.13498889
H      78.44056274      90.27304218      80.55450813
C      74.68756629      89.15243449      80.28238754
H      72.88665712      89.96123735      79.69279293
H      74.81417796      88.33796245      82.17022413
C      75.08062937      86.89799098      78.53250098
O      73.18334415      86.23658677      77.23803845
O      77.23869681      85.97958400      78.42856603
C      76.58485151      92.45000690      77.40433437
O      75.29605817      94.44366815      77.23047955
N      77.40499272      91.11019094      75.54484368
H      78.40654767      89.58140235      76.09097458
C      77.25192490      91.90198627      72.88032958
H      78.40654767      93.60651941      72.81796861
C      78.32339971      89.98769352      70.94336010
H      78.02860241      90.67933335      69.02528790
C      81.23168852      89.44534205      71.30429783
H      81.67955364      87.83718496      70.09865244
H      81.35452073      88.60819331      73.18268579
H      82.19733865      91.25003068      71.07942040
O      77.10641598      87.67655824      70.93580120
H      75.59652465      87.77860345      69.93613598
C      74.49670393      92.37252811      71.96003286
O      74.14521484      94.14509139      70.60131964
N      72.72225092      90.95712310      72.84631450
H      73.33074280      89.45668041      73.85731808
C      69.97647860      91.32750947      72.40033909
H      69.66278403      91.17255190      70.37077303
C      68.61587565      89.05038926      73.62488174
H      68.32107835      89.36219411      75.64121972
H      69.77049842      87.35719448      73.42268103
C      66.11387801      88.37386723      72.68379804
H      64.70414218      89.79683115      73.16000907
H      65.78884508      86.61453205      73.70236052
C      66.03450951      87.70490412      69.79629623
O      65.09153607      89.16944202      68.14656516
O      67.13999940      85.74903740      69.21615025
C      68.83130445      93.72746188      73.40000431
O      66.82063565      94.58917709      72.59309118
N      70.12387725      94.85940795      75.27272309
H      71.82841038      94.15076057      75.76594166
C      69.56640798      97.36518503      76.35364654
H      67.97147897      98.34406327      75.49382107
H      71.15566782      98.65775783      76.14199719
C      68.92768048      97.11007199      79.18445656
O      68.67445717      99.03948255      80.43923483
N      68.86154006      94.83484150      80.35041769
H      69.26594150      93.25125085      79.36398056
C      67.46503233      94.50602912      82.69745777
H      66.86787881      96.39386572      83.26815512
C      65.24838336      92.75425284      82.30817415
H      64.26950512      92.63708981      84.11664223
H      66.11954719      90.91176968      82.01148712
C      63.41534884      93.31361182      80.05562039
C      62.82008504      91.39742934      78.35486670
H      63.56274749      89.53037975      78.71391470
C      61.34987797      92.08528972      76.25349104
H      60.90579229      90.54138332      74.99493332
C      60.62422307      94.53248530      75.76216220
O      59.01417626      94.96901207      73.70425025
H      58.85543923      96.75858290      73.45291665
C      61.11366219      96.44866778      77.42890081
H      60.18580657      98.25335641      77.19835420
C      62.69536310      95.97812593      79.60775525
H      63.04685221      97.34439805      81.07985205
C      69.24704424      93.59518105      84.81017179
O      71.01015888      92.17599658      84.31317377
N      68.80295856      94.41910171      87.11563789
H      67.29873640      95.57183477      87.33295642
C      70.33363687      93.97690576      89.37953001
H      72.23281180      94.47768324      88.75403060
C      69.88010254      95.78726357      91.58106117
H      70.69268487      95.02759359      93.31394020
H      67.87132347      95.80805055      92.04026466
C      70.77205337      98.49146192      91.48279540
C      69.05051269     100.52291770      91.76814407
H      67.08897678     100.09961902      92.13853043
C      69.93301489     102.94743657      91.77570298
H      68.55162495     104.44032035      91.94955780
C      72.48603513     103.44443458      91.57539199
O      73.45168528     105.75745960      91.39586799
H      72.33674676     107.18987214      91.40153717
C      74.21702443     101.35628701      91.27492551
H      76.22769324     101.63029733      91.06327616
C      73.49514899      98.87129690      91.23146180
H      74.74614781      97.26313982      91.11429877
C      70.41111564      91.26136904      90.32250344
O      68.46847700      90.25792438      90.80627338
N      72.59752898      90.18422505      90.81005283
H      74.18867855      91.12908821      90.34895961
C      73.23247702      87.37231230      90.86674462
H      71.56573843      86.30461693      91.43555224
C      74.25859841      86.79216632      88.20978943
H      75.83085071      87.96568636      87.58429002
C      74.89543618      83.89521588      87.77893183
H      73.34208116      82.79728490      88.56694770
H      76.61319740      83.29050345      88.74647170
H      75.21857938      83.41144594      85.80227810
O      72.42934335      87.19089856      86.31817339
H      72.35942347      88.94267487      85.85519044
C      75.06362182      86.66744438      92.93221548
O      76.28060557      88.40410286      93.83739439
N      74.94834853      84.37331663      93.82038685
H      73.86931479      83.03161096      92.99457645
C      76.54705698      83.49270418      95.83294537
H      78.17033188      84.75315163      95.98790293
C      75.15054923      83.84608300      98.37840672
H      74.20757581      85.63754353      98.75446225
C      72.93767972      81.83541419      98.67509375
H      71.96447068      82.00737929     100.48356183
H      73.67845243      79.92490089      98.47478276
H      71.76793914      82.14343958      97.00646541
C      76.73980907      83.35664388     100.67631391
H      77.61853181      81.49904292     100.78591804
H      75.60597327      83.53805760     102.38840595
C      78.83929500      85.32195925     101.21299619
H      80.31328152      85.15566332      99.78625282
H      79.67833348      85.16889142     103.08760469
H      77.92277773      87.16633212     101.19976810
C      77.81695307      80.81307227      95.52114053
O      76.66799946      79.33152684      94.10762525
N      79.75770198      80.26694136      96.86284621
H      80.65532199      81.58786004      97.90786486
C      80.91610422      77.63455260      96.96489143
H      79.36463892      76.39300241      97.50724289
H      82.65465242      77.50794095      98.06282242
C      81.63608994      76.65567438      94.24179582
O      83.21212168      77.92746019      93.00591481
N      80.45312128      74.65256448      93.38952925
H      79.22101971      73.69447324      94.48557051
C      80.70256514      73.82108490      90.81194256
H      82.16143385      74.89444944      89.83306433
C      81.80805503      71.15846052      90.68911035
H      80.26414863      70.09265489      91.54515637
C      82.13119823      70.35343712      87.99625035
H      83.66187656      71.49294208      87.21957284
H      80.57973293      70.87689131      86.74525153
H      82.59796064      68.35221696      87.86585924
C      84.33083966      70.98460570      92.34262087
H      84.00391701      71.42869140      94.32683350
H      85.75758303      72.26772988      91.59050980
C      85.78592893      68.46182108      92.01002904
H      87.55660248      68.75472865      93.01725317
H      85.98246047      67.86277784      90.04660340
H      84.80894043      66.97271674      93.04559906
C      78.32528944      74.33131101      89.16599094
O      76.52627000      72.85921421      88.92977515
N      78.17978052      76.62732847      88.21545861
H      79.63675951      77.85187113      88.34018054
C      76.22958297      77.33786557      86.28793777
H      76.19934735      75.80151808      84.91410674
H      76.67933783      79.18979735      85.50181162
C      73.49514899      77.42101352      87.26681600
O      71.60353294      77.87454784      85.84574181
N      73.12476263      77.04873745      89.70267321
H      74.78205261      76.81630110      90.61730075
C      70.65111088      77.40022654      90.86863435
H      69.34908945      76.05663114      90.00502942
C      70.88543694      76.43835585      93.60495805
H      72.20824536      77.69880330      94.54982121
H      71.68479118      74.53918090      93.52369982
C      68.35887286      76.43079694      95.04870895
N      67.26472133      74.25005278      96.04459472
H      67.23070626      72.54174018      95.19421788
C      65.34475940      74.97192822      97.70755388
H      64.08809141      73.63967118      98.60517387
N      65.10665389      77.46258751      97.55448604
H      63.83864752      78.53217260      98.49934920
C      67.05118226      78.37910478      96.02002828
H      67.55762892      80.34819959      95.85751181
C      69.56451825      80.06474065      90.76847885
O      70.64922116      81.77683269      92.07427974
N      67.42534807      80.36331739      89.52503894
H      66.58819931      78.84019799      88.73702307
C      66.16679035      82.85397667      89.29260260
H      67.64455632      84.25993306      89.00536420
C      64.22415170      83.02405205      87.30272080
H      62.71615010      81.75982514      87.90743322
H      65.02728537      82.04895328      85.67377671
C      63.37755431      85.73202985      86.78304606
H      62.95992479      86.50114846      88.64820593
C      65.35609776      87.34207668      85.59818766
H      65.66034369      87.13042732      83.57240105
H      67.20802955      87.05294854      86.44856450
H      64.81563603      89.29227422      85.97991238
C      61.15901562      86.00415044      84.95568072
H      59.50739481      85.01960304      85.69645343
H      61.86388353      85.14243525      83.22469141
H      60.77918063      88.00726033      84.66277314
C      64.96303468      83.55506515      91.85885094
O      63.83297835      81.98659231      93.15331346
N      65.31641350      86.00604017      92.56749830
H      66.66756781      87.00003621      91.65853995
C      64.10320921      87.28538488      94.59706436
H      63.49282762      85.92100249      96.01435910
C      65.88333139      88.96724131      96.08616870
H      64.70981135      90.01981885      97.41086684
H      66.75638496      90.33918261      94.82194180
C      67.90344882      87.63687398      97.45999973
H      69.24704424      87.01137456      96.03136664
C      69.33775110      89.48313658      99.05870819
H      70.08986218      90.83807035      97.69999497
H      70.94779791      88.63275975     100.02246861
H      68.12265708      90.43933811     100.41931113
C      66.98882130      85.55817504      99.23823219
H      68.57241194      84.80417424     100.31915564
H      66.07797321      84.08040906      98.13085257
H      65.56396765      86.16288746     100.59883513
C      61.86010408      88.75937140      93.62952449
O      59.67747018      88.05072404      94.00369030
N      62.31930758      90.74736348      92.02892630
H      64.12399620      91.35585536      91.92877081
C      60.19714493      92.30071851      91.11618850
H      58.70615086      90.91932859      90.77792749
C      59.45448248      94.18666538      93.27236622