 %block lattice_cart
   137.793   0.000   0.000
   0.000 143.498   0.000
   0.000   0.000   162.326
 %endblock lattice_cart

 %block positions_abs
N      86.41048348      37.51188353      79.10508805
H      85.75852790      36.00010248      80.07262792
H      87.94872070      36.94496563      78.12432009
H      85.02909354      38.00699182      77.88621458
C      87.11913084      39.77199620      80.69245815
H      88.94838590      39.33735915      81.53527609
C      87.90336726      41.92439447      78.89343870
H      86.33111496      42.65760828      77.78227963
H      89.43026611      41.48597796      77.58385837
C      89.05987977      44.09569000      80.36553550
H      90.50929985      43.16027548      81.49370211
H      87.46684049      44.92527985      81.37464935
S      90.90425264      46.42194309      78.54572906
C      92.62201386      48.08868170      80.88898969
H      91.33888970      48.11135842      82.49903651
H      93.03586393      49.97462856      80.16900396
H      94.32465728      47.00586852      81.30472948
C      85.21995589      40.58457851      82.61619954
O      82.88425417      40.58835797      82.24203373
N      86.18371631      41.48975742      84.81584097
H      88.04698645      41.28377725      85.17677869
C      84.72673733      42.78044049      86.78871524
H      83.11480078      41.55400811      87.16855023
C      86.39725538      43.28310769      89.09418134
H      87.88824944      44.49442225      88.35340863
H      87.06999796      41.43684508      89.70645267
C      85.06877778      44.53788596      91.32972757
O      82.82756239      45.20873880      91.26358715
N      86.06844301      44.40749484      93.56716352
H      85.04799080      44.86669834      95.11295965
H      87.83722683      43.69317830      93.57850188
C      83.61368853      45.27109977      85.66243836
O      85.13680794      47.02287606      85.12575608
N      81.11169089      45.51676419      85.85708017
H      80.04588524      44.12970508      86.62430905
C      79.96840647      47.81089193      84.76481836
H      80.83579085      48.18694747      82.93556329
C      77.09413274      47.72963370      84.12609086
H      76.73508474      46.05155674      82.98469617
C      75.62203596      47.09090621      86.60730151
H      73.60758771      46.79988836      86.29738640
H      75.72597090      48.83701332      87.69767360
H      76.43272853      45.53755118      87.68822496
C      76.00187093      50.14659366      82.83540779
H      77.35680471      50.95728625      81.51259937
H      75.90171544      51.38814384      84.47757996
C      73.38648973      49.64959564      81.77527133
H      72.33391217      48.74063728      83.29272156
H      73.53010892      48.10002006      80.42600674
H      72.63248893      51.43727673      81.08174177
C      80.42383052      50.19950599      86.39943162
O      80.71106891      52.37269125      85.52448834
N      80.93027717      49.76864839      88.85418610
H      80.89059291      48.00553374      89.58928963
C      81.77687456      51.88136241      90.51714525
H      81.05310938      53.73707365      89.99369107
C      81.00586621      50.97429378      93.14008538
H      81.40081901      52.50875155      94.45344516
H      82.04332596      49.38881341      93.94888824
C      78.17694592      50.32422793      93.66731902
C      76.62548062      52.14025492      94.80871371
H      77.36814306      53.98651753      95.26224803
C      74.00631995      51.69805896      94.96934045
H      72.62870947      53.07000026      95.58728095
C      73.00854446      49.41149012      94.17565540
H      71.01299348      49.05244212      94.39297392
C      74.59402483      47.46696175      93.26858677
H      73.84002403      45.65093476      92.72623531
C      77.26987730      47.93939332      93.08717304
H      78.63048025      46.48619379      92.63363872
C      84.73618595      52.12702683      90.46423292
O      85.50530457      54.14336481      91.47334677
N      86.39914511      50.59256907      89.30772041
H      85.70183610      49.12803117      88.30616547
C      88.99940853      51.46751235      88.58206551
H      89.64947437      52.67126801      90.12219245
C      90.93259853      49.21495858      88.56883743
H      92.64280086      50.12202721      87.86585924
H      90.13324431      48.03954882      87.07784336
C      91.28219791      48.05655635      91.27870496
H      92.21194325      46.22163210      91.18043919
H      89.34900789      47.68617000      91.89286601
C      92.44248986      49.70250797      93.42921350
O      94.71205117      49.27731955      93.92621152
O      91.11212253      51.06689037      94.83139043
C      89.10145375      52.89992490      86.10841377
O      90.63591150      54.70839298      85.73991714
N      87.61234941      51.90403913      84.32640185
H      86.64858899      50.33367656      84.82151015
C      87.30432402      52.68638582      81.67322611
H      89.07688730      52.35190426      80.68111980
C      85.25775042      51.04421366      80.49781634
H      83.53809947      51.66026443      81.44834868
H      85.63380595      49.08078802      81.00426299
C      84.76453186      51.50530688      77.79739744
H      85.90403681      50.29021286      76.58797260
H      85.15948465      53.48196060      77.37409875
S      81.40459847      50.78343142      76.68812810
C      81.32900942      53.23818591      74.37888254
H      81.55577657      55.09578687      75.24059774
H      79.59235093      53.03220574      73.29040018
H      82.84079046      52.80921803      73.04473576
C      86.91881985      55.56254927      81.58440897
O      88.37201939      56.84945289      80.31640262
N      84.94594557      56.46205900      82.87320232
H      83.88958856      55.08633824      83.67066682
C      83.98596462      58.99429225      82.71635503
H      84.15037080      59.31554573      80.68867870
C      81.33278886      59.01507924      83.85963945
H      80.67705383      60.91803364      84.30183541
H      81.25153063      57.90014072      85.59062876
C      79.41093720      57.92092771      81.90944190
H      80.29910858      56.30143226      81.00048354
C      76.84279915      57.15369883      83.01493179
H      76.03588602      58.56910383      84.27537924
H      77.47774718      55.64569723      84.26593061
H      75.42172496      56.37324186      81.74314598
C      78.63803914      59.96939103      79.86286830
H      78.16182812      58.97917444      78.12243037
H      80.25375514      61.21094122      79.56429154
H      76.86547586      60.71961238      80.60175129
C      85.54498881      61.14102135      83.98436139
O      85.09901342      63.39168538      83.37964897
N      87.35345691      60.63835415      85.67944589
H      87.78242477      58.78075318      85.63598219
C      89.06365922      62.33910783      87.07595364
H      88.11312688      63.66947515      88.32884218
C      90.89858347      60.74417882      88.45356412
H      92.22895078      62.12745848      89.20378547
H      91.79053429      59.47050329      87.10052008
C      89.67782026      59.02641760      90.43210757
H      88.39469610      57.55621053      89.77259309
H      88.54776394      60.23584244      91.65853995
C      91.67148153      57.72817562      92.01380849
H      92.88468581      59.31365600      92.52403460
H      92.67681592      56.36001377      90.84784736
N      90.85511976      56.31843980      94.37596639
H      90.90425264      54.40981622      94.40053283
C      90.28631214      57.31810501      96.62663042
N      89.91403605      59.73884442      96.80426470
H      89.39247160      60.44560206      98.49745947
H      89.84411619      60.69882539      95.15642335
N      90.19749500      55.82711095      98.52202592
H      89.82899837      56.53764805     100.25301522
H      90.68504440      53.97895862      98.48045194
C      90.42615188      64.30442319      85.39031777
O      90.76819235      66.46627010      86.01392745
N      91.07621774      63.57876829      83.06406468
H      91.08755609      61.73628513      82.57084611
C      92.51996865      65.27196307      81.30850893
H      93.67837087      66.62500711      82.34407895
C      94.34922371      63.62223200      79.63610114
H      95.40369100      64.81464930      78.32841054
C      96.11800754      62.22194480      81.47291512
H      97.64301667      61.37156796      80.38065331
H      95.15613685      60.73661992      82.52549268
H      96.96649466      63.63357035      82.71068586
C      92.96594405      61.62479128      77.88243513
H      91.31243353      60.81976787      78.81218047
H      94.27363465      60.10167187      77.42890081
C      91.74518086      62.81342913      75.48248271
H      93.30231534      63.38979566      74.26360924
H      90.41670326      64.36489444      75.73570603
H      91.06298965      61.08810901      74.58675244
C      90.73606700      67.09743868      79.86097858
O      91.66203289      68.74528003      78.55139824
N      88.19438512      66.95759894      80.32396152
H      87.30054456      66.02596387      81.72991790
C      86.41426293      68.44481355      78.61753866
H      87.39503088      68.25017174      76.81662949
C      83.97651599      67.19192500      78.12620982
H      82.70661990      67.53963464      79.70791074
H      84.19194477      65.14724113      77.99392898
C      82.57244932      68.04419157      75.76594166
O      80.45028668      69.04196706      76.00782662
O      83.54187893      67.80608605      73.62110229
C      86.49552116      71.29830028      79.07674216
O      86.21584166      72.62488815      77.15489050
N      86.60323555      72.22993535      81.40299525
H      86.74685476      71.02995914      82.88076122
C      86.95472464      74.82641930      81.91700080
H      87.95061041      75.80529753      80.40333003
C      84.29776945      76.11143320      82.11731179
H      83.14503640      74.71492545      83.09996948
H      83.41526726      76.30229556      80.26726973
C      83.86691185      78.74193223      83.35697225
H      84.19383450      78.60587193      85.38653831
H      81.82033825      78.96869938      83.24358868
C      85.35601619      80.58819483      81.79416859
O      84.29021054      82.35886839      80.55072868
O      87.68604873      80.72047568      81.98314122
C      88.55532283      75.12688579      84.37553474
O      88.35501185      73.46392663      85.98747128
N      89.92348469      77.24148953      84.73080328
H      90.12001623      78.46036300      83.27571402
C      91.65069453      77.60998616      87.03626939
H      92.51052001      79.47136658      86.84162758
H      93.20593929      76.26450103      87.15532214
C      90.24851761      77.69502385      89.61952526
O      88.25107691      78.70602743      89.91810201
N      91.32377188      76.45347366      91.46389814
H      93.09822490      75.76939274      91.32783784
C      90.36946009      76.52150381      93.98668276
H      88.34178377      76.21914760      94.17565540
C      91.56565686      74.15934592      95.32460899
H      93.58577428      74.44847404      95.59861931
H      91.35022806      72.42079771      94.24179582
C      90.80031770      73.82486436      98.17242655
H      89.14491745      75.01161248      98.47856221
C      89.57577505      71.33420508      98.97556023
H      90.58677862      69.75061443      98.13463202
H      87.59723159      71.01484133      98.49556975
H      90.12001623      70.88067076     100.90686052
C      92.54075563      74.93224398     100.10372684
H      94.23772985      73.86265889     100.57237897
H      91.46928082      75.05885564     101.85928258
H      93.01885639      76.85787509      99.55003703
C      91.06298965      79.14822338      95.31705009
O      93.23428519      79.61120633      95.98790293
N      89.20916815      80.65055580      96.19199337
H      87.40636923      80.23103656      95.72712070
C      89.65892301      82.97680889      97.61495729
H      91.68659933      83.30373154      97.78125320
C      88.19060565      85.19345786      96.30159750
H      88.04698645      86.78838687      97.59606002
H      86.28198208      84.54906119      95.87262963
C      89.77986549      86.20824089      94.01502866
H      91.73384250      86.45579504      94.61029245
H      89.10523319      88.07529049      93.46322858
C      89.51530381      84.64732695      91.67554748
H      87.73329189      83.62120557      91.58673035
H      91.10078418      83.33396717      91.63586323
N      89.59278258      86.18178472      89.27559507
H      90.02930937      88.03749596      89.25669780
C      88.88791466      85.31251062      86.99847486
N      88.22462074      82.92389656      86.69044947
H      88.17170839      81.99226148      85.02749032
H      88.15092141      81.98848203      88.35340863
N      89.13924827      86.77704851      85.08040265
H      88.84634069      86.03816552      83.34374417
H      89.63435657      88.60441385      85.31283899
C      88.78775918      82.86531504     100.40041387
O      86.84323079      81.99604094     100.99945711
N      90.28820187      84.11442413     101.96510726
H      91.98517609      84.86275575     101.51535240
C      89.63435657      84.37520636     104.65418780
H      88.30209951      82.91255820     105.22866460
C      92.00596309      84.12387276     106.32659559
H      91.26708009      84.88921192     108.09159997
H      93.37979411      85.43345310     105.52157218
C      92.91870090      81.46124839     106.52690658
H      94.16025108      81.14944355     104.91308031
C      94.65724911      81.45746894     108.71331992
H      96.21060413      82.74815201     108.30324931
H      95.31487386      79.52427892     108.97599188
H      93.77285719      82.29083824     110.37627908
C      91.02897459      79.28428368     106.51178877
H      89.68348945      79.46002822     108.06136434
H      92.02297062      77.49093341     106.71021003
H      90.22584090      78.97436856     104.64095972
C      88.14147277      86.84507866     105.17386254
O      87.06432878      87.00192594     107.24311285
N      87.79187341      88.62709057     103.41263761
H      88.36635021      88.16032817     101.65330242
C      86.53520540      91.11208067     103.87562056
H      85.43349496      90.78704774     105.58393315
C      88.57610983      93.26636867     104.30080898
H      89.56821614      93.32306046     102.49612035
H      89.93293331      92.61252336     105.70676536
C      87.46873020      95.87986016     104.72221795
H      85.97206696      95.67199026     106.12250515
H      86.82433353      96.47890340     102.85894780
C      89.47939901      97.74879948     105.67086056
H      90.77953070      98.12107557     104.11750553
H      90.49418203      96.90598155     107.25445121
C      88.24162827     100.10906765     106.34927230
H      86.59189720      99.63663607     107.49066700
H      87.69171791     101.11818150     104.64095972
N      89.90458743     101.70021720     107.84215609
H      90.63402179     100.64008074     109.25378165
H      88.96539345     103.21577771     108.52623702
H      91.27841845     102.44098992     106.74233538
C      84.59634621      91.65065267     101.74022983
O      84.52264689      90.34863124      99.71444322
N      82.83890073      93.48368719     102.25423538
H      82.72929661      94.00525166     104.08726991
C      80.94539497      94.38319692     100.48356183
H      80.16871746      92.58795692      99.83349598
C      78.76465081      95.98946428     101.67030995
H      79.72463178      97.38030285     102.84760945
C      77.25098003      97.13085898      99.43476373
H      76.32123468      95.63041628      98.37084781
H      78.30922677      98.43854959      98.24801560
H      75.63904349      98.27036394     100.02246861
C      77.01665397      94.18099620     103.39563008
H      78.31678568      93.38353170     104.78079946
H      76.23619700      92.67866378     102.21833058
C      74.90205022      95.57372450     104.69954123
H      73.66427950      96.35418146     103.24823142
H      75.77510378      97.15731515     105.68786810
H      73.73041991      94.45689624     105.96943732
C      82.20584243      95.49057654      97.94943884
O      83.88202967      97.18377131      98.10817585
N      81.79010263      94.37752774      95.71389262
H      80.28210103      93.22101524      95.89719607
C      82.64803839      95.11074155      93.12307784
H      83.48518714      96.97590142      93.37252171
C      84.76453186      93.32117073      92.30671607
H      85.74907927      93.16621317      94.11140470
H      86.01175122      94.23390854      90.94611313
C      84.15981944      90.74736349      91.29382277
C      83.85935294      90.37130796      88.74836143
H      83.93683173      91.93033216      87.43311191
C      83.19983846      88.07340076      87.93388938
H      82.61024386      87.95245827      85.98369183
C      83.00141720      85.88698741      89.41543481
O      82.11891501      83.67600763      88.38742370
H      82.06411295      83.92167205      86.59218370
C      83.24897135      86.20446144      91.99113178
H      82.83890073      84.59441462      93.17599018
C      83.74596936      88.65921592      92.92654630
H      84.25430574      88.99747693      94.87485413
C      80.26887296      95.26947856      91.42421388
O      78.26765278      95.35451624      92.57316748
N      80.68272301      95.36585460      88.93733406
H      82.52520617      95.20333814      88.46112303
C      78.65504669      95.72301287      87.10429953
H      76.96185191      94.85562850      87.89609486
C      78.16182812      98.50091055      86.45045423
H      76.21918946      98.44043931      85.76448358
H      79.69628588      99.29459561      85.32984653
C      77.63270474     100.39441632      88.75403060
H      79.34857623     100.69677253      89.85007187
H      76.37792647      99.56482647      90.15998698
C      76.21352029     102.76791257      87.66554825
H      75.55211608     103.63529695      89.41165536
H      74.74142348     102.00068369      86.44667478
C      77.73474997     104.78047109      86.30116585
H      77.99931165     104.14363332      84.35852720
H      79.61691737     105.20188006      87.02682075
N      76.29666825     107.25412284      86.26337132
H      77.07901494     108.59015934      85.14654307
H      75.99242231     107.96654966      88.00758871
H      74.60158374     106.94987690      85.44323010
C      78.76843027      93.84840437      84.72702383
O      80.83579085      93.20022825      83.83507301
N      76.58957582      93.30605292      83.74436615
H      75.04000025      94.10162770      84.52104366
C      76.18517440      91.87175065      81.38031853
H      77.64593283      90.41855111      81.42189251
C      73.49609385      91.01948408      81.47480485
H      72.14116008      92.55583157      81.25370687
H      72.98964720      90.30705726      83.33996472
C      72.87815335      89.02771255      79.61153470
O      73.62270552      86.82807112      79.90444228
O      71.65550042      89.61730716      77.68968304
C      76.64437788      93.52526117      79.06729352
O      76.55367102      95.83261700      78.99359420
N      76.95051355      92.38953566      76.86387264
H      77.30200265      90.51303743      76.88276991
C      77.28121565      93.63675502      74.42423597
H      78.65126724      95.17121279      74.56218599
C      78.34135212      91.94544997      72.57230419
H      78.20340210      92.99802753      70.80541008
C      81.17027241      91.43900332      73.32441526
H      81.41593683      90.02737777      74.80407096
H      82.14915063      93.03771178      74.17857155
H      82.34757190      90.58484703      71.86743627
O      77.00720533      89.59085099      72.35498566
H      77.30389236      88.73480497      70.78273337
C      74.71685704      94.94066618      73.73070642
O      74.83590981      96.43921915      71.91089998
N      72.54556152      94.52681612      74.75871753
H      72.65894510      93.16432345      76.09097458
C      70.21930843      96.12552458      74.59620107
H      70.10403512      97.11007199      72.78962271
C      68.04423343      94.35296130      74.94769016
H      67.99132110      93.71234408      76.90355690
H      68.27855949      92.66354597      73.79306738
C      65.42696249      95.36774433      74.27116814
H      65.07169394      97.07038774      75.37665803
H      64.16273559      93.93911123      75.04973538
C      64.82036034      95.74568959      71.53295471
O      65.74443651      97.58628302      70.44069290
O      63.57692043      94.11107633      70.40289838
C      70.19663171      98.25335641      76.59175205
O      68.70752737     100.08072175      76.36498490
N      72.05045322      98.35540163      78.29061601
H      73.53955756      97.16298432      78.20935778
C      72.04289431     100.10717792      80.32963070
H      71.02055237     101.82115969      79.82318405
H      73.94584871     100.77992049      80.74537049
C      70.77110851      99.26624971      82.81651053
O      70.52166464     100.81960474      84.50781558
N      69.78467137      96.93243771      83.14532291
H      69.50688161      95.94222113      81.53716581
C      68.57146708      96.09528896      85.43945065
H      67.39416758      97.59762138      86.21612817
C      67.00110452      93.75958723      85.11630745
H      66.10348451      93.35707553      86.92477553
H      68.29934649      92.17977604      84.87631221
C      64.98665626      93.71801326      83.01304207
C      64.84681652      91.67332939      81.35386236
H      66.18096329      90.12942299      81.38976716
C      62.84370663      91.55049717      79.53783538
H      62.64339563      90.01225996      78.21124750
C      60.94075222      93.42132622      79.49815112
O      59.07937181      93.34006799      77.66511660
H      57.99844836      94.79515725      77.70291113
C      61.27901324      95.51136353      81.07985205
H      59.88439521      97.00046786      81.11953630
C      63.23676969      95.73246151      82.85808451
H      63.40495533      97.42376656      83.99003057
C      70.45930366      95.24680184      87.44067082
O      72.32257381      94.24146744      86.72257482
N      69.99065153      95.89308824      89.88975612
H      68.60170270      97.12518980      90.33195208
C      71.74998674      95.30538336      91.94955780
H      73.56790344      96.01214100      91.28815359
C      70.81646194      96.78881851      94.23423691
H      71.69329495      95.90442660      95.87262963
H      68.77177807      96.72078837      94.48179106
C      71.54400657      99.42120727      94.14164032
C      69.74876656     101.25613152      93.54448681
H      67.76644366     100.78558967      93.41787514
C      70.51977490     103.79025450      93.36874226
H      69.21586375     105.20376979      92.67899216
C      73.00476500     104.50457105      94.26258281
O      73.74742744     106.92531046      94.55549039
H      72.40761149     108.01190309      93.99613140
C      74.82268172     102.62618310      94.68399177
H      76.76343064     102.97956192      95.21122542
C      74.11592407     100.08450120      94.56493902
H      75.66549966      98.77114142      94.76336028
C      71.89171620      92.45567608      92.39931266
O      69.90372412      91.20467726      92.34451060
N      74.14993915      91.47679785      93.19110799
H      75.84502366      92.27426235      92.81316272
C      74.70362897      88.73291524      93.52747927
H      73.03689035      87.64443289      94.05660264
C      75.84124420      87.83151579      90.96690012
H      76.63114981      85.97202510      91.37319127
C      74.31245562      87.61419726      88.54616071
H      73.68695621      89.52093111      88.07750858
H      72.68162181      86.45201558      89.02426147
H      75.33479755      86.62587040      87.05516665
O      77.90104589      89.39054000      90.39809250
H      79.10102210      88.48536110      89.38519919
C      76.65571624      88.42677958      95.58539123
O      77.98608357      90.19367368      96.43954752
N      77.15649371      86.06840114      96.25813379
H      76.18139494      84.58307626      95.56082478
C      79.27109746      85.20668594      97.99668200
H      80.98129977      86.29138885      97.61306756
C      78.58701654      85.68478670     100.79914612
H      77.62136639      87.49514451     100.98433930
C      76.89571149      83.39632813     101.88006957
H      76.32312441      83.99159192     103.76790616
H      77.89726644      81.60675732     102.09549837
H      75.21574480      83.11664864     100.71977762
C      81.04932992      85.83596480     102.45454637
H      82.59134660      86.48792038     101.25457016
H      81.66160124      83.91978232     102.90619096
C      80.62981068      87.21735474     104.95087483
H      82.31544655      86.94523415     106.10360788
H      78.98007961      86.55784026     105.99022431
H      80.40493324      89.25258998     104.72410768
C      80.11202567      82.59508418      97.25590929
O      78.95551316      81.55006553      95.53436862
N      82.06600268      81.35164426      98.30470739
H      83.32645012      82.27194098      99.40452810
C      82.39103560      78.67390208      97.96077720
H      80.54099355      77.83297387      98.29903821
H      83.73463102      77.96714444      99.35350549
C      83.26408917      78.21658831      95.26413775
O      84.37713795      79.84931184      93.90731426
N      82.89370281      75.84309206      94.37974584
H      82.06222322      74.51272474      95.46633847
C      83.14881585      75.16468031      91.75491599
H      84.55666195      76.33253118      90.80816311
C      83.58912208      72.32253194      91.29382277
H      82.23985749      71.12255573      92.28403936
C      83.25464052      71.59876676      88.43277713
H      83.84612487      73.22582112      87.31405915
H      81.27042789      71.10365847      88.17766408
H      84.50374962      70.01139666      88.03215515
C      86.21395193      71.80285720      92.42198938
H      86.25741564      72.54362992      94.34573076
H      87.78053504      72.68157994      91.41287553
C      87.00574726      69.01362117      92.45411473
H      85.56199636      67.98938950      93.50669228
H      88.79531807      68.81142045      93.45566967
H      87.16826373      68.10466281      90.61541102
C      80.73374562      76.03017497      90.51147608
O      78.77220972      74.81319122      90.56060896
N      80.67327438      78.24115475      89.35496357
H      82.26064449      79.29184258      89.49858277
C      78.81756314      78.90822814      87.47846534
H      78.68528231      77.40589572      86.07250897
H      79.10858099      80.71480650      86.53549191
C      76.07934972      79.40711589      88.40632096
O      74.40127275      79.88899610      86.89831936
N      75.66927911      79.08397269      90.88186243
H      77.17728071      78.58697467      91.94010917
C      73.22208353      79.01027336      92.13664070
H      72.07124020      77.77061290      90.96312066
C      73.39593835      77.65156014      94.68966095
H      74.47497207      78.87421307      95.95010840
H      74.40694194      75.86009960      94.55926984
C      70.75410096      77.33975530      95.74790769
N      69.51255079      75.14956250      95.91987278
H      70.02655634      73.53951569      95.03359114
C      67.67195736      75.44247008      97.68109771
H      66.66095377      73.95714520      98.64674785
N      67.75132586      77.80273825      98.59383552
H      66.79512435      78.25438284     100.18120562
C      69.89805494      78.84586717      97.61873674
H      70.67662218      80.65055580      98.17431627
C      71.72731002      81.47825593      92.30293662
O      72.64382729      83.23003222      93.50102310
N      69.43696173      81.64644157      91.26547687
H      68.99665549      80.17245504      90.13731027
C      67.77022311      83.80450902      91.46389814
H      68.94752261      85.41644556      90.94989258
C      65.78790022      83.53805761      89.19433684
H      64.55768839      81.95824641      89.67432732
H      66.89905928      83.10531028      87.51625987
C      64.10037463      85.89832577      88.94678269
H      63.08937105      86.24225596      90.70989734
C      65.26066658      88.44189739      88.30616547
H      63.85659992      89.94045036      88.17388463
H      66.27544961      88.26993230      86.52226383
H      66.57402637      88.97102076      89.80282871
C      61.97821198      85.48447571      86.95501115
H      62.70575660      85.57329285      85.03126977
H      60.38139323      86.78460741      87.04571802
H      61.30168996      83.55695487      87.23847010
C      66.66851268      84.08985769      94.08683826
O      65.51955908      82.35319921      95.15453363
N      66.78189625      86.46524367      94.94666373
H      67.95730603      87.62175617      93.98290331
C      65.44774949      87.40065819      97.13496680
H      65.13027546      85.81895727      98.41431152
C      67.31290936      89.12786804      98.45588550
H      66.21875782      90.06328257      99.92609257
H      67.85904025      90.68311280      97.21811476
C      69.65994944      87.72380139      99.40641783
H      70.54812080      86.69768000      97.85684225
C      71.41928463      89.58896126     100.63662966
H      71.77077372      91.10641149      99.28925480
H      73.31279039      88.84818855     100.96544204
H      70.43095777      90.50169907     102.19565387
C      69.12326716      85.94556893     101.70810448
H      67.87793751      86.96602114     102.99500810
H      70.90905853      85.46179899     102.61328338
H      68.12738140      84.26182279     101.06559753
C      62.94764156      88.46457411      96.45088588
O      60.99555428      87.52915958      97.14630516
N      63.01378200      90.61508265      95.11862883
H      64.74666102      91.35018619      94.78981645
C      60.72721316      92.02292875      94.35517940
H      59.23054991      90.69067170      93.88274782
C      59.93163837      93.57439406      96.65497632