 %block lattice_cart
   137.793   0.000   0.000
   0.000 143.498   0.000
   0.000   0.000   162.326
 %endblock lattice_cart

 %block positions_abs
N      85.22845967      37.62148765      79.64271518
H      86.68921811      36.81457451      78.71485956
H      83.72423751      37.65739246      78.46730542
H      84.65587258      36.34592239      80.94284689
C      85.87663578      40.00065308      81.04111266
H      87.62463263      39.64727427      82.06912377
C      86.43032559      42.08502120      79.18918087
H      84.72768218      42.77288159      78.25565607
H      87.64919907      41.20629847      77.77944504
C      88.04415187      44.23364002      80.28333240
H      87.19566475      44.82323463      82.06723404
H      88.14808681      45.74920052      78.89438356
S      91.27747358      43.23208508      80.82568386
C      92.38485321      46.20084511      82.17305872
H      90.81827010      47.12303155      83.14437804
H      93.22767115      47.58412477      80.90316263
H      93.83994248      45.76809778      83.56578701
C      83.68266354      40.64127030      82.64738002
O      81.71545844      40.76032306      81.46819080
N      83.88486425      41.26299025      85.07945779
H      85.67632479      41.53322112      85.68228048
C      81.84584957      42.24942739      86.54210595
H      80.27359727      41.05323063      85.96195997
C      82.53748939      41.68250950      89.35212898
H      83.77526013      43.22641589      89.92093660
H      83.43132994      39.83435717      89.52409407
C      80.39642947      41.75053964      91.06422102
O      78.21001614      41.97919653      90.35557365
N      80.91232476      41.39716083      93.46417344
H      79.50636839      41.36881493      94.75674624
H      82.73024148      41.38771219      94.04431942
C      80.92555284      44.93472849      85.69739829
O      82.47890788      46.60902599      85.34779892
N      78.41788603      45.39393198      85.52732292
H      77.09696734      44.01821122      85.60480170
C      77.22735846      47.76931795      84.75253513
H      77.93222636      48.27387488      82.88548554
C      74.23970116      47.40460077      84.31033918
H      73.84096890      45.93439370      82.92328006
C      72.97169479      46.77721165      86.87658751
H      71.13110137      45.93061425      86.50620115
H      72.67878721      48.50631121      87.95562123
H      74.03183126      45.42038814      88.01042330
C      72.99437152      49.77431757      83.27287943
H      73.25137430      51.25019382      84.68639471
H      71.00071026      49.26787092      83.34846848
C      73.78427712      50.68894510      80.62726259
H      75.82140208      50.96862460      80.72174891
H      72.76571463      52.40103714      80.10758786
H      73.61609147      49.25275311      79.15894525
C      77.89254211      49.87825253      86.68761488
O      78.10986064      52.01175352      85.89959901
N      78.02482295      49.13559007      89.07055976
H      77.26704270      47.40082132      89.32189336
C      78.62386620      50.50564165      91.30421626
H      77.44656671      52.19505699      91.33256216
C      78.04372022      48.89370511      93.50196796
H      78.84685391      49.86313472      95.13091205
H      78.84874362      47.05878086      93.02008775
C      75.15999787      48.63859205      94.14636464
C      73.87309425      50.88547664      95.01941819
H      74.69701492      52.70717281      95.44271689
C      71.30684591      50.84201295      95.44649634
H      70.32985741      52.46906729      96.20049714
C      69.95947105      48.48363450      95.17248602
H      67.93935362      48.32300776      95.42004017
C      71.26149248      46.35958212      94.43738249
H      70.27883479      44.57757021      94.29754274
C      73.82963055      46.40682528      93.87235432
H      74.83874439      44.71929968      93.33000287
C      81.42255087      51.26531163      91.30610599
O      82.14253659      52.86213036      92.86324047
N      83.03259769      50.34690464      89.48252010
H      82.26158936      49.40204148      88.01420275
C      85.52892615      51.35412877      89.09512620
H      85.88230497      52.54087689      90.74107782
C      87.44888808      49.34534970      89.23496595
H      89.25168698      50.27131559      88.87402822
H      87.11629625      47.93183441      87.77231778
C      87.76447237      47.97907757      91.82200127
H      86.07505706      46.91894111      92.33978628
H      88.09895393      49.43416683      93.24307546
C      90.04915149      46.13848414      91.86924443
O      92.19210112      46.92083084      92.35112464
O      89.73734665      43.92372491      91.19083268
C      85.72734741      52.83945365      86.68761488
O      86.83472703      54.83689436      86.71029159
N      84.99035414      51.69616923      84.51065017
H      83.99824784      50.06722515      84.55222414
C      85.11507608      52.94905777      82.11825665
H      87.10117844      53.08322834      81.58913329
C      83.95289440      51.22751710      79.96963784
H      81.96490232      50.82122595      80.32490638
H      84.80327124      49.35290860      79.89782824
C      84.33461912      52.40292687      77.40338950
H      86.33772900      52.16860081      76.99520862
H      83.74313478      54.36824224      77.59425186
S      82.66788050      51.11413352      74.56124113
C      80.08462464      53.41393045      74.70486033
H      81.08428986      55.19594237      74.95241447
H      79.16243819      52.94716805      76.48687224
H      78.60496894      53.46495306      73.27055806
C      84.01714510      55.73829381      82.17305872
O      85.33239460      57.40503242      81.24520310
N      81.79860641      56.20694595      83.17083421
H      80.69689597      54.70650326      83.59035345
C      80.87264052      58.70894359      83.84735623
H      81.24680632      59.85411772      82.17683817
C      78.06261749      58.54831684      84.40482549
H      77.41255163      60.43615344      84.90749269
H      77.83018115      57.30676665      86.02999012
C      76.37509189      57.69227083      82.09557994
H      76.62453576      55.64758696      82.07290322
C      73.53483324      58.10990034      82.55667316
H      73.28916882      57.28220021      84.42750221
H      72.54839610      57.03275634      81.10536335
H      72.89421602      60.06765680      82.53021699
C      77.31428587      59.00941006      79.54633914
H      79.20590190      58.31210105      79.13248908
H      77.14798995      61.05976311      79.46130146
H      76.29005420      58.13446679      77.98920466
C      82.14442632      60.13568694      85.99786477
O      81.87230572      62.45816058      86.21329357
N      83.55605188      58.90169566      87.72318490
H      83.67510463      56.99685154      87.66082393
C      85.05838429      60.10734105      89.61102148
H      83.98690948      61.59455566      90.54832574
C      85.65742754      58.19115857      91.71806632
H      87.23912846      56.98740291      91.18327378
H      84.07572662      57.09322759      92.44939041
C      86.68354892      59.57821768      94.11801874
H      85.40420421      61.14102134      94.52430990
H      88.63941565      60.21883491      94.15014409
C      86.62685713      57.65447629      96.32521907
H      84.71256437      56.94204947      96.60489857
H      87.53770522      58.55020657      97.93904535
N      88.10084366      55.35467937      95.95294299
H      88.89641844      55.14491975      94.22762287
C      88.61106976      53.59345445      97.59511516
N      88.11785120      54.01864287      99.92136825
H      88.71500471      52.60323786     101.05709376
H      87.53014631      55.73829381     100.50907313
N      90.01513642      51.74719184      96.90725478
H      90.82204954      50.52642864      98.13179743
H      90.61228992      51.89459049      95.10067642
C      87.40542437      61.28653027      88.52253913
O      88.36918479      63.04019630      89.75464068
N      88.30115464      60.47205823      86.27754427
H      87.72289840      58.68815659      85.92227572
C      90.53859060      61.61534265      85.14370848
H      91.50990993      62.84177502      86.48352444
C      92.59650256      59.60089440      84.74497623
H      94.24245418      60.52875003      83.92483501
C      93.70388217      58.70138467      87.33768073
H      95.25156803      57.34645090      87.24508414
H      92.17887305      57.82644139      88.40915555
H      94.32749186      60.31899040      88.44883980
C      91.50990993      57.46172421      82.95162596
H      90.80126255      58.36879284      81.24331337
H      90.09072546      56.47528707      84.07034394
C      93.56593216      55.40192253      82.27510394
H      92.34138950      53.94116409      81.49464697
H      94.69598849      54.71217242      83.85491514
H      94.75645973      56.01041440      80.70663110
C      89.93198846      62.95515861      82.58879851
O      91.55337364      63.32554496      80.98820032
N      87.43566000      63.69971077      82.17494844
H      86.22056597      63.09499836      83.51665413
C      86.46812013      65.01685001      79.91861523
H      87.49046205      64.32521019      78.26888415
C      83.78092931      64.24962113      79.38571241
H      82.84929424      65.12267468      81.00142840
H      83.58061832      62.21816534      79.65783299
C      82.74535929      65.43636925      76.89505312
O      81.68711255      67.55286272      76.98198054
O      82.75291820      64.04364096      74.91461995
C      87.08417091      67.94214634      79.59358230
O      88.03848268      68.79819236      77.67551009
N      86.67032084      69.25361641      81.66661207
H      85.77459057      68.42024711      83.12926023
C      87.61707373      71.83498255      82.19573543
H      89.06082463      72.30741412      80.80678659
C      85.50435971      73.87777669      81.97652718
H      85.57427957      74.81886040      83.80578225
H      83.63164092      73.07086356      81.68739905
C      86.29426531      75.64467079      79.83357754
H      85.98057074      74.58453434      78.09502933
H      88.13107927      76.40623050      80.36837009
C      84.52359175      77.88399648      79.74853986
O      84.73146164      79.25971723      81.57968465
O      83.18188607      78.47170137      78.02699919
C      88.92665406      72.06174970      84.93772831
O      88.12541010      70.79185363      86.70084296
N      90.88441052      73.56408212      85.26465096
H      91.81604559      74.32375210      83.78121581
C      92.22611620      73.86265889      87.66271366
H      93.91175208      75.04562755      87.62869858
H      92.96499919      72.00883737      88.17293976
C      90.40253030      74.64122613      89.71117698
O      88.58839305      76.23237568      89.25008376
N      90.51591389      73.50739033      91.81255264
H      92.01824630      72.33764976      91.94294376
C      88.59784168      73.68124515      93.90636939
H      86.67410030      73.90045342      93.20906038
C      88.85295473      71.16601943      95.36901756
H      90.82393928      70.75783855      95.81310324
H      88.29359575      69.69770209      94.03865024
C      87.44510863      71.07531257      97.81810286
H      85.52703641      71.74616541      97.47417267
C      87.05582501      68.37678340      98.48328652
H      86.05238034      68.03663266     100.25018063
H      88.81327047      67.30530857      98.45683036
H      85.83128236      67.39412572      97.15102947
C      88.57516496      72.72693338     100.01207511
H      88.00824707      74.70547682      99.93648606
H      90.61417966      72.49827648     100.18026075
H      87.84006143      71.96348394     101.77896921
C      89.23656917      76.17190444      95.25941343
O      91.42865170      76.37977433      95.97372998
N      87.54148467      77.83108414      96.07955465
H      85.73679605      77.45880805      95.57877718
C      87.83817171      80.24426465      97.26819251
H      89.79970762      80.84141815      97.47795213
C      86.62307768      82.36453756      95.66948404
H      86.05238034      84.00859945      96.77119448
H      84.85807331      81.53872716      95.00241066
C      88.37485398      83.27349592      93.51330632
H      90.27969810      83.69679462      94.17282080
H      87.59817646      85.08385373      92.91993226
C      88.40508959      81.43668195      91.26075256
H      86.54748862      80.54851059      91.21728885
H      89.91309119      80.05529201      91.50074780
N      88.80382185      82.79917461      88.79465972
H      89.62585280      84.51504612      88.65670970
C      87.84195116      82.30406632      86.58745938
N      87.06716336      79.98915159      86.23408056
H      86.32639065      79.40144670      84.57868031
H      87.06527364      78.71358634      87.65326502
N      87.83817171      83.85364191      84.57112141
H      87.12574489      83.22625276      82.91761088
H      88.26902929      85.70557369      84.75064541
C      86.56260643      80.31229479      99.86845591
O      84.27792733      80.56551812     100.08199499
N      88.14808681      79.95324679     101.84510964
H      90.02647477      80.16678586     101.57109932
C      87.51313878      80.29717698     104.52096209
H      85.85773853      79.14822338     104.95181969
C      89.66175760      78.89877950     106.10455274
H      90.50079608      77.42479298     104.93481216
H      88.67343074      77.93312936     107.63145161
C      91.79336887      80.47292153     107.30641868
H      90.72945295      81.71447172     108.55930723
C      93.54892462      78.87043361     109.06386415
H      95.24589884      79.81151732     109.75361426
H      94.18009320      77.25660734     107.95270508
H      92.57949501      78.03895404     110.67958015
C      93.30514992      81.98092313     105.37511839
H      92.16375523      83.29806236     104.27907713
H      94.01946646      80.54662086     104.08254559
H      94.75268028      82.90499929     106.51273363
C      87.01425102      83.00137533     105.40535401
O      86.02025499      83.32829798     107.50483994
N      87.70778058      84.94023454     103.88412433
H      88.80760130      84.42811871     102.41013780
C      87.25235654      87.73702947     104.11656066
H      86.48323794      88.03371651     106.00628698
C      89.70900074      89.23747216     103.70649005
H      90.68032007      88.89543170     101.92069869
H      90.93354340      88.56850905     105.21827110
C      89.32916576      92.11174589     103.84821953
H      88.24635259      92.52181649     105.55275266
H      87.91187103      92.75047338     102.49895494
C      91.71211064      93.69155708     103.54586332
H      92.67209160      93.10763165     101.82054319
H      93.13318483      93.44211321     105.01607039
C      90.96377903      96.44299859     103.30019890
H      89.84695078      96.76803152     105.00095258
H      89.49357195      96.57905890     101.86589662
N      93.10294921      98.35918109     102.99406323
H      94.29725623      98.30626874     104.48127784
H      92.62484846     100.19977450     102.80320088
H      94.21977746      97.99257418     101.49173081
C      85.27570282      88.06017268     102.08888433
O      85.37396859      86.91499853     100.04420046
N      83.47857310      89.76281608     102.65202277
H      83.29715936      90.22957849     104.49450593
C      81.60207486      90.75492239     100.86623141
H      80.58540211      89.03527146     100.36356421
C      79.63486977      92.63708981     101.86967608
H      80.83673572      94.01470029     102.81642896
C      78.10230173      93.79360230      99.78530795
H      79.50258894      94.77814971      98.63824408
H      76.67933783      95.22223540     100.20671692
H      77.18200502      92.24969592      98.77619410
C      78.00214625      91.44656222     103.98427982
H      79.22290943      90.59807512     105.40913346
H      76.77004469      89.99903188     103.19437422
C      76.33162818      93.56116597     105.35244167
H      74.87842865      94.43232980     104.17892163
H      77.44467697      95.18066142     105.96471300
H      75.25259446      92.48780143     106.74139051
C      83.00425180      91.64687321      98.43982282
O      84.82783768      93.05282959      98.58533175
N      81.98190985      90.74358403      96.25340948
H      80.44745209      89.64187359      96.50852253
C      82.77370519      91.35585536      93.70416868
H      84.13430812      92.90165149      93.78731664
C      84.09651361      89.21101599      92.35679382
H      85.80860563      88.82362210      93.43015836
H      84.76358699      90.03682639      90.58989972
C      82.78315381      86.77704850      91.55743959
C      83.14976072      86.05139361      88.95528645
H      83.87352590      87.36853285      87.57578625
C      82.13686742      83.79128094      88.06900481
H      82.06883727      83.39065895      86.06967437
C      81.01059054      82.15666767      89.89637016
O      79.98635886      79.95891597      89.05355222
H      79.97879997      79.98915159      87.23941496
C      80.80083092      82.87476367      92.48151575
H      80.04494038      81.50282237      93.79109609
C      81.52081664      85.18400922      93.32622342
H      81.54160362      85.43345310      95.35201002
C      80.54193840      92.31961578      92.05065815
O      78.35930451      92.28560072      92.92938089
N      80.92366312      93.26069949      89.74519205
H      82.68488805      93.29660429      89.01197824
C      79.04338544      93.78604341      87.74208216
H      77.27649134      93.52526117      88.77009328
C      79.11141559      96.43921914      86.81233682
H      78.33095862      96.52047737      84.90749269
H      81.04838506      97.12896926      86.67627652
C      77.44845643      98.28926121      88.24663909
H      78.23647231      98.24579750      90.14959348
H      75.47558216      97.72801250      88.43183227
C      77.75270237     100.91409106      87.22807660
H      76.77949331     101.04826162      85.41582907
H      79.76337116     101.31471303      87.04855260
C      76.70390427     102.94743657      89.04032414
H      77.64876743     102.62807283      90.84123331
H      74.65922040     102.68287489      89.04032414
N      77.39365437     105.63273765      88.19561648
H      76.44123230     106.96121525      89.18016389
H      77.14610022     105.87273290      86.31911825
H      79.24747589     105.93698360      88.52442885
C      78.90921488      91.91143490      85.53677155
O      80.82539736      91.18578000      84.39915631
N      76.76059606      91.09507313      84.77143240
H      75.30172734      91.51459237      85.92605517
C      76.08596375      89.74202909      82.46785602
H      77.35397012      88.13387201      82.24297859
C      73.29294827      88.96535157      82.45462794
H      72.28761388      90.65287718      81.84046689
H      72.70524339      88.54772207      84.38592823
C      73.03216604      86.83563003      80.65938794
O      72.06462616      87.17389103      78.56557119
O      73.60286339      84.68134202      81.40016065
C      76.71335290      91.35585536      80.08302141
O      76.99681184      93.57250432      80.27388377
N      76.92689197      90.12942298      77.84369573
H      76.50359328      88.27182202      77.72653270
C      77.28782969      91.45790059      75.36626454
H      79.01503955      92.57472884      75.51177346
C      77.59774480      89.67021949      73.07780597
H      77.79238663      90.88153406      71.42240572
C      79.86730611      87.90521512      73.41417726
H      80.26414863      86.69956973      71.79279208
H      79.51959648      86.69579027      75.04501106
H      81.47924266      89.16944202      73.63149578
O      75.60597327      88.05261377      72.46931410
H      76.08407404      87.59530000      70.77989878
C      75.07684991      93.32117073      74.83525144
O      75.60030410      95.42632584      74.01511022
N      72.73358928      92.54827266      75.64594403
H      72.50871184      90.77192994      76.30356879
C      70.41111564      94.26225444      75.67240020
H      70.41678483      95.14097716      73.81101978
C      67.89588991      92.86952614      76.25821536
H      66.47103628      94.23390853      76.85347915
H      68.20013586      91.62230677      77.86826218
C      66.91134250      91.49569512      73.73732046
H      68.37021123      90.23335794      73.01544500
H      66.70158288      92.95267409      72.29734901
C      64.40178597      90.20123258      74.39116576
O      64.33186610      88.71023852      76.18640576
O      62.53284665      90.59240594      72.97576075
C      70.69079514      96.46567531      77.43173540
O      69.10342504      98.17398791      77.21252715
N      72.41044608      96.42032188      79.25154184
H      73.63687846      94.95767371      79.36303569
C      72.96791534      98.44988795      80.95229552
H      72.37454128     100.26213547      80.17750773
H      75.01070949      98.63130166      81.12992979
C      71.84919737      98.29870983      83.65838360
O      71.92100697     100.02402996      85.18717219
N      70.87976776      96.02914854      84.33301589
H      71.14621917      94.48902159      83.23886436
C      69.16578601      95.71356425      86.48541416
H      68.44391054      97.56549603      87.02398616
C      66.94724731      94.06572289      85.91471682
H      65.63577725      94.19611401      87.49830747
H      67.45369397      92.08528972      85.66149349
C      65.35231831      94.72523738      83.64704524
C      64.21092361      92.90732067      82.26376558
H      64.25816676      90.95523338      82.86091909
C      62.69158366      93.56494543      80.11325704
H      61.99994383      92.00403149      78.99453906
C      62.21537263      96.04237663      79.44429392
O      60.61666417      96.57905890      77.45441211
H      60.91713065      98.28926121      76.93284765
C      63.42668719      97.82627826      81.04867156
H      63.01472686      99.78592444      80.64804958
C      64.99893948      97.27447817      83.11414242
H      65.65278478      98.89964280      84.16294052
C      70.92134175      94.64208942      88.72473984
O      72.49359404      92.96590219      88.02743083
N      70.76449447      95.46978954      91.10390527
H      69.82907994      97.06093911      91.60090329
C      72.26871661      94.34162294      93.06922064
H      74.23781142      94.54004421      92.49474384
C      72.05139809      95.90442660      95.50696758
H      72.82618587      94.57783872      96.87701916
H      70.02183203      96.14064238      95.77530872
C      73.51593597      98.49335165      95.51641621
C      72.29895222     100.73267732      96.15892316
H      70.32040878     100.48134373      96.58978076
C      73.46302364     103.11940166      95.96239162
H      72.30273168     104.79369918      96.08900329
C      76.04627951     103.18176263      95.50885731
O      77.27838106     105.47022119      95.33311276
H      76.12753774     106.85161113      95.56554910
C      77.43900780     100.94810612      94.87768872
H      79.42888960     101.14085821      94.47517701
C      76.03872061      98.68988318      94.75674624
H      76.95712758      96.92109935      94.31644000
C      71.81518229      91.45979031      93.57188784
O      69.52105454      90.64342854      93.58889537
N      73.69734970      89.86486130      93.71928649
H      75.41322120      90.69445115      93.63991798
C      73.85041753      87.06617663      94.08211394
H      71.88132272      86.61642177      94.48084619
C      74.57418270      85.80950864      91.52909369
H      74.87086974      83.83096518      92.01286363
C      72.52571939      86.00792990      89.52409407
H      70.95535682      84.92889617      90.30266132
H      73.06807084      85.27282637      87.67783147
H      71.65455556      87.87120004      89.38236460
O      76.91555361      86.54839162      90.45005997
H      78.33095862      85.90966413      91.38736422
C      75.67589315      86.08918814      96.17026152
O      77.21979955      87.71246303      96.94693903
N      75.66266506      83.65522063      96.77686366
H      74.37576144      82.66122459      95.77908817
C      77.25003517      82.37020675      98.55320640
H      79.19456354      83.04672876      98.46627899
C      76.05572814      82.84263832     101.17425679
H      75.79116645      84.84574822     101.57298905
C      73.52916405      81.56329361     101.68637262
H      73.60097365      79.54506591     101.28197119
H      72.13265631      82.51004649     100.50340395
H      72.84130369      81.79761967     103.61200374
C      77.91521883      81.90344434     103.32854479
H      78.27237711      79.87387829     103.36822904
H      77.01570911      82.43823690     105.10299780
C      80.38320140      83.33396717     103.54586332
H      80.15454451      85.24448046     104.27529767
H      81.07295150      83.31884935     101.60322467
H      81.66632556      82.38154511     104.84410529
C      77.41444136      79.50349192      97.89747137
O      75.96691101      78.46981163      96.56710404
N      79.41188207      78.25816228      98.88012905
H      80.73091103      79.38821862      99.66814492
C      79.89376229      75.53884612      98.61556737
H      78.11552982      74.62988776      99.12201402
H      81.34129264      74.80563231      99.88168400
C      80.66855007      75.05885564      95.82444160
O      82.43922363      76.17757362      94.78698186
N      79.36463892      73.33542524      94.65848047
H      77.89254211      72.59465253      95.62413061
C      79.24747589      73.04062794      91.85790607
H      80.74980831      74.07997742      90.91115319
C      79.98446914      70.31564259      91.24374502
H      78.41410658      69.03062870      91.59712384
C      80.45501100      69.98683021      88.35624321
H      80.45690072      68.01962513      87.74397189
H      82.31450169      70.73894128      87.89514999
H      79.18889437      71.11499682      87.18650263
C      82.34662704      69.27251367      92.57600207
H      81.99513795      69.55786235      94.58478114
H      83.81116493      70.69925704      92.32466847
C      83.33873335      66.60233039      91.83522936
H      83.96612248      66.56642559      89.87180372
H      81.77970914      65.28519116      92.10357049
H      85.03759730      66.21304677      92.93316034
C      76.58863096      73.97604246      90.80721824
O      74.67244848      72.63433679      91.05666211
N      76.41288642      76.29473665      89.67338245
H      77.93600582      77.43802107      89.81700165
C      74.19434773      77.19802583      88.33356650
H      73.31751472      75.53695640      87.48885884
H      74.52882927      78.41689929      86.70651214
C      71.90777888      78.17123487      89.75275096
O      70.37332112      79.48459467      88.56222338
N      71.72258571      77.66100877      92.23396161
H      73.11909345      76.53662162      92.88969664
C      69.61554087      77.85187113      93.98006872
H      67.97336870      76.76527850      93.38102548
C      70.23726082      77.01094292      96.68993625
H      71.35219935      78.42256847      97.69338093
H      71.22747741      75.21570293      96.48017663
C      68.09242145      76.16245580      98.24896046
N      66.88299661      73.88722533      98.30754198
H      67.49904740      72.32064221      97.40992198
C      65.04618264      73.97415274     100.05931827
H      63.66290298      72.55307855     100.53741903
N      65.00460867      76.26072157     100.97583553
H      63.65534408      77.09031142     102.03975145
C      66.93212949      77.61565534     100.03097237
H      67.33653094      79.58852961     100.35600530
C      69.01838735      80.64299689      94.15392354
O      70.54717594      82.04517382      95.37657647
N      66.98693157      81.37054152      92.92182199
H      66.20647460      80.14977832      91.67838207
C      65.93813346      83.88009807      93.08055900
H      67.37054600      85.25770855      92.54009727
C      63.79140437      84.08607824      91.07555938
H      62.28718223      82.72169584      91.42137929
H      64.72681890      83.52482953      89.32756254
C      62.61032543      86.78838686      90.61446616
H      61.66546227      87.64821233      92.22829243
C      64.41690378      88.92377760      89.89448043
H      63.36432623      90.66421553      89.58078586
H      65.48459915      88.26237339      88.26175690
H      65.83986770      89.37353246      91.31555462
C      60.88500530      86.55217108      88.46584734
H      60.11021751      88.43811793      88.17293976
H      59.40157015      85.22180375      88.98930153
H      62.03773835      86.14965937      86.80666764
C      65.22192718      84.66244477      95.74129364
O      64.26950512      83.21302468      97.38346581
N      65.79829371      87.12286842      96.25718893
H      66.64111164      88.17922543      94.91170379
C      65.22948609      88.36630833      98.71950231
H      64.41879350      86.89988071      99.91947852
C      67.66912276      89.48880576      99.82877166
H      67.05118226      90.67555389     101.39535477
H      68.63666263      90.66421553      98.44171255
C      69.56640798      87.53293903     100.96260745
H      70.51694031      86.34997037      99.56987915
C      71.54873088      88.86141663     102.61800770
H      72.86964958      87.57073356     103.52885578
H      70.82307597      90.25414492     103.95026475
H      72.57674199      90.11241546     101.34433216
C      68.19824612      85.67344834     102.78997279
H      66.65245001      86.49736902     103.87467570
H      69.58908469      84.67756257     103.93514694
H      67.48959877      84.13899057     101.61267330
C      63.05819056      90.24469629      98.40202829
O      60.99649916      89.97068597      99.46594421
N      63.28495772      92.00214177      96.56521432
H      64.78162095      91.99647258      95.37846619
C      61.13066972      93.63297558      95.84522859
H      59.51117427      92.43677881      95.39925318
C      60.27084425      95.51703270      97.92014808