 %block lattice_cart
   137.793   0.000   0.000
   0.000 143.498   0.000
   0.000   0.000   162.326
 %endblock lattice_cart

 %block positions_abs
N      84.96862229      35.04012151      85.30339035
H      84.70217088      34.97020164      87.19122694
H      86.59378692      34.10659671      84.93111427
H      83.44739261      34.58658719      84.24514362
C      85.34656756      37.77455548      84.61552997
H      87.21550688      38.37737818      85.23347048
C      85.28420659      38.16950828      81.83007339
H      83.40581863      37.89360824      81.03071916
H      86.75441366      37.05268003      80.91733558
C      85.93805189      41.10047380      81.45590758
H      84.24863657      42.17572807      81.93778779
H      86.23473892      41.18740121      79.41878261
S      88.95027564      42.22864040      83.04327768
C      89.09200511      45.56400735      82.30439469
H      87.34967745      46.51831914      82.85241532
H      89.34144898      45.78321560      80.27104918
H      90.52630738      46.62981299      83.33240581
C      83.21117682      39.16350433      85.96857401
O      81.09279363      39.39405094      85.07662319
N      83.78376390      40.16316954      88.19278188
H      85.61112924      40.14427228      88.74458197
C      82.03765678      41.28755670      89.93133009
H      80.35202091      40.14049283      90.21667877
C      83.31133232      41.69006841      92.54482158
H      84.83445173      43.07712752      92.52781405
H      84.12580436      39.95529965      93.29504293
C      81.33278887      42.77666104      94.45911434
O      79.02165359      42.87303708      93.93754988
N      82.12647392      43.56089746      96.64741741
H      80.73563535      44.16183042      97.80959909
H      83.98596461      43.51932348      97.07638528
C      81.00964567      43.92372491      88.89198062
O      82.51008836      45.57912516      88.33073191
N      78.49441995      44.24875783      88.85607582
H      77.54577734      42.65004937      89.29071287
C      77.26042866      46.48052461      87.91310239
H      78.16371784      46.92083084      86.11408294
C      74.42394947      45.99486495      87.45389890
H      74.16883642      44.38292840      86.19723090
C      72.81957183      45.55266899      89.81794651
H      71.23409145      44.37536950      89.22457245
H      72.12793200      47.24208431      90.77603775
H      73.75120690      44.28655236      91.15020356
C      73.10869995      48.15293240      86.10463431
H      72.74776223      49.79888401      87.28949271
H      71.29456269      47.36680625      85.53582669
C      74.24820492      48.93905854      83.64232092
H      75.01732353      47.29310692      82.67289132
H      75.75620652      50.31666902      83.90877233
H      72.80067457      49.79132511      82.44990362
C      77.56656433      48.78977016      89.52881839
O      77.83112601      51.01019858      88.68977990
N      77.74608833      48.34757421      91.97223451
H      77.06578685      46.60524655      92.35395923
C      78.27332197      50.09746077      93.86951973
H      77.42861431      51.89648022      93.33094773
C      77.28310538      49.20928940      96.37907627
H      77.82734656      50.68327593      97.70944360
H      78.15615894      47.39137269      96.79859551
C      74.37292686      48.81433661      96.68521194
C      72.69296017      50.79476978      97.18220996
H      73.47908631      52.65237075      97.48456617
C      69.99065154      50.39603753      97.01780377
H      68.71697600      51.90970831      97.51858124
C      69.10625962      47.88270153      96.91764827
H      67.09559083      47.53310217      96.85906676
C      70.84858728      45.88904027      96.46789341
H      70.14938855      43.98041670      96.26002351
C      73.46396850      46.36147185      96.37340709
H      74.86425570      44.90449286      96.08805842
C      81.06822718      50.72107046      94.10762524
O      81.96773691      52.10246039      95.71956179
N      82.52142672      49.97084911      92.21222975
H      81.90915539      48.75197564      90.87619325
C      85.18027164      50.82500540      92.10451535
H      85.46562032      52.44072140      93.35173472
C      86.82055408      48.35891256      92.65631544
H      88.75752355      48.70851193      92.04404411
H      85.89080874      46.89437467      91.54515636
C      86.93393766      48.02443101      95.52869943
H      84.97429147      48.01120292      96.16742693
H      87.82588848      49.70250797      96.32805366
C      88.56288174      45.75109025      96.14097076
O      87.45361240      44.03899821      97.44110246
O      90.90992182      45.54133063      95.66098027
C      85.66404158      51.86435487      89.43811152
O      87.22117606      53.60101336      89.24724917
N      84.19005505      51.01397803      87.60318727
H      83.03732200      49.52298397      87.89987431
C      84.14470162      52.23852068      85.03693894
H      86.01175122      52.11757820      84.17522374
C      82.25497531      50.76453416      83.44578939
H      80.38225653      51.23318629      84.16955456
H      82.63481030      48.78221126      83.85963945
C      82.29276984      51.52231441      80.56395676
H      83.87069131      50.90815336      79.39421617
H      82.02442870      53.56321883      80.47324990
S      79.62825573      50.35257382      78.80840101
C      79.75297767      52.46339812      76.07585677
H      78.09757742      52.41048578      74.85131411
H      81.43483409      52.10057066      74.94202098
H      79.73408041      54.38147032      76.82607811
C      83.54565838      54.98240329      84.90276837
O      84.94783531      56.48095626      83.90121343
N      81.40081902      55.73829382      85.86463907
H      80.25942432      54.37013197      86.55249944
C      80.57122916      58.32910859      86.05928088
H      80.91704908      59.27019230      84.26026143
C      77.70073489      58.48217642      86.44856450
H      77.17350125      60.47205823      86.51848437
H      77.04877932      57.64880712      88.21545860
C      76.30422715      57.16503718      84.38876282
H      76.88248340      55.19594236      84.22246690
C      73.47530686      57.32755365      84.86497385
H      72.43028821      56.38269049      83.36264143
H      73.08791296      59.34578135      84.71946492
H      72.86303553      56.52441996      86.66210357
C      76.68406214      58.59367028      81.81495558
H      78.49253022      58.14958459      80.93245339
H      76.38926483      60.63457469      81.80928640
H      75.33668728      57.86801537      80.43734510
C      82.32867464      59.83711019      87.76003456
O      82.01309034      62.14068656      87.82239553
N      83.87825021      58.58422164      89.24913889
H      83.92549337      56.68126725      89.39086837
C      85.36168537      59.83711019      90.98768710
H      84.50185990      61.65124745      91.44500087
C      85.24074288      58.16092295      93.33661691
H      86.66559652      56.68504670      93.14575455
H      83.49463577      57.07433032      93.48590529
C      85.78876351      59.65380674      95.75357686
H      84.22595985      60.95204871      96.08049952
H      87.66337202      60.50607330      95.66664945
C      85.86435257      57.99084758      98.14408065
H      84.14281190      56.87401933      98.31604574
H      86.32922524      59.05287377      99.84672406
N      88.00163303      56.27119664      97.83227581
H      89.21861677      56.67559807      96.42065025
C      88.88413522      54.50997171      99.36295412
N      88.03186865      54.17171070     101.64385378
H      88.94460646      52.86968927     102.70021079
H      86.39158621      55.03909508     102.08793946
N      90.71528001      53.03976464      98.84894856
H      91.53353151      52.05899668     100.26624330
H      91.51463424      53.24196536      97.12929762
C      88.04887618      60.53819865      89.89920475
O      89.58711340      61.62479128      91.15398302
N      88.40981391      59.82766156      87.58806946
H      87.18905071      58.73539975      86.61108096
C      90.49040258      60.84622404      86.12164185
H      91.28786709      62.54697772      86.96634951
C      92.68248510      58.82799634      85.65487945
H      94.34733399      59.87301499      85.03882867
C      93.74829074      58.06076746      88.27404012
H      95.59266363      57.14802965      88.18711271
H      92.57477070      56.68504670      89.25480807
H      94.00340380      59.67081427      89.53259784
C      91.85856443      56.36001377      84.30939431
H      90.01419155      55.77797807      85.01993141
H      93.30231534      55.01641836      84.90654783
C      91.77541647      56.49985352      81.45779731
H      91.56376713      54.61768611      80.65088417
H      93.46105235      57.55621053      80.92489448
H      90.07088334      57.56943861      81.02127053
C      89.60412094      61.81943309      83.55350379
O      91.12535062      62.91547435      82.11353234
N      87.17582263      61.51707688      82.98091671
H      86.08734027      60.41347671      84.09585524
C      86.19127522      62.69626610      80.67356089
H      87.31944183      61.87612488      79.15800038
C      83.41337754      62.10478176      80.34852796
H      82.31544655      62.84555448      81.92644943
H      83.15259531      60.06198762      80.31073343
C      82.47418356      63.18759494      77.92211937
O      81.50475396      65.30219869      77.92589883
O      82.68205346      61.90258105      75.88499441
C      86.65425817      65.60833435      80.60931019
O      87.95627960      66.43225502      78.83485718
N      85.88513956      66.96704757      82.57273583
H      84.91948941      65.86344740      83.79349903
C      86.47851362      69.56731097      83.29083183
H      87.78242477      70.34587822      81.89999326
C      84.00675160      71.14523245      83.35508252
H      84.56800032      73.00661286      84.03727372
H      82.75008360      70.37800356      84.79505397
C      82.40048424      71.53262634      80.89465886
H      80.72051754      72.60032171      81.42945141
H      81.63703480      69.81297540      80.05751011
C      84.06722284      73.06897383      78.98603529
O      84.92326886      72.13922849      76.96969731
O      84.58311813      75.27428444      79.49248194
C      87.84667547      69.61077468      85.96668429
O      87.32700073      68.16513405      87.69578386
N      89.21861677      71.65923800      86.49391793
H      89.62301820      72.72693337      84.96512934
C      90.24851761      72.40756962      89.04693818
H      91.32944106      74.15178701      88.86174500
H      91.74140140      71.10176874      89.60440744
C      88.34178376      72.59465253      91.21823371
O      86.73551640      74.22737606      90.96690011
N      88.59122764      71.29452082      93.36118335
H      89.78175521      69.80352676      93.28181485
C      87.17015345      71.64978937      95.78948166
H      85.19538945      71.88978461      95.25090966
C      87.60101105      69.07598213      97.33716751
H      89.62112848      68.67347043      97.30504217
H      86.90559177      67.64167986      96.03136663
C      86.71850886      68.70181632     100.10750629
H      87.61423913      70.02084529     101.41141744
C      83.89903720      69.11944584     100.48923100
H      83.30377341      68.66969098     102.40919294
H      82.86724663      68.22560529      98.94532461
H      83.65148305      71.14334272     100.19632342
C      87.50274528      66.11100155     101.02213382
H      89.45105311      65.68581313     100.51001799
H      86.25174646      64.77496505     100.07727067
H      87.01519589      66.10722210     103.02146426
C      88.02430974      74.10076440      97.13118735
O      90.33166557      74.60532133      97.08961337
N      86.19127522      75.45002899      98.17431627
H      84.40359413      74.83208848      97.90975459
C      86.70717050      77.82163551      99.50468359
H      88.71028039      78.16745543      99.83727543
C      85.53365046      80.03450502      98.08738886
H      85.40325935      81.64833129      99.35917467
H      83.60801935      79.53561728      97.54881686
C      87.00385753      80.89055104      95.69499535
H      89.02397496      80.78283664      96.07672006
H      86.38780676      82.79728489      95.21500486
C      86.46528553      79.33908574      93.24024087
H      84.44894756      79.02917062      92.95300247
H      87.48006856      77.56274301      93.48212583
N      87.47628911      80.60142292      91.05760698
H      88.80476671      81.95824641      91.25035906
C      86.57299993      80.35197904      88.64631620
N      85.47695867      78.27705955      88.00758871
H      84.97429147      77.99738006      86.18778227
H      85.72640255      76.85220591      89.25291835
N      86.65614789      81.92045188      86.89076045
H      85.54309909      81.58030115      85.37708968
H      87.49140692      83.57207268      87.35752285
C      85.58467307      77.87832730     102.07849083
O      83.36991383      77.19046692     102.55470186
N      86.95850410      78.87610279     103.88506919
H      88.41548309      79.90222418     103.19720881
C      86.18938549      78.91767677     106.59871617
H      84.31099754      78.08241774     106.76123264
C      88.17359812      77.39077791     108.04246708
H      88.71594957      75.65222970     107.07870666
H      87.11346166      77.09787033     109.78479474
C      90.59433753      78.83074936     108.80969596
H      90.14458267      80.48992906     109.94353175
C      92.19682544      77.27550461     110.60493596
H      91.13290953      76.34764899     112.10348892
H      93.56876675      78.70035825     111.18319221
H      93.34199959      75.72970848     109.87172215
C      92.17036927      79.73592827     106.62139289
H      91.22928557      81.33652645     105.72755234
H      92.50674056      78.08619719     105.43842422
H      93.92403529      80.51449551     107.36972451
C      85.70750528      81.65589020     107.53979988
O      85.59979088      82.16611630     109.76589747
N      85.56388608      83.38687950     105.64629411
H      85.58089362      82.55728965     103.92664317
C      85.57900389      86.08540868     105.69353727
H      85.00452709      86.84129920     107.52090261
C      88.45138789      86.78649714     105.23244405
H      89.03342359      85.67344834     103.60161024
H      89.67782027      86.34997036     106.83115251
C      88.63658107      89.70612429     104.70332068
H      87.84856520      90.51870661     106.42297163
H      87.43471513      90.28438054     103.13295812
C      91.22550612      90.71334842     104.20821239
H      92.07966241      89.52093111     102.76068203
H      92.27619395      90.23713739     105.91274552
C      91.61478974      93.58384269     104.13073361
H      90.63024233      94.56083119     105.65196329
H      90.75685399      94.33217431     102.41486212
N      94.34733399      94.03170782     103.95309934
H      94.56654224      95.92521359     103.86806165
H      95.20715946      93.41565704     102.36383951
H      95.26007180      93.27392757     105.44787285
C      83.64959333      87.14554514     103.56381571
O      83.64392415      86.18367445     101.41330717
N      82.14726091      89.08251461     104.17797677
H      82.27387257      89.65321196     105.99400375
C      80.38981544      90.14265107     102.42431075
H      79.24275157      88.54205288     101.81581888
C      78.77409944      92.25536509     103.66019176
H      80.29154967      93.55927624     104.14963087
C      76.79933544      93.53659953     101.94243054
H      78.02009864      94.32461540     100.48167210
H      75.99809149      95.20522786     102.84760944
H      75.57857225      92.35363086     100.78024886
C      77.30011292      91.42955469     106.02612910
H      78.48119186      90.06517229     107.02012514
H      75.61636677      90.45256619     105.35338653
C      76.49508951      93.51770227     107.83837663
H      78.25064525      94.09406879     108.74544526
H      75.28566467      92.92243848     109.39362139
H      75.49164484      95.07105730     106.93130800
C      81.57467384      91.12908821     100.01301997
O      83.32456040      92.50669869     100.00924052
N      80.47674285      90.15020998      97.90597513
H      78.76465081      89.31117149      97.95321829
C      81.27231763      90.75303267      95.33783707
H      82.48552192      92.39709456      95.59106040
C      82.98629939      88.69512072      94.35517939
H      84.06344339      88.15843844      96.02569745
H      84.15037080      89.53037975      92.87552369
C      81.91293485      86.18178472      93.39330870
C      81.64837316      85.89454632      90.76847885
H      81.84679443      87.56317465      89.61196635
C      80.93027716      83.57774186      89.62897388
H      80.65437712      83.49837335      87.60885645
C      80.47674285      81.55384498      91.27492550
O      79.83801535      79.17278982      90.31494453
H      79.89848660      79.14822338      88.50269700
C      80.35391064      81.89966489      93.96589577
H      79.79833110      80.39166330      95.22256377
C      81.00397649      84.34686047      95.05626785
H      81.16460323      84.41678034      97.08961337
C      79.08779401      91.49191566      93.60495805
O      76.88626285      91.53348964      94.33439240
N      79.82289754      92.39520484      91.41854470
H      81.68049851      92.68244324      91.09918095
C      77.95962740      93.11519056      89.39842727
H      76.13604151      93.62730639      90.20723013
C      79.06322757      95.64175464      88.28159902
H      77.87081026      96.01969990      86.64320631
H      81.06255801      95.52459161      87.79971881
C      78.77031999      97.98879472      89.90298420
H      80.17816609      98.06060432      91.40153716
H      76.88815258      98.24768723      90.70044870
C      79.42605502     100.30370946      88.27781957
H      78.11836441     100.29615055      86.68667001
H      81.31389161     100.42276221      87.46145780
C      78.58701654     102.66586735      89.84818213
H      80.18761472     103.24979278      91.00469464
H      76.78799709     102.33894469      90.79682474
N      77.96718631     104.89385467      88.30994492
H      79.36747350     105.45888284      87.14209405
H      77.37003279     106.33949530      89.40031700
H      76.64815734     104.38929774      87.02493102
C      77.67238900      91.04594025      87.32728723
O      79.53187969      89.90643528      86.41265970
N      75.29133385      90.63964909      86.53927136
H      73.99309187      91.76970543      87.36319203
C      74.50331797      89.47746741      84.06184016
H      75.21952425      87.56506438      83.79160930
C      71.63282370      89.58707153      84.13553949
H      70.85236674      91.41821633      83.60074694
H      70.74654206      89.37542219      85.98180210
C      70.24198514      87.56506438      82.51415431
O      70.44418585      87.69167604      80.19546013
O      69.19885621      85.68667642      83.68389490
C      75.62581540      91.01003545      81.81873503
O      76.09257780      93.27203785      82.13809878
N      75.53321881      89.80250033      79.57940935
H      75.03433107      87.96190691      79.67200594
C      76.04722437      91.21601562      77.27016380
H      77.90104588      92.10418698      77.42701108
C      76.26454290      89.58707153      74.83430658
H      76.61036281      90.80972446      73.21292140
C      78.24497607      87.52349040      75.34264296
H      78.70417957      86.42555941      73.66078654
H      77.61002803      86.31217583      76.88088017
H      79.98730373      88.41544122      75.98137045
O      74.13104189      88.04316514      74.31274212
H      74.04978366      87.82206716      72.51183294
C      73.97986378      93.12841865      76.76560687
O      74.60347347      95.15231553      75.80751563
N      71.61959562      92.60307473      77.47614396
H      71.40416682      90.87397515      78.25282148
C      69.45585899      94.28871060      77.23047954
H      69.84703234      95.10885182      75.38232721
C      66.91606683      92.90921039      77.07552199
H      65.45341866      94.35863048      77.00182266
H      66.73843255      92.09284863      78.95957912
C      66.69307912      91.14609574      74.69824628
H      64.85059597      90.24091684      74.87399083
H      68.09714577      89.69289621      75.10075799
C      66.98220725      92.46701444      72.23026372
O      65.05279668      92.96779191      70.84509433
O      69.17617950      93.25125086      71.64255884
C      69.42751310      96.34284310      79.26382506
O      67.74187723      98.02469952      79.12776476
N      71.22275309      96.37496845      81.09496985
H      72.66461427      95.12396963      81.13276438
C      71.56290383      98.41209342      82.92233520
H      70.63315848     100.03914777      82.06439945
H      73.57546235      98.70689072      83.24736812
C      70.31379474      98.10784748      85.56228286
O      70.13427074      99.90497720      87.08729199
N      69.20830484      95.83072727      86.07250896
H      69.32546788      94.43421953      84.77804644
C      67.87982725      95.25058129      88.44978466
H      67.02378123      96.97968087      89.16599094
C      65.88805571      93.24747140      87.64287153
H      64.53879112      93.05471932      89.18677793
H      66.62126952      91.34262728      87.36697149
C      64.37249521      93.68021873      85.26559583
C      63.53156700      91.56372526      83.84641136
H      64.06446982      89.69667566      84.47191077
C      62.28434763      91.81505886      81.45590758
H      62.02734485      90.17855587      80.26349028
C      61.79868797      94.30004896      80.61875882
O      60.54579943      94.61563325      78.38321259
H      60.30391446      96.41087325      78.29061600
C      62.43174629      96.41654243      82.07006863
H      62.03868321      98.24390777      81.24803768
C      63.38038890      96.10284786      84.50025667
H      63.60526633      97.77147620      85.65298972
C      69.86403987      94.19233456      90.33762125
O      71.59880863      92.94889465      89.45133961
N      69.12893634      94.25091608      92.73946339
H      67.47542582      94.96901207      93.36496280
C      70.90149962      93.20400770      94.66320478
H      72.78744648      93.53282008      93.90542453
C      70.74087288      94.78003944      96.98945787
H      71.52132985      93.90509616      98.68643210
H      68.82280068      95.17310252      97.63007509
C      72.18840324      97.27069872      96.60017425
C      70.70307836      99.51569358      96.47167286
H      68.66784312      99.46845043      96.32805366
C      71.86148059     101.84194667      96.49623930
H      70.99598594     103.65986339      96.83072086
C      74.53544332     102.08194192      96.02002827
O      75.45385031     104.42331282      95.64208301
H      74.08379873     105.58927395      95.40586722
C      76.02643738      99.76135800      96.28270023
H      78.05789317      99.75001965      96.09939678
C      74.82646117      97.40675902      96.70032975
H      75.85069283      95.64364437      96.80237497
C      70.33836118      90.45823537      95.37185215
O      68.27289032      89.96312707      96.43576806
N      72.31501490      88.87653444      95.30193227
H      74.04411448      89.65321196      95.08839320
C      72.14304981      86.19312308      95.71011316
H      70.42528859      85.78116274      96.76458044
C      72.00887924      84.84007904      93.12685729
H      71.35881339      82.89933011      93.34795527
C      70.18718307      86.02115798      91.26169742
H      71.09047225      87.59152055      90.28281919
H      68.33525129      86.45201558      92.05349274
H      69.98876181      84.81173314      89.60629717
O      74.44284673      84.87976329      92.05160302
H      75.49164484      85.95312783      93.07205522
C      74.45607482      85.26526746      97.40708739
O      76.36847784      86.54650190      97.89274705
N      74.19340286      82.88799176      98.19321353
H      72.69484989      81.86376009      97.60361892
C      75.82234694      81.58030115      99.92420284
H      77.67427873      82.43067799      99.61239799
C      74.93228585      82.23225672     102.53391487
H      74.76787966      84.28449950     102.46777445
C      72.27911010      81.31573946     103.12161976
H      71.96919499      79.28995286     102.90619096
H      70.83157975      82.01871765     101.83282641
H      71.64605179      81.85809091     105.00378717
C      76.68217241      81.70502308     104.82048371
H      76.50831759      79.73025909     105.38362215
H      75.84124420      82.71791639     106.40407436
C      79.40526803      82.68768077     104.45954599
H      79.55266668      84.38843445     103.30492321
H      80.66760521      81.16645108     103.87940001
H      79.95895784      83.11286919     106.39651546
C      75.74675789      78.66445345      99.36673357
O      74.13104189      77.98415197      97.89652650
N      77.31523073      77.20747446     100.42875976
H      78.24875553      78.08052801     101.84605450
C      77.63837393      74.57697543      99.98467408
H      75.73919898      73.77951093      99.99979189
H      78.77787889      73.79462874     101.51346266
C      78.90638028      74.29918566      97.37685177
O      80.99830731      75.31396869      96.76269071
N      77.32278963      73.02928958      95.82916592
H      75.89982572      72.03340381      96.62096124
C      77.30578210      73.54518486      93.15709291
H      78.54733228      75.13633442      92.76214011
C      78.21663018      71.39656605      91.43744196
H      76.64437789      70.12100078      91.04815834
C      78.99519742      72.51528402      88.82017102
H      79.43172420      71.15846053      87.33484614
H      80.55233190      73.79084928      89.25669780
H      77.36625334      73.52250815      88.06050104
C      80.35013119      69.98116104      92.63552845
H      79.59990984      69.07598213      94.32494377
H      81.80522045      71.36444070      93.09662167
C      81.65593207      67.91569018      90.80249392
H      80.18572500      66.53996942      90.37352605
H      83.29054533      67.11066677      91.76625434
H      82.24174723      68.83409717      89.05449708
C      74.67528307      74.50327610      92.22167838
O      72.82524101      73.06897383      92.24624483
N      74.56756867      77.01661210      91.84940230
H      76.22485864      77.94824717      91.69255502
C      72.50209781      78.20147050      90.42454866
H      72.23375667      77.19046692      88.64820593
H      73.15405339      80.12710161      90.08817738
C      70.01710771      78.54918014      91.78704133
O      68.20486017      79.52427892      90.52848361
N      69.84514261      77.82730469      94.26636225
H      71.15850240      76.77283741      95.16209253
C      67.37149087      77.98037252      95.55326587
H      65.87482763      77.22448200      94.35517939
C      67.48298472      76.53095244      97.94565939
H      68.72453491      77.32841694      99.38374111
H      68.31257457      74.67902065      97.58850111
C      65.07358367      75.64278107      98.87729446
N      63.74699580      73.33731497      98.39352452
H      64.39517193      71.82175447      97.42976410
C      61.32058721      73.49983143      99.26090890
H      60.05258086      71.90112297      99.20799656
N      61.08437142      75.85254069     100.41742140
H      59.45920680      76.43835585     101.22622427
C      63.33503546      77.03172991     100.20577206
H      63.52967727      79.04428843     100.48923100
C      66.66851268      80.63354826      96.09939678
O      68.21619853      82.03383546      97.06693665
N      64.31580342      81.42345386      95.53814806
H      62.96842856      80.20835984      94.95422263
C      63.54857454      84.17489537      95.80648920
H      65.09626039      85.31062089      95.05815758
C      61.36972010      84.63976805      93.99991084
H      59.77668082      83.68734599      94.89186166
H      61.70420166      83.97080493      92.07994891
C      60.50422545      87.41766573      93.89408617
H      60.30202473      88.16221789      95.80270975
C      62.37316477      89.07117625      92.50702706
H      61.81758523      91.05160943      92.60151337
H      62.77756620      88.54772206      90.55682950
H      64.24210409      89.02204337      93.37441143
C      57.89451341      87.45923971      92.61663118
H      57.18964549      89.39431945      92.69788941
H      56.59627143      86.12887238      93.50669228
H      57.96821273      87.00003621      90.61163157
C      63.19330599      85.11408935      98.53525400
O      61.60971534      84.04639399      99.96199736
N      64.52934249      87.17956021      99.00579585
H      65.53845634      87.94300964      97.57338330
C      63.88683555      88.78204813     101.17898111
H      63.06858405      87.72002194     102.74556422
C      66.32458249      90.06895174     102.22588948
H      65.84270228      91.28404576     103.81514931
H      67.12960590      91.20278753     100.70465980
C      68.21430880      88.15654872     103.09705332
H      68.67918148      86.86586564     101.56259555
C      70.48575983      89.91021473     103.96632742
H      71.81423743      88.67433373     104.93764674
H      69.72986931      91.29727385     105.28913584
H      71.26621680      90.71523814     102.23911757
C      67.34503470      86.55406080     105.34015845
H      65.61782485      85.53549832     104.86583714
H      66.97653807      87.66333015     107.03713268
H      68.76421916      85.19156813     105.95431950
C      61.86671812      90.79649638     100.31915564
O      59.67463560      90.61697238     100.91819888
N      62.67174153      92.65787679      98.84138966
H      64.33281096      92.28182126      97.98156419
C      61.31680776      94.92176892      98.26124368
H      59.35716157      94.38697637      97.92487240
C      61.50955985      96.73779590     100.46655429