 %block lattice_cart
   137.793   0.000   0.000
   0.000 143.498   0.000
   0.000   0.000   162.326
 %endblock lattice_cart

 %block positions_abs
N      88.54870879      39.45546703      77.67551010
H      88.17832243      37.94368599      78.77911026
H      90.18521178      39.02838888      76.78733872
H      87.06716336      39.34586291      76.47742362
C      88.61295949      41.70802079      79.13626853
H      90.24190357      41.20913305      80.29467077
C      89.11562668      44.15899583      77.64338475
H      87.28448189      44.79583360      76.94607573
H      90.26647001      43.83585263      75.96719751
C      90.44221455      46.29060711      79.17973224
H      92.11273262      45.56873165      80.14727212
H      89.15531094      47.00303392      80.62159342
S      91.52124828      49.16110138      77.63393611
C      94.07048909      47.72868883      75.74798925
H      95.26290638      46.72146471      77.09158466
H      95.11361801      49.13464520      74.66139662
H      93.19554580      46.50792564      74.33825343
C      86.23001460      41.86675781      80.81245578
O      84.19288964      41.59841667      79.76365766
N      86.71000509      42.61319970      83.16516504
H      88.54870879      42.66800176      83.67161169
C      84.82216850      43.59018821      84.86402899
H      83.29715937      42.21635717      84.68450499
C      85.90120223      43.32751624      87.63058831
H      87.45833672      44.64654522      87.90459863
H      86.66276194      41.42645158      87.86302464
C      84.01714510      43.89821360      89.66393383
O      81.80994476      44.52938219      89.11402347
N      84.68988767      43.44089983      92.06199652
H      83.53526489      44.11364239      93.42637892
H      86.43599477      42.81729015      92.51742056
C      84.12485949      46.33218109      84.18372752
O      85.79159811      47.87797720      84.11569737
N      81.71923790      46.94445242      84.03254940
H      80.43233428      45.56495220      84.31600835
C      80.83862543      49.45211923      83.53744111
H      81.68711255      50.10029536      81.77621620
C      77.93222637      49.22535208      82.92328007
H      77.83962978      47.76081417      81.47763944
C      76.15966309      48.47891017      85.30433521
H      77.15176940      47.14098395      86.51942924
H      74.33796693      47.87797720      84.54844470
H      75.65699589      50.16832550      86.36825113
C      76.99492211      51.68955519      81.47952917
H      78.53126961      52.10718470      80.16994883
H      77.08184952      53.19377732      82.88548554
C      74.40599706      51.59317914      80.18506663
H      74.47213749      50.39887212      78.50698967
H      73.80317437      53.43377258      79.48586791
H      73.03027631      51.16421127      81.65527370
C      81.39609470      51.33050719      85.55188936
O      81.76459134      53.60762739      84.97174338
N      81.69656118      50.39887212      87.84601711
H      80.87830969      48.71890541      88.23341100
C      82.73969010      51.86718946      90.00786401
H      81.99702767      53.78715139      90.07211471
C      82.18600029      50.78437627      92.67426783
H      83.28204156      51.95978605      93.96117145
H      82.76236683      48.81339173      92.83489458
C      79.55361154      51.07728386      93.73251457
C      79.15298956      52.85740605      95.53720320
H      80.68555760      53.97612403      96.28931427
C      76.79272140      53.33361708      96.61623692
H      76.69445563      54.60162343      98.21494538
C      74.63654367      52.07505935      95.62791006
H      72.78461189      52.16009703      96.48584582
C      74.97669441      50.24769400      93.65881524
H      73.39499349      49.13464520      93.00874939
C      77.41444135      49.86596929      92.62513495
H      77.84907841      48.32773208      91.35523887
C      85.62908164      52.46623270      89.87180371
O      86.52859136      53.87785826      91.53476287
N      87.08984009      51.50625174      87.97640823
H      86.04671115      50.46123307      86.76509366
C      89.68065486      51.90120454      87.50586637
H      90.49323718      53.02559168      89.02898579
C      90.82015983      49.36519182      87.29610675
H      92.72689367      49.69778365      86.59123883
H      89.78836926      48.11041355      86.03187985
C      91.11495713      48.04616286      89.75464068
H      92.21477785      46.31706327      89.55621942
H      89.44443906      47.33373604      90.72407028
C      92.80059300      49.59762815      91.51208616
O      92.30359497      49.83384394      93.84967760
O      94.70921657      50.63319818      90.70706275
C      90.10206383      53.33172735      84.98497147
O      91.59683734      55.05704748      84.97363311
N      88.28414711      53.00858415      83.27854862
H      87.05771474      51.58750996      83.61680963
C      87.87029705      54.37674601      80.86725784
H      89.61073498      54.11407404      79.79956246
C      85.55349259      53.22212323      79.54066997
H      83.86596699      53.46967738      80.69340302
H      85.51569806      51.19444689      79.18351170
C      85.06594320      54.60729262      77.10859219
H      86.50969410      53.99880074      75.77066597
H      85.20389323      56.66142512      77.18040179
S      82.01592494      53.72290069      75.88215983
C      81.81939340      55.34806532      72.82458265
H      82.98535453      54.30304668      71.48665641
H      82.51292295      57.28881424      72.79245730
H      79.82573213      55.48223590      72.32191545
C      87.40542437      57.14519504      81.54566958
O      88.83405747      58.69477063      80.70474137
N      85.69144261      57.58550127      83.33901986
H      84.79193288      56.01891817      83.95507063
C      84.72957191      60.22355921      84.11569737
H      84.70122602      61.35172583      82.39037724
C      82.00647629      60.31615580      84.89804406
H      81.54916253      62.25312528      85.43472633
H      81.82884203      59.17854057      86.60824637
C      80.13564725      59.38263100      82.84769101
H      80.41154730      57.36440330      82.54722453
C      77.41633108      59.88718793      83.85113569
H      77.35208038      61.72400190      84.78655020
H      76.96090704      58.58138704      85.37803455
H      76.12564801      59.53947829      82.28266285
C      80.14887533      60.66197571      80.31734748
H      79.82762186      62.69721096      80.33813446
H      78.78638267      59.96655644      78.93595754
H      81.92521806      60.18387497      79.38949186
C      86.60984960      61.72967108      85.92227573
O      86.09017486      63.88962826      86.60068746
N      88.68665882      60.49001062      86.71596077
H      89.06082462      58.72500625      86.10179973
C      90.61417966      61.73156081      88.20506511
H      89.63908088      63.19609870      89.27842965
C      91.96722370      60.06482220      90.08534280
H      93.59238833      60.99267783      90.94516827
H      92.77791629      58.52469525      88.98174262
C      90.28725701      58.99523711      92.14514447
H      88.61295949      58.09950683      91.34579025
H      89.37640891      60.38796541      93.36212821
C      91.74045653      57.11306971      93.79676527
H      93.36184171      58.00124107      94.70194417
H      92.56059776      55.75246676      92.48718494
N      89.94710627      55.73356949      95.45594497
H      89.86206859      53.85707127      95.11201478
C      88.57705468      56.54237235      97.37968636
N      88.56004716      58.85161790      98.00329604
H      87.71344976      59.37696182      99.63224012
H      89.89230421      59.95332835      97.19638290
N      87.09928872      55.07027555      98.66281052
H      86.15820500      56.03970515     100.01207512
H      87.10684762      53.23913076      98.12612825
C      92.44721417      63.27168776      86.54021622
O      93.46010748      65.14062707      87.33957046
N      92.66642244      62.56681984      84.04766722
H      91.77258188      60.93598603      83.61303016
C      94.30103569      63.80459058      82.11447721
H      95.05125704      65.55447714      82.89682389
C      96.56114836      62.15863896      81.54566958
H      97.60616701      63.18476035      80.09624949
C      98.42630823      62.28714034      83.66027333
H     100.26123248      61.41597651      83.30878424
H      97.64396154      61.52369092      85.40827017
H      98.66063429      64.32804477      83.77932608
C      96.25123324      59.33160840      80.48931257
H      95.21755296      58.28658975      81.93306347
H      98.14662873      58.58894595      80.17750774
C      94.68276040      58.82516175      78.21408209
H      95.63896193      59.58861117      76.55679211
H      92.90830739      59.87018040      78.17439783
H      94.37662475      56.80504432      77.96463821
C      92.89129986      64.94787500      79.85625425
O      94.04214319      66.20076355      78.28589170
N      90.34205907      65.05936884      79.89215905
H      89.26491506      64.07293171      81.12237088
C      89.15342121      66.41997180      77.74920941
H      90.20032959      65.79447239      76.09002972
C      86.43032559      65.50723398      77.37126416
H      85.19066514      66.31036767      78.80367671
H      86.09773377      63.52113162      77.80590120
C      85.27570282      66.12706422      74.84847953
O      83.49180118      67.58593293      74.35715068
O      86.34717763      65.06314830      73.08347516
C      89.12885477      69.39062156      77.88337999
O      89.68443430      70.75878341      76.15239069
N      88.75279923      70.27123402      80.09624949
H      88.76224787      68.89740298      81.42094764
C      88.59217249      72.89606387      80.90127290
H      89.82049460      74.12249625      79.79200357
C      85.83128235      73.62171878      80.84458111
H      84.84295549      72.20820348      81.96896827
H      85.28515146      73.64061604      78.85847877
C      85.24168774      76.24465890      81.74787029
H      85.77081112      76.33725549      83.73775210
H      83.19511415      76.43930071      81.87070250
C      86.07694677      78.59925789      80.17183855
O      88.31060328      79.35136895      80.22475089
O      84.41587734      79.86159506      79.06634865
C      89.99245969      73.19464063      83.43539589
O      90.10584327      71.38806227      84.95851531
N      90.83716736      75.56624715      84.09680010
H      90.05293094      77.05535149      83.19540066
C      92.43209636      76.00655338      86.18872713
H      93.61128559      77.61471048      85.66716268
H      93.60561641      74.33225587      86.44950936
C      91.13763384      76.60748634      88.65859943
O      88.96444858      77.60148238      88.73040903
N      92.41508884      75.98198694      90.76186481
H      94.10072471      75.09948474      90.62202507
C      91.60628596      76.45819796      93.42070974
H      89.54837401      76.37693974      93.42448918
C      92.80059300      74.35115312      95.15358876
H      94.81315152      74.76689291      95.04209490
H      92.53603132      72.51055969      94.26352766
C      92.27713880      73.72565372      97.94093507
H      92.61917927      75.38483342      99.11445511
C      89.48034386      72.84504125      98.07321592
H      88.76035814      72.46898573      99.96483195
H      89.18176711      71.00444782      97.19449318
H      88.48634782      74.33225587      97.05465344
C      94.17442402      71.61671915      98.93871056
H      96.15485720      72.13261444      98.71194340
H      93.84183219      69.77045655      98.09022346
H      93.87773700      71.65262396     100.97772525
C      92.32060252      79.10948398      94.26163795
O      94.53158231      79.84458753      94.25407904
N      90.54803924      80.43796158      95.49373949
H      88.85862391      79.54979022      95.40492237
C      90.28914672      83.01743801      96.46127938
H      92.15241688      83.85269704      96.72206160
C      88.63185676      84.68228688      94.88146817
H      87.91754020      86.44540154      95.67137378
H      87.15220104      83.40483190      94.23896122
C      90.03214395      85.24164588      92.36246300
H      92.06171002      85.20952053      92.71206236
H      89.71278021      87.15971808      91.68216152
C      89.74112609      83.36136819      90.13258595
H      88.04604160      82.20296595      90.30644077
H      91.26235578      81.97241935      90.13258595
N      89.75057472      84.70496360      87.60791160
H      90.49890634      86.45862962      87.52476363
C      89.03814791      83.63348878      85.46685168
N      88.42776631      81.25999253      85.33457083
H      88.16698408      80.54378626      83.58468428
H      88.13485873      80.25276840      86.92949984
N      89.27058424      84.88448760      83.28799724
H      88.63185676      84.23064230      81.61369973
H      89.77892062      86.70429404      83.56389728
C      89.18176711      82.80389892      99.19949279
O      86.91598525      82.37115161      99.33744282
N      90.56504677      83.21963872     101.18748487
H      92.32627170      83.88104293     100.85867251
C      89.50302059      83.06468116     103.65735718
H      87.82872307      81.87415359     103.48917153
C      91.50046129      81.96486044     105.46582525
H      90.52158307      81.55290011     107.23082962
H      92.87807177      83.45018533     105.83243216
C      92.94421220      79.57435666     104.91591490
H      94.30670487      80.12615675     103.47027427
C      94.74134193      78.59169897     106.96815768
H      95.94887703      76.96086517     106.62800694
H      93.55648353      78.07013452     108.57064558
H      95.83927291      80.13938483     107.77696054
C      91.20188454      77.54290088     103.84444007
H      92.15808605      75.71931498     103.84255035
H      90.59906184      78.23643043     102.00195693
H      89.51624867      77.39550222     105.01984984
C      88.31060328      85.61014250     104.67402992
O      87.11062707      85.56856853     106.71871379
N      88.65453347      87.71718734     103.29641944
H      89.69955212      87.55278116     101.70715961
C      87.18621613      90.12658839     103.55909141
H      85.78403920      89.89037261     105.04819573
C      88.87941090      92.48685656     103.92380859
H      87.74935457      94.09690337     103.30964753
H      90.37040497      92.35835517     102.51029329
C      89.96033436      92.85346345     106.54674870
H      91.15653110      91.21318102     106.89634808
H      88.29548546      92.95361896     107.75617354
C      91.23967907      95.36302001     106.38990141
H      89.85450968      96.87858051     106.24628221
H      92.43020664      95.49152140     104.71371418
C      92.84027726      95.86757693     108.84843536
H      94.43331654      94.58256304     109.08654087
H      91.72533873      95.73529609     110.57375547
N      93.78514040      98.41681773     108.48182845
H      92.35839705      99.66781655     108.27584828
H      94.92842482      98.73618148     106.98516521
H      94.61473025      99.18782607     110.01817594
C      85.73490632      90.51776174     101.16291843
O      86.43977422      89.71840751      99.02941743
N      83.65998683      92.04844005     101.44070821
H      83.37274842      92.65315247     103.22838929
C      81.67199475      92.62669631      99.49617982
H      80.97657546      90.75019808      99.01240990
C      79.53093483      94.24430202     100.59033136
H      80.45879045      96.02442421     101.06276295
C      77.56561946      94.60712948      98.48328652
H      77.19523310      92.81377921      97.54220283
H      78.14009626      96.00363723      97.08488906
H      75.82707125      95.49341112      99.13902155
C      78.20056750      93.31266695     103.02618858
H      79.61975197      92.80999976     104.42836551
H      77.09696734      91.65537698     102.49139603
C      76.51304190      95.15515011     104.30175384
H      74.78205261      95.31388711     103.19626396
H      77.31617558      97.05054560     104.39624016
H      76.05950759      94.48051781     106.19336988
C      82.73780038      93.91359992      97.16992674
O      84.10029305      95.71450909      97.40992198
N      82.01403520      92.88747853      94.93438050
H      80.45123154      91.79143728      94.89658599
C      82.64520380      93.90415128      92.48340549
H      83.22912922      95.82600294      92.93882953
C      84.83539658      92.34701681      91.45350464
H      86.38119271      92.21851541      92.80843841
H      85.64042000      93.39014574      89.86991400
C      84.21745608      89.60124448      90.65037095
C      84.14942593      89.10235673      88.02176166
H      84.54248902      90.52343092      86.61202583
C      83.44644775      86.69106595      87.10713413
H      83.46156555      86.36225357      85.09079614
C      83.15165045      84.64449235      88.83245424
O      82.68299832      82.14816389      87.97829796
H      82.35796539      82.49020436      86.22463194
C      83.15542989      85.04133488      91.57822658
H      82.95700863      83.46530313      92.85946101
C      83.84706972      87.55089143      92.34356573
H      84.09273414      87.82301202      94.35234481
C      80.32650960      93.92493828      90.79021071
O      78.16277297      94.25375066      91.83711908
N      80.47390825      93.98163007      88.19561647
H      82.27859688      94.06288830      87.58334516
C      78.25159011      93.87580540      86.52887786
H      76.46012957      93.38447656      87.41893896
C      77.73758455      96.45906127      85.40071126
H      76.30706174      96.24174274      83.93428364
H      79.32306494      97.08834013      84.24608849
C      76.96657622      98.32989032      87.52854308
H      78.63331483      98.60768008      88.70395285
H      75.37542667      97.42849087      88.47718570
C      76.13131719     100.90369756      86.33612578
H      75.65321644     102.46461149      87.59279378
H      74.40599706     100.53709065      85.27220988
C      78.18355997     102.01863608      84.50120154
H      78.97913474     100.50496530      83.35224793
H      79.75014309     102.43437587      85.77298735
N      77.55995028     104.18804189      82.91005198
H      76.75492687     105.62423389      83.87381240
H      76.50926245     103.78553018      81.36803531
H      79.19456354     104.94015296      82.27888339
C      78.61252785      91.98985853      84.31600835
O      80.68177816      91.73096603      83.15382668
N      76.66044055      90.94483989      83.18784175
H      75.00126085      91.05066455      84.12703572
C      76.57351314      89.89415206      80.57057081
H      78.07584556      88.53543884      80.19829472
C      74.11497922      88.37292238      80.53466601
H      72.43501253      89.48975062      80.94662634
H      74.19056826      86.79311118      81.85747443
C      73.50648734      87.10113657      78.06668344
O      71.44479594      87.34680099      76.94229628
O      75.18834376      85.92761653      77.01221616
C      76.56973369      91.99741744      78.59958626
O      75.81762262      94.18761024      78.99642879
N      76.74925769      91.40026393      76.20530303
H      77.06295226      89.52187597      76.06735301
C      76.79461113      92.88180936      73.95085954
H      78.06639694      94.50130481      73.98676434
C      78.15143462      91.38136667      71.72476194
H      78.26670793      92.49630518      69.99755208
C      80.94633984      91.11302552      72.42207095
H      81.36207962      90.05666851      74.13983217
H      81.74569406      92.91582442      73.02111419
H      81.90065162      90.21540553      70.83281111
O      76.97413513      88.99464233      71.25044062
H      77.71679756      88.35591484      69.72165204
C      74.13198675      93.83423142      73.02867308
O      74.15844293      95.81277487      71.80035098
N      71.91911724      92.84023538      73.72031291
H      71.92478641      91.17349677      74.64816853
C      69.64577648      94.26130957      73.56913481
H      69.33586137      95.14192202      71.73232083
C      67.48770903      92.34890653      73.92818281
H      67.19858092      92.27709694      75.96908724
H      68.03572966      90.45729050      73.32724984
C      64.99327031      93.10668679      72.64316892
H      64.48115447      94.96617748      73.36315464
H      63.63833654      91.76120166      73.41606699
C      64.96681413      92.88558880      69.75944657
O      65.11610251      94.97373639      68.68608203
O      64.44713939      90.96751660      68.62561079
C      69.46436275      96.57055512      75.26043986
O      67.79195498      98.15981495      75.01477544
N      71.13110137      96.92771339      77.23520387
H      72.54083719      95.69183238      77.59614158
C      71.08196849      99.15003153      78.94162673
H      70.11253889     100.57110573      77.81157038
H      72.96035643      99.96072412      79.18918086
C      70.04450873      98.70027667      81.60992027
O      70.20324575     100.43504542      83.09902462
N      69.08452777      96.41559756      82.19195599
H      69.11287366      95.22318026      80.70285164
C      68.18123859      95.60112552      84.69584335
H      67.50471658      97.24140795      85.74086200
C      65.89655948      93.69061222      84.38025905
H      65.10098471      93.22007036      86.22085248
H      66.93401923      92.05788869      83.67539113
C      63.73282286      94.59768084      82.64549030
C      63.21503784      93.14259159      80.40616461
H      64.48682365      91.60624410      79.96963784
C      61.28751700      93.75864237      78.72052874
H      61.23271493      92.57378397      77.06323876
C      59.66991127      95.74474472      79.32713089
O      57.48916712      96.18505095      77.82668820
H      56.35911077      97.38502716      78.57879927
C      60.10265861      97.13369356      81.54000041
H      58.79874744      98.58500337      82.14093338
C      62.23804933      96.63858527      83.15004722
H      62.33064592      97.50785937      84.99442011
C      70.34875467      94.51831234      86.34557442
O      72.12887686      93.42227107      85.33079138
N      69.94246352      94.45406165      88.82489533
H      68.60075783      95.69750157      89.36913651
C      71.44101649      93.37880738      90.93760936
H      73.40444213      93.93249719      90.66170931
C      70.56040402      94.49941508      93.55865975
H      71.72258571      93.69061222      95.05343326
H      68.65744962      93.76998072      93.85723651
C      70.78528146      97.45116757      93.57377757
C      68.68579551      98.91759520      94.00841462
H      66.92268086      97.98784986      94.45816948
C      68.77272292     101.52163805      93.82700089
H      67.19858092     102.77830606      94.15014408
C      71.09519656     102.65358412      93.16937613
O      71.22936714     105.26329616      93.07488982
H      69.55884907     105.93225928      92.84056376
C      73.35152978     101.20227431      93.07111036
H      75.21479992     102.03375389      93.11079462
C      73.09263728      98.53964993      93.35267959
H      74.61953614      97.20361344      93.12591242
C      71.72825488      90.43839324      91.05099293
O      69.99159640      88.96818615      90.42549352
N      74.02994154      89.68439244      91.81066291
H      75.38298558      91.02609811      91.91270814
C      74.88409782      87.01798860      92.06010679
H      73.33452225      85.75565142      92.55899453
C      76.26548775      86.25642891      89.63558792
H      77.20846119      84.52166014      90.21951336
C      74.35119500      85.65738565      87.37358554
H      75.56250957      85.10369585      85.80133324
H      73.36853733      87.42805922      86.99564027
H      73.03216604      84.25898819      88.11246852
O      77.97757979      88.03088191      88.74930629
H      79.67266430      87.53766334      89.16504608
C      76.85130292      86.80255981      94.34100645
O      77.97946952      88.85102312      95.04965381
N      77.47113314      84.52732932      95.23862644
H      76.18611925      83.19318254      94.78509213
C      79.60085471      83.66939358      97.06221233
H      81.41310223      84.49520398      96.53686842
C      78.75425732      84.41772520      99.76074152
H      78.16088326      86.36603303      99.45460585
C      76.57729260      82.89460579     101.04008622
H      74.84441358      82.97775375      99.93081688
H      75.96124183      83.66372440     102.84666458
H      77.19712284      80.94062879     101.25362530
C      81.20145288      84.61614646     101.42936984
H      82.70756477      85.45329521     100.30120324
H      81.86663655      82.71508179     101.86022745
C      80.67421925      86.12603779     103.87467569
H      79.98635887      88.03655108     103.53263524
H      82.33339895      86.16950150     105.09543890
H      79.14732039      85.11881367     104.82142857
C      80.05438901      80.85748082      96.82788627
O      78.41599630      79.40050184      95.91325873
N      82.11230097      79.82757998      97.82377204
H      83.27448265      80.67606710      99.07666058
C      82.78693327      77.14038917      97.48929048
H      81.34129264      75.85159583      98.18848922
H      84.47823831      76.97976243      98.65336190
C      83.45400666      76.65283978      94.80965858
O      84.99791305      78.06068588      93.70605840
N      82.48268733      74.71587031      93.56432894
H      81.21657070      73.67274139      94.54509689
C      82.96078809      74.05068664      90.94327854
H      84.48579722      75.28467792      90.31399968
C      84.14375675      71.39184173      90.46895724
H      82.73402092      70.08226139      91.20028131
C      84.49335613      70.89862316      87.68728010
H      85.17932677      68.99188931      87.32067319
H      85.62530218      72.27812336      86.65548954
H      82.60929900      70.95909440      86.85957998
C      86.66654139      71.29546568      91.90325950
H      86.47189957      72.14773225      93.76841937
H      88.04793132      72.53890560      91.01319842
C      87.73234702      68.65929748      91.96939993
H      86.40197971      67.19475958      92.54198700
H      89.26113562      68.60260569      93.34890013
H      88.58272387      68.35316182      90.11746813
C      80.56461513      74.54012576      89.30677554
O      79.02448818      72.80724674      89.15181800
N      80.41343701      76.82480487      88.28632334
H      81.56994952      78.27044550      88.75686520
C      78.36686341      77.62226938      86.44384018
H      78.18733943      76.23143082      84.93205914
H      79.03771627      79.40050184      85.64637568
C      75.77793838      77.69407897      87.55688899
O      73.88065316      78.27233523      86.31722853
N      75.45290544      77.12149190      89.97951812
H      77.09318789      76.99488025      90.94327854
C      73.09074755      77.11771246      91.25886284
H      71.87754326      75.93474378      90.08912224
C      73.41389075      75.79868348      93.82889062
H      75.03338620      76.55457401      94.85501201
H      74.13009702      73.91084690      93.41693029
C      71.00259997      75.91395678      95.42570935
N      68.80484827      74.38894766      95.20461137
H      68.59508865      72.86393853      94.07455504
C      67.18346310      75.38294370      96.89024724
H      65.21814774      74.94074774      97.21150071
N      68.17178997      77.60715157      97.92959672
H      67.18724255      78.74476680      99.10311676
C      70.52449922      77.90950778      97.03197671
H      71.61298158      79.63482790      97.07733015
C      71.97580903      79.69718887      91.36846696
O      72.95657698      81.40172200      92.61946577
N      69.73648334      79.87293342      90.07589416
H      69.18657300      78.33658593      89.08756729
C      68.08486256      82.12926664      90.05699689
H      69.06185106      83.82057169      89.40126186
C      65.69435877      81.70596794      88.38836856
H      64.79106959      80.02411153      89.16693580
H      66.21403351      81.11637332      86.48352444
C      63.74983039      83.84702786      88.12191716
H      63.20747893      84.49898343      89.99841539
C      64.89689427      85.88415282      86.57990048
H      63.60621118      87.45640511      86.26053674
H      65.44680461      85.19818217      84.71663034
H      66.58064040      86.35280495      87.67216228
C      61.46137183      83.03633527      86.59501830
H      60.25572643      81.70785767      87.60791160
H      61.93380340      82.15194335      84.79599884
H      60.39934563      84.71063278      86.03187985
C      67.25905216      82.85303182      92.78009252
O      66.31985818      81.25243363      94.09156257
N      67.48392958      85.24920478      93.45472480
H      68.11698789      86.69106595      92.37569108
C      66.98693156      86.10147135      95.98128888
H      66.58064040      84.49331426      97.20016236
C      69.11854284      87.66805446      96.96583630
H      69.25838260      89.38014650      95.83200050
H      70.86087050      86.61358718      96.64836227
C      68.78973047      88.29166414      99.87412509
H      67.31763367      89.72974586      99.83444083
C      68.00360431      86.19973712     101.80353566
H      66.08742184      85.51376646     101.47472328
H      68.02439130      87.01987834     103.69137224
H      69.18846272      84.53488823     101.54086369
C      71.42967812      89.44628692     100.56009574
H      73.06996057      88.28032579     100.12356897
H      71.28227947      89.98107947     102.54241864
H      71.62054049      91.20184267      99.50184900
C      64.40745515      87.48475101      96.16648206
O      62.92779944      86.91783312      97.94849398
N      63.78762492      89.31400608      94.58478114
H      65.06696962      89.67683353      93.21472956
C      61.37822387      90.68405766      94.59800922
H      59.84187637      89.32345471      94.42415440
C      61.07775738      92.20717706      97.09244795