 %block lattice_cart
   137.793   0.000   0.000
   0.000 143.498   0.000
   0.000   0.000   162.326
 %endblock lattice_cart

 %block positions_abs
N      91.51274452      37.43440475      78.65438832
H      90.29765050      36.36859911      77.64338474
H      92.05320624      36.38371692      80.15483101
H      93.03775365      37.62904656      77.52433198
C      90.76819235      39.98553527      79.30256445
H      92.18359736      40.81512513      80.54978381
C      90.44126970      41.61636908      76.85347914
H      89.28853665      40.49765111      75.56468580
H      92.28186313      41.97919653      76.00310230
C      88.97295235      44.10702835      77.03678260
H      87.06432878      43.74987008      77.72842243
H      88.56855092      44.94795656      75.20185835
S      90.36568065      46.42383281      79.16272470
C      92.56532207      47.76931795      77.08591548
H      93.25507218      49.52298398      77.91739506
H      91.72061441      48.51198040      75.36248508
H      94.20749424      46.56367256      76.76844146
C      88.16414949      39.95907911      80.74064617
O      86.31410743      38.80256660      79.89971796
N      87.93549261      41.31401287      82.80611703
H      89.45294284      42.32501645      83.36736574
C      85.79443270      41.56534646      84.45395837
H      84.51697771      39.99876336      84.05144667
C      86.91126095      41.27810806      87.16382591
H      88.28131252      42.79366857      87.42838759
H      87.93549261      39.57168521      87.69105955
C      85.03665244      41.46708071      89.23307622
O      82.92582815      42.63304184      88.97418372
N      85.61679842      40.45418739      91.43649710
H      84.50752908      40.93606760      92.91426308
H      87.44416377      40.08191131      91.83522935
C      84.46784482      44.03143930      84.09680010
O      85.52798129      46.00242385      84.06089530
N      82.00553144      44.05978520      83.75664937
H      80.94350525      42.47808428      83.86436377
C      80.32934420      46.26320609      83.61491989
H      80.56178053      47.17783361      81.78377509
C      77.57412323      45.44684431      83.82090006
H      77.20562660      44.32812634      82.13148474
C      76.84657860      43.68750911      86.06022574
H      77.56656433      41.82045952      85.58212498
H      74.80945364      43.43806524      86.23030111
H      77.77632395      44.19017632      87.82900957
C      75.49920374      47.55577889      83.88326103
H      75.49920374      48.86913867      85.47063113
H      73.68128703      46.63926162      83.56389728
C      75.59369006      49.29810654      81.52866204
H      75.53699827      48.32111803      79.71452478
H      77.33223827      50.39036835      81.36425585
H      73.94584871      50.52264919      81.36425585
C      80.92649771      48.32300776      85.57834553
O      80.94728470      50.45083959      84.67316663
N      81.36491422      47.76553851      88.03121029
H      81.14003679      45.90415808      88.39025828
C      81.93750129      49.55888877      90.11746813
H      80.55989081      51.08578764      90.01164346
C      81.69750605      48.25497762      92.78009251
H      82.42505068      49.60235247      94.15959272
H      82.89181308      46.57879037      92.88402746
C      78.97630016      47.60302204      93.52842413
C      77.46262938      49.51731479      94.26919684
H      78.09001852      51.45239453      94.43171331
C      74.88126324      49.08267774      94.70005444
H      73.75876581      50.72862936      95.14791958
C      73.75498636      46.80366780      94.17848998
H      71.73486893      46.56367256      94.35423453
C      75.34991536      44.74575585      93.46039398
H      74.69984951      42.87870625      92.95961651
C      77.94450959      45.13692921      93.24685491
H      79.19739814      43.68183993      92.56088426
C      84.49241127      50.95539651      89.82645028
O      84.77587021      53.24196535      90.30644077
N      86.35946086      49.71384633      88.73796793
H      85.85301421      48.03765910      87.97640822
C      88.82744343      50.51131083      87.91593698
H      89.38680242      51.91537749      89.31622418
C      90.65858823      48.21151391      87.94239315
H      92.51618919      48.88047702      87.35846772
H      89.92726414      46.86980822      86.55911349
C      90.91937046      46.86224933      90.37825037
H      92.35178300      45.38259362      90.32911748
H      89.20538869      45.85124574      90.90926346
C      91.91336650      48.74819618      92.36057327
O      93.29097698      50.57556152      91.62546973
O      91.38046368      48.53276738      94.67926745
C      88.64036052      52.07033505      85.39693180
O      89.83466755      54.00730452      85.20984890
N      86.96984246      51.27287054      83.60547126
H      86.22718002      49.53432233      83.88137130
C      86.72606777      52.59567895      81.16583459
H      88.46650570      52.83756392      80.08869059
C      84.85901817      50.99319104      79.66350217
H      83.05243982      50.68705539      80.60836533
H      85.85490394      49.23196612      79.28744663
C      84.61524348      52.22718233      76.89127367
H      84.36013042      50.80988759      75.41917687
H      86.23095947      53.37991538      76.33380441
S      81.93183211      54.23218195      76.86103805
C      79.67927835      52.82811529      74.79934664
H      78.85535767      50.99697049      75.25855014
H      80.38225654      52.59567895      72.87938471
H      78.02954728      54.05454768      74.65761717
C      85.73585118      55.26586224      81.37559421
O      86.83567189      57.02519744      80.43640023
N      83.81777897      55.75530136      82.94217732
H      83.04677064      54.23785112      83.80956170
C      82.95984323      58.28753461      83.66216305
H      82.57244933      59.42514986      81.98975526
C      80.44272778      58.12501814      85.17772355
H      79.69061670      60.04120064      85.19851054
H      80.77154016      57.47117284      87.10146494
C      78.26765279      56.47528707      83.90215829
H      78.91960837      54.64225255      83.22563627
C      76.17950521      56.43182338      85.90526818
H      74.60914265      55.27720059      85.23819479
H      75.62392568      58.27808598      86.62714363
H      77.10925056      55.44160678      87.45484376
C      77.14704509      57.49573928      81.40394011
H      76.24942509      59.30987655      81.77810592
H      75.83179557      56.11245962      80.62915232
H      78.61347271      57.65258658      79.96585838
C      84.72295788      59.95427323      84.97930229
O      84.54910306      62.28997494      84.87914680
N      86.54276432      58.88279841      86.26809564
H      86.75063421      57.00630017      85.98841614
C      88.45327762      60.34355685      87.81389176
H      87.66715147      62.22383453      88.10868906
C      89.07310785      59.12657309      90.41982434
H      90.46772587      60.21505545      91.47240190
H      89.91403606      57.27842076      90.07967361
C      86.59756638      59.02641760      91.95428211
H      85.01586545      58.16848185      90.95083744
H      85.73963063      60.84811377      92.38324998
C      86.65992735      57.41826050      94.29943247
H      87.68415901      55.72695546      93.71928649
H      84.74563459      56.73228985      94.62446539
N      87.88069055      58.75618673      96.45749991
H      88.12446524      60.61378771      96.08711356
C      87.82966793      58.13824623      98.98784345
N      87.62935695      55.79120615      99.65302711
H      87.51975282      55.32066431     101.50117944
H      87.71439463      54.45705938      98.29242416
N      88.20761320      59.77285949     100.73584029
H      88.26052553      59.31743546     102.58777207
H      88.21139265      61.64557827     100.37868201
C      90.92126018      61.03708640      86.28132372
O      92.75240498      61.90069132      87.40760060
N      90.90992182      60.72150210      83.86247404
H      89.44160448      59.75774168      83.11036297
C      92.64847003      61.79675638      82.08424158
H      93.66892224      63.44081826      82.79099922
C      94.56276279      59.86356635      81.23197501
H      96.04808767      60.80276034      80.15672074
C      95.93281436      58.51808123      83.46563151
H      94.78575049      56.85701179      83.88137130
H      96.39390759      59.63301974      85.13614957
H      97.74506190      57.81510303      82.78344031
C      93.33066123      57.85667702      79.46319118
H      92.11367749      58.74106893      78.05723481
H      92.07021378      56.59622957      80.49498175
C      95.26196152      56.00663496      78.07613207
H      97.11767276      56.16726168      78.95107535
H      95.47928005      56.73417958      76.15994959
H      94.64402102      54.04131958      78.12337523
C      91.18582187      63.06665245      79.98475564
O      92.17792818      64.77307531      78.62793215
N      88.66114751      62.56587499      79.60303093
H      87.74463025      61.15424942      80.50254065
C      87.12291029      63.94348547      77.76243750
H      88.22462073      64.03419234      76.02577902
C      84.60768457      62.56020581      77.35614634
H      83.38692137      62.85878256      78.98509042
H      85.20861754      60.61756715      77.03111342
C      83.00708638      63.52396623      75.30768302
O      84.09745847      63.60333473      73.22898408
O      80.81689359      64.40457868      75.70452555
C      86.51063897      66.66469136      78.82824314
O      86.31977661      68.52040260      77.40149977
N      86.45394718      66.96137838      81.30756406
H      86.81299518      65.38345691      82.31856764
C      86.54843349      69.40290479      82.74753551
H      87.44038431      70.85043515      81.58157438
C      83.68549813      70.21926655      83.36736574
H      83.66471114      71.39656604      85.05867079
H      82.71039935      68.43158547      83.67917059
C      82.48552192      71.96537366      81.31323324
H      80.52209628      72.13922848      81.91038676
H      82.23607805      71.15657081      79.43673501
C      83.83100706      74.37855416      80.87481674
O      84.39036604      75.74482629      82.68517455
O      84.49997017      74.77539670      78.65816777
C      88.30020979      69.34243355      84.96040503
O      89.20538869      67.29397023      85.52921265
N      88.64791943      71.42113248      86.36258195
H      87.61045968      73.01039231      86.16227096
C      89.96316894      71.69514280      88.67182751
H      91.38991231      73.17668824      88.55655420
H      91.10078418      70.05108092      89.17071525
C      88.25107690      72.41512853      90.90548401
O      86.32166634      73.60376637      90.46895723
N      88.84445096      71.46459620      93.15425832
H      90.34489366      70.37233438      93.60023373
C      87.16637400      71.60821540      95.43515798
H      85.20483809      71.64412019      94.81343802
C      87.46684048      69.18369653      96.88835751
H      89.35845652      69.10810749      97.69905010
H      87.25141168      67.51317847      95.70349912
C      85.41648743      68.80008209      99.03886606
H      85.47128950      70.52729195     100.15947376
C      82.59890550      68.58654301      98.08077482
H      81.36491422      67.90246210      99.57932778
H      82.54788289      67.32042638      96.45749991
H      82.12647392      70.45926180      97.36645827
C      85.94183135      66.44170365     100.63001561
H      87.98273577      66.16202416     100.65647178
H      84.97996065      64.82598766      99.78719768
H      84.88736407      66.73650095     102.37423300
C      87.70305627      74.08564659      96.94882876
O      89.64191547      74.15367674      98.23195292
N      85.95694916      75.93379892      96.82788627
H      84.52831607      75.55018448      95.62602034
C      85.90025737      78.25816228      98.31888033
H      87.82777821      78.87232334      98.70816395
C      84.49430099      80.43890645      96.93371095
H      85.08389560      82.03761492      98.08833372
H      82.45906575      80.11387353      96.93749040
C      85.62246760      81.18156889      94.44872084
H      87.66904120      80.96236064      94.49596400
H      85.01397573      83.08263357      93.94605364
C      84.66059691      79.45813849      92.17915954
H      82.65937674      79.08397268      92.49474384
H      85.86813202      77.79328961      92.31521984
N      84.96106339      80.72236541      89.73385369
H      85.33711893      82.59130472      89.63936738
C      84.53209552      79.61309605      87.50964582
N      83.68360840      77.32463749      87.51153555
H      83.59101181      76.65378465      85.72763391
H      83.74596937      76.19836061      89.04977277
N      84.66437636      80.78661609      85.35535783
H      84.14281190      79.90411391      83.74531101
H      85.34656756      82.56106911      85.50842566
C      84.77775994      77.88966565     101.04953486
O      82.94850487      76.66512300     101.49739999
N      85.97773615      79.33908573     102.70871456
H      87.36668499      80.51449551     102.13045831
C      85.16326411      79.61876524     105.31464714
H      83.30377341      78.85342607     105.75684310
C      87.07188768      78.20147049     106.98705493
H      87.74274052      76.47615038     106.08376575
H      85.88324983      77.65722933     108.58009421
C      89.38680242      79.65278030     108.00183796
H      88.79153863      81.03039079     109.41346352
C      90.96094444      77.56463274     109.30763884
H      91.33888970      76.04718250     107.96593316
H      89.98962511      76.92212578     111.00839252
H      92.80531732      78.22792667     109.94258688
C      90.78708961      81.00960380     105.83621161
H      91.20471913      79.63577277     104.35844563
H      92.58421934      81.74092788     106.52974116
H      89.64191547      82.62531979     105.27307316
C      84.76264213      82.37209648     106.24250276
O      83.91226529      82.69146022     108.43836474
N      85.24074289      84.30906594     104.79497241
H      86.13269371      83.89521587     103.15846942
C      84.01242078      86.76948960     105.06898272
H      83.16960285      86.96035195     106.94170150
C      85.94561080      88.92566733     104.69103746
H      86.67882461      88.82362210     102.76918580
H      87.55565762      88.39654395     105.86266777
C      85.28609632      91.71868281     105.15591013
H      84.46784482      91.94733970     107.03051864
H      83.65904196      92.28560071     104.03152298
C      87.38747198      93.74446943     105.10866698
H      86.59567665      95.39609022     106.04786095
H      87.77864532      94.17343730     103.13390298
C      89.85545454      92.96023300     106.30108428
H      90.64913959      91.41821634     105.19181493
H      89.64947437      92.03804657     108.13033935
N      91.80187264      95.08995455     106.53918979
H      92.27619395      95.66065191     104.77985460
H      93.40814001      94.35107157     107.25917552
H      91.21983694      96.49780066     107.68814339
C      81.90159649      86.92066770     103.15091052
O      81.79955127      85.51849079     101.34433216
N      80.26698323      88.73291524     103.45326673
H      80.25942432      89.54360783     105.18047658
C      78.56811927      89.50392357     101.40858285
H      77.58357187      87.78616235     100.83788551
C      76.54800185      91.39931906     102.32510012
H      77.64593283      92.96968164     103.08477009
C      74.79622555      92.24024728     100.06876690
H      75.89604627      92.52937540      98.35100568
H      73.90994391      94.01281055     100.63001561
H      73.24664998      90.92499777      99.73995452
C      74.87370433      90.39965384     104.41702715
H      76.05856273      89.79116197     105.98927944
H      73.68128703      88.87086526     103.72349759
C      73.07657461      92.46890416     105.30141906
H      74.08190901      94.23957771     105.60566500
H      71.88226758      91.66577047     106.77351586
H      71.66305933      92.84306997     103.85010925
C      80.10824622      90.46957373      99.10122703
O      81.80711018      92.07584109      99.39602433
N      79.49219544      89.44534207      96.81465819
H      77.92372260      88.35874943      96.77497394
C      80.52587573      90.17477641      94.32021945
H      81.56144575      91.95489861      94.32210918
C      82.20584243      88.02426787      93.38858438
H      83.24708163      87.32128969      95.02130792
H      83.51353304      88.78393786      91.99207664
C      80.73941481      85.82462645      92.18293899
C      80.20840171      85.80950863      89.47118174
H      81.00775594      87.23247255      88.24096991
C      78.96496180      83.62876446      88.53387748
H      78.60402407      83.76104531      86.53076759
C      78.10702605      81.64266212      90.03432018
O      76.53477376      79.82663512      89.04032414
H      76.63681898      79.47136658      87.26587113
C      78.48119186      81.80706831      92.72529045
H      77.62325612      80.52772359      94.06510640
C      79.82478727      83.90277478      93.69472005
H      80.30666748      83.95379740      95.67704295
C      78.31300622      90.74169431      92.69883428
O      76.19840248      90.57161895      93.69094059
N      78.66449532      91.70545473      90.27998460
H      80.48619148      92.04749520      89.82078110
C      76.68595187      92.29126988      88.47907542
H      74.90582968      91.68655746      89.31811390
C      76.67083406      95.05782921      87.73452325
H      75.20062698      95.34884707      86.32100797
H      78.54544256      95.25058129      86.90493340
C      76.55178130      97.00046786      89.83211946
H      77.79522121      96.61874314      91.42893820
H      74.56945840      97.07605692      90.38580927
C      77.46073966      99.53270112      88.61702544
H      75.89037709     100.04103750      87.38303416
H      79.15393443      99.50057577      87.44539513
C      77.34357662     101.44699388      90.84123331
H      78.81378370     100.77047186      92.12057803
H      75.51054210     101.26746987      91.76341975
N      77.69317599     104.15119222      89.82267083
H      76.26265317     104.72377930      88.69450422
H      79.38259132     104.32504704      88.94772755
H      77.63459448     105.53447189      91.13414089
C      76.82012244      90.65854635      85.99786477
O      78.74764327      89.81005924      85.04166326
N      74.56000976      90.60185456      84.86024953
H      73.06334652      91.05538888      85.95440107
C      74.01576859      89.52660030      82.45462794
H      74.94929339      87.68978631      82.40549505
C      71.19818665      89.01826392      82.09369021
H      70.18529335      90.66988471      81.39449147
H      70.25710295      88.53449398      83.86247404
C      70.82780030      86.93578551      80.34947282
O      70.34780981      87.52349040      78.08558070
O      71.24920926      84.73803381      81.12804006
C      74.94740366      91.24814097      80.30978857
O      75.22897288      93.56305570      80.66505712
N      75.54644690      90.22201957      78.09880878
H      74.83402008      88.47024329      77.84747518
C      76.10769562      91.63364513      75.71019472
H      77.90482534      92.63520008      75.80279131
C      76.67461351      89.65132223      73.59748071
H      77.14893481      90.76437103      71.93074210
C      78.96496180      88.01292951      74.45163700
H      80.01187018      87.37231230      72.79623675
H      78.15048976      86.43500804      75.49476592
H      80.16682774      89.07306597      75.74798925
O      74.63937827      88.02237815      72.97387102
H      73.83813431      88.74614332      71.51500231
C      73.90238501      93.36274471      74.75777266
O      74.39938303      94.96523262      73.28945532
N      71.57424219      93.00369671      75.74420980
H      71.26621680      91.34451701      76.63238117
C      69.49176379      94.97657097      75.54200908
H      69.78089192      95.98757456      73.77133553
C      67.03322986      93.49880501      75.26232959
H      65.39294742      94.74791409      75.23209397
H      66.85181613      92.23835755      76.88371476
C      67.05212712      91.98702396      72.94930458
H      68.18029373      90.29382918      73.27433751
H      67.83069436      93.19455906      71.47342833
C      64.40462056      91.01570463      72.24443667
O      63.68841429      88.93700569      73.14772584
O      62.75488949      92.58228775      71.43563380
C      69.27066581      96.86629730      77.76621695
O      67.32991689      98.25335641      78.04022727
N      71.17362021      96.88141511      79.44618365
H      72.23942585      95.30349363      79.55767750
C      71.51188122      98.41020370      81.85936415
H      71.10181061     100.41520331      81.63259699
H      73.51499111      98.42154204      82.33935463
C      70.13238101      97.33305970      84.28766246
O      70.46308312      98.50469000      86.29644153
N      68.69618902      95.32239090      84.03632886
H      68.41084034      94.67988395      82.25998613
C      67.16362098      94.58350791      86.23408056
H      66.10537424      96.13119375      87.08823685
C      65.34759399      92.61819254      85.30811467
H      64.31013424      91.75458761      86.86335942
H      66.61182089      91.11774984      84.67694608
C      63.46731631      93.09251385      83.11036297
C      62.59804220      90.96846146      81.77432646
H      63.23110052      89.09763241      82.28644229
C      60.60060149      91.09696285      79.99042482
H      59.90896166      89.34140712      79.21941649
C      59.41952254      93.43833377      79.56901586
O      57.48444280      93.82572766      77.76999641
H      56.98555505      95.56238613      77.93440259
C      60.59115286      95.69277726      80.71419000
H      59.95809454      97.59006247      80.31734748
C      62.49221753      95.44144366      82.61147522
H      63.30479984      97.08550554      83.50909522
C      68.83224931      93.37975224      88.42616308
O      70.75221124      92.18355548      87.79877395
N      68.40139171      93.53470981      90.89414565
H      66.79512434      94.35107157      91.52531424
C      69.96797482      92.45567608      92.89347609
H      71.85014223      92.70889941      92.09790131
C      69.49554325      94.08462016      95.33122303
H      70.51032628      93.19077961      96.88268834
H      67.48865390      94.18288592      95.78664707
C      70.26844131      96.73023700      95.29909768
C      68.60170270      98.72956744      95.28964905
H      66.58158527      98.45744684      95.38224564
C      69.50121242     101.18999110      95.38413537
H      68.17273483     102.72822831      95.19327301
C      72.05045322     101.60006171      95.82066215
O      72.93484514     104.08694153      95.91514846
H      71.54967575     105.21699786      95.60901280
C      73.83813431      99.66498197      96.05876766
H      75.80722913      99.93899228      96.51419170
C      72.92539650      97.13085897      95.59389499
H      74.21796930      95.55293750      95.66192514
C      69.34814459      89.74391882      93.31488506
O      67.08236274      89.01637418      93.12024325
N      71.33046750      88.28127065      93.72684539
H      73.04633899      89.08818379      93.91770775
C      71.40794627      85.50715242      93.71739676
H      69.58058093      84.76448999      94.30888110
C      72.19596215      84.59252488      91.00941895
H      72.71563688      82.59886363      91.02831622
C      69.99254127      84.70401875      89.07811866
H      69.63349327      86.72602589      88.91371247
H      68.36359718      83.63065420      89.73763315
H      70.72764480      84.13332139      87.24130469
O      74.34836042      86.05706278      90.06833525
H      76.00187094      85.32762843      90.23463117
C      73.38271027      84.58685572      95.65625596
O      74.82457145      85.92100249      96.78820202
N      73.11058968      82.18690330      96.41403621
H      71.63093398      81.13432574      95.82633133
C      74.49008989      80.73937294      98.47194816
H      76.41950046      81.45179975      98.58533174
C      73.29578286      81.14566410     101.06276294
H      72.66650400      83.10531029     100.97961498
C      70.87504345      79.55451454     101.27630201
H      71.10559006      77.54951493     100.86434168
H      69.49365352      80.18379340      99.88168399
H      69.94151866      79.81340704     103.09232900
C      74.91716804      80.85653597     103.37956740
H      75.60880787      78.92712540     103.57987839
H      73.80789869      81.34219563     105.04630601
C      77.37003279      82.45713416     103.54964277
H      78.09757742      81.99415121     105.42047182
H      76.97885945      84.43378788     103.12823380
H      78.62103161      81.74470733     102.07565624
C      74.91716804      78.02572596      97.55543090
O      73.42995343      77.00338401      96.03420122
N      76.74642311      76.70669699      98.68359751
H      77.96529658      77.76683345      99.70215999
C      77.32089991      73.97793218      98.04487002
H      75.60124896      72.85921422      98.24329128
H      78.61158298      73.16723960      99.42814968
C      78.29977814      73.72470886      95.38980455
O      79.87203043      75.22515155      94.63013457
N      77.54955679      71.75183459      94.03865023
H      76.22485865      70.58398374      94.76241541
C      77.53254926      71.74427568      91.23807584
H      78.73441519      73.32786634      90.70517302
C      78.62670079      69.28574176      90.12502704
H      77.57034378      67.81742440      91.11335390
C      77.74230888      68.71693414      87.33957045
H      75.68817637      68.63567590      87.19217180
H      78.74008437      67.02184963      86.72918886
H      78.34324184      70.29107616      86.15471206
C      81.42727519      68.89645813      90.59745862
H      81.79388209      69.55975206      92.50986165
H      82.45150685      69.90368226      89.12347209
C      82.39670478      66.15068580      90.57667163
H      84.30532836      66.42847557      91.30043681
H      82.40804314      65.49495078      88.62647407
H      81.07956554      64.92047397      91.57633685
C      74.91527831      72.47748949      90.29888186
O      73.13137667      71.01295161      90.47084696
N      74.60347347      74.65067476      89.16315635
H      75.97541477      75.96781400      89.00819879
C      72.50020808      75.51427968      87.44728485
H      72.30745600      73.91368149      86.16605041
H      73.19184791      77.17534911      86.44384018
C      70.11726320      76.34575925      88.90237412
O      68.33714102      77.23393062      87.64570612
N      69.97175428      76.07930784      91.47240190
H      71.46841752      75.28940225      92.35868354
C      67.68140599      76.23615513      92.93882952
H      66.20364001      75.17601867      91.97128965
C      67.84959163      74.77917615      95.46350387
H      68.88327192      75.84120233      96.89213697
H      68.80768287      72.97448751      95.19705246
C      65.32113782      74.26895004      96.64080337
N      63.87549719      72.05230108      96.57277322
H      64.44808426      70.42713645      95.75830118
C      61.74577564      72.41890799      97.84644875
H      60.24722267      71.09798929      98.26407827
N      61.76656263      74.75083026      98.81020917
H      60.33415008      75.63333243      99.71160863
C      63.98510132      75.88466604      98.13179743
H      64.74666102      77.66100877      98.78753246
C      67.03700931      79.08019323      93.33567205
O      68.48076022      80.57118729      94.44872084
N      64.77122746      79.84553239      92.54954590
H      63.57503071      78.63421783      91.68783070
C      63.76211361      82.41367045      92.80276923
H      64.99043572      83.85553162      91.99018691
C      61.08815088      82.36264784      91.46484300
H      59.75967328      81.13054629      92.44750068
H      61.36405092      81.45179975      89.63747765
C      60.04502195      85.12542770      90.91115319
H      59.56314174      86.26115322      92.56088426
C      61.70609138      86.62209094      88.99119125
H      61.10515842      88.58929604      88.86268986
H      61.61349479      86.00792989      87.02776561
H      63.71864991      86.80539440      89.38614405
C      57.43530992      84.75315162      89.76408931
H      56.54524882      86.60886286      89.67716190
H      56.32415084      83.59285966      91.05477239
H      57.63751063      83.91600286      87.89326026
C      63.45786768      83.05617739      95.68082240
O      62.64906481      81.62943404      97.37023772
N      64.08147736      85.33329761      96.31577044
H      64.74666102      86.50870738      94.96461613
C      63.15551147      86.65799574      98.57777284
H      62.12183117      85.26526745      99.68893191
C      65.17562889      87.73325002     100.29175460
H      64.28745753      88.40221314     102.02652336
H      66.25088317      89.15999339      99.26374349
C      67.05401685      85.59407984     101.25740475
H      67.97620329      84.46024404      99.80609494
C      69.24609937      87.10208144     102.42714534
H      70.58213588      85.88131824     103.41169275
H      68.47887049      88.33229327     103.89357296
H      70.07946868      88.21701996     100.90969511
C      65.66695774      83.98970220     103.32287561
H      66.91984628      82.42311908     103.79341746
H      64.13061024      83.07696438     102.30053367
H      65.18318780      85.33140787     104.80820049
C      61.22421117      88.72157688      97.92392753
O      59.11716633      88.76504059      99.02374825
N      61.85160031      90.34863123      96.10790055
H      63.68841429      90.73980459      95.76963954
C      59.97888153      92.25536508      95.19327301
H      58.24789223      91.22168479      94.76997432
C      59.30802869      94.27926196      97.03575617