 %block lattice_cart
   137.793   0.000   0.000
   0.000 143.498   0.000
   0.000   0.000   162.326
 %endblock lattice_cart

 %block positions_abs
N      86.55221295      38.06368361      81.02032567
H      86.32166634      37.16228416      82.68706428
H      88.30209951      37.51188353      80.50065093
H      85.20861754      37.59314176      79.74665013
C      86.70339104      40.79811759      81.72897304
H      88.25863580      41.08346626      83.04989173
C      86.96795273      42.47241510      79.35736651
H      85.13113875      43.31334331      78.94729590
H      87.59912132      41.06834845      77.99109439
C      88.73106738      44.71740996      79.70129670
H      89.09011538      45.32968129      77.76810668
H      90.53575602      44.13537426      80.50065093
S      87.90903643      47.29877610      81.62125864
C      90.92126017      48.74252701      82.25431695
H      91.30865407      50.42249370      81.12804007
H      92.48595356      47.40649050      82.38281834
H      90.86645812      49.32645244      84.22719122
C      84.37335850      41.22897519      83.27476916
O      82.39859451      40.27655312      82.60013687
N      84.36013042      42.64438020      85.37803455
H      86.15914987      42.89949325      85.96384970
C      82.29465956      43.25287207      87.03343480
H      80.86980593      41.80723144      86.68761488
C      83.30755286      42.97319257      89.66582355
H      84.81177500      44.37159005      89.80755302
H      83.68171867      40.95118542      89.79054549
C      81.45562108      43.60436116      91.86924443
O      79.16149333      43.88026120      91.45350464
N      82.38536643      43.81978996      94.14636464
H      81.11924980      44.22041194      95.51830594
H      84.28454136      43.82167969      94.33722700
C      81.10980116      45.84557657      86.37958949
O      82.31544654      47.79010495      86.03187985
N      78.62292134      45.96273960      86.37203059
H      77.57223350      44.37159005      86.39092785
C      77.15082453      48.40804545      86.24352920
H      77.65727118      49.03354486      84.34813371
C      74.32757342      48.03387964      86.00542368
H      74.04033502      46.47485543      84.69017417
C      73.32412876      47.05689114      88.56789256
H      74.34080151      45.39204225      89.23685568
H      71.42117436      46.28588280      88.40159665
H      73.27877532      48.55733383      89.97951812
C      72.69296016      50.29210258      85.02276600
H      72.70429852      51.70372814      86.52320869
H      70.68229136      49.84990663      84.97552284
C      73.45829932      51.43727673      82.43762040
H      73.24476025      50.18438818      80.81812495
H      75.45951948      51.91726721      82.38281834
H      72.31879435      53.14747904      82.31100874
C      77.88403834      50.37714027      88.25986717
O      77.83490546      52.56733306      87.76664861
N      78.31678568      49.39259286      90.42360380
H      78.35835965      47.50664600      90.72029083
C      79.07645565      50.90437391      92.46261849
H      77.95773768      52.63347349      92.51364110
C      78.31678568      49.64203673      94.93815996
H      79.05188921      50.85524103      96.42915402
H      79.29188444      47.91482688      95.49940868
C      75.40471743      49.40771067      95.24807508
C      73.90049527      51.45428427      96.07388548
H      74.74331322      53.27409071      96.45938965
C      71.31345995      51.22751711      96.48584581
H      70.03978442      52.73740843      96.98662329
C      70.10214539      48.84268250      96.16648207
H      68.12927111      48.55544410      96.60300884
C      71.56857300      46.79799863      95.49373950
H      70.77488795      44.92339013      95.33122304
C      74.12726244      47.13059046      94.89469626
H      75.17417081      45.50164638      94.24274068
C      81.94317047      51.63569799      92.48907466
O      82.88614390      52.89614544      94.32210919
N      83.38881109      50.87791774      90.53320793
H      82.37780752      49.92738541      89.22362759
C      85.99285395      51.53365277      89.87936262
H      86.44638826      52.93771942      91.31555462
C      87.54809872      49.08456747      90.12313732
H      87.02653424      47.87325290      88.54332612
H      86.98118081      47.98474676      91.77097866
C      90.43749024      49.51353534      90.20439555
H      90.83055332      50.43950124      92.00341500
H      91.06865884      50.74185745      88.67560696
C      91.84911579      46.94728701      90.12313732
O      91.52030343      45.35424773      91.88436224
O      93.43459617      46.60524655      88.35057404
C      86.40859374      52.99441121      87.47752048
O      87.60856996      54.91248342      87.35846772
N      85.09334423      52.22340288      85.47819004
H      84.27320300      50.50186220      85.59913252
C      84.70217088      53.47062224      83.04989173
H      86.32166634      53.09834616      81.83101826
C      82.53465481      52.27442549      81.76298811
H      80.95295387      52.40292688      83.07634790
H      82.98251993      50.27131559      81.58724356
C      82.05844378      53.24763454      79.05878976
H      83.25275081      52.25363850      77.70952517
H      82.74630415      55.18082456      78.86792740
S      78.71929737      52.75441597      78.05345536
C      78.91204945      54.24352030      75.02611380
H      80.58256753      53.47818115      74.09447873
H      78.95551316      56.26930691      75.38516180
H      77.24153140      53.82211134      73.89983692
C      84.22029068      56.30899116      83.34657876
O      85.58656279      57.88124346      82.30156011
N      82.14537118      56.96283647      84.69584335
H      80.92460798      55.64380750      85.33835029
C      81.43105464      59.50073891      85.21362836
H      81.56144575      60.50040413      83.41649863
C      78.57945763      59.32499436      85.88070174
H      77.74419860      61.18259533      86.18872713
H      78.71173848      58.52941958      87.77420751
C      76.95807246      57.68471192      84.21018368
H      77.66483009      55.75341163      84.33112617
C      74.19529259      57.75841125      85.24197425
H      74.08190900      56.85323234      87.09201631
H      72.89705061      56.76819466      83.98530625
H      73.43184315      59.65947592      85.45740305
C      76.98452862      58.73917920      81.44362436
H      76.15871823      60.61189798      81.21496748
H      75.98108394      57.32944337      80.32679611
H      78.82323232      59.05287377      80.57246053
C      82.96740213      60.82732678      87.15059783
O      83.08267543      63.21405111      87.20917934
N      84.24296738      59.34011217      88.68883505
H      83.95005982      57.54298245      88.12758633
C      86.02875875      60.16403284      90.69005521
H      84.89492297      61.62101183      91.60846220
C      86.30276907      58.27808598      92.73851853
H      87.89580835      57.07999950      92.21884380
H      84.69650171      56.98740291      92.72529045
C      86.79787737      59.43837794      95.29720796
H      85.21050726      60.59489044      95.92081765
H      88.46083652      60.64024387      95.47673196
C      86.98685000      57.34078173      97.37212745
H      85.37869291      56.05576784      97.35700964
H      86.94149656      58.37824148      99.15413937
N      89.40003050      55.95561234      97.23039798
H      91.08377665      56.64536245      97.80298505
C      89.52853189      53.53676266      96.81465819
N      87.61990832      52.03443024      96.12301836
H      87.67471037      50.13903475      96.31954990
H      85.89269845      52.83945365      96.00018615
N      91.63935617      52.33678645      97.15291920
H      91.71116577      50.49430330      96.65214173
H      93.05476118      53.19094275      98.10534126
C      88.50052077      61.46038509      89.62613930
O      89.69482780      63.04775520      90.96784498
N      89.25452157      60.71961238      87.24130469
H      88.29832006      59.26641284      86.45706827
C      91.52030343      61.72683650      85.92794490
H      92.74106661      62.90791545      87.09201631
C      93.29286670      59.45538548      85.25709206
H      95.01629709      60.30009314      84.50876044
C      94.15647162      57.89825099      87.57200680
H      92.63146249      56.68504670      88.24096991
H      94.83299364      59.15680872      89.05733168
H      95.85911504      56.76252548      87.35279854
C      92.14391310      57.55054135      83.40327055
H      90.97795196      58.17793049      81.82534908
H      90.84567112      56.33922679      84.44450975
C      94.03363942      55.81388287      82.05211623
H      93.28341807      54.71973134      80.47608449
H      94.81787583      54.55910460      83.48641851
H      95.68526021      56.80409946      81.32268188
C      90.80409714      63.19137440      83.40893973
O      92.53130699      64.30253347      82.23919914
N      88.39658582      63.34822168      82.78721977
H      87.07377740      62.52430101      83.88893021
C      87.47628911      64.68425818      80.57246053
H      88.18115703      64.12111974      78.72241847
C      84.62658183      64.15135536      80.42695161
H      83.71006457      65.35700075      81.81967990
H      84.24107767      62.22383452      81.04111266
C      83.38314192      64.71260408      77.82101902
O      82.60079522      66.84043591      77.41283814
O      83.48707687      63.21594084      75.98987422
C      87.77675559      67.58687780      80.74253590
O      88.11123715      68.76228757      78.84336096
N      87.79754259      68.57898411      83.10280406
H      87.88446999      67.35633119      84.56545223
C      88.54776392      71.16601944      83.69050895
H      90.07844224      71.92946887      82.54155535
C      86.35190195      72.89889847      83.11036297
H      84.86090789      72.82330941      84.53143716
H      85.43160524      72.38867236      81.33968941
C      87.17204317      75.53884613      82.61903413
H      88.78397971      75.52183859      81.33590996
H      87.69549736      76.53095244      84.34813371
C      85.07444696      77.19235665      81.54755931
O      83.80266116      76.46670175      79.70507615
O      84.54154414      79.07452406      82.91005198
C      89.53798051      71.44947838      86.38714840
O      89.59467230      69.67502538      87.90837808
N      90.43749024      73.68124516      87.04288343
H      90.13135458      75.06830427      85.76920789
C      91.20660885      74.42768705      89.66771328
H      92.00218362      76.32686200      89.69227972
H      92.67303648      73.30141017      90.57856136
C      88.89358384      74.52028364      91.38169504
O      87.11346166      75.89411467      90.85446140
N      89.16759416      73.25983619      93.57566729
H      90.64347041      72.08820588      93.87991323
C      87.44605348      73.26550537      95.71105803
H      85.51475319      73.25227729      94.99485175
C      87.96950767      71.01673106      97.49873912
H      89.86112371      71.38333796      98.23006320
H      87.95816933      69.31597738      96.33655743
C      85.97773614      70.67847005      99.60767368
H      85.92671354      72.55307855     100.45994025
C      83.34345766      70.15312613      98.51919133
H      82.76709113      71.70837089      97.29842813
H      81.82222798      70.09643434      99.90814017
H      83.58156317      68.28985599      97.67070421
C      86.86023833      68.63189645     101.29708901
H      85.60734978      68.64701426     102.92981254
H      88.79153862      69.00606226     101.90558088
H      86.85456916      66.74405986     100.47127861
C      87.76730696      75.74293657      97.18126510
O      89.72128398      76.01316743      98.44360227
N      85.95127998      77.48715395      97.04520480
H      84.26186466      76.97125867      96.32332935
C      85.90781627      79.73970772      98.72895095
H      87.85234464      80.34819959      99.02563798
C      84.62847156      82.12454233      97.65369667
H      84.43949893      83.51538089      99.16169827
H      82.81244456      81.34975454      97.07166097
C      85.88136010      83.35853361      95.34823057
H      87.81455013      83.98025357      95.68649158
H      84.91004077      84.98747769      94.54509689
C      85.88324983      81.52549909      92.94449870
H      84.05588449      80.57307702      92.92560144
H      87.43849459      80.18379340      93.09567681
N      86.15914987      82.89366094      90.58800999
H      86.15726015      84.79850506      90.72407029
C      85.66215185      82.10753479      88.38458911
N      85.45617168      79.77561252      87.84034793
H      85.28042713      79.32774738      85.99219560
H      85.75663816      78.47548082      89.20473033
N      85.47884839      83.72136106      86.65548953
H      85.18216136      83.28861374      84.82056528
H      86.12135534      85.49392434      86.95028684
C      85.01019627      79.30885012     101.45393629
O      82.90315143      78.38288423     101.78274867
N      86.37268894      80.38410439     103.28886054
H      87.98273577      81.31573946     102.85611321
C      85.95127998      80.36142768     105.98549999
H      84.16359888      79.37310081     106.24628222
C      87.85234464      78.96869938     107.70326121
H      87.40447951      76.96558949     107.55586256
H      87.65770284      79.34664465     109.71959918
C      90.64158069      79.03106035     106.94926041
H      90.57544026      78.36965614     104.99906285
C      91.70927606      81.77494296     107.00028302
H      93.61412018      81.52549909     106.25573085
H      91.69037879      82.74248283     108.81819973
H      90.72283892      82.99003698     105.65857734
C      92.46894603      77.19424638     108.41757775
H      92.65224948      77.88021703     110.35076777
H      94.35867235      77.65722932     107.74483519
H      92.07210351      75.21003375     108.03585304
C      85.48640731      83.09964110     106.98138576
O      85.04421135      83.60419803     109.31897721
N      85.60357034      85.03094140     105.28252180
H      85.78876351      84.33552211     103.51562770
C      85.19349973      87.67466851     105.51873759
H      84.68327361      88.28882956     107.41791253
C      87.66337201      88.95590295     104.89512791
H      87.29109593      90.95334366     104.56253608
H      88.64036051      88.44567684     103.15468997
C      89.47750927      89.16566257     107.09476933
H      90.63213205      87.47057807     107.28374197
H      88.28320224      89.30361259     108.76717712
C      91.26141091      91.43333414     106.99272411
H      92.01730144      91.56750471     108.90323742
H      90.18804636      93.19077962     106.98705493
C      93.30231534      91.26514850     104.88567927
H      92.17036927      90.73791486     103.24728656
H      94.84055255      90.01981886     105.45826635
N      94.15836136      93.77848450     104.02585380
H      95.32054303      94.02981810     102.53108029
H      94.56276278      94.92176892     105.49984033
H      92.61823441      94.77437027     103.49295098
C      83.06944734      88.38520560     103.63845991
O      82.90315143      87.11341979     101.70526989
N      81.47262861      90.15965861     104.21482643
H      81.33656831      90.93255667     105.95526437
C      79.43928310      90.90421078     102.53485974
H      78.43772816      89.22046463     101.89235279
C      77.62892529      92.74291448     103.98239010
H      78.64559804      94.39453528     104.67591965
C      75.52377018      93.54226871     102.09833296
H      76.38737510      94.36807911     100.42025600
H      74.34647068      95.10318264     102.74083991
H      74.32379398      91.89442736     101.79597675
C      76.36469838      91.51081292     106.16880344
H      77.72719106      90.65098745     107.45192761
H      75.57290306      89.75903663     105.42803073
C      74.37292686      92.89409258     107.70893039
H      72.72130605      93.12652892     106.49950555
H      75.17417081      94.67232504     108.37033460
H      73.72097128      91.91521435     109.40212516
C      80.75831206      92.24024728     100.25962926
O      82.34568218      93.82950711     100.62623617
N      79.95328865      91.53348964      97.99384741
H      78.50197884      90.29193945      97.98250905
C      80.81500385      92.60307473      95.59389499
H      81.88269923      94.26225443      96.18726906
C      82.75953223      90.67366417      94.35423453
H      84.32422562      90.29193945      95.64113815
H      83.54754811      91.65443212      92.72340072
C      81.46317999      88.37008779      93.20528093
C      81.60113000      87.99781171      90.56155382
H      81.95450883      89.63998387      89.40315159
C      80.76965043      85.67155862      89.42015913
H      80.60335450      85.35030514      87.41138006
C      80.02320854      83.64955146      91.05666212
O      79.39581939      81.33463673      90.16660102
H      79.93061195      81.29495247      88.43372199
C      79.68116807      84.06718098      93.62291045
H      78.84212959      82.58941500      94.75296678
C      80.31233665      86.46902312      94.64336266
H      80.31800584      86.62776013      96.67670817
C      78.78165835      93.54037898      93.93093584
O      76.75398201      92.36685894      93.90447967
N      79.27298719      95.51892243      92.45316986
H      81.07767581      95.97245675      92.03931980
C      77.52876979      96.23701843      90.49919285
H      75.63715375      96.18032664      91.31555462
C      78.00498082      98.91098116      89.53732216
H      76.83335052      99.41364836      87.91782671
H      80.01375991      99.13585860      89.13481046
C      77.39837868     100.90464242      91.54043205
H      78.61536243     100.74023624      93.19772203
H      75.48030647     100.69299308      92.25663833
C      77.59679994     103.47467021      90.51431066
H      75.98675313     103.83749766      89.28031938
H      79.36936323     103.85072575      89.53354271
C      77.39459923     105.34171981      92.75363635
H      78.42638980     104.69921286      94.41470577
H      75.51999072     105.15274718      93.58889538
N      78.02765755     107.97788801      92.13191639
H      76.54800184     108.73755799      91.19272241
H      79.60746875     108.23489079      91.09256692
H      78.06923152     109.03235530      93.72306594
C      77.74419860      94.50413940      88.26931580
O      79.86258180      93.94667014      87.50397665
N      75.69951473      93.95233932      87.02776562
H      74.10269600      94.43799898      87.95373151
C      75.57857225      92.73724530      84.49175290
H      76.95996217      91.25192042      84.12703573
C      72.95941157      91.45601086      84.42183303
H      71.37771065      92.75803229      84.63159265
H      72.78177730      90.13320244      85.98841614
C      72.30178681      90.13131271      81.88393059
O      71.38715928      91.40309852      80.10380841
O      72.23753612      87.76348564      81.98786554
C      76.11714424      94.72523738      82.34313409
O      76.32123469      97.04960075      82.72107935
N      76.44406689      93.60840913      80.05089607
H      76.07368053      91.76025680      79.74098095
C      76.69162105      95.09373401      77.61125940
H      78.47741240      96.08773005      77.87582108
C      76.64815734      93.49502555      75.14705629
H      74.88315296      92.44055827      75.06579806
C      77.07334575      94.96523262      72.81702374
H      77.20751633      93.87108109      71.07658581
H      78.79110697      96.10095814      72.89450252
H      75.69195583      96.41276298      72.32758463
O      78.60024462      91.69411638      75.41539742
H      77.72341160      90.14643052      75.77633515
C      74.55245085      96.99857814      77.36559498
O      74.98708791      99.11507161      76.60403527
N      72.26588201      96.52614656      78.22353072
H      72.02399704      94.85940795      79.12493018
C      70.08513785      98.32138655      78.09502934
H      70.29867692      99.59128264      76.48876197
C      67.68896488      96.97779115      77.59236214
H      66.26600097      98.46122630      77.70007654
H      67.42818266      95.66821081      79.16083498
C      67.56991213      95.64364437      75.11304121
H      68.45052459      93.78604340      75.24343233
H      68.56768762      96.86251784      73.78456362
C      64.79201445      95.27703746      74.37604795
O      63.94352733      93.04905014      74.64249936
O      63.36716080      96.98346033      73.56535536
C      69.84892206      99.97300735      80.33624474
O      68.01210808     101.42809661      80.65749822
N      71.86148059     100.13363409      82.04266760
H      73.46018904      99.14152777      81.71574495
C      71.79156072     101.57360554      84.45773783
H      71.17550994     103.48789829      84.00798297
H      73.79656034     101.66242268      84.91883105
C      70.57268724     100.23567931      86.89359505
O      70.78244686     101.10117396      88.93827892
N      69.45774871      98.02847898      86.55722376
H      69.86026043      97.19133022      84.88859543
C      67.99510054      96.70567056      88.34301513
H      67.00299423      98.08328104      89.51086599
C      66.35859756      94.91798947      86.92194094
H      65.10192957      94.07517153      88.31655896
H      67.38849841      93.32683991      86.11313808
C      64.72776375      95.91765468      84.76198377
C      64.06258009      94.34729212      82.64549030
H      65.06602476      92.59740555      82.34502381
C      62.20497912      95.26569911      80.96741333
H      61.76656262      94.43232980      79.15705552
C      60.96531866      97.56360630      81.35858668
O      59.27212388      98.36673999      79.69562752
H      58.97165740     100.15253135      79.62003847
C      61.73443727      99.10940243      83.40705000
H      60.89728851     100.96133421      83.58468427
C      63.69030400      98.31382765      85.00008928
H      64.21375819      99.49112714      86.58367993
C      69.48609461      95.21656622      90.31777913
O      71.45707916      94.06005372      89.69794890
N      68.67729174      95.21089704      92.73851853
H      67.01811204      96.08961978      93.08055900
C      70.21363924      94.22823936      94.77753323
H      72.19407241      94.42099144      94.24463041
C      69.80734809      95.85529372      97.03764590
H      70.54623107      94.69311203      98.56832421
H      67.83825326      96.40142462      97.29464868
C      71.33046749      98.25902559      97.11323495
C      70.11348374     100.55126360      97.53842337
H      68.07635878     100.56638141      97.43826788
C      71.65361069     102.68854406      98.06565701
H      70.57079752     104.32693678      98.61934682
C      74.25576383     102.46177691      98.25085019
O      75.45951948     104.71622040      98.92170303
H      74.33702206     106.13918431      98.92359276
C      75.48786538     100.17520807      97.84266931
H      77.50987253      99.89363885      97.85400766
C      73.91939254      98.11918584      97.40425280
H      74.66583443      96.22756980      97.23606716
C      69.81868644      91.21979507      95.06666135
O      67.78534092      90.24280657      94.88713735
N      71.88226757      89.95934762      95.31232577
H      73.46207878      90.97791010      94.97595449
C      72.21863885      87.18144994      94.93249078
H      70.30434611      86.43500805      94.79454076
C      73.54333700      86.76948960      92.35868355
H      75.52754963      87.21924447      92.68182675
C      73.39971780      84.07851933      91.29287791
H      74.53733304      83.77049394      89.60346258
H      71.44952025      83.61931584      90.81288742
H      74.06490146      82.61020199      92.57411235
O      72.35847860      88.46268438      90.53887711
H      73.35814382      89.97446543      90.52186957
C      73.82301649      86.31217584      97.21150072
O      75.32345919      87.59907946      98.50029406
N      73.65294113      83.82340628      97.59889461
H      72.35658887      82.98625752      96.48017663
C      75.36692289      82.21335946      99.18815444
H      77.02232315      83.41333567      99.44137777
C      74.37670630      81.82596557     101.99628774
H      73.84569321      83.66466927     102.75595772
C      72.23375666      79.91545227     101.71660825
H      71.39660792      79.62632414     103.57609894
H      72.91216841      78.06918966     101.10055747
H      70.70496808      80.74882157     100.61489781
C      76.33635249      80.75071130     103.92758803
H      76.87303476      78.80807265     103.50239961
H      75.51243182      80.61843045     105.80975544
C      78.40938227      82.71791639     104.51529292
H      77.81033902      84.66433449     104.81953885
H      79.59046120      82.74059310     102.82776732
H      79.53754886      82.22658755     106.16691371
C      75.95840724      79.83797349      97.79731587
O      74.52032550      79.05751652      96.01152451
N      77.78766230      78.49248835      98.71761259
H      78.72496656      79.11042886     100.26340871
C      78.45473570      75.96214482      97.83700013
H      76.86169641      74.66012339      97.90503027
H      79.92683249      75.38010912      99.15791882
C      79.21440566      75.76372356      95.07610998
O      81.07011690      76.99204566      94.24840986
N      77.96907602      74.16879455      93.58889538
H      76.36091894      73.45258828      94.32399891
C      78.21851990      73.90045341      90.88091757
H      79.43361393      75.39711665      90.15526266
C      79.50542352      71.38900714      90.10990923
H      78.13348221      69.89612335      90.47273669
C      79.82667699      71.27373384      87.24886360
H      78.10702606      71.77262158      86.23219084
H      80.47296339      69.34432327      86.93138957
H      81.33656831      72.60977034      86.83123408
C      82.03387732      71.10554820      91.46484300
H      81.93372184      71.40223523      93.50007824
H      83.10346243      72.75149981      90.83934359
C      83.55510702      68.76795675      90.93760936
H      84.01997969      68.85299443      88.93260974
H      82.41938150      67.06342361      91.18516351
H      85.24263260      68.83598689      92.11679858
C      75.64093321      74.49004802      89.43905639
O      74.11592408      72.98771560      88.62647408
N      75.50109346      76.98448675      89.17449471
H      76.96374163      78.04462322      89.78487631
C      73.50176303      78.41123012      87.92727534
H      73.14271503      77.31896831      86.21896275
H      74.05923229      80.30473589      87.34523964
C      70.94685305      78.69279934      89.29354747
O      69.09114182      79.37876999      88.09357126
N      70.82024139      78.07296911      91.76341976
H      72.49075945      77.92368073      92.67426784
C      68.48831911      78.23359585      93.14291997
H      67.11448809      77.30574023      91.91837731
C      68.47509103      76.41756886      95.46917306
H      69.87537823      77.18857720      96.76552531
H      69.02878084      74.52406310      94.87012982
C      65.97498312      76.37221543      96.96961575
N      64.08147736      74.49571720      96.84111436
H      64.21753764      72.69291830      96.22884303
C      62.08781609      75.40845501      98.21683512
H      60.32470144      74.45036377      98.57588312
N      62.65284426      77.69313412      99.15413937
H      61.46798586      78.79484456     100.16325322
C      65.07169394      78.36209724      98.36801322
H      65.77467214      80.25938246      98.62501600
C      67.87037861      81.00582435      93.77786801
O      68.80012396      82.07162999      95.57310800
N      66.09403588      81.98659231      92.31521984
H      65.61593512      80.82063117      90.88280730
C      65.08681175      84.49614885      92.51553083
H      66.76488871      85.68856615      92.39647807
C      63.69597318      84.76260026      90.04943799
H      62.02923457      83.56640350      90.22896199
H      64.83547816      83.84797272      88.59812818
C      62.90606758      87.20223693      88.78899054
H      64.50477604      88.48347137      88.57167201
C      61.76278316      86.67122384      86.26053673
H      63.18763680      85.76793466      85.07756806
H      61.02578990      88.41733095      85.45173387
H      59.99966851      85.63187436      86.47974499
C      60.85949399      88.66866455      90.40470654
H      59.88439521      89.91021474      89.08189812
H      61.57570026      89.79116198      91.97506910
H      59.50078077      87.32695887      91.17760460
C      63.45975739      84.77582834      94.89469626
O      61.70042220      83.27916510      95.09500725
N      63.97565269      86.87909373      96.18159988
H      65.52144881      87.84285415      95.61279226
C      62.84937580      87.51971095      98.65336189
H      61.90829210      85.83596480      99.37523735
C      65.09626038      88.21324051     100.68670741
H      64.24210410      88.70456935     102.49517549
H      66.21497837      89.82139760     100.04231073
C      66.97842779      86.29705803     101.26685339
H      67.78156147      85.67533807      99.47539284
C      69.02878084      87.33073832     102.94493035
H      69.99065153      88.85574745     101.94904458
H      70.27411048      85.79628055     103.52318660
H      68.00832863      88.23024804     104.49261620
C      65.65939882      83.99915083     102.65202277
H      65.12649601      84.63031942     104.53796963
H      67.12771617      82.68768077     103.26051465
H      63.99643967      83.20735550     101.73172606
C      60.92374468      89.63053524      98.53808859
O      58.82236903      89.44345234      99.52830518
N      61.55302354      91.53159991      97.08677878
H      63.21220325      91.44278278      96.14758480
C      60.07147811      93.70289545      96.57844240
H      58.24411277      93.11519056      95.83011078
C      59.97321235      95.52081216      98.93304139