 %block lattice_cart
   137.793   0.000   0.000
   0.000 143.498   0.000
   0.000   0.000   162.326
 %endblock lattice_cart

 %block positions_abs
N      88.01202652      37.22370026      82.32045736
H      89.45010825      36.06718776      81.83479770
H      86.52859137      36.73237142      81.22441611
H      87.50369015      37.06874270      84.15349190
C      88.55248825      39.85419929      81.79889291
H      90.06237957      40.41544800      83.08012735
C      89.41987263      40.20757811      79.00776715
H      87.90809158      39.78994859      77.66795119
H      90.82582900      38.81107036      78.45407734
C      90.44221456      42.89287920      78.26132524
H      88.98334585      44.32907120      78.04211700
H      91.47400513      42.97035798      76.47931334
S      92.67587106      44.26293078      80.36837008
C      91.09605987      46.95957023      82.10124912
H      91.47589486      48.62063966      80.94473661
H      92.05037165      47.32617713      83.89081993
H      89.14019313      46.56839688      82.61336495
C      86.15442556      41.16755908      82.42250259
O      84.36107529      40.87087205      80.97119278
N      86.31883175      42.95901962      84.30466999
H      88.08005667      43.24058884      84.98308175
C      84.12108004      43.69790261      85.75597980
H      82.70378531      42.24659280      85.39882153
C      84.98090552      43.84152181      88.72473985
H      86.40197970      45.29850080      89.03087550
H      85.86718716      42.07651743      89.30866527
C      82.78504354      44.63520686      90.36691201
O      80.61752746      44.89220964      89.42582830
N      83.20645251      45.03015966      92.78198224
H      81.64553857      45.17755831      93.87046460
H      84.80327124      44.49347739      93.67960224
C      83.45589638      46.44934412      84.99253038
O      85.08106101      48.08395738      84.89237488
N      80.95011929      46.79138458      84.40293576
H      79.76715062      45.31928779      84.68450499
C      79.75392254      49.16299111      83.65271442
H      80.92744258      49.84518231      82.10313885
C      76.94389951      48.81906092      82.90249307
H      76.92500224      47.21846273      81.60425109
C      75.23936637      48.09907519      85.15315711
H      75.13921088      49.60140761      86.55911348
H      75.80250482      46.35863726      86.09802027
H      73.39499349      47.73057856      84.31222890
C      76.12753774      51.13586538      81.46063190
H      77.41822081      52.02403675      80.12270566
H      75.82140208      52.60229300      82.87225745
C      73.74081341      50.86941397      79.97341728
H      73.86175589      49.10818904      78.90761165
H      73.51593598      52.39820256      78.61281435
H      72.06084672      50.83728862      81.16205514
C      80.23202329      51.35885308      85.48952840
O      80.97468573      53.39786777      84.65804882
N      80.11486026      50.75225094      87.94050343
H      80.07517601      48.86441435      88.21640346
C      80.51548224      52.63630807      90.03998936
H      79.55928073      54.38619464      89.52409408
C      79.19078409      51.65365039      92.41726506
H      79.52715538      53.12385746      93.81944198
H      79.95234380      49.82817477      92.98796241
C      76.27304667      51.17554963      92.26986641
C      74.49859366      52.97834853      93.12969188
H      75.26582254      54.74146318      93.81755225
C      71.86809463      52.36985666      93.42070974
H      70.56607320      53.76636441      94.13880574
C      70.95157737      50.01147822      92.53253837
H      68.98626200      49.48046513      92.67993702
C      72.64855160      48.19167178      91.73507387
H      71.87754326      46.40965987      91.10579499
C      75.29605816      48.82850955      91.39303340
H      76.65666111      47.39042783      90.89603537
C      83.44644775      53.21456432      90.44439078
O      84.02470400      54.89264129      91.91459787
N      85.19444459      52.03159565      89.01953715
H      84.55949655      50.83539889      87.67405202
C      87.88919431      52.67977178      88.69072478
H      88.29359574      54.07061034      90.15526266
C      89.65419869      50.44422555      89.36724679
H      91.58171953      51.15476264      89.21606868
H      89.32160686      48.90787805      88.03687946
C      89.58994799      49.56739254      92.23018215
H      87.65486825      49.11385822      92.76308497
H      90.41764812      51.20389553      93.16559668
C      91.40408526      47.45656825      92.81788703
O      93.31081911      47.98191216      94.22195369
O      90.88441052      45.24369873      92.09790132
C      88.47878892      53.98746238      86.21140385
O      89.71089048      55.99813118      86.21329357
N      87.25991545      53.18621843      84.00987269
H      86.54937836      51.41554487      84.05711586
C      87.39030657      54.49390904      81.53433123
H      89.29326096      54.18210419      80.80678660
C      85.50435971      53.06527594      79.79767274
H      83.74880396      52.87252386      80.85591948
H      86.33772901      51.21712361      79.42917612
C      84.68799794      54.38619464      77.41094840
H      86.15064611      53.87218908      76.05601465
H      84.51036367      56.41765042      77.69629708
S      81.87230573      53.05393759      76.01066121
C      81.23735769      55.30649135      73.37449301
H      82.58284283      54.83217005      71.89105785
H      81.22035015      57.29070398      73.92629308
H      79.30605740      54.93799472      72.75466277
C      86.70811537      57.28503480      81.61369973
O      88.17454299      58.91019943      80.91261126
N      84.58028354      57.77636364      82.79288895
H      83.50691899      56.30426684      83.36736575
C      83.36329979      60.39552431      82.91383144
H      83.35763061      60.95866275      80.93339826
C      80.64776308      60.29158936      83.94184255
H      79.92588763      62.18698486      84.31033917
H      80.41910620      59.04437000      85.56511744
C      78.81661828      59.21633509      81.94251211
H      79.73124582      57.59306019      81.06945855
C      76.27493639      58.23178768      82.96485404
H      76.55272616      57.35117522      84.80544748
H      75.27338145      57.05448819      81.60425109
H      75.03527593      59.83994478      83.30500478
C      78.33662780      60.88118397      79.62948710
H      77.27460161      59.67175913      78.34447320
H      80.14131643      61.49534503      78.84525068
H      77.31806532      62.55170203      80.27577349
C      84.83728632      62.30225816      84.54277552
O      84.44989242      64.57181946      84.30089055
N      86.72323318      61.47644776      86.07534356
H      87.26936408      59.69443585      85.66905239
C      88.27280875      63.19420898      87.70050819
H      87.06716337      64.52268658      88.70962203
C      89.67309595      61.65597176      89.67338245
H      90.78236530      62.82760208      90.95272716
H      90.85039545      60.17253661      88.86268987
C      87.82683334      60.07238111      91.31177517
H      86.58906261      58.79492612      90.27242569
H      86.54937836      61.27613677      92.38891917
C      89.35373221      58.52847471      93.21850901
H      90.74268105      59.69254612      94.19738725
H      90.18143233      57.04692929      92.04876843
N      87.80226690      57.18298958      94.89091681
H      86.17710227      56.45733468      94.20116669
C      87.63975044      56.87685392      97.41370144
N      89.51435894      57.50235333      99.11256538
H      89.27436370      56.91464844     100.91347457
H      91.18298728      58.08438903      98.39068993
N      85.68388371      55.72412087      98.25651937
H      86.06749815      54.55815973      99.71916753
H      84.34028830      55.09673173      97.05843289
C      90.24757275      64.71543866      86.23786001
O      91.56849144      66.23666835      87.38303416
N      90.57638513      64.11450570      83.76609799
H      89.45955688      62.75012330      83.03855336
C      92.44154500      65.22188532      82.04833677
H      93.48089447      66.67319512      83.07634789
C      94.69598849      63.30948229      81.37937367
H      95.96399485      64.52268658      80.30033995
C      96.10572432      62.54792258      83.76231854
H      94.77724672      61.40463816      84.84135228
H      96.83704841      64.20899201      84.73741732
H      97.74033758      61.51424229      83.04611227
C      93.72466917      60.93976549      79.84302618
H      92.87807178      61.71455328      78.13093414
H      92.47744980      59.85695231      81.07134828
C      95.62384411      58.88374326      79.19862950
H      97.39829712      59.64341324      78.47864377
H      94.91897620      57.61762663      77.73409161
H      95.70321262      57.85384242      80.98064142
C      91.20188454      66.45209714      79.87704125
O      92.36973540      67.27223836      78.05912453
N      88.61673894      66.30847795      79.87515151
H      87.77014156      65.57337441      81.42094764
C      87.11440652      67.04925066      77.58291351
H      88.19910943      66.38028754      75.96530777
C      84.50280476      65.80014157      77.40338951
H      83.12330455      66.51823757      78.75454382
H      84.60107053      63.75923715      77.66795119
C      83.21779087      66.11572586      74.85981788
O      81.12019466      67.14562670      74.58013840
O      84.21178691      65.32015108      72.85103881
C      86.73835099      69.91785520      77.66984091
O      86.48512766      71.01578619      75.58358306
N      86.41520779      70.98177112      79.94696112
H      87.01236130      69.99344426      81.46441135
C      86.26780914      73.74077153      80.46096667
H      86.99913322      74.69886277      78.78855889
C      83.42566076      74.42107301      80.99197978
H      82.62819626      73.20786871      82.45462794
H      82.39198047      73.97887705      79.26665965
C      83.03259769      77.16495561      81.71196550
H      84.32328076      77.52211389      83.27665889
H      81.07484123      77.67140227      82.10124912
C      83.49180118      79.00554904      79.57846448
O      85.55349259      79.24932374      78.58068900
O      81.56428034      80.15450264      78.88115547
C      88.10840257      74.43052164      82.61903412
O      88.81893966      73.05858034      84.34057479
N      88.92287461      76.87204803      82.39037724
H      88.24635259      77.96808930      80.98064142
C      90.72945296      77.75077077      84.23663986
H      91.61195515      79.42695801      83.42405754
H      92.35083814      76.50355140      84.48041455
C      89.68254458      78.15895165      86.86902860
O      87.87974568      79.60270256      87.15437728
N      90.78803448      76.84748159      88.88536658
H      92.12029153      75.49065810      88.71718094
C      89.65986787      76.90228366      91.39114367
H      87.60573537      76.76622336      91.30043681
C      90.69354816      74.60815591      92.77631306
H      92.67965052      74.60626619      92.22829243
H      89.76191309      72.89228442      92.12057803
C      90.36473578      74.52878741      95.72239638
H      91.16409001      76.25032808      96.52175062
C      87.64164017      73.84281676      96.54820677
H      87.34117368      74.14706269      98.56454476
H      87.26747436      71.83970686      96.26096838
H      86.22623516      74.78956964      95.38791482
C      91.96344424      72.25355693      96.61245747
H      91.98612096      72.19119596      98.67225916
H      93.96844386      72.32725625      96.14380535
H      91.09228041      70.44319912      96.16648206
C      89.96600353      79.41939910      92.85001238
O      92.03147439      80.40016706      92.98040350
N      87.90431212      80.57024243      93.76086047
H      86.18088173      80.06946496      93.11268435
C      88.03848269      82.97208457      95.28586961
H      89.94143709      83.75254154      95.39925319
C      86.50213520      85.06401160      94.05376804
H      86.36229545      86.56445429      95.45783470
H      84.68232876      84.38748958      93.36212821
C      87.74179566      86.38493029      91.74263276
H      89.59939663      87.02176806      92.37002191
H      86.67787975      88.08757370      91.28153955
C      87.87029705      84.71063278      89.39370295
H      86.10529267      83.77143880      88.89859467
H      89.22523082      83.22152845      89.83022974
N      88.75846842      86.33390768      87.19784098
H      89.24790753      88.08568398      87.77420751
C      88.23123478      86.19784739      84.86591872
N      86.98779486      84.23253202      84.10435901
H      86.51914274      83.96986007      82.27321421
H      86.43977423      82.85681127      85.31000440
N      88.82271911      87.86647572      83.14815750
H      88.05171078      87.56600924      81.42661682
H      89.60317608      89.54833214      83.59980209
C      86.99346404      82.55445506      97.89180219
O      85.09239937      81.37715556      98.18282004
N      88.35595671      83.69584975      99.76263124
H      90.04915149      84.44796082      99.30153802
C      87.53203604      83.60892234     102.34210766
H      85.95600429      82.32768790     102.69548647
C      89.89608366      82.81334756     103.78396883
H      89.28003288      83.00798937     105.73794584
H      91.46644622      84.12292790     103.53452495
C      90.75779886      80.16017182     103.49862015
H      90.92409477      79.94852247     101.45582601
C      93.19932525      79.61026146     104.87245119
H      94.62795835      80.74976643     103.91813941
H      93.56404243      77.58447485     104.82709775
H      93.08594167      80.30757047     106.80564121
C      88.85673419      78.20430509     104.30175385
H      88.27469848      78.74665654     106.20092879
H      89.60317608      76.28812260     104.42080660
H      87.25991545      78.33847565     103.00729132
C      86.05993924      86.02021312     103.14902079
O      85.11885554      86.24131109     105.27685261
N      85.98246046      87.92883669     101.57487878
H      86.85740375      87.58112705      99.91380935
C      84.72012329      90.28154595     101.81865346
H      83.32172581      90.15871374     103.32476533
C      86.60418042      92.43394422     102.72950155
H      87.32983532      91.98418936     104.60222033
H      85.60829465      94.21595614     103.00729132
C      88.84161637      92.98385458     100.91914374
H      87.88541486      93.55266220      99.18626472
H      89.95844463      91.37758721     100.27663680
C      90.79937284      94.90192679     101.97739048
H      89.94899599      96.72551268     102.42147617
H      91.85950930      95.43860906     100.29553406
C      92.40941965      93.63958961     104.21293671
H      92.99145536      91.75175302     103.63468045
H      91.39274690      93.63581016     106.00628697
N      94.82071043      95.10223778     104.21671616
H      95.54825506      95.24018780     102.45927069
H      96.11139350      94.15548489     105.25606563
H      94.53158230      96.83511681     104.96126833
C      83.17999634      90.88436865      99.44326750
O      83.69022245      89.98107947      97.37023772
N      81.48302211      92.72307235      99.81743330
H      81.10507685      93.08589980     101.65424728
C      79.52526565      93.25597517      98.09400290
H      78.87519980      91.41349201      97.44582678
C      77.23680709      94.57311441      99.50373873
H      78.03616132      96.02442422     100.72828139
C      75.11086498      95.47262413      97.58755625
H      73.80506410      93.98163007      97.02441782
H      75.98769799      96.17560232      95.86223612
H      73.97513947      96.85212434      98.61178792
C      76.09730212      92.80622031     101.54086369
H      77.42766944      92.58512233     103.09988791
H      75.85541715      90.97318578     100.63001562
C      73.81829219      93.76053209     103.01485023
H      73.11342427      92.62669631     104.58332307
H      72.04005973      93.94383555     101.98683911
H      74.56095463      95.53687483     103.74617430
C      80.56461512      94.75263841      95.86790531
O      81.89498245      96.67637979      96.20238687
N      79.88242392      93.81344443      93.58133647
H      78.95456831      92.14481610      93.55299057
C      80.69122679      95.01342064      91.24563475
H      81.26759331      96.95416956      91.61224166
C      82.97590590      93.44494780      90.16471130
H      84.17210266      93.05188473      91.79365538
H      84.04738072      94.59201167      88.83056452
C      82.35040649      90.98263441      89.12725155
C      82.35607567      90.79744124      86.50242169
H      82.77937436      92.40181887      85.31378385
C      81.83829066      88.43150389      85.43283661
H      81.88175436      88.21607509      83.40327054
C      81.43199950      86.25453918      86.87469778
O      81.01059053      83.99631623      85.88826065
H      80.87264051      84.16828133      84.08735148
C      81.05972342      86.57768238      89.55432970
H      80.76681584      84.94495884      90.74485728
C      81.64553857      88.87747930      90.54265656
H      81.58506733      88.93795054      92.58167124
C      78.40843740      95.46884468      89.42771803
O      76.29005420      95.03987681      90.18738801
N      78.76181622      96.36079550      87.08445740
H      80.49658498      97.09211958      86.78588065
C      76.86831046      96.74818939      85.24197424
H      75.01259922      96.08678519      85.84857639
C      76.59618987      99.68293436      84.73552760
H      75.54361231      99.96828303      82.98753075
H      78.42544494     100.54653928      84.34057479
C      75.27149172     101.06054484      86.88036697
H      76.14076583     100.63724615      88.69828367
H      73.28727909     100.51252421      86.93327930
C      75.52471505     103.95182610      86.62147445
H      77.52593521     104.43370631      86.69328406
H      74.42300461     104.86078446      88.10679934
C      74.51560120     105.13668450      84.17238916
H      72.55595501     104.56409743      83.89459939
H      75.59274519     104.30898437      82.62470330
N      74.68567656     107.91269245      84.06089531
H      73.53105379     108.85566588      85.25142288
H      74.14332511     108.48716925      82.32423682
H      76.41855559     108.58732475      84.48419399
C      76.80972894      95.33845357      82.72674853
O      78.68055799      94.80933020      81.52866205
N      74.66488957      94.56555550      81.89337923
H      73.14554962      94.89247816      83.00075885
C      74.42867379      92.74574906      79.80712137
H      75.97258018      91.38514612      79.90160769
C      71.92478642      91.39648448      80.26632487
H      70.39032865      92.76464633      80.36270090
H      71.99470629      90.58012271      82.15605118
C      71.10086575      89.37447732      78.36526020
O      69.65144567      90.00564591      76.66450651
O      71.89644053      87.13515164      78.64116024
C      74.63087450      94.19705887      77.21252714
O      74.47969640      96.62346746      77.13693810
N      74.81228823      93.01786965      74.95241447
H      74.93701016      91.13003307      74.71241923
C      74.29450322      94.42760548      72.61104357
H      75.13354170      96.30221399      72.71308880
C      75.39999311      93.19550393      70.30935693
H      74.64977176      94.03076296      68.58025735
C      78.13064763      93.84934923      70.47376311
H      78.41599631      95.87702556      70.68352273
H      79.00181146      93.25030599      68.70497929
H      79.04149572      92.72685180      71.94019074
O      75.42078010      90.57445353      70.57958779
H      76.29383366      89.87903425      69.14906497
C      71.72069598      95.27420287      72.11404556
O      71.39755278      96.87480106      70.47565284
N      69.75538061      94.41248767      73.44063343
H      70.20702520      93.16526831      74.81257473
C      67.24204462      95.75041390      73.63527523
H      66.90945279      96.39859003      71.70775439
C      65.03295456      93.80588553      74.05857393
H      64.66823738      93.71139921      76.08436054
H      65.52806285      91.85757770      73.60692934
C      62.54418500      94.56555550      72.81702375
H      61.82797873      96.36646468      73.50677384
H      61.06641903      93.15392995      73.07024707
C      62.90701246      94.58634249      69.92763220
O      63.23204538      96.71228459      68.94308480
O      62.90890218      92.53787917      68.71442792
C      67.07196925      97.91792998      75.55145771
O      65.11988197      99.00452261      75.81601939
N      69.14877847      98.51319377      76.87426613
H      70.79095063      97.60990459      76.51332840
C      69.24515451     100.43693516      78.76966162
H      68.13021598     102.10367377      78.30478896
H      71.21613905     100.94905099      79.07957674
C      68.43257219      99.75663369      81.39449147
O      69.05429215     101.27786337      83.12359106
N      67.18724255      97.53998472      81.71952441
H      66.60898630      96.86346270      80.03199881
C      66.14222390      96.57244485      84.17049943
H      65.08775662      98.21272729      84.83757282
C      64.29974075      94.31233218      83.72830348
H      63.47204062      93.54888275      85.45362359
H      65.47515051      93.02731828      82.63037248
C      61.90545751      94.91515487      82.15038200
C      61.11555191      93.26353407      80.22286116
H      62.26072606      91.61947218      79.83735700
C      58.84032143      93.46762452      78.94918562
H      58.21671175      92.37347298      77.34480799
C      57.16980337      95.43293988      79.85625425
O      54.69615163      95.53498510      78.81690479
H      53.62845626      96.76519693      79.61814874
C      57.85388429      97.14503192      81.69306823
H      56.45926628      98.53398076      82.23541968
C      60.25761616      96.93716203      82.86280883
H      60.76595254      98.26941908      84.32356726
C      68.26627628      95.79576733      86.02054148
O      70.41300537      95.41593234      85.27598932
N      67.64266660      95.51041866      88.43939117
H      65.85876496      95.62191251      89.10646456
C      69.62309977      94.87736035      90.26486678
H      71.41645004      95.79198788      89.82834001
C      68.82752499      95.93371735      92.75552606
H      69.90088954      94.92838296      94.19549751
H      66.81496647      95.53687483      92.93882953
C      69.08641750      98.77208628      93.07677955
C      66.95480622     100.39347145      92.75174662
H      65.26917035      99.70750080      91.82767044
C      67.06252062     103.03908829      93.17504532
H      65.45247380     104.29008711      93.07111036
C      69.39066344     104.21260833      93.62480018
O      69.66467375     106.85822517      93.78731663
H      68.01683241     107.61411569      93.71739677
C      71.62620966     102.67437111      93.66259469
H      73.37609623     103.62112400      94.11423928
C      71.46747265      99.95505495      93.43582754
H      73.15877770      98.83066779      93.63802825
C      70.12954642      91.97663045      90.20250583
O      68.51005097      90.33445829      90.11368868
N      72.62398516      91.24530637      90.56533328
H      73.84852781      92.70795454      90.61257644
C      73.54050242      88.63181488      90.60123807
H      72.08919261      87.18239480      90.79587989
C      74.63465395      87.85135791      88.07467399
H      75.64565753      86.10714053      88.49041379
C      72.67122831      87.28632975      85.99597504
H      71.85108709      85.41172124      86.23597029
H      73.56695859      87.12192356      84.14782272
H      71.06874040      88.57701282      85.95440106
O      76.03494115      89.83179109      87.27343004
H      77.68278250      89.88659315      88.03687946
C      75.52660477      87.97230040      92.69316511
O      76.85697210      89.66360545      93.63991798
N      75.67022397      85.63470895      93.42826863
H      74.29639294      84.36859232      93.03898501
C      77.66955441      84.86559034      95.13847096
H      79.37408755      85.94651379      94.72651061
C      76.74925770      85.38526507      97.90314054
H      76.27304667      87.38837497      97.89558165
C      74.49670393      83.81868196      98.75162767
H      72.93579000      84.30245190      97.49684939
H      73.97513947      84.24953956     100.69615604
H      74.91055400      81.80234399      98.66658998
C      79.15298957      85.21896916      99.60956341
H      80.52304114      86.46618853      98.71194340
H      79.86541639      83.28766887      99.59255586
C      78.78449294      85.85958638     102.39879944
H      80.47579799      85.20385135     103.37767768
H      77.07429062      85.16038764     103.31153726
H      78.98669365      87.89671134     102.63123579
C      78.25536957      82.07446457      94.50541263
O      76.62264603      80.62126504      93.75141183
N      80.52304114      81.12582197      95.21028055
H      81.69089201      82.16895089      96.30254235
C      81.12775357      78.41973389      94.87201954
H      79.51959647      77.53345224      95.80365461
H      82.91732438      77.79990365      95.68460185
C      81.23924742      77.49754744      92.08467323
O      82.23513318      78.90539355      90.52753875
N      80.63453500      74.99932926      91.56688822
H      79.78793761      74.16595995      93.06166174
C      80.90854531      73.87116265      88.96851453
H      82.76236683      74.31146888      88.18427811
C      80.92555285      70.92318960      88.97040426
H      79.05094435      70.49800118      89.70928726
C      81.04460561      69.79313327      86.32478742
H      82.96267782      69.72321339      85.57834553
H      79.87864447      70.80224712      84.96040503
H      80.54004868      67.80325146      86.50620115
C      82.79071272      69.72510312      90.88847648
H      82.49024624      67.69364733      91.05477239
H      82.34095786      70.49611145      92.74607744
C      85.58750766      70.09737920      90.21006472
H      85.94655566      72.12505554      90.21573391
H      85.92765840      69.08637563      88.44506035
H      86.85551402      69.35282704      91.65381563
C      78.84307445      74.91618130      87.33957046
O      76.78516250      73.90517772      86.94650739
N      78.92055323      77.31235427      86.54777513
H      80.30005344      78.54256610      87.02965534
C      76.99870157      78.39516744      84.85269063
H      76.83240566      77.23109603      83.16138557
H      77.86608595      80.20930470      84.40293576
C      74.31529021      78.93562917      85.73708255
O      72.59563926      79.40428129      84.25931657
N      73.86364562      78.87137847      88.28821307
H      75.36597804      78.83925313      89.46551256
C      71.25204385      78.71831064      89.34457008
H      70.11253889      77.49943717      88.13514523
C      71.68290145      77.49754744      91.90136978
H      72.91311328      78.73720791      92.99174186
H      72.71280229      75.73821225      91.61413137
C      69.27916958      76.98165216      93.46984262
N      67.79195497      74.88216623      93.54165221
H      67.91289746      73.31369339      92.46261850
C      65.80774235      75.17885326      95.07233052
H      64.31485856      73.85604484      95.52019567
N      66.03261978      77.45597347      96.28175536
H      64.85343056      78.28556332      97.53464392
C      68.32674752      78.49343321      95.33311276
H      69.13366066      80.29434239      95.84900805
C      70.06529573      81.36014803      89.54866051
O      71.39566305      82.92862087      90.70517301
N      67.89022074      81.73809329      88.46584734
H      67.00204938      80.19229717      87.78743560
C      66.51449999      84.04922857      88.63781244
H      68.06785502      85.39849316      88.73229874
C      64.76461342      84.23253202      86.49864224
H      63.24149401      82.86814963      86.75375530
H      65.81530125      83.77710798      84.78655020
C      63.59298311      86.81200844      86.09046136
H      65.03295456      88.28410524      86.02999012
C      62.60843570      86.94806874      83.47508015
H      64.17690854      86.52854949      82.20896352
H      62.09443014      88.90582520      83.09902460
H      61.08153684      85.59313497      83.19162119
C      61.66546227      87.62081130      87.93483425
H      60.71870938      89.24975538      87.10335466
H      62.42513225      87.91182916      89.82645029
H      60.44280934      85.97296996      88.11435825
C      65.35042858      84.24764983      91.36846696
O      63.90667767      82.66783864      92.18104928
N      65.78884508      86.36036385      92.63458359
H      66.74315687      87.63781884      91.58578549
C      65.05941073      86.88381804      95.34823058
H      64.74004698      85.06779105      96.26285811
C      67.25905215      88.15749358      96.65214173
H      67.44046588      90.00564591      95.76208064
H      68.90689350      87.09168794      96.02475259
C      67.06252062      88.38048128      99.47728256
H      65.20302993      89.16282797      99.89491208
C      67.27605969      85.85391720     100.85111360
H      68.97681337      84.92795131     100.15191486
H      65.59987245      84.81456773     100.25584980
H      67.14188912      86.01265421     102.89957691
C      69.13177093      90.28532540     100.28419571
H      69.25649287      90.81633850     102.27029805
H      68.92201131      92.15237500      99.43948803
H      70.92323147      89.45384583      99.69838055
C      62.70859119      88.43339362      95.49562923
O      61.07397793      87.85702709      96.84300409
N      62.57631035      90.68216793      94.38258043
H      64.09942976      91.28310090      93.40181247
C      60.22360109      92.19205925      94.25218931
H      58.60788509      90.96373715      94.59989896
C      59.77762568      94.00997597      96.48962527