 %block lattice_cart
   137.793   0.000   0.000
   0.000 143.498   0.000
   0.000   0.000   162.326
 %endblock lattice_cart

 %block positions_abs
N      88.75279923      38.12509972      82.88265095
H      88.50524508      36.98181530      84.39065255
H      90.64819472      38.23470384      82.69367832
H      88.03092378      37.42968043      81.25937605
C      88.01769570      40.75748847      83.35130307
H      89.26302533      41.53983517      84.79316425
C      88.62429785      42.39210173      81.13843356
H      87.89108403      41.54550434      79.40933399
H      90.64252554      42.37698392      80.73025268
C      87.58872782      45.25503710      81.25748632
H      85.60829465      45.24747819      81.82818367
H      87.66431687      46.14131874      79.39988535
S      89.04570681      47.14476341      83.70468190
C      91.99934903      48.17088480      82.15510632
H      93.24656840      46.55705853      81.85841929
H      93.15586154      49.38408909      83.35319280
H      91.68943392      49.08173288      80.33529988
C      85.36451995      40.94835083      84.42844707
O      83.39164569      40.21891647      83.22091196
N      85.19066513      41.93667769      86.84540703
H      86.86496264      42.44690380      87.60696673
C      82.97212645      42.70768603      88.04349351
H      81.47924265      41.46991529      87.35185368
C      83.34818197      42.18801129      90.86485490
H      84.92421373      43.21602240      91.70011393
H      83.74880395      40.17923222      91.08217342
C      81.10885629      42.97224771      92.53348323
O      80.62697608      45.17755832      93.00591481
N      79.64431840      41.26582485      93.63330394
H      78.29127436      41.80439685      94.86729523
H      80.27548699      39.47814376      93.86007110
C      82.22757427      45.52715769      87.51248042
O      83.79037793      47.30727987      87.65798934
N      79.76715061      45.90510295      87.05138720
H      78.69567579      44.34040956      87.25925709
C      78.73536004      48.42977730      86.36730627
H      79.57439854      48.85874518      84.53616147
C      75.68534177      48.31072454      86.16132610
H      75.14676977      46.96145996      84.70056766
C      74.39654843      47.60774636      88.65198538
H      75.53416368      46.24336396      89.69511431
H      72.47091733      47.00681339      88.23057642
H      74.30773129      49.23858016      89.90676365
C      74.60063888      50.78248656      85.01426223
H      75.16377731      52.32072378      86.26148160
H      72.57296254      50.41398993      84.98402661
C      75.39243421      51.47790585      82.23825428
H      74.21702443      53.03504033      81.57307061
H      74.71780191      49.84329258      81.18189727
H      77.43144889      51.71412163      82.06062000
C      79.60274442      50.57272694      88.12286202
O      80.50981305      52.53615258      87.18366804
N      79.64242867      50.16832551      90.64375692
H      79.47424304      48.40710059      91.35996319
C      80.43989318      52.14119978      92.45033527
H      79.32306493      53.85707127      92.22167839
C      80.14887533      51.38908871      95.23957131
H      81.15232000      52.65709506      96.51513657
H      81.21090151      49.63542269      95.44744120
C      77.44656670      51.20389553      96.08427897
C      76.49036519      52.94055401      97.74534840
H      77.79994552      54.32761313      98.47478276
C      74.06584632      52.77236837      98.64674785
H      73.06240166      54.06116172      99.86940078
C      72.62020569      50.61241119      98.07794023
H      70.74559720      50.20989949      98.77902869
C      73.44223664      48.94378286      96.15608857
H      72.29328304      47.42633263      95.42287476
C      75.97258017      49.17810892      95.34728571
H      76.60374876      47.77215255      94.00746975
C      83.16487852      53.03504033      92.04782357
O      83.73179641      55.23279203      92.29348799
N      84.81271987      51.23035170      91.31460976
H      84.16832319      49.44456033      91.11429877
C      87.59817646      51.67821683      91.00847410
H      88.17265326      52.90653894      92.55804967
C      88.85673418      49.06661507      91.29949195
H      90.87118243      49.43322197      91.07650424
H      88.57894441      47.74758610      89.74235747
C      88.45989165      47.89687448      93.95644714
H      89.93387817      46.47580029      94.18510403
H      86.57772424      47.06350518      94.02069784
C      88.65264373      49.90565355      95.98223375
O      90.65197417      51.23980033      96.24868516
O      86.78748386      50.43288719      97.28425518
C      88.05171077      52.73835330      88.30238602
O      89.84695076      53.95911649      87.95089692
N      86.39442080      52.43599709      86.38053435
H      84.93555208      51.25113869      86.71879536
C      86.60984960      53.55093561      83.86152918
H      88.63374647      53.61518631      83.48925310
C      84.94122126      51.95600660      82.17778303
H      82.95700863      52.31505460      82.59541255
H      85.15665006      49.94344808      82.56328720
C      85.11885553      52.60985191      79.38098809
H      86.57205507      51.50625174      78.42289685
H      85.79159810      54.55627001      79.41500317
S      82.08017562      52.73646357      77.71991866
C      81.03704670      55.80915855      78.56273660
H      82.54126884      57.19621767      78.33030026
H      80.30005343      55.77514348      80.48647798
H      79.65754648      56.42331961      77.16244940
C      85.77270083      56.32127439      84.02971482
O      86.98968458      58.07305068      83.01682152
N      83.58439776      56.85417721      85.10874855
H      82.67543941      55.54081742      86.15565692
C      82.58473254      59.47333788      85.51126025
H      82.65465242      60.55426133      83.75759423
C      79.87297528      59.28625497      86.54683027
H      79.36085945      61.10606141      87.36130231
H      79.69156157      57.98612327      88.13231065
C      77.91710855      58.27525139      84.73836219
H      78.69000662      56.42709906      84.25270253
C      75.35274994      57.70644377      85.99125073
H      75.62487053      56.02458735      87.14587351
H      73.81640246      57.42676428      84.64765533
H      74.74047862      59.35239539      87.06839473
C      77.39554409      59.70955366      82.22880565
H      79.08495942      59.61506735      81.05339588
H      76.77760358      61.63518478      82.61619954
H      75.92911648      58.64185830      81.25559659
C      84.52359174      61.04747989      87.20067557
O      85.00358223      63.26223913      86.74903099
N      85.73301659      59.86640095      89.06583545
H      85.23412883      58.06549177      89.45322934
C      87.84195115      60.88118398      90.58895485
H      87.31471750      62.63862945      91.52247965
C      88.75090950      58.94799396      92.72623531
H      90.27591864      57.96344655      91.75113654
H      87.31660723      57.52880950      93.14386483
C      89.61262471      60.27836128      95.17154116
H      87.86840731      60.92842714      96.05404335
H      90.79181392      61.91864372      94.77280891
C      90.98267628      58.49445965      97.11040036
H      91.77636133      59.47711733      98.73934444
H      92.46611144      57.59872937      95.99924129
N      89.40664453      56.51402647      98.01746899
H      89.63152196      54.85862622      97.09906200
C      87.49802096      56.55749017      99.61806718
N      87.29015106      58.48312129     101.13740713
H      85.87474605      58.49068019     102.41486212
H      88.24635258      60.03647632     100.57615842
N      85.91820977      54.72634538      99.86751105
H      84.60673970      54.93421527     101.23756263
H      85.94277621      53.13141637      98.81871295
C      90.29481590      61.75423754      89.09607107
O      91.60250652      63.52302136      89.95589654
N      90.52725224      60.89063261      86.71123646
H      89.37829865      59.58672145      85.92322059
C      92.64374571      61.72967109      85.15032252
H      93.84939110      63.04114115      86.18778227
C      94.43142681      59.60561872      84.24703335
H      95.92997976      60.41631131      83.09052084
C      95.80903729      58.60595350      86.61675014
H      96.98255733      56.96189161      86.21234871
H      94.34638911      58.10139657      87.97924282
H      96.88618128      60.09694756      87.54271604
C      93.06326495      57.56471430      82.67856051
H      92.24501345      58.37729661      80.97024792
H      91.65163939      56.70677855      83.90688261
C      94.85283577      55.47467700      81.72235899
H      96.76334907      56.13419148      81.33685483
H      94.25946170      54.60729262      79.95168544
H      94.86984330      54.10840487      83.26248594
C      91.62707295      63.46255012      82.90532767
O      93.14074374      63.67042002      81.05717533
N      89.34428356      64.57937837      82.88454068
H      88.33705944      64.56804002      84.50592585
C      88.16320462      65.62439702      80.65088417
H      89.18176710      64.95921336      78.98603529
C      85.46845491      64.55859138      80.43356565
H      84.47634858      64.95354418      82.19290085
H      85.54026450      62.50256916      80.34663824
C      84.00391700      65.47132919      78.14888654
O      82.32961949      67.11917054      78.41344822
O      84.45745132      64.48300233      76.10042321
C      88.17643270      68.57237007      80.62631773
O      88.55059851      69.80069218      78.69312771
N      88.18966079      69.54935858      82.95068110
H      87.98557035      68.33426456      84.40766008
C      88.42965603      72.23276994      83.64043120
H      89.58049936      73.29290640      82.30061524
C      85.75380357      73.46298177      83.62531339
H      85.20578294      74.00722295      85.53771642
H      84.22879443      72.11749664      83.30594964
C      85.36074050      75.52845263      81.63354186
H      83.34062307      75.87049309      81.84330148
H      85.97112210      74.74043676      79.83074295
C      86.76480715      78.08147288      82.09085562
O      85.47979325      80.04489852      82.32518169
O      89.11184723      77.95864067      82.34974813
C      89.74679527      72.75811386      86.11597267
O      89.56349182      71.22365609      87.85263115
N      90.96566875      74.92374021      86.42588779
H      91.22267152      76.06324518      84.91599646
C      91.85195038      75.75710951      88.92221625
H      92.74957038      77.57502623      88.56316825
H      93.33349581      74.50422097      89.61196635
C      89.73734665      76.35804248      90.80816311
O      87.60195590      77.01566724      90.01069860
N      90.52914196      76.02545065      93.18165936
H      92.37162512      75.53790126      93.27425594
C      89.02869927      76.47331579      95.52491998
H      87.01236129      76.32402741      95.13374664
C      89.79403843      74.45886754      97.37496204
H      91.52313800      75.12972038      98.26691286
H      89.96222407      72.77134194      96.20333173
C      87.62652235      74.04312775      99.31760069
H      85.85017962      73.76911743      98.31037657
C      88.24824230      71.69230822     100.96355231
H      86.60229068      71.35215748     102.15219016
H      89.91687064      71.70175685     102.17108743
H      88.62051839      70.13517373      99.66720006
C      87.23345928      76.43930071     100.88229408
H      86.15442555      76.03489928     102.59060667
H      86.31505228      77.87738244      99.73145076
H      89.07972188      77.16684534     101.43976334
C      89.76191308      79.27955936      96.41498108
O      91.98045177      79.69529915      97.04614967
N      87.94210664      81.00676921      96.39419409
H      86.20922761      80.70630273      95.64964192
C      88.21800668      83.51254630      97.74912785
H      90.20221931      83.82435114      98.21022107
C      87.36762984      85.87848365      96.14097076
H      87.29393051      87.61892158      97.23890175
H      85.31160761      85.74431308      96.04459472
C      88.34839780      86.50398306      93.50480255
H      90.38552276      86.64382280      93.78448205
H      87.58305864      88.38804019      93.17410045
C      87.68321414      84.42339439      91.54893582
H      85.68766315      84.01521350      91.85885094
H      88.80949102      82.71508180      91.79460024
N      87.83250252      85.49297948      89.03559982
H      87.72478811      87.39593388      88.95056214
C      87.31093805      84.22119367      86.94934197
N      86.50213519      81.89494058      87.08729200
H      85.98623991      80.91795208      85.53204724
H      86.61551877      80.88204728      88.70111827
N      87.34495312      85.26243287      84.64009642
H      87.39030656      84.24576011      83.02627015
H      87.35251203      87.17105645      84.66844232
C      86.85362428      83.33491203     100.28514057
O      84.57650408      82.80011948     100.36072962
N      88.19155051      83.94529363     102.33360389
H      90.05293093      84.34591561     102.19187442
C      87.00669211      84.06056693     104.85449879
H      85.44010900      82.72453043     104.81481454
C      88.98523556      83.41050108     106.79524771
H      88.18966079      83.58246618     108.68686375
H      90.49134745      84.81456773     106.75934291
C      90.14741725      80.74598698     106.54958329
H      90.64441528      80.22442252     104.61828300
C      92.62484844      80.65528012     107.93475268
H      92.08060727      81.24676445     109.83014817
H      93.81537602      82.12737692     107.11839091
H      93.61506504      78.86759903     107.66830127
C      88.66020264      78.62571406     107.86483281
H      86.66087220      78.81468669     107.40940877
H      88.86807253      78.99610042     109.88117078
H      89.24979725      76.70197267     107.42263685
C      85.87663578      86.74208857     105.44976258
O      84.33083966      86.89137695     107.09382447
N      86.72134345      88.78110326     104.11939525
H      87.82683333      88.31434086     102.63596010
C      85.48735216      91.30577762     104.18553568
H      84.70122601      91.74986330     106.03746746
C      87.34495312      93.28810052     103.41074789
H      86.52103245      95.15515012     103.67719930
H      87.80226689      93.14826077     101.40763800
C      89.76191308      93.29565943     104.98300018
H      90.47433990      91.39081530     105.31370228
H      89.18932601      94.07422667     106.80091689
C      91.71966955      95.10223778     103.75278835
H      91.75368461      94.76208704     101.72133256
H      93.50357118      94.39548014     104.50300970
C      91.47022567      97.90281218     104.25356582
H      91.54014555      98.33933896     106.26612435
H      89.54837401      98.35445677     103.65830203
N      93.37884924      99.28231239     102.64162928
H      93.34483417     101.17959760     102.84760945
H      92.93854301      99.25585622     100.78402831
H      95.15519199      98.94216165     103.24823142
C      83.30849772      91.61002355     102.23344839
O      83.55038269      90.53287956     100.15285972
N      81.14098164      92.91771416     102.83249164
H      80.98791381      93.46195534     104.65607753
C      78.97535528      93.26920326     101.07126671
H      78.35552506      91.36246941     100.60261459
C      76.63965356      94.52209180     102.22588949
H      77.41066190      96.18127151     103.16886292
C      74.78016288      95.30443850      99.95443846
H      75.50770750      96.97117710      98.98500886
H      72.97169479      95.99229887     100.66308583
H      74.38898952      93.68494305      98.74123417
C      75.16188759      92.76275661     104.03813702
H      76.45068093      91.85001880     105.35716599
H      74.31906965      91.30199817     102.85516835
C      72.89421601      93.99485816     105.44598313
H      71.34275071      94.44839248     104.16852814
H      73.33074279      95.80521597     106.32470586
H      72.47091733      92.61535795     106.91619020
C      79.88242391      94.58067332      98.73178554
O      81.00681108      96.64236473      98.96044242
N      79.51392728      93.38636629      96.46600369
H      78.30450244      91.90860031      96.45844478
C      80.44934181      94.31044246      94.04904373
H      81.04082614      96.27764755      94.20211156
C      82.77370517      92.97251623      92.83583944
H      84.43855406      93.15204023      94.03581565
H      83.35574088      93.97407117      91.13319603
C      82.05371945      90.37414255      91.98735233
C      81.54916252      89.78832739      89.62330471
H      81.69467145      91.22640911      88.18144353
C      80.91610421      87.33357291      88.88253199
H      80.90287612      87.07468040      86.85863511
C      80.80461037      85.34180137      90.71178706
O      80.30950206      82.93995923      89.97857325
H      80.45501099      82.66783864      88.18900244
C      81.31105701      86.05611792      93.21189498
H      81.59451595      84.54433687      94.55171093
C      82.01403520      88.51843131      93.85440192
H      82.53559966      88.97763480      95.77436386
C      78.36119423      94.45217193      92.14797906
O      76.52815972      93.08967926      92.38797430
N      78.40087850      96.09245437      90.25069384
H      79.92966707      97.11857576      89.74424719
C      76.51304190      96.12080026      88.23057642
H      74.71591218      95.71450911      89.15087313
C      76.35430489      98.74940956      87.24413928
H      75.22991774      98.70783559      85.51881916
H      78.09474282      99.41648295      86.36919600
C      75.28660952     100.72795301      89.05071763
H      76.43367339     100.77708590      90.76091995
H      73.34019143     100.23284472      89.50614168
C      75.12220333     103.42270274      88.10396475
H      74.07907441     103.66836716      86.34462955
H      76.99114266     104.09544530      87.55594412
C      73.76160040     105.29353179      90.08817738
H      74.73858889     105.51651949      91.88908656
H      71.96636039     104.34488918      90.42643839
N      73.40066266     107.82765477      88.95245187
H      72.33674675     108.96338029      90.05605203
H      72.47658649     107.85978012      87.28193381
H      75.05417319     108.75928984      88.75781006
C      77.21602009      94.27075820      85.99691991
O      79.44400742      94.10068284      85.51314998
N      75.30361706      92.96684705      85.07662320
H      73.61231202      93.10479707      85.95156648
C      75.42455954      91.57222903      82.70879613
H      76.75492687      90.02832263      83.00359343
C      72.80350916      90.29288431      82.24581318
H      71.53739253      91.87458524      81.88298573
H      72.07218506      89.47463282      83.99003057
C      72.86209066      88.25575935      80.24459302
O      71.01015888      88.18394975      78.71580443
O      74.88976700      87.05956259      80.08774573
C      76.24848022      93.23896764      80.51860333
O      76.24659049      95.60679471      80.48647798
N      76.84374400      92.07678595      78.48903727
H      76.57540287      90.18705964      78.49281672
C      77.28405023      93.23329846      76.02672389
H      78.81850800      94.59012195      76.27049858
C      78.30072300      91.15648924      74.19179964
H      78.65977100      92.19583871      72.45136170
C      80.77626446      90.04533017      74.97414633
H      80.96712682      89.46707392      76.94324115
H      82.08584480      91.59679547      74.62454696
H      81.46034539      88.65449160      73.61921256
O      76.45446038      89.11747455      73.85164890
H      77.42011053      87.99497712      72.80096107
C      74.92756153      94.42193631      74.89666755
O      75.05228347      95.83923104      73.13544263
N      72.63154405      93.89659239      75.84153071
H      72.69579475      92.50953328      77.15111104
C      70.25804780      95.41782208      75.53728477
H      70.20513547      96.25875028      73.65889682
C      67.92423582      93.62447180      76.02105471
H      67.76360908      93.26353408      78.04306186
H      68.30785026      91.78765783      75.17256759
C      65.28995733      94.65815210      74.99493332
H      64.89122507      96.53465033      75.73948549
H      63.88589068      93.38825602      75.80940536
C      65.13122033      94.44650275      72.13199795
O      64.21659279      92.61535795      71.08697930
O      65.97592798      96.22473521      70.83942516
C      70.04261900      97.58533816      77.55740220
O      68.29462216      99.05554523      77.54795357
N      71.75849050      97.66281694      79.44712851
H      73.11531399      96.33433934      79.64366005
C      71.77171859      99.66781655      81.36520072
H      71.32763291     101.49329217      80.51860333
H      73.68979079     100.36701529      81.63165213
C      70.43379235      99.13869319      83.82751411
O      70.60764717     100.62968725      85.54527532
N      69.13744010      96.98251546      84.12042168
H      69.14688874      95.74852418      82.66344270
C      67.67290221      96.19449959      86.39565217
H      66.80740757      97.90281218      87.15343242
C      65.52617312      94.43138494      85.50937052
H      64.50194145      93.77753964      87.17232968
H      66.38410887      92.62291686      85.02560059
C      63.85565505      95.32333576      83.55728324
C      62.91079190      93.36935875      81.89432409
H      63.51172487      91.41916120      81.80928640
C      61.01728613      94.15926435      80.18790123
H      60.22738053      92.72685181      78.96902776
C      59.98738529      96.67449007      80.21246767
O      58.20537339      97.15637028      78.59675167
H      57.31531229      98.72673285      78.77438594
C      61.00972723      98.57933420      81.83385285
H      60.21604218     100.43315571      82.14565769
C      62.83709257      97.76486216      83.59129832
H      63.81219135      99.02908906      84.86686358
C      69.20358052      94.88491925      88.49513810
O      70.71158212      93.16526831      88.03782433
N      68.61020647      95.46695496      90.95367203
H      67.05307199      96.55921677      91.09729123
C      69.93301488      94.42382603      93.11929839
H      71.92856586      94.80366102      92.78292710
C      69.07318940      95.96962216      95.45122066
H      69.81585186      95.04743572      97.13496680
H      67.02472608      95.90348174      95.65909055
C      69.95569159      98.62846708      95.50602272
C      68.21336394     100.59000299      96.25813379
H      66.20269514     100.28386733      96.42442971
C      69.11287366     103.02397048      96.77024962
H      67.85242621     104.41669878      97.56771413
C      71.75849050     103.60411646      96.30537695
O      72.67122830     105.97950244      96.82694141
H      71.31251509     107.17758892      96.94599417
C      73.36853731     101.57266068      95.75168714
H      75.34708077     102.06776897      95.68365699
C      72.49170430      99.13680346      95.19799733
H      73.91844767      97.74407517      94.76902946
C      69.81396213      91.62703109      93.45189022
O      67.91289745      90.38359118      93.08717304
N      72.13454603      90.55366655      93.81471767
H      73.67845243      91.67427425      93.93566015
C      72.75626599      87.93639560      93.68999573
H      71.00071024      86.93484066      94.09439716
C      73.82774081      87.10680575      91.12563713
H      75.54361230      88.07056617      90.51525553
C      74.24914979      84.40827658      90.45100483
H      72.61075707      83.17428529      90.62863911
H      75.73636439      83.76576963      91.72468037
H      74.85008274      84.21363477      88.49135865
O      71.86242544      87.78332777      89.36819166
H      71.70935762      89.58990613      89.28126425
C      74.67811765      87.41483114      95.83294537
O      75.60597327      89.18172524      97.11229009
N      75.13732115      85.04133489      96.47167287
H      74.01482371      83.65994496      95.78192276
C      76.94956868      84.17584024      98.24423615
H      78.52371070      85.50053838      98.23667724
C      75.75715137      83.84324841     100.88040435
H      74.60063888      85.42872878     101.50401404
C      73.93734493      81.52644395     101.14307631
H      74.58363133      79.72553477     100.38340633
H      72.19312755      81.98186799     100.14530082
H      73.40444211      81.34691995     103.12539921
C      77.72813592      83.65427578     102.95532385
H      79.09251833      82.11225911     102.94965467
H      76.70957344      83.43695725     104.73544603
C      79.21912998      86.11469944     103.19342936
H      78.13442708      87.81923257     102.78902793
H      80.65532199      85.90116036     101.73456065
H      79.73880472      86.36414331     105.17008308
C      77.93033663      81.50187751      97.47889699
O      76.48469600      80.16206155      96.21655981
N      80.18666985      80.82535549      98.44643686
H      81.19956317      82.23320159      99.24201164
C      80.79138227      78.12304686      98.50879783
H      79.03393680      77.13283027      98.93398625
H      82.06505781      77.51077553     100.00735080
C      81.77403995      77.24054467      96.02002828
O      83.20267305      78.65594968      94.96934045
N      80.80272064      75.24310396      95.06382676
H      79.30794712      74.50044152      95.99168238
C      81.01059052      74.38138876      92.37663595
H      82.63575515      75.41128960      91.63775296
C      81.58884679      71.50900476      92.18766331
H      79.93911570      70.36572034      92.65064626
C      82.31639141      70.89673344      89.35118412
H      82.25214071      68.84827011      89.12630669
H      84.18344100      71.66018287      88.93355460
H      80.94067065      71.68852876      88.03971406
C      83.76014231      70.91185125      94.04526428
H      82.75858736      70.51500872      95.80270975
H      84.98279523      72.53701588      94.37218693
C      85.36829941      68.64040022      93.42732378
H      86.85551401      68.39473580      94.83139043
H      86.27347831      68.87094683      91.59050980
H      84.23257390      66.93208763      93.24024087
C      78.72402169      75.15239709      90.76658913
O      77.14987967      73.56691672      90.12219245
N      78.60307921      77.60715158      90.17321506
H      79.37597726      78.95830589      91.27492551
C      76.54894670      78.50288185      88.76536896
H      76.72280152      77.59770294      86.92477553
H      76.88909744      80.53622736      88.69355936
C      73.85986616      78.08147288      89.80471843
O      72.18745837      77.69218926      88.29482711
N      73.30050717      77.85848517      92.32183388
H      74.77260397      78.43863115      93.38763952
C      70.65111088      77.73754269      93.30638129
H      69.56829770      76.55268429      92.01380849
C      70.83630405      76.07458354      95.85751181
H      72.36887210      76.65661924      97.10284145
H      71.13299109      74.16218051      95.15264390
C      68.41556465      76.22009246      97.39574903
N      66.78851029      74.24532846      97.78503265
H      66.93968840      72.48032409      97.07449556
C      64.69847300      74.97665255      98.95288352
H      63.04496248      73.82202977      99.24768082
N      64.97059359      77.45408374      99.24579109
H      63.59676255      78.46886677     100.09616793
C      67.21936790      78.28178387      98.37462726
H      67.66723303      80.27166568      98.33116356
C      69.47759084      80.45118968      93.53692790
O      70.28450397      82.03855978      95.02225278
N      67.51983438      80.99165140      91.96089616
H      67.07952814      79.75199094      90.57950622
C      66.17434925      83.44829561      91.74168790
H      67.75227071      84.74842731      91.48090567
C      64.50194145      83.39160382      89.48724441
H      63.07897755      81.90249948      89.46078824
H      65.59987245      82.83980374      87.83373389
C      63.28684743      85.99564668      88.87875254
H      62.09631986      86.55689539      90.46612264
C      65.28050869      88.04222028      88.27781957
H      64.24871814      89.79021712      88.62552921
H      65.68679986      87.96285177      86.25959187
H      67.05307199      87.96285177      89.32472795
C      61.38956223      85.69706992      86.66399330
H      62.29852057      84.59724921      85.18055815
H      60.75650391      87.55467089      86.03849389
H      59.66235237      84.86559034      87.41988383
C      64.86098945      84.12859708      94.26258281
O      63.63455708      82.45052012      95.42098504
N      65.02350592      86.62492554      94.94099455
H      66.20647460      87.76820996      93.97345468
C      63.73471258      87.47341266      97.32771889
H      62.76150352      85.84068912      98.12518339
C      65.73215328      88.47496760      99.15697396
H      64.75705451      89.17983552     100.82749202
H      66.65811919      90.13414730      98.36139918
C      67.86754403      86.78933173     100.20388233
H      68.81807636      85.86903502      98.62596086
C      69.45113468      88.38048129     102.01424014
H      71.03472532      87.31089619     102.77768957
H      68.16234132      88.81511834     103.56003627
H      70.25048890      90.05855825     101.12606878
C      66.73748769      84.60102866     101.73456065
H      65.80018343      85.32668356     103.42019652
H      68.25493791      83.35380929     102.35061143
H      65.16523539      83.66939359     100.78213859
C      61.55207868      89.19117387      96.83827977
O      59.72093388      89.05133413      98.21777998
N      61.69569789      90.85791248      94.92965619
H      63.08842617      90.46673914      93.68243683
C      59.50172563      92.36024490      94.21911910
H      57.79152332      91.22451939      94.06038209
C      58.81764470      94.28965547      96.29403859