 %block lattice_cart
   137.793   0.000   0.000
   0.000 143.498   0.000
   0.000   0.000   162.326
 %endblock lattice_cart

 %block positions_abs
N      85.69144261      39.10303308      74.54612332
H      85.47034463      37.45519174      75.48153784
H      87.11251680      38.83847140      73.30079368
H      84.04171154      39.59247220      73.71653347
C      86.59284206      41.09669434      76.32813523
H      87.94021692      40.52788672      77.77944504
C      87.35818122      43.37003510      74.70863978
H      85.80482619      44.62292364      74.19841368
H      88.24068341      42.81634529      72.93229705
C      89.13830340      45.19551072      76.11648589
H      90.86362353      44.20529413      76.64560925
H      88.04415187      45.65849366      77.79834230
S      90.40630976      47.80333303      74.35715069
C      92.76090875      48.87480785      76.52277704
H      94.24434390      47.49908709      76.91584012
H      91.85195039      49.47196136      78.27266361
H      93.67175683      50.49619302      75.63460568
C      84.20422800      41.91683556      77.70196626
O      82.36741403      42.67839527      76.57568938
N      84.31950131      41.85258487      80.23608925
H      86.01836526      41.19118066      80.80111742
C      82.31261196      42.55934251      81.90849704
H      80.60240965      41.50487523      81.45685245
C      83.07606139      42.05100613      84.61647484
H      84.92232400      42.87681653      85.02087627
H      83.20834223      40.01577089      84.90182352
C      81.07862068      42.94484668      86.59501829
O      78.97346557      43.75175981      85.97896751
N      81.51514746      42.54233497      88.99497071
H      80.15643424      42.88626516      90.29321269
H      83.24613676      41.86392323      89.42582831
C      81.79671668      45.43172650      81.64015590
O      83.38975596      47.00586852      82.09180049
N      79.47424304      46.16494031      81.04489211
H      78.08907365      44.86291888      80.88237565
C      78.65221209      48.72740919      80.73308727
H      79.88242392      49.55510932      79.30256445
C      75.87242469      48.80677770      79.84869535
H      75.65888561      47.72396452      78.10825742
C      74.04127989      47.78632549      81.83290798
H      72.17612002      47.45562339      81.02599485
H      73.75215176      49.21306886      83.28799724
H      74.44757105      45.86447383      82.45273821
C      74.91622317      51.43727673      78.99075961
H      75.30550679      52.83945365      80.44773860
H      72.95657699      51.00263968      78.52777666
C      76.34107681      52.10246039      76.61537363
H      78.34796616      52.36513235      76.98764972
H      75.63809862      53.92604628      75.96341805
H      76.21635488      50.82311568      75.00532681
C      78.96779639      50.45272932      83.11981160
O      79.19267382      52.75630569      82.87225745
N      79.29282931      49.27731955      85.28543796
H      79.08117997      47.38192406      85.34401947
C      80.08840409      50.74563690      87.61924995
H      79.17944574      52.58245087      87.39626225
C      79.05661352      49.37936477      89.88881126
H      79.76148144      50.15226283      91.66137454
H      79.73880472      47.43672612      89.91715715
C      76.08218431      49.42849766      90.13447568
C      74.81417795      50.94594789      91.92215677
H      75.77604865      52.30466110      93.10134599
C      72.19879673      50.94972734      92.15270338
H      71.43534730      52.44639058      93.31299533
C      70.73992802      49.54566069      90.63147370
H      68.72170032      49.63636755      90.91304292
C      71.93990423      47.96584949      88.80788780
H      70.78528145      46.72051985      87.67405202
C      74.51182174      47.79955357      88.65104052
H      75.36786776      46.46729652      87.36413690
C      82.87008122      51.49018906      87.70050818
O      83.68266354      52.71851117      89.44094612
N      84.31761158      50.64548140      85.80133324
H      83.69967108      49.39637231      84.49931181
C      86.86118320      51.43160755      85.48574895
H      87.09739899      52.82433584      86.98430191
C      88.81893966      49.30188599      85.81078187
H      90.64441528      50.11068886      85.30055577
H      88.57894442      47.80900221      84.41049467
C      88.94177187      48.12458650      88.46962679
H      90.58016458      46.89437467      88.67938641
H      87.38652711      46.79043972      88.68505559
C      89.28003288      50.07478406      90.54643601
O      88.36729507      49.50030726      92.68749592
O      90.15497616      52.17993917      90.04376881
C      87.35818122      52.85268174      82.95540541
O      88.72256362      54.68193681      83.04611228
N      86.19410981      51.84356788      80.94851607
H      85.43821928      50.15604229      81.42094765
C      86.28859612      53.03787491      78.42762117
H      88.20099915      52.82244611      77.69251763
C      84.34028830      51.63758772      76.78922845
H      82.47134897      51.72640485      77.65094365
H      85.05649457      49.71384633      76.93473738
C      84.31572185      52.67693719      74.14739107
H      86.18277145      53.25897289      73.49354576
H      83.01936960      54.27564565      74.23431848
S      83.09873811      50.19761627      72.12916337
C      82.38253184      51.88136241      69.38150131
H      80.69878569      53.03598519      69.64984244
H      82.13875714      50.45461904      67.91318396
H      84.03604236      52.93582969      68.75222244
C      85.65742754      55.91214864      78.60525544
O      86.79693250      57.42015023      77.26921894
N      83.78848821      56.71528232      80.10002895
H      82.76614628      55.26586224      80.81056605
C      82.96834699      59.33822244      80.27955295
H      83.50313954      60.19615819      78.48620268
C      80.16966232      59.38357587      80.87859619
H      79.43455879      61.26385355      81.28488735
H      79.99769723      58.24029145      82.58312933
C      78.31395108      58.10423116      79.10603291
H      78.91299433      56.17482059      78.70541093
C      75.81195345      58.01730375      80.40049544
H      75.28283008      60.00340610      80.53277628
H      76.00470553      57.25007487      82.30344983
H      74.52127037      56.76252548      79.40083022
C      77.95679281      59.45160602      76.58702774
H      78.13064763      61.50384880      76.57946883
H      76.10675075      58.78831208      75.96719751
H      79.31172658      58.74862783      75.20374808
C      84.58784244      60.92748227      82.12014638
O      84.42532598      63.32932441      81.97652718
N      86.19410981      59.72750606      83.72641375
H      86.15064610      57.82266194      83.62436853
C      87.63030181      61.18259532      85.66338322
H      86.24702215      62.38446126      86.60257720
C      88.86996227      59.37601697      87.53988145
H      90.86551325      59.17192653      87.06556014
H      87.88352513      57.57132834      87.65704448
C      88.81327048      60.47394796      90.27431542
H      86.85551402      60.59489044      90.90170456
H      89.68443431      62.33721810      90.38769900
C      90.24757275      58.89602648      92.21695407
H      90.69354816      60.06954652      93.85156733
H      92.18643195      58.50863259      91.64058755
N      88.89074926      56.58489120      92.83678430
H      89.00413284      55.05421289      91.70294852
C      87.36762985      56.12001853      94.80587912
N      86.71945372      57.79242632      96.48962527
H      85.02814867      57.33700228      97.24740552
H      87.52069768      59.52152589      96.61434720
N      86.45489204      53.82778051      95.06666135
H      85.24735693      53.50274759      96.50663280
H      87.07850172      52.61835567      93.72684540
C      89.76569254      62.78130378      84.38025905
O      91.07905233      64.27985675      85.63125787
N      90.33072071      62.22194480      82.01810116
H      89.22901027      60.92748227      81.14882706
C      92.23367511      63.48617170      80.44395914
H      93.24089923      65.00173220      81.41149901
C      94.29914597      61.59266593      79.52177270
H      95.93753868      62.49973456      78.66383696
C      95.33471599      60.07332598      81.82345935
H      95.91297224      61.50195907      83.19162120
H      96.87295320      58.80909907      81.29244626
H      93.82104521      59.14358063      82.86658828
C      93.27869376      59.56876905      77.70574572
H      92.37918403      60.55898564      76.13727288
H      91.93131890      58.37068257      78.70352121
C      95.12684609      57.81321331      76.32624551
H      94.09316580      57.21417007      74.64816854
H      95.46888655      56.10301099      77.42039704
H      96.82571005      58.62390590      75.48909675
C      91.17731810      65.04897536      78.22731018
O      92.68342997      66.26028993      76.96875245
N      88.66020265      65.12456441      77.99865329
H      87.64730934      64.48394719      79.48397818
C      87.28637162      66.58910230      76.03900711
H      88.67909991      66.66658108      74.52344660
C      84.99413360      65.19259456      75.21697616
H      83.79982657      65.21527128      76.89316340
H      85.55916177      63.28775044      74.66706580
C      83.65998682      66.37745296      72.95875322
O      81.40365361      66.95004003      73.11182105
O      84.86374248      67.04830580      71.06902690
C      86.92165444      69.31786710      76.81946407
O      86.88385991      70.88256049      75.17162273
N      87.04826610      69.89612335      79.26665965
H      87.11440652      68.50528479      80.57435026
C      87.04448665      72.46426141      80.29089131
H      87.77392101      73.80218764      78.90572192
C      84.17588211      72.98960533      80.66883657
H      83.24802649      72.03907299      82.24297859
H      83.36518952      72.27339905      78.91517056
C      83.49180118      75.74671602      81.13748870
H      83.69022244      76.30040583      83.11036297
H      81.45656594      75.99993934      80.95418525
C      84.79571234      77.53061766      79.18540142
O      86.69299756      78.82319046      79.73531178
O      84.13430813      77.32274776      76.84592024
C      88.69232799      72.82519914      82.66816701
O      88.99090475      70.91279611      84.10813846
N      89.85450968      74.94925151      83.12170133
H      89.29515069      76.34953871      81.95196074
C      91.61006542      75.40656528      85.27976878
H      92.97255809      76.78228604      84.57301114
H      92.81382108      73.80218764      85.74464145
C      90.32127208      76.06796949      87.84790684
O      88.21800669      76.81441138      87.83656848
N      91.64030104      75.87521741      89.97195921
H      93.47900475      75.43302145      89.72062561
C      90.53481115      76.15678663      92.53064864
H      88.48256837      75.98104208      92.60623769
C      91.55148391      73.97037328      94.07455504
H      93.60372668      73.93635821      93.91959748
H      90.59906184      72.20914836      93.58133647
C      91.07338315      74.39367198      96.90347533
H      91.71400037      76.30418528      97.33055348
C      88.35595671      73.76817257      97.40992198
H      87.27314353      75.08720153      96.25718893
H      87.99123953      74.06296987      99.41681133
H      87.83439225      71.85199009      96.86568080
C      92.70799641      72.57764499      98.45305091
H      92.53414159      70.56697619      98.05242893
H      92.07493810      72.63244705     100.41269709
H      94.62984807      73.32030743      98.40391802
C      91.08472151      78.93657403      93.36023849
O      93.30514992      79.84364266      93.29220834
N      89.14964176      80.18379340      94.18226944
H      87.47534425      79.26538641      94.14636464
C      89.15909039      82.72169584      95.40114291
H      91.12062631      83.35097470      95.46917306
C      87.65108880      84.57929680      93.90070022
H      87.30715861      86.25926350      95.04209491
H      85.78403920      83.75915558      93.61346182
C      88.64319511      85.31251061      91.28153955
H      90.65764336      85.72069150      91.42704847
H      87.64730934      86.96035196      90.54454629
C      88.33328000      83.23192194      89.20850978
H      86.52292219      82.27005125      89.40504132
H      89.75435418      81.77683268      89.53732216
N      88.74146088      84.16166729      86.64604090
H      89.89797338      85.66022026      86.40037648
C      87.82305389      83.07885411      84.68828444
N      86.81771949      80.85086679      84.46529674
H      86.44166396      80.31418452      82.67194647
H      87.14275242      79.53939673      85.81645105
N      88.19910943      84.27316114      82.56801152
H      87.50935932      83.61742611      80.91450099
H      88.95311023      86.02682716      82.55478343
C      88.09517448      82.48170060      98.12234880
O      85.95033511      81.61620595      98.47572762
N      89.52380757      83.07129521     100.12734842
H      91.42676197      83.18845824     100.03097238
C      88.41831768      83.12231782     102.63123578
H      86.77803524      81.87887790     102.51974193
C      90.55559814      82.29083824     104.43970387
H      90.50079608      83.21302468     106.28029729
H      92.45666281      82.82374106     103.85199898
C      90.55748787      79.46947685     105.05764437
H      88.90586707      78.94791239     106.16880344
C      90.79748311      77.68179576     102.66525086
H      92.33383060      78.37532532     101.48039246
H      89.07216298      78.00682869     101.58999659
H      90.91842559      75.69380368     103.18303587
C      92.71177586      78.53028288     106.78485422
H      92.84216698      76.53284216     107.27996251
H      92.68531969      79.69813374     108.48182845
H      94.51079531      78.92334595     105.86455751
C      87.50557987      85.72636068     103.56665031
O      86.38686189      85.84919289     105.69448214
N      87.46400589      87.65766097     101.89613225
H      88.52225263      87.38743011     100.33143886
C      85.88608442      89.96312707     102.13612749
H      84.71067465      89.83462568     103.82365309
C      87.73990593      92.24969591     102.29675423
H      86.62685713      93.94478041     102.65013305
H      88.96255886      92.31205688     100.63946425
C      89.43499044      92.18166576     104.64379431
H      90.77291667      90.67177444     104.22427507
H      88.33328000      91.96434724     106.37100416
C      90.86173380      94.63830997     104.93859161
H      89.50680004      96.11796567     105.40724374
H      91.95777506      95.00680660     103.23405848
C      92.81193136      94.68555313     107.12122550
H      94.04214319      93.11141111     106.62611721
H      92.11462235      94.23579826     109.00528264
N      94.33694049      97.08172609     107.24027826
H      95.06070567      97.14219733     105.47338416
H      95.68809481      96.99479868     108.58387367
H      93.21444306      98.55949207     107.69003312
C      83.97746084      90.30894699      99.80798467
O      84.30816295      88.96346185      97.99762686
N      82.08395508      91.94356025     100.11789979
H      81.91576944      92.75236311     101.83944046
C      80.17155205      92.55772130      98.22061457
H      79.25503479      90.75114294      97.85967684
C      77.96813117      94.19044483      99.19949280
H      78.75803677      96.03103826      99.67570383
C      76.18233980      94.21690100      96.95071849
H      75.90455003      92.31205688      96.21939440
H      77.07618035      95.32994980      95.46350388
H      74.44568132      95.24680184      97.36078910
C      76.32217955      93.38164197     101.55787124
H      77.73380511      93.13219810     103.03941667
H      75.34519105      91.58451225     101.30275819
C      74.37576145      95.41120803     102.43659397
H      73.87120452      94.88019494     104.36033536
H      72.75059682      95.38853131     101.17236707
H      75.13921088      97.31983161     102.58588235
C      81.52459609      93.57628378      95.84144914
O      83.18755525      95.10129292      95.94160464
N      80.67988843      92.67299460      93.70605841
H      79.33440329      91.31995056      93.67582279
C      81.77403996      93.27014812      91.11713336
H      82.74913874      95.07672647      90.96217580
C      83.88486425      91.46356976      90.46139833
H      85.06405347      91.34451700      92.14703420
H      84.98846442      92.53693431      89.09323648
C      83.25558539      88.78771730      89.58267559
C      83.33306417      88.24536585      87.03910398
H      83.83384164      89.64187360      85.63881678
C      82.44678253      85.84730316      86.05455657
H      82.28237634      85.58841066      84.03821859
C      81.99135849      83.86120081      87.74397189
O      81.42444060      81.51794018      86.88981560
H      81.30349811      81.61809567      85.08323724
C      82.02726329      84.28638923      90.28187433
H      81.61908241      82.78594653      91.60468275
C      82.62063735      86.73169507      91.18705323
H      82.59418118      87.25514926      93.15992750
C      79.33818275      93.37219334      89.31433446
O      77.20279201      93.49124610      90.20439555
N      79.74069445      93.60651940      86.82556490
H      81.58317761      93.85785300      86.39092785
C      77.90954965      93.54604816      84.79410912
H      76.07840486      92.82984189      85.40827017
C      77.59963454      96.24646706      83.57334592
H      76.42233504      96.09906841      81.88959977
H      79.43644851      96.90409182      82.91005198
C      76.61886658      98.29115093      85.34779892
H      77.88498321      98.35729135      86.97107383
H      74.65922039      97.97178718      85.89581956
C      76.62642549     100.65897800      83.70373703
H      75.48314107     100.40386495      82.01054226
H      78.57473332     100.91220133      83.07634790
C      75.68156233     103.01168726      85.15126739
H      76.47146793     103.18176263      87.04477315
H      73.64632709     102.83594271      85.40827017
N      76.28816448     105.33227117      83.77743636
H      76.18045008     106.90830292      84.85080090
H      74.90488482     105.61761985      82.49242247
H      77.92655719     105.29447665      82.79855813
C      78.45946001      91.66388075      82.66438756
O      80.53626923      91.27648686      81.94062238
N      76.45068094      90.83618063      81.46441135
H      74.76126562      91.39364989      82.15038200
C      76.76059605      89.46045987      79.03989249
H      78.37631205      88.20001242      79.25154184
C      74.24537033      87.73325002      79.03800277
H      72.66933859      89.05605844      79.12681990
H      74.18111964      86.24036623      80.45718723
C      74.10931004      86.31028611      76.48120306
O      72.62209543      87.25892872      74.81068500
O      75.66833425      84.59630434      75.92940298
C      76.98736321      91.28404576      76.72686749
O      76.31840010      93.57817351      76.97442163
N      77.72057702      90.35807987      74.47620345
H      78.10419146      88.49103027      74.40061439
C      77.86041677      91.71490336      72.08380993
H      79.20023272      93.23424332      72.45041684
C      78.90543542      89.94800926      70.03345688
H      77.54672220      88.45323575      69.63850408
C      79.43833824      91.15554437      67.38406059
H      80.70067542      90.06706202      66.17274603
H      80.22257466      93.02826315      67.72799078
H      77.75270237      91.27837658      66.20865083
O      81.12586384      88.57228850      70.74966316
H      82.53370994      89.71557292      70.68163301
C      75.35652940      92.92999738      71.29012488
O      75.46424380      94.84617986      70.00889044
N      73.11909345      92.24024728      72.33136408
H      73.00570987      90.51681688      73.14205667
C      70.74370747      93.48557692      71.93263183
H      70.78150200      93.76147696      69.89361714
C      68.63666263      91.68655747      72.72820661
H      68.91634213      91.37853208      74.74832404
H      69.03161543      89.93478118      71.72287221
C      65.77372727      92.51425759      72.27089284
H      65.31074432      94.36618938      73.04379090
H      64.45658803      91.37664235      73.37071355
C      65.13877923      92.43677881      69.48354653
O      64.75138534      94.52303666      68.46120459
O      64.98949085      90.35996960      68.33459293
C      70.39788756      95.96111839      73.40283890
O      68.86531952      97.62218782      72.85292854
N      71.83218983      96.37118900      75.46830976
H      73.11720372      95.04082167      75.94074134
C      71.47314183      98.41776259      77.31457237
H      71.08007876     100.25835602      76.47742361
H      73.28538936      98.69744209      78.25187662
C      69.49648811      97.75446866      79.49342681
O      68.91823186      99.38152301      80.94473662
N      68.55540440      95.38664159      79.73342205
H      69.18279354      93.97312631      78.61470407
C      67.78439607      94.28115170      82.14471282
H      66.35009380      95.50191489      82.97997185
C      66.50883081      91.73191090      81.33968942
H      66.04962731      90.64531827      83.02721501
H      68.02439131      90.66988471      80.43262078
C      64.46981611      91.82072804      79.49342681
C      63.42101801      89.35652492      79.00398769
H      64.33753527      87.74647811      79.86192344
C      61.41601839      89.09952215      77.40716896
H      60.74705528      87.21546501      76.99331890
C      60.20281410      91.19522863      76.32057633
O      58.38678711      90.97979983      74.58391785
H      58.52284741      92.54638294      73.67684922
C      60.99838888      93.67643928      77.15205591
H      60.08565107      95.35829569      76.44151881
C      63.02606521      94.01281056      78.71296984
H      63.63077763      95.95733894      78.85280959
C      69.87821282      93.78604340      84.00042406
O      72.01549328      93.54415843      83.27665889
N      69.26027232      93.47423856      86.39848675
H      67.42156862      93.86730163      86.72351968
C      70.90811366      93.03204260      88.59434873
H      72.81484751      93.76714614      88.35057404
C      69.88199228      94.65909696      90.79587989
H      70.83063488      94.18099620      92.56088426
H      67.84486731      94.43799898      91.01130869
C      70.38465947      97.51447342      90.50675176
C      68.47603590      99.09239489      89.58645505
H      66.79228975      98.29493038      88.75119601
C      68.66122908     101.69832747      89.69227972
H      67.20991927     102.89074478      88.88725631
C      70.84008352     102.79058928      90.90926346
O      71.27661029     105.27935884      90.86202031
H      69.79506486     106.17130966      90.30644077
C      72.85831122     101.21644726      91.73507386
H      74.64032313     102.09705973      92.19805681
C      72.59941871      98.49335165      91.57255740
H      74.03750044      97.21022748      92.24529997
C      71.11787328      90.30894699      89.45606393
O      69.28105931      88.85574745      89.36724679
N      73.37231678      89.59463044      90.16849075
H      74.78772178      90.85129844      89.93227496
C      74.27182650      86.96035196      90.46328805
H      72.78272217      85.54305722      90.57100245
C      75.71179795      85.89454632      88.18238839
H      76.63587412      84.11631386      88.66237888
C      73.97136002      85.33707706      86.03376958
H      75.36786776      84.84007904      84.60513648
H      72.78650162      86.98302867      85.68039076
H      72.99059206      83.55317542      86.34179497
O      77.47680233      87.72002194      87.26587113
H      79.15487929      87.34585613      87.83656848
C      75.88754250      86.66555465      92.82733567
O      76.98925294      88.55339124      93.69472005
N      76.29383366      84.33930156      93.71928649
H      75.84407879      82.84641778      92.61946578
C      78.16088325      83.80072956      95.69971967
H      79.97502051      84.73236464      95.40681209
C      77.17066666      84.50748720      98.33588787
H      76.26170831      86.33674228      98.06754674
C      75.00693004      82.67067323      99.23161815
H      75.94045483      80.86409487      99.56232025
H      73.55373050      82.69901912      97.77274943
H      74.48536557      83.60230830     100.99284307
C      79.39298481      84.96102152     100.18215048
H      80.92933230      86.10619567      99.42625996
H      80.34351714      83.14499453     100.37490257
C      78.85252308      86.19690253     102.67847894
H      77.22924818      85.11030990     103.33421397
H      78.05505858      88.06962130     102.35533574
H      80.43989319      86.14965937     103.98994900
C      78.86953062      81.01905243      95.41815045
O      77.60530372      79.54317618      94.00463516
N      81.06539260      80.17623450      96.45183074
H      81.90254135      81.50471209      97.53464392
C      81.86474683      77.56274300      96.44994101
H      80.29438426      76.34764899      96.99418219
H      83.35952034      77.35298338      97.85211794
C      82.82283807      76.46103256      93.82889062
O      84.13241840      77.87265812      92.62891441
N      81.98002013      74.18202263      92.99174186
H      80.97468573      73.24093893      94.31455028
C      82.11230097      73.26172592      90.34612502
H      83.60329503      74.26706031      89.34457008
C      82.90220657      70.46682070      90.07022498
H      81.52648582      69.34243354      91.10957445
C      83.01747988      69.62778222      87.29232730
H      84.63886505      70.54618920      86.41549429
H      81.30727756      70.01139666      86.21140385
H      83.45211693      67.61333397      87.29421703
C      85.51758779      70.08320626      91.36090805
H      85.42877065      70.66146251      93.33756178
H      86.75346880      71.53262634      90.58045109
C      86.88763937      67.61144424      91.28531900
H      88.77169650      68.00261759      92.02042254
H      87.07094282      66.84043590      89.38425433
H      85.74435495      66.22060567      92.28687395
C      79.52526565      73.86832806      89.23496595
O      77.66199551      72.30363468      89.22173787
N      79.33440329      76.04151332      88.07845345
H      80.84996380      77.18101829      88.29388225
C      77.26515298      76.73315315      86.28699290
H      77.06106254      75.53884612      84.62214402
H      77.72246675      78.57374658      85.48196949
C      74.68756629      77.07897307      87.58712461
O      72.90177492      77.67612658      86.34557442
N      74.41922515      77.07897307      90.11368869
H      76.08218431      77.04495799      91.04721348
C      72.08352343      77.05629635      91.48562999
H      70.75315611      75.62577353      90.83745386
C      72.64855160      76.44024557      94.27297630
H      73.46302364      78.03139513      95.29342851
H      73.81640246      74.75271998      94.43360304
C      70.20891493      75.92057084      95.53531348
N      68.98815173      73.48093417      95.48996005
H      69.90277926      71.88411543      94.98729285
C      66.67512672      73.75305476      96.49529445
H      65.45058407      72.20536891      97.01496918
N      66.37088079      76.17379416      97.25874388
H      65.00082921      76.91267715      98.36423377
C      68.47225645      77.61376561      96.62190611
H      68.76894348      79.55829399      97.16614729
C      70.72292048      79.54128645      91.35334915
O      71.84163846      81.46691757      91.98073828
N      68.38910849      79.48648439      90.47651614
H      67.51227548      77.82919441      90.12502704
C      67.28928777      81.78817104      89.46740229
H      68.76327430      83.05617740      88.78332136
C      65.68868959      81.17967917      87.07878823
H      65.00460866      79.24270970      87.22051770
H      66.90189388      81.11731820      85.41582907
C      63.64778517      83.02594178      86.42683265
H      62.43269115      83.43790211      88.03876919
C      64.59075860      85.74336821      85.92416545
H      65.99671498      85.88887714      84.42561248
H      65.33531077      86.79783550      87.52854309
H      62.92590972      86.69390055      85.16638520
C      62.08309178      82.15855740      84.22530150
H      60.52595730      83.48136582      83.94562200
H      61.35176770      80.27072081      84.59757758
H      62.97693233      82.16044712      82.36770053
C      65.81152180      83.15255344      91.73318414
O      64.26761540      81.96391559      93.11835352
N      65.94191291      85.68667642      91.83144990
H      67.06630007      86.48036148      90.51053121
C      64.70225245      87.02838211      93.85912624
H      64.20147498      85.79628055      95.42948880
C      66.47670546      88.85196800      95.43137853
H      65.32964159      89.51904139      97.00741028
H      66.95291649      90.40910248      94.17093108
C      68.98059282      87.71435276      96.42726430
H      69.88955118      86.41422105      95.11390451
C      70.87787804      89.82706678      97.20772127
H      72.71280229      89.03716118      97.70093983
H      70.01805257      90.77192993      98.82343726
H      71.08007876      91.20278753      95.69027104
C      68.45146946      86.22713815      98.81776808
H      67.55384946      87.35152531     100.29364433
H      70.33741632      85.78494219      99.51318737
H      67.10220487      84.69457011      98.54753722
C      62.25127742      88.08851857      92.96528569
O      60.25572644      87.25136981      93.79865500
N      62.28718222      89.96501680      91.37035668
H      63.92746466      90.62831073      90.65037096
C      60.01006202      91.47112867      90.61824561
H      58.43969945      90.15020998      90.42171408
C      59.23149478      93.50258445      92.59111988