 %block lattice_cart
   137.793   0.000   0.000
   0.000 143.498   0.000
   0.000   0.000   162.326
 %endblock lattice_cart

 %block positions_abs
N      86.09773377      40.40316479      77.12559974
H      84.97523634      41.01165667      75.70452555
H      85.27003365      38.90461183      77.96841767
H      87.70211141      39.78333455      76.29978934
C      86.28859612      42.74831514      78.79800752
H      87.75691348      42.43462057      80.20963308
C      87.19944420      45.05378124      77.12748946
H      86.00513717      45.19551071      75.45508168
H      89.08539107      44.88937506      76.31679687
C      87.42054218      47.48018982      78.55990201
H      88.52036291      47.24397405      80.28522213
H      85.61963302      48.03198991      79.39327131
S      88.73012253      50.12769640      76.77600037
C      91.95399561      49.65715454      77.59614159
H      93.18042798      50.90437390      76.51143869
H      92.51146488      47.68428027      77.38638197
H      92.05226138      50.02943063      79.62003847
C      83.82628274      43.17161384      80.16805910
O      81.88742354      43.83679749      78.94351645
N      83.65809709      42.92405969      82.66816701
H      85.23979802      42.44217948      83.62247880
C      81.30538784      43.44751387      84.05522613
H      79.91643899      42.12659518      83.30878423
C      81.93088725      42.85980899      86.78021147
H      83.08551002      44.45473800      87.38681362
H      82.90409629      41.05512036      86.97674301
C      79.52715538      42.71052061      88.35813294
O      77.35963929      42.70674116      87.52476364
N      79.94478489      42.78988913      90.77887235
H      78.51993125      43.42294743      91.87680334
H      81.70978927      42.93917749      91.49129917
C      80.23580275      46.18761704      83.62625825
O      81.69278174      47.96207003      83.69050895
N      77.75459209      46.60713628      83.56767674
H      76.57729260      45.11236275      83.69050895
C      76.72280152      49.22629695      83.29555615
H      77.50514822      49.93116485      81.52488259
C      73.82018192      49.21495858      82.87981636
H      73.39877294      47.73719261      81.50598533
C      72.36509266      48.54599547      85.26654069
H      70.36576221      48.86535921      84.88481598
H      73.01137905      49.64959563      86.88036696
H      72.85642150      46.62036435      85.80889215
C      72.55217555      51.69050006      81.75353948
H      72.35186456      53.09456670      83.24642326
H      70.68134650      51.20673011      81.04111266
C      74.05450798      52.90748380      79.67861999
H      75.90266031      53.44983525      80.40616462
H      72.83941395      54.22651276      78.66383696
H      74.33229775      51.28987808      78.43329035
C      77.59585509      50.97429379      85.40260099
O      78.07017638      53.14180986      84.75820432
N      78.14765517      50.06722516      87.67027256
H      77.88687294      48.19261665      87.90459863
C      79.25125533      51.47885070      89.83022974
H      78.37253259      53.34023113      89.90581879
C      78.53315933      50.29399231      92.31144039
H      78.95645803      51.55066030      93.88747213
H      79.44022796      48.45906806      92.53064864
C      75.65321643      50.01242308      92.70072401
C      74.18300937      51.79065554      94.10479066
H      75.03716565      53.54621129      94.70005445
C      71.60731240      51.31066506      94.32777836
H      70.38088003      52.52386936      95.41626072
C      70.55473485      49.34157024      92.89725555
H      68.58186058      48.94661745      93.24307546
C      72.02683164      47.56333779      91.58578548
H      71.21046988      46.00431357      90.55399492
C      74.67622794      47.96395976      91.44972519
H      75.77415892      46.59768764      90.40470654
C      81.97057150      52.03820969      89.72818452
O      82.86819149      53.55377019      91.04532376
N      83.46912446      50.87413829      88.05199728
H      82.75858737      49.56077851      86.86524915
C      86.10340294      51.59979320      87.34334991
H      87.00291268      52.53520771      88.94394810
C      87.58116893      49.07511883      86.74619640
H      89.42365208      49.77053813      86.14337370
H      86.70622564      48.20962418      85.09457560
C      87.62085318      47.23830487      88.93638919
H      88.70933554      45.63014777      88.25419799
H      85.82372345      46.38981775      89.48440982
C      88.95688968      48.48552422      91.22862721
O      91.35873183      48.67638659      91.11524363
O      87.76069293      49.27731955      93.04465420
C      86.08828514      53.33267222      84.91694133
O      87.48857234      55.16381701      84.76576322
N      84.41398763      52.54087689      83.07067872
H      83.34062307      51.00074996      83.42216781
C      84.20989718      53.47251196      80.47797422
H      85.86718716      52.83189474      79.43673502
C      81.89876190      52.31410974      79.24209321
H      80.24903083      52.70906254      80.41183380
H      82.14631604      50.26942587      79.19107060
C      81.45656594      52.91882216      76.41884210
H      83.05716413      52.27064603      75.29634467
H      81.08617958      54.88980670      75.95018997
S      78.87331008      51.21428902      74.98265010
C      78.86575117      52.69961390      72.08192021
H      80.84618435      52.86024065      71.53956876
H      78.14765517      54.60445802      72.39750450
H      77.61475234      51.70183841      70.78367823
C      84.10596223      56.36001377      80.47041531
O      85.57616931      57.64124822      79.24587266
N      82.56205583      57.23495705      82.11636693
H      81.64931803      56.02553221      83.27665889
C      81.77970914      59.85600745      82.23164023
H      81.96301260      60.35867466      80.24175843
C      78.97913475      60.19237873      83.01776638
H      78.39709905      62.14068656      83.34468903
H      78.90543541      59.41570122      84.92450023
C      76.97035568      58.84500388      81.37559421
H      77.83585032      57.04976387      80.85591948
C      74.57985189      58.47650724      82.84580129
H      73.83152026      60.29820342      83.44862398
H      74.69134575      57.17448581      84.43695084
H      73.20035169      57.67904275      81.54000040
C      76.38076107      60.32843904      78.93595754
H      75.56061984      62.18792973      79.26665965
H      75.24692527      59.21916968      77.62259776
H      78.15332434      60.55520619      77.90794643
C      83.53904433      61.58132758      83.83790760
O      83.48046282      63.90191148      83.53555139
N      85.46656517      60.53819866      85.13048040
H      85.71789878      58.65036206      85.24386398
C      87.17298804      62.17659136      86.69706351
H      86.05804951      63.63357036      87.63436776
C      88.55059852      60.65536169      88.71529121
H      89.32916576      61.96683174      90.09668115
H      90.08127684      59.51963616      87.93672397
C      86.70622564      59.04720459      90.28754351
H      85.76136249      57.66014547      89.09323648
H      85.25491583      60.11867942      91.28342927
C      88.17265326      57.63368931      92.32655820
H      89.45010824      58.95082854      93.26008300
H      89.39719590      56.27497609      91.37791559
N      86.46623039      56.23529183      93.91014885
H      85.85017963      54.56855323      93.21095011
C      85.46089600      57.08944813      96.07955466
N      85.85206934      59.41192177      96.89591642
H      85.79726729      59.80498484      98.76107629
H      86.64764412      60.67236922      95.70349912
N      84.20422801      55.75719109      97.63290969
H      83.65242792      56.43182337      99.33177364
H      84.16643347      53.85423669      97.48362131
C      89.06460408      63.83010189      85.24386398
O      89.99812887      65.62723161      86.36258195
N      89.28381233      63.42381074      82.75131497
H      87.85517924      62.36745373      82.05589569
C      90.67276118      65.02251920      80.94851607
H      91.47778458      66.63634546      81.94629156
C      92.76468819      63.80364572      79.42539666
H      93.67931573      65.15857949      78.17439784
C      94.71299602      62.83421612      81.37937367
H      95.42542285      64.42914513      82.46974575
H      96.42319835      61.84210980      80.79355851
H      93.75868425      61.68337279      82.79666840
C      91.80659696      61.58699676      77.65661283
H      90.53103169      60.34733629      78.69218285
H      93.52624790      60.63646442      77.04245178
C      90.45922210      62.50918319      75.15461519
H      91.81982504      63.65435734      74.11526572
H      88.67721019      63.46916416      75.54389881
H      90.13985836      60.76496581      74.10770682
C      89.04570681      66.75728794      79.20240895
O      90.11907136      68.45426217      78.03077864
N      86.58717289      66.43981392      79.06256921
H      85.81238509      64.96015823      79.98664537
C      85.06783293      67.79285796      77.11993056
H      86.06371870      67.50561956      75.33980837
C      82.52048186      66.57209477      76.86670723
H      81.45278648      66.85933316      78.60525544
H      82.78504355      64.54441843      76.63049144
C      81.05783369      67.19570445      74.49699044
O      78.92055323      68.11789089      74.62171237
O      82.14820578      67.15224075      72.30490791
C      85.02436923      70.58776319      77.53944980
O      85.54971313      71.96159421      75.81035022
N      84.88263975      71.42680166      79.86192344
H      84.55193765      70.14178777      81.23008529
C      84.88452947      74.09131576      80.67639548
H      85.51002888      75.20625429      79.06256921
C      82.01781465      74.80563231      81.06000992
H      81.27704195      73.22771084      82.15794091
H      80.95578847      74.89822890      79.29878500
C      81.31861592      77.16967993      82.54911426
H      82.57717364      77.20558473      84.17805834
H      79.42133071      76.93346414      83.31823286
C      81.36585908      79.67545703      81.09591472
O      79.29471904      80.65811470      80.48364340
O      83.51258817      80.65622498      80.69340302
C      86.42654615      74.69791791      83.04611228
O      86.49268657      73.25794646      84.84513173
N      87.59250729      76.89566961      83.17272394
H      87.46211616      78.13344035      81.72519358
C      89.09294998      77.50794095      85.50653594
H      89.92820901      79.33152683      85.03221463
H      90.68220981      76.21914759      85.75031063
C      87.73990593      77.81029716      88.02554111
O      85.41932203      78.38099449      88.10113016
N      89.00035339      77.46258751      90.22896199
H      90.89574888      77.66100877      90.12880650
C      87.96856282      77.16590048      92.77442333
H      85.94655567      76.77472713      92.76497470
C      89.33672466      74.77350696      93.98762763
H      91.38140853      74.95303096      94.17093108
H      89.22523082      73.19747522      92.66481921
C      88.51658345      73.88344587      96.58978076
H      86.47756875      73.87399724      96.87890889
C      89.43499044      71.20003451      97.06599179
H      91.47967431      71.26428520      96.83355546
H      88.46934029      69.87533636      95.81688270
H      88.72823279      70.93736255      98.98217427
C      89.54459457      75.47270570      98.73462013
H      89.10806779      77.43046216      98.26029882
H      91.60439625      75.41979336      98.72517149
H      88.73957115      74.96247959     100.56009574
C      88.42776632      79.54506591      94.25785849
O      90.58205431      80.24048519      94.57155306
N      86.40386943      80.65811470      95.29153878
H      84.60296025      80.09308653      95.00619011
C      86.64008521      83.18089933      96.48773554
H      88.58272386      83.82907545      96.70316434
C      85.21334186      85.17267087      95.05154354
H      85.29837954      86.82240193      96.28175537
H      83.22534978      84.69268038      94.80776885
C      86.26591941      86.14965937      92.53253837
H      88.26336012      86.47469229      92.90481445
H      85.52892615      87.96379663      91.89192115
C      86.13552830      84.32229402      90.41415517
H      84.26469925      83.47569663      90.27809488
H      87.54526412      82.82374106      90.45950860
N      86.74024071      85.54872640      87.97829795
H      87.67754497      87.17389103      88.32411787
C      85.90309196      85.05361811      85.71251610
N      84.81460961      82.87854312      85.20606945
H      84.65776232      82.26627179      83.40516027
H      84.74468973      81.61998540      86.64037172
N      86.46245095      86.53705326      83.81145143
H      85.83506181      85.94745865      82.11069775
H      87.87407651      87.80883907      84.00231379
C      85.64986863      82.79917461      99.13335238
O      83.89431289      81.27794493      99.56798943
N      86.78937360      84.08985769     101.00040198
H      88.29548547      85.13865579     100.47694779
C      86.16009474      83.91411314     103.74239486
H      84.67288013      82.52516430     104.05797915
C      88.52981153      83.40199731     105.34110332
H      88.14619709      83.33207743     107.36500020
H      90.03970286      84.74181326     104.92536353
C      89.81482543      80.89622022     104.57387443
H      90.92409478      80.99448599     102.84288513
C      91.65352913      80.49748797     106.75650832
H      90.74457077      79.98159268     108.53285106
H      92.72878339      82.16422658     107.31208786
H      92.96688891      78.99137609     106.24817195
C      87.98368063      78.67012262     104.51340319
H      86.76291743      78.73248359     106.17069317
H      89.09483969      76.97314839     104.86678201
H      86.91976472      78.61343083     102.75028854
C      84.94122126      86.44823612     104.57387443
O      83.61463339      86.49547928     106.47493910
N      85.13586308      88.45890492     103.11878517
H      86.09962350      88.44567684     101.47094383
C      83.74502451      90.80027582     103.41358248
H      82.43355444      90.47713262     104.96882723
C      85.65742754      92.99046862     104.02396408
H      87.15598051      93.09062411     102.61422825
H      86.55126809      92.41788155     105.79085818
C      84.62374725      95.63797518     104.12978875
H      83.22912923      95.59451148     105.64534925
H      83.76959095      96.30504858     102.37801246
C      86.59473178      97.66565153     104.98394504
H      87.99690871      97.72234331     103.47405372
H      87.38841684      96.86440756     106.70737544
C      85.41176312     100.28481220     105.23338892
H      83.75447314     100.19977450     106.45415211
H      85.01870005     101.20132945     103.43059001
N      87.19188530     102.22178166     106.22738496
H      86.50780438     103.95844014     105.82109380
H      89.00035339     101.90619737     105.70959995
H      87.22212093     102.10650835     108.13411881
C      81.96868177      91.39553961     101.21772050
O      82.57339419      90.87208542      99.08610922
N      79.84651913      92.57850828     101.74495414
H      79.46479440      92.91110012     103.58554757
C      77.94923390      93.10196247      99.66436547
H      77.34452149      91.32184030      98.82343726
C      75.60597327      94.71956820     100.80953962
H      76.23525213      96.32394584     101.93959595
C      74.03372099      95.82883754      98.65147217
H      73.14932907      94.27737224      97.62535078
H      75.03905539      97.22156585      97.51385693
H      72.62776461      97.11952061      99.42625996
C      74.01104427      93.01692479     102.64635359
H      75.15432868      92.54827266     104.29419494
H      73.40444213      91.26136904     101.75251305
C      71.73770351      94.48524213     103.70271060
H      70.43946153      95.04460112     102.20415764
H      72.32918786      96.34284311     104.36600454
H      70.50371223      93.68777763     105.14457178
C      79.24936561      94.57594900      97.53275419
O      80.75925693      96.19733417      97.95227343
N      78.48024699      93.80494066      95.26886207
H      77.04405500      92.55016240      95.22161891
C      79.26448342      95.03704222      92.98418296
H      79.80683487      96.95133497      93.52086523
C      81.57939816      93.50825363      92.02231226
H      82.75669765      93.11897001      93.66448443
H      82.63197571      94.88964357      90.91682237
C      81.00303163      90.90610050      90.85068195
C      81.26759331      90.47335317      88.28443362
H      81.76837079      92.12497397      87.19595126
C      80.69122678      88.08095966      87.16193619
H      81.27515221      87.74647810      85.23441535
C      79.76337116      86.17800526      88.63403298
O      79.00937036      83.88198780      87.71373627
H      78.95078886      83.87253916      85.90148873
C      79.51581702      86.47280257      91.29854708
H      78.80905938      84.94023453      92.44750068
C      80.23958219      88.85007828      92.47395685
H      80.09218355      89.00881528      94.50352291
C      77.06862144      95.31861144      91.11524363
O      74.88031838      95.15609498      91.95617184
N      77.41255163      96.00269237      88.75497547
H      79.19267382      96.49024175      88.26931580
C      75.46046435      96.02347935      86.79154983
H      73.57262776      95.35073679      87.27343004
C      74.98236360      98.79192840      85.97329833
H      74.08474359      98.89775307      84.12325627
H      76.67177892      99.96922789      86.00920313
C      73.28538937     100.25835602      87.65893421
H      74.05639770     100.56260196      89.54488107
H      71.60164323      99.16420448      88.12569660
C      72.67122832     102.82649408      86.48163471
H      71.75093159     102.32760633      84.70529198
H      74.44379159     103.86962300      86.56667240
C      70.63599307     104.33638541      87.89326027
H      71.29739728     104.76535328      89.79432494
H      69.12043257     102.94365711      87.81200204
N      70.16167176     106.77224262      86.69517379
H      68.75004621     107.57726603      87.69861846
H      69.59286414     106.66263849      84.87725707
H      71.83407955     107.67742153      86.84635189
C      75.93289592      94.35485102      84.48041455
O      78.12308873      94.28682087      83.65838360
N      74.02427235      93.28526593      83.32957122
H      72.27249607      93.30794264      84.08546175
C      74.04505934      92.14387123      80.87859619
H      75.36597804      90.56594976      80.82757358
C      71.45802403      90.93255668      80.45907695
H      70.06151628      92.38764593      80.03766799
H      70.79661982      90.15776888      82.24864777
C      71.53928225      88.93700568      78.49187186
O      73.12287291      87.20223692      78.59958626
O      69.92923544      89.07306597      76.74576475
C      74.76504507      93.93911123      78.73753628
O      74.61197724      96.22190062      78.86036849
N      75.15054923      92.91865902      76.41506264
H      75.19401294      91.01192517      76.33947359
C      75.11275471      94.33406403      74.05668420
H      76.06517677      96.10284787      74.50454934
C      76.75492687      92.92621793      72.04034623
H      76.37509188      93.63297557      70.14306101
C      79.65376704      92.94700492      72.47876273
H      80.59296102      91.79805132      71.05012964
H      80.14320616      92.06828219      74.27589246
H      80.19800821      94.93499700      72.48632164
O      76.32973846      90.19367368      72.00066198
H      77.74136401      89.48880576      71.10682143
C      72.49926322      94.97279152      72.98898884
O      72.52382966      96.86251784      71.63972425
N      70.25804781      93.99013384      74.01511023
H      70.32229850      92.43488908      75.11871039
C      67.88077211      95.19388951      73.65606223
H      67.82597004      95.68143889      71.65673179
C      65.67735122      93.13975700      74.09636846
H      65.61310054      92.91298984      76.14294205
H      66.19513624      91.30672248      73.30835258
C      62.94480698      93.67643927      73.37071355
H      62.41001444      95.65687245      73.56346564
H      61.70325680      92.46512471      74.47998290
C      62.29852058      93.08873439      70.54746244
O      63.25283237      94.48335241      68.88261356
O      61.30263482      91.07806559      69.92385276
C      67.57841590      97.51069396      75.24154260
O      65.80774235      98.87696610      74.97509119
N      69.29995658      97.80360154      77.08024631
H      70.61142664      96.41843215      77.05379014
C      69.33208192      99.80671143      78.97186234
H      68.66689826     101.54903909      78.09691906
H      71.24637467     100.03914777      79.69184807
C      67.85620567      99.25302162      81.41905792
O      67.03417472     101.02180545      82.55289371
N      67.37243574      96.87952538      82.20329434
H      67.96014062      95.45089228      81.08457636
C      66.06285539      96.31638693      84.60324676
H      65.41656900      98.07194268      85.46307223
C      63.88967014      94.54382365      83.77365691
H      62.88244601      94.08839962      85.51220511
H      64.66634766      92.82417270      82.94973623
C      61.91679587      95.53592996      81.92172512
C      60.62800252      93.89942698      80.33435502
H      61.30452454      91.98324450      80.15294129
C      58.46993508      94.76114218      78.90383220
H      57.36255545      93.39298033      77.87393136
C      57.52129247      97.24424255      79.09658428
O      55.35944556      98.10595775      78.20652319
H      54.69615162      99.48545796      79.17973224
C      58.83276252      98.85806882      80.68206466
H      58.11088708     100.71755951      81.11859144
C      61.05886012      98.05493514      81.92361485
H      62.06608424      99.24735244      83.23886436
C      67.66912276      95.22034567      86.68005598
O      69.60987169      94.12619413      85.97329833
N      66.78851031      95.42632584      89.10646456
H      65.18413266      96.33528419      89.60157286
C      68.40611603      94.62130243      91.21728885
H      70.19379711      95.64175464      91.12658199
C      67.20236037      95.61340875      93.75897074
H      68.00549405      94.74791409      95.44838607
H      65.16523539      95.31672171      93.74385293
C      67.53306247      98.41398314      93.88180295
C      65.42979709      99.97867653      93.67771251
H      63.45125364      99.47411960      93.64747689
C      65.73593274     102.62240364      93.42826864
H      64.19580579     103.96410932      93.43771727
C      68.16801050     103.71277573      93.83455980
O      68.41556465     106.21855281      94.24652013
H      66.79417947     107.01601732      94.08967285
C      70.21836355     102.18776659      94.22384342
H      71.98147821     103.09294549      94.71328253
C      69.98403749      99.56293674      94.20683588
H      71.68857063      98.44421876      94.30699137
C      69.08641750      91.92844243      91.52153479
O      67.30440559      90.49602989      91.85034717
N      71.44857538      91.10830121      91.73318414
H      72.96413589      92.23457810      91.44783546
C      72.01927274      88.30394736      91.85412662
H      70.31473960      87.17011159      92.09034241
C      73.27972019      87.61608699      89.23496595
H      74.47402722      86.00037099      89.69227972
C      71.11409384      87.17200130      87.39059307
H      69.70246828      85.90399495      88.18994730
H      71.95124258      86.50114846      85.63125787
H      70.03506011      88.85385772      86.89548478
O      74.87086974      89.55683591      88.40537610
H      76.63398439      89.13164749      88.40915555
C      73.80695382      87.88631786      94.20116670
O      74.92378207      89.83273595      95.19327302
N      74.12064839      85.48069625      94.91737297
H      73.15877771      84.22780771      93.84400843
C      75.79872536      84.63976804      97.02063836
H      77.38420573      85.94556893      96.89024724
C      74.59119025      85.33140787      99.69460109
H      74.05261824      87.31751024      99.62090177
C      72.15533303      83.71191242      99.94215524
H      71.53361308      83.64010282     101.90558088
H      72.72980982      81.76927377      99.57932779
H      70.66811842      84.13332139      98.58155229
C      76.52438026      85.02716194     101.88668362
H      78.00592570      86.28571966     101.20260269
H      77.33129340      83.14688426     102.11534050
C      75.42644928      85.88698741     104.45860113
H      74.74992725      87.82206715     104.26584904
H      76.90610499      86.12320320     105.87211641
H      73.88632233      84.68701120     105.11622589
C      76.67933783      81.90155462      96.50474308
O      75.15621842      80.50315714      95.40681209
N      78.69378607      80.81685171      97.65558640
H      79.69534101      81.88265735      98.88390850
C      79.32873412      78.20902940      97.43448842
H      77.69790030      76.97503812      97.70849874
H      80.73846994      77.90100401      98.90280577
C      80.30950208      77.69313413      94.72462089
O      81.63420021      79.42223369      93.65881525
N      79.76715061      75.46703652      93.86857487
H      79.19456354      74.17446372      95.15169904
C      79.95234379      75.09853989      91.16248679
H      81.40554334      76.31363391      90.35368393
C      80.71201378      72.40567989      90.59367917
H      79.23046834      71.21893178      91.39303340
C      80.61941719      71.88411543      87.69105955
H      82.26914826      72.90645737      86.99941972
H      78.88653816      72.50583539      86.77265256
H      81.10507685      69.88667472      87.55688898
C      83.32928472      71.36255097      91.68594098
H      83.35763062      71.83309282      93.68905087
H      84.71823356      72.50583539      90.68438603
C      84.25336089      68.54118958      91.51586561
H      84.28548624      67.97049224      89.53732216
H      83.05527441      67.27507295      92.61568632
H      86.13741802      68.45048273      92.33978628
C      77.42200027      75.76372355      89.90581879
O      75.61353218      74.33131101      89.94928250
N      77.31428586      78.14477872      89.07811867
H      78.60496893      79.35987272      89.79054549
C      75.16566704      79.01783226      87.36224717
H      74.92000262      77.49471285      85.99597505
H      75.67400342      80.64110716      86.20195522
C      72.55406529      79.36365218      88.42427336
O      70.91756230      80.19891121      86.93516903
N      72.12887686      79.06507542      90.93194018
H      73.79750520      78.85342607      91.83900881
C      69.58719497      78.97058910      92.08845268
H      68.33241670      77.75171563      90.99808060
C      69.98403749      77.61187589      94.71139281
H      70.93079038      78.87421306      96.03609095
H      70.90055476      75.76939273      94.66981883
C      67.48392958      77.02606074      96.00774506
N      65.91923619      74.96436932      95.53909293
H      66.38032942      73.26739509      94.79265104
C      63.74416121      75.21948237      96.95827739
H      62.35143292      73.78706983      97.36834800
N      64.02384070      77.30574022      98.29998307
H      62.63678160      77.98604170      99.42059078
C      66.23482050      78.48681917      97.69527065
H      66.68079590      80.41811946      98.18093032
C      68.37777013      81.68423609      92.13002666
O      69.32452302      83.23381167      93.57377757
N      66.50316163      82.28327933      90.55777437
H      65.87766222      81.10031066      89.19717142
C      65.17090458      84.56228926      90.85068195
H      66.50505136      86.07784977      90.44628052
C      63.17346387      84.30150704      88.74552684
H      61.81286092      82.82185133      89.18961252
H      63.86132424      83.92734122      86.84068271
C      61.49349718      86.65232657      88.62269463
H      60.87555667      87.30617187      90.47462641
C      62.92402000      88.69323098      87.11658275
H      61.92624449      90.49036071      86.97296355
H      63.67046189      88.11875419      85.28732768
H      64.61532504      89.15054475      88.19939593
C      59.07464750      86.26871214      86.95217656
H      58.01262131      84.71157764      87.78176642
H      59.53763044      85.58463120      85.06433998
H      57.76695688      87.85986168      86.97863273
C      63.98982564      84.81173314      93.57566729
O      63.36810568      82.86153558      94.83800447
N      63.72904340      87.04916909      94.35612426
H      64.54918463      88.27371174      93.14669942
C      62.24749798      87.84852332      96.55009651
H      61.60877048      86.18745389      97.59133571
C      63.96903865      89.30550231      98.42092556
H      62.83898231      90.00848050      99.99317785
H      64.85343056      90.76626075      97.26819251
C      66.14789308      87.92033292      99.57932779
H      67.13621994      86.72035671      98.22628375
C      67.80707279      89.85730239     100.90024648
H      68.31162971      91.35396563      99.57554834
H      69.31885383      89.04472008     102.03786172
H      66.60709657      90.83240118     102.26084943
C      65.18791212      86.17233608     101.67314454
H      66.74315687      85.29928253     102.70304538
H      64.10887838      84.71535710     100.69237659
H      64.01061262      86.92633688     103.18681532
C      60.06108462      89.68911676      96.09845192
O      57.96159869      88.95212349      96.72395133
N      60.33509495      91.77348487      94.79265104
H      61.92624449      91.87175064      93.74007348
C      58.21860147      93.34195771      94.07266531
H      56.79941702      91.89820681      93.69283032
C      57.40412944      95.02948331      96.21372522