 %block lattice_cart
   137.793   0.000   0.000
   0.000 143.498   0.000
   0.000   0.000   162.326
 %endblock lattice_cart

 %block positions_abs
N      85.38436208      37.43723934      78.62509757
H      84.73429623      35.77805963      79.31106822
H      87.10590275      37.17834683      77.84842005
H      84.16548861      38.05329011      77.29284052
C      85.72829228      39.29673003      80.58663348
H      87.06999795      38.60697992      81.98881040
C      86.91504040      41.54361461      79.24114834
H      85.43160524      42.75681891      78.48903727
H      88.43249062      40.83874670      78.03928241
C      88.32477622      43.35586215      81.02504998
H      89.87813125      42.55461819      82.11353234
H      87.11157194      44.30450476      82.39132211
S      89.44727366      45.86541869      79.07674216
C      91.52786233      47.60774635      81.09119040
H      92.24406860      49.25936715      80.09152519
H      93.26830026      46.66288319      81.65999802
H      90.57544026      48.14631835      82.83729752
C      83.21306655      39.87876574      81.95290560
O      81.28743543      40.26238017      80.62820746
N      83.30755286      40.04317192      84.45490324
H      85.05365998      40.31529251      85.17866842
C      81.20806694      40.86898232      86.03471444
H      79.78699274      39.48759238      85.47724518
C      81.83356635      40.44757335      88.88253199
H      83.59290154      41.48125364      89.15276286
H      82.28710065      38.52572170      89.47401633
C      79.64526327      41.20535360      90.55305005
O      77.56089514      41.70991053      89.81416707
N      80.02698799      40.96913781      92.99835590
H      78.42638980      40.59686173      93.96967523
H      81.76931565      40.54961857      93.65409093
C      80.63925932      43.68278480      85.55472396
O      82.30032875      45.19267612      85.33740543
N      78.19962265      44.26671023      85.36008215
H      77.01854370      42.77004700      85.41677394
C      77.36247388      46.91988597      84.70056766
H      78.60024462      47.72301966      83.26248594
C      74.60725292      46.95957024      83.66310792
H      74.61670155      45.44589945      82.26660017
C      72.71941634      46.20934888      85.76448358
H      73.09736159      44.35741709      86.58273507
H      70.82591056      45.98825091      84.98402661
H      72.43028820      47.61908471      87.23847010
C      73.40160753      49.39731717      82.51226459
H      73.12948694      51.01303317      83.75948396
H      71.49109423      48.97023902      81.87353710
C      75.07023587      50.22312757      80.17089369
H      76.89571148      50.75036121      80.96835819
H      74.51654605      51.88608672      79.08619079
H      75.31967975      48.70945680      78.79706266
C      77.82545683      48.78126639      86.95312143
O      78.59079598      50.96767974      86.40699052
N      77.46262938      47.89687448      89.35118412
H      77.19428824      46.03738379      89.68755540
C      77.82734655      49.55605419      91.48846458
H      76.60280391      51.19822635      91.71523174
C      77.32845882      47.86096969      93.82605603
H      78.30544731      48.56394787      95.49657409
H      77.94261986      45.92588994      93.47456693
C      74.50898715      47.70790185      94.17187594
C      73.32790820      49.53526719      95.75546659
H      74.21985903      50.90720849      96.97434007
C      70.71630644      49.49180349      95.94065977
H      69.83002480      51.00925371      96.97811952
C      69.31223979      47.91766147      94.40053283
H      67.27322510      47.90443338      94.49879860
C      70.46119339      46.08273722      92.91898740
H      69.21208429      44.95457062      91.76247489
C      73.08791296      45.92022075      92.82450108
H      74.01954803      44.48402876      91.71145228
C      80.60713397      50.52359405      91.74168790
O      80.99263813      52.60418273      92.88308260
N      82.43638903      49.08740205      90.70989734
H      81.89970676      47.60963608      89.62519443
C      85.13302848      49.58628980      90.80249393
H      85.65270322      50.82972971      92.35962841
C      86.55410267      47.08996134      90.88375216
H      88.41926254      47.35641276      90.05416231
H      85.52798128      45.83140363      89.61574580
C      86.86401778      46.13753928      93.53881763
H      87.81832958      44.31017394      93.50480255
H      84.95161476      46.07328859      94.29848761
C      88.31154814      47.80049845      95.25090967
O      90.69449302      48.30694509      95.05626786
O      87.23062469      48.90976778      96.97622979
C      85.94561079      50.82972971      88.33640109
O      87.87502136      52.19033266      88.17955380
N      84.54910305      50.44989474      86.11597267
H      83.42471589      48.90976778      86.18589254
C      85.04988052      51.54593600      83.66499764
H      87.03598288      51.24357979      83.20579415
C      83.74030020      50.13808988      81.53527609
H      81.70506495      50.41776938      81.69779255
H      84.08989956      48.11041356      81.48047403
C      84.73051678      51.12074757      79.09374969
H      86.77520065      50.87508315      79.06351407
H      84.07667147      53.06527594      78.90855651
S      83.70628511      49.60518706      76.22892460
C      81.04932992      51.59695860      75.34642241
H      79.45818037      51.66309903      76.65222330
H      80.30288802      51.42121406      73.43590911
H      81.56711494      53.59250959      75.38799639
C      84.64736883      54.45611451      83.62720312
O      86.00797177      55.91687296      82.52927213
N      82.54977261      55.36318315      84.82151015
H      81.30633270      54.07627952      85.48858354
C      81.58601219      57.90675477      84.96512935
H      82.42127122      58.94421450      83.39476678
C      78.72496655      58.08627876      84.74025192
H      78.11836442      60.04403523      84.54749983
H      77.82356710      57.73667939      86.56005835
C      77.37948142      56.56882854      82.73336257
H      77.74230887      54.58839535      83.16610990
C      74.50331797      57.22456356      82.47635979
H      73.72664047      57.34172659      84.38120392
H      73.63026441      55.76002568      81.32362674
H      74.44284673      59.11806933      81.66377748
C      78.24875553      57.12251834      80.12365053
H      78.47363295      59.11240015      79.64554978
H      77.16783208      56.29103876      78.57785441
H      80.18761473      56.48946002      79.84019159
C      82.52520617      59.30326250      87.12319680
O      82.33434381      61.66542039      87.12319680
N      84.17493724      58.02580751      88.69166964
H      84.32044618      56.13608120      88.48757919
C      85.72640254      59.30893168      90.68155144
H      84.41304277      60.29725854      91.92310163
C      86.88858423      57.06960600      92.42765856
H      88.38524746      56.04726408      91.44878033
H      85.30121413      55.86018117      92.94166411
C      88.22840018      58.23178769      94.65186643
H      87.01897535      59.70955367      95.42854394
H      90.05576554      58.94988368      94.02636702
C      88.53831530      56.04915380      96.67387358
H      86.76953148      55.27247628      97.38252095
H      89.54931887      56.79181623      98.30848684
N      90.15025184      53.95155758      95.63263438
H      89.43782502      52.18277375      95.57783232
C      92.57666044      54.15375830      95.21500487
N      94.01663188      56.02269762      95.51736108
H      95.58888418      55.85451199      94.44966571
H      93.55553867      57.59683964      96.49812903
N      93.98261680      52.22245802      94.44021708
H      95.87801230      52.40765119      94.33061295
H      93.16247558      50.63886736      93.75802588
C      87.58967269      61.17598128      89.46078825
O      88.38524746      62.96366237      90.67399254
N      88.09800907      60.85472781      87.00981322
H      87.13613838      59.49223514      86.08573705
C      90.02930936      62.03013757      85.49425271
H      90.75307455      63.68364810      86.48824875
C      92.33288573      60.21977976      85.26748556
H      93.75018048      61.25157033      84.18845183
C      93.69348869      59.12940768      87.73546812
H      92.24973779      58.96689122      89.19622656
H      95.16747520      60.48056200      88.22868669
H      94.63646212      57.31716015      87.48791397
C      91.90391786      57.84250406      83.51192981
H      90.38268819      58.47556238      82.27415908
H      91.12157117      56.29670795      84.62686834
C      94.12434629      56.96378134      81.82818367
H      95.87612257      56.30615657      82.68611941
H      94.49473263      58.53603363      80.55261841
H      93.39302219      55.54270715      80.52616224
C      89.11657156      63.22255489      83.01304207
O      90.71528001      64.03513720      81.44645895
N      86.69205270      63.28113639      82.65588379
H      85.49774566      62.63107055      83.99569975
C      85.67915938      64.56804002      80.26726973
H      86.91315067      63.89340772      78.76304759
C      82.88803362      63.70443510      79.99892860
H      81.57467383      64.56048112      81.33496510
H      82.88803362      61.66353067      80.27860809
C      82.09812802      64.14096187      77.34197340
O      80.78665796      65.95698885      76.77883496
O      83.07700625      62.99011855      75.49760052
C      86.21017248      67.46499045      80.37309441
O      87.03409315      68.61583377      78.47391946
N      85.92104435      68.67630501      82.57273583
H      85.67349021      67.66341171      84.17333402
C      86.11001698      71.44097461      82.90154821
H      87.47628911      72.24977748      81.59196788
C      83.57778372      72.67874535      82.52171322
H      82.76142196      73.60660097      84.17144429
H      82.27387257      71.20286910      81.92455971
C      83.27731725      74.64406071      80.40899921
H      81.27609709      74.90673268      80.00270805
H      84.44327838      73.95997980      78.85564418
C      84.38091741      77.18196316      81.28772194
O      86.61646364      77.50510636      81.65999802
O      82.81433429      78.95074698      81.64488021
C      87.07566714      72.17040897      85.52259861
O      86.84323079      70.79846767      87.37075094
N      88.30209951      74.39083740      85.68889452
H      88.27564334      75.54546017      84.17144429
C      90.02175045      74.78012101      87.85830033
H      91.12724035      76.51111031      87.71468113
H      91.39369176      73.24377351      87.93010993
C      88.53075639      74.85948952      90.35273906
O      86.37268894      75.85348555      90.41698976
N      89.78553467      74.16595996      92.44088664
H      91.40503011      73.16062557      92.52214487
C      88.67059614      74.60059702      95.00146579
H      86.66181707      74.15840106      94.88808222
C      90.01986073      73.00944745      96.89875101
H      92.05887542      73.27967832      97.01024487
H      89.61923875      71.05547044      96.39041463
C      89.05987977      73.26645024      99.61617745
H      89.35467707      75.16373545     100.36450907
C      86.27631290      72.83370290     100.11695492
H      86.02497930      73.44975368     102.06715248
H      85.80955051      70.87783617      99.67286924
H      85.22184562      74.00344349      98.79036705
C      90.60945534      71.44097461     101.44921197
H      89.98395593      69.49455651     101.20543728
H      90.29576077      72.08726101     103.38051227
H      92.62957277      71.51656367     101.05236945
C      88.82366397      77.45975293      95.42098504
O      90.83811223      78.60681679      95.24524049
N      86.58811775      78.52744828      96.29214887
H      85.07444696      77.37471523      96.42442971
C      86.41048348      81.07668908      97.44110246
H      88.30398923      81.73809329      97.90786486
C      85.21239700      82.99098184      95.62885493
H      85.02720382      84.75031703      96.68521194
H      83.29621450      82.30312147      95.31705009
C      86.58622801      83.69773948      93.21756416
H      88.61768380      83.70718812      93.55771489
H      85.98340533      85.60825278      92.73190449
C      85.76230734      81.84580769      91.09729123
H      83.79321253      81.32046378      91.40531662
H      87.03220343      80.23009169      91.22579262
N      85.89080874      82.84547291      88.50269700
H      86.37457867      84.69173553      88.42521823
C      84.75508322      81.80423372      86.61297069
N      83.97840571      79.53089296      86.69611865
H      83.60801935      78.83547368      84.95757044
H      84.64169964      78.36493182      88.05294214
N      84.34501262      82.93806950      84.50214640
H      84.00486187      81.75132138      83.04516741
H      85.11035176      84.66149990      84.21112855
C      85.16326410      81.06913019     100.00735080
O      83.14881585      80.12993621     100.47789265
N      86.52008760      82.07635430     101.93109218
H      88.19060565      82.71319207     101.26401880
C      86.00797177      82.22186324     104.63151109
H      84.79476747      80.67039793     105.23433378
C      88.60445573      81.94029402     106.01479075
H      88.30398923      82.34280571     108.01223146
H      89.94049222      83.34058121     105.31181256
C      89.94238196      79.37026622     105.68975782
H      90.33166557      79.19263195     103.67530957
C      92.41981315      79.13027099     107.17319298
H      91.66203289      79.22853675     109.08370628
H      93.89568940      80.54567600     106.92752856
H      93.13223996      77.20275015     107.00122788
C      88.07155291      77.28778783     106.50989904
H      89.22806540      75.74010197     107.22799504
H      86.96228355      76.75866447     104.85449879
H      86.74118558      78.11926740     107.84215609
C      84.76831130      84.80511910     105.34771736
O      83.18094120      84.84480336     106.92941828
N      85.61868814      86.86303105     104.11561580
H      87.06810823      86.58335156     102.90430124
C      84.44516810      89.40660267     104.07971100
H      84.05399476      90.01509455     106.00912157
C      86.40859374      91.17727622     103.04981016
H      85.45050251      92.96684705     102.70210052
H      87.19660961      90.40059872     101.31126195
C      88.60256599      91.86513661     104.86394742
H      89.57199560      90.11902950     105.36850435
H      88.14714195      92.85724293     106.60816481
C      90.66236767      93.49030124     103.52035201
H      89.73262234      95.10601723     102.64729846
H      91.59589247      92.31489146     102.11061618
C      92.52752754      94.31044245     105.63684548
H      93.44404481      92.56055588     106.21321201
H      91.35022806      94.84334527     107.24122312
N      94.24150932      96.31733181     104.82993235
H      93.13790914      97.60801488     103.96065824
H      95.50951566      95.59545635     103.59783079
H      95.17881356      96.95794903     106.36250039
C      82.16048899      89.39526431     102.41675185
O      82.13214310      88.16505248     100.52513581
N      80.30288802      91.03554676     102.92130877
H      80.47485312      92.20339762     104.42175147
C      78.24497607      91.53443451     101.25645989
H      77.09413274      89.93761577     100.64418857
C      76.28344017      93.47329369     102.14841071
H      77.27176703      95.24207752     102.52257652
C      74.23119739      93.81533416     100.10372684
H      73.08035406      92.11458047      99.95254873
H      75.21385506      94.16115407      98.32738411
H      73.08224379      95.49719058     100.41175223
C      75.00031599      92.61346822     104.62962136
H      76.45540525      92.36780380     106.06581336
H      74.01765832      90.82011796     104.38206721
C      73.24287053      94.43516439     105.85605374
H      71.56101410      94.30666300     104.67497479
H      73.93640009      96.36079550     106.09604898
H      72.60603276      93.71328894     107.67586018
C      79.48085708      92.53976890      98.82249240
O      80.62792096      94.61279866      98.87162528
N      79.08212484      91.31333653      96.69655030
H      77.91238424      89.80722465      96.71733729
C      79.88147907      92.32622983      94.19644239
H      80.88681345      94.10824174      94.43265817
C      81.71073413      90.55366654      92.99079700
H      82.94850486      89.95840276      94.52714449
H      82.75386305      91.65537699      91.59806871
C      80.77720933      87.98930793      91.84373313
C      80.96996142      87.66427501      89.28882315
H      81.56144575      89.18550469      88.06239077
C      80.24997569      85.36258836      88.23057642
H      80.40115379      84.89771569      86.24825351
C      79.29188446      83.36514765      89.88597667
O      79.07834537      80.97086441      88.92599570
H      79.22007486      80.98787194      87.11941734
C      78.91960836      83.70907783      92.51647569
H      78.34324184      82.12737691      93.66920874
C      79.90226605      86.03911038      93.46511830
H      80.05533388      86.43784264      95.46066929
C      77.64782256      92.64937302      92.44844555
O      75.54833662      92.36024491      93.36874226
N      78.07490071      93.24652654      90.03337532
H      79.85691261      93.62825126      89.46456770
C      76.08879835      93.73029647      88.16065654
H      74.28410973      93.12558405      88.94678269
C      75.97730449      96.51197361      87.34618450
H      74.51843579      96.86346270      85.93644867
H      77.75553695      97.05621479      86.46179259
C      75.69762500      98.36012594      89.50992113
H      77.07712521      97.98218069      90.99335628
H      73.75309662      98.08044645      90.13542054
C      76.19840247     101.12668526      88.60663195
H      78.15804866     101.15314144      87.97357364
H      75.94706887     102.34366901      90.25069384
C      74.42017001     102.16036555      86.52604328
H      72.41328067     101.78431002      86.79438442
H      74.79433582     101.30809899      84.68922930
N      74.74331322     104.89290980      86.01959663
H      76.27777098     105.24061946      84.94434236
H      74.82268172     105.96627435      87.59562837
H      73.35814382     105.63179279      84.93300400
C      76.39304429      92.14292638      85.75503495
O      78.41127198      91.70262014      84.82906905
N      74.40694193      91.47207353      84.41710872
H      72.67028346      92.02198390      84.98780606
C      74.17450559      90.33634801      81.92266998
H      75.73541954      89.01731906      81.66566720
C      71.68384631      88.89826629      81.95668506
H      70.12293238      90.23997198      81.98314122
H      71.72542029      87.66049556      83.60263667
C      71.36826203      87.24286604      79.58507853
O      69.80734809      87.81734284      77.96936254
O      72.63437866      85.30967602      79.43767988
C      74.53355360      92.10702158      79.67578540
O      74.24253574      94.42382603      80.12931971
N      75.20440643      91.33223378      77.33630422
H      75.62203596      89.48786090      77.10008843
C      74.98330845      92.98763403      75.07430182
H      76.55367102      94.29532464      75.33697378
C      75.32156946      91.57033931      72.54962747
H      74.49008989      92.94039087      71.25894440
C      78.14482057      91.15459952      72.04507054
H      78.81000424      90.31745076      70.28573535
H      79.07645565      89.89604178      73.38110705
H      79.27865636      92.86858127      72.19246920
O      74.24442547      89.18928414      72.46081033
H      74.86236597      88.50520323      70.89800667
C      72.49264917      94.52965070      74.79462233
O      72.52099508      96.61023937      73.81952355
N      70.35536871      93.50730878      75.75082384
H      70.64260712      91.76876057      76.48214793
C      67.88549642      94.88491925      75.83019235
H      67.85715053      95.93749682      74.05951879
C      65.85026118      92.90259635      76.03806224
H      64.11738216      93.70761977      76.80151167
H      66.46442224      91.75364275      77.63299125
C      65.17751863      91.54766259      73.63622010
H      64.17974312      89.79588630      74.05384962
H      66.88394148      91.14137142      72.55529665
C      63.41629369      92.97440596      71.92223833
O      63.83581293      95.23262890      71.39311497
O      61.71742974      91.64592835      70.88666831
C      67.50944089      96.93527231      77.99014953
O      65.31546864      97.74596489      78.49659618
N      69.72608985      97.41148333      79.30161959
H      71.34180585      96.44961265      78.97658666
C      69.66939806      99.06877331      81.66755693
H      68.68863010     100.83377769      81.26126577
H      71.61392645      99.57333023      82.12298097
C      68.32013347      97.98407041      84.08073743
O      68.24832387      99.24640758      85.99314046
N      67.45274910      95.57277963      84.05239154
H      67.65872926      94.57689386      82.43856527
C      65.95230641      94.36713424      86.14620829
H      64.71075622      95.56522072      87.27059545
C      64.21375821      92.10702158      85.43756092
H      63.17440872      91.32845434      87.03626939
H      65.56680224      90.70484465      84.77426699
C      62.25789146      92.64937302      83.32484691
C      61.07303306      90.60279943      82.16644468
H      61.48688313      88.68283750      82.72580367
C      59.36849993      91.10735636      80.25026220
H      58.50300528      89.55967050      79.23925862
C      58.68819846      93.55644165      79.50004085
O      57.34271332      94.11202120      77.30417887
H      56.78146461      95.82978242      77.15489049
C      59.90707193      95.56522072      80.71324514
H      59.60282599      97.42282170      79.92144982
C      61.51900847      95.16081930      82.78249545
H      62.42985656      96.68582843      83.78971958
C      67.79478957      93.14448132      87.94144829
O      69.97175427      92.22796406      87.24980846
N      67.46597718      93.52809576      90.46612264
H      65.77656186      94.25186093      90.98390765
C      69.28956307      92.84590457      92.48624007
H      71.13771542      93.46006561      91.81538723
C      68.81713149      94.16304381      94.89564112
H      70.14182965      93.40904301      96.27892078
H      66.88772094      93.57722864      95.31138091
C      69.28578362      97.09400931      94.75013220
C      67.12960590      98.70027669      94.63107944
H      65.26822548      97.89714299      94.40431228
C      67.43196212     101.30998872      94.30226706
H      65.97687285     102.64791494      93.79959986
C      69.89616523     102.30020530      94.66509451
O      69.92640084     104.86267419      94.30793624
H      68.29934649     105.62990307      94.07927935
C      71.97675390     100.87535167      95.12618773
H      73.79845005     101.77297167      94.90886921
C      71.73486893      98.16170468      94.99957607
H      73.50932194      97.18093673      95.24713022
C      69.14972332      89.90926988      92.84717780
O      67.10314973      88.77543409      92.77536820
N      71.22275310      88.70362449      93.50858201
H      72.58524576      89.89226233      94.12652251
C      71.75187646      85.96730078      93.46700803
H      69.86592960      85.18306437      93.74101834
C      72.72130606      85.17739518      90.86485490
H      74.61670155      85.85202747      90.42454866
C      72.51910534      82.42595367      90.65509527
H      70.61993040      81.71541658      90.29982673
H      73.31279040      81.49809805      92.31427498
H      73.76065553      81.81557208      89.12819641
O      71.04511883      86.09202272      89.00536420
H      71.08480307      87.87403463      88.66710319
C      73.56790344      85.26999177      95.62507548
O      75.04377970      87.03499615      96.39041463
N      73.46207877      83.06657090      96.82127223
H      71.88037786      82.13304609      96.30348722
C      75.32156946      81.86281523      98.52958482
H      76.80311489      83.29144833      98.45210604
C      74.47875153      82.10658993     101.31882086
H      73.33357738      83.79222580     101.62495652
C      72.69673961      80.08647250     102.19565387
H      73.69829456      78.30068113     101.96132781
H      71.08669280      80.12426702     100.91063998
H      72.24131557      80.42284378     104.17608704
C      76.56122992      82.31068036     103.34460747
H      77.98986303      80.84614247     103.11028140
H      75.91305381      82.33902627     105.29858447
C      77.69317599      84.87314925     102.90808069
H      76.21163057      86.30367207     102.96099303
H      78.45473569      85.05267324     101.00323656
H      79.26164883      85.23408697     104.19309458
C      76.20218193      79.17940387      97.85684225
O      74.92661666      77.97753793      96.40931190
N      78.34702129      78.20808454      98.79036705
H      79.45062146      79.15294769     100.02624806
C      78.92338782      75.43963550      98.52958482
H      77.10736083      74.52311823      98.85272802
H      80.35013118      74.78767992      99.86562132
C      79.93817085      75.08247722      95.87829880
O      81.29310462      76.57914046      94.80682398
N      79.21440567      73.01700636      94.74068356
H      78.12970276      71.80947124      95.74412824
C      79.60935847      72.25166720      92.05160302
H      80.97563059      73.41384888      91.03870972
C      80.52587573      69.47943871      91.72279064
H      79.34290706      68.17930699      92.79804491
C      80.88870318      68.65551804      89.00914366
H      81.52554095      66.70532048      88.81261212
H      82.03576706      69.88384013      87.82050581
H      79.02354331      68.74811461      88.13986955
C      83.30377341      69.36416539      92.83394971
H      83.51542276      70.18619634      94.71233767
H      84.55666195      70.13895318      91.39208854
C      84.32422562      66.62784170      93.36874226
H      83.99730297      65.30881274      91.81916668
H      83.10724187      65.96076831      94.88997194
H      86.17615742      66.74689445      94.25691363
C      77.02799232      72.71653987      90.70800761
O      75.63904349      71.07058825      89.88408694
N      76.51776623      75.17885326      90.17321507
H      77.65160201      76.57914046      90.79871447
C      74.41450083      75.96497941      88.69166964
H      74.07246037      75.00310871      86.90209882
H      74.83968925      77.94730232      88.33640109
C      71.79534016      76.10292942      89.94266845
O      69.85837069      76.33536577      88.64442648
N      71.33613668      76.17095958      92.43143801
H      72.83468964      76.21064383      93.61251695
C      68.83791848      76.40150618      93.68621628
H      67.53211760      75.30168547      92.53159350
C      69.02689111      75.25255258      96.36773792
H      70.37993515      76.41095481      97.39952849
H      69.77144329      73.36282628      96.01246937
C      66.40773044      74.91240185      97.64897236
N      64.85437543      72.90740224      97.52425042
H      65.50066182      71.19342047      96.98567842
C      62.83992717      73.54801946      98.91130954
H      61.28090296      72.23276995      98.87918419
N      62.88717032      75.84970610      99.79759118
H      61.48499340      76.64528089     100.81993311
C      65.27578438      76.69252403      99.06815682
H      66.13183040      78.41028525      99.76357610
C      67.90439369      79.16806550      93.92243207
O      68.90027946      80.67606710      95.40019805
N      65.95041668      79.80490327      92.42954828
H      65.43074194      78.52555857      91.11051932
C      64.43296645      82.13493582      92.39175376
H      65.44963920      83.71096757      91.53948719
C      62.18419214      81.61715082      90.59651376
H      61.10326868      80.19796636      91.62452487
H      62.75111003      80.89905481      88.74836143
C      60.52879189      84.06812583      90.01069860
H      60.13950826      85.06968079      91.76625435
C      61.95931470      85.82935076      88.20412025
H      63.33692519      86.89704613      89.30394096
H      60.84815563      87.31089619      87.29705162
H      62.91929567      84.62181564      86.84162758
C      57.87183669      83.56356891      88.88442172
H      58.03057370      82.48453518      87.13831461
H      56.87217147      85.34180137      88.60474223
H      56.69264747      82.57902150      90.25447330
C      63.51455946      83.01554828      95.02036306
O      62.51678397      81.59258436      96.59828453
N      63.59770742      85.50809728      95.51358163
H      64.23076573      86.80255981      94.26069308
C      62.83236826      86.71941186      97.87007034
H      62.18419214      85.27566096      99.18909930
C      64.93185419      88.15749358      99.10406162
H      64.12872051      88.91527383     100.84449955
H      65.54412552      89.74486369      97.94376966
C      67.26755592      86.79311118      99.72767130
H      68.15572728      85.82746103      98.13841147
C      69.13460552      88.80377997     100.61962212
H      70.87504345      87.84757846     101.16386330
H      68.61871023      89.82612191     102.32982444
H      69.58247065      90.17194184      99.14563560
C      67.11637781      84.86559034     101.72511202
H      68.84925684      83.77143881     101.52669075
H      65.64995020      83.53522301     101.15063522
H      67.04456821      85.71974664     103.59783079
C      60.63461656      88.49008542      97.25590929
O      58.57481488      88.50709295      98.44643686
N      61.13350431      90.39492953      95.67042891
H      62.85504498      90.43650351      94.84650824
C      59.21921155      92.24686132      94.94855346
H      57.41452292      91.26231391      94.81060344
C      58.81292039      94.18194106      97.05370857