 %block lattice_cart
   137.793   0.000   0.000
   0.000 143.498   0.000
   0.000   0.000   162.326
 %endblock lattice_cart

 %block positions_abs
N      85.11507608      38.70713542      75.75460329
H      86.70811536      38.02683395      74.95335934
H      83.82439301      39.20980262      74.44313324
H      84.29115541      37.18590574      76.55773697
C      85.52325697      40.57229529      77.68023441
H      87.01992021      39.95624451      78.95579967
C      86.17332283      43.19712514      76.56340615
H      84.40831844      44.01348691      75.88688414
H      87.07472227      42.90988674      74.73226136
C      87.72478813      44.87142265      78.43234548
H      89.34995276      43.71302042      78.92934349
H      86.64197494      45.26259600      80.14065806
S      88.57894441      48.09340602      77.26449462
C      90.99779409      48.84740681      79.75137444
H      91.32660648      50.87886260      79.75893335
H      92.56815667      47.55861347      79.40555454
H      90.18710150      48.21623823      81.53716581
C      83.25936484      40.91622548      79.50948947
O      81.07862069      40.94079192      78.45880164
N      83.69400190      40.89354876      81.91322134
H      85.47790353      40.64410489      82.54816938
C      81.66821530      41.44345912      83.70657162
H      80.15643424      40.26804935      82.94501191
C      82.69622641      40.40410965      86.18211308
H      84.59162190      41.11275702      86.55627890
H      83.13464290      38.40099976      85.97802264
C      80.94445011      40.89921794      88.46301275
O      78.76748539      41.78360986      88.40443124
N      81.61341322      39.91844999      90.64753636
H      80.33028906      39.89577327      92.05916192
H      83.22912923      38.93201285      90.90075970
C      80.84996380      44.33096093      83.60263667
O      82.43166472      46.04683242      83.21524278
N      78.42355521      44.85819457      84.04861209
H      77.19901255      43.39554640      84.11286277
C      77.10452624      47.44711962      84.26215115
H      77.71868729      48.36552661      82.52360295
C      74.20757581      47.15043259      84.19790047
H      73.88632233      45.80494745      82.67100160
C      73.16066743      46.11675229      86.68855975
H      71.26338222      45.45534808      86.22935625
H      73.17767496      47.56050320      88.15876682
H      74.35686419      44.57851507      87.35563312
C      72.68256668      49.62975351      83.36264143
H      73.18145441      51.36641199      84.35285801
H      70.66433897      49.40487608      83.71224079
C      72.90177493      50.12864126      80.50159580
H      74.84252384      50.50280707      79.92144982
H      71.73959325      51.73490862      79.94223681
H      72.30084196      48.47135128      79.43579016
C      78.07773529      48.81906092      86.54494055
O      78.34985589      51.20389553      86.45423367
N      78.85441281      47.48680387      88.59529360
H      78.58229223      45.60463646      88.76725869
C      80.01281504      48.93433423      90.65698500
H      79.04338545      50.70878723      91.04626862
C      79.70289992      47.32050795      93.13441620
H      80.47390827      48.25403275      94.80115480
H      80.71390350      45.55928303      92.79048601
C      77.09129817      46.65154484      93.78070259
C      75.61353218      48.58095540      94.85784659
H      76.31840009      50.48579953      95.05248841
C      73.28727910      47.95545600      95.65342136
H      71.97391931      49.36897128      96.32049475
C      72.37265156      45.42133301      95.44744121
H      70.47725607      44.89220964      95.98979266
C      73.76349013      43.53727588      94.25880335
H      73.05484276      41.63810093      94.03581564
C      76.32028983      44.07584787      93.78070259
H      77.35397012      42.40721954      93.21567443
C      82.80205108      49.67132749      90.11274382
O      84.06060880      51.08673250      91.54515636
N      83.88108481      48.84929654      87.98113254
H      83.00425179      47.57184155      86.86430429
C      86.48134820      49.50881102      87.14020432
H      87.65864770      50.52170433      88.49513810
C      88.04226214      47.05216682      86.42588779
H      89.86773776      47.75703473      85.77582193
H      87.13897296      46.14698791      84.81206151
C      88.17076353      45.38542821      88.80127375
H      86.26213996      44.73347263      89.21512383
H      88.83594719      46.38131398      90.47746100
C      90.03025422      43.13476417      88.40632095
O      92.34138950      43.56184232      88.02459624
O      89.12507533      40.94646110      88.11530310
C      86.40953860      51.33995582      84.93867318
O      87.81549498      53.16543144      84.93678345
N      84.71634384      51.05649687      83.01871125
H      83.73935532      49.42755279      83.19634552
C      84.64075479      52.50780668      80.65655335
H      86.59851124      52.30749569      80.05562038
C      82.93244219      51.10374003      78.77816540
H      81.14098165      51.15854210      79.79294843
H      83.50691900      49.13086576      78.60997975
C      82.69622641      52.45300462      76.30262393
H      84.12296978      51.81049767      74.96469769
H      83.08739976      54.45233506      76.59364177
S      79.54038346      52.19411212      75.05918401
C      79.31550603      54.45611451      72.53639938
H      80.62319663      53.85140209      71.06619231
H      79.84273967      56.26647232      73.36787897
H      77.30294750      54.58461590      72.11499041
C      83.73746561      55.27814546      81.18378700
O      85.17554732      57.03937038      80.58663347
N      81.65876665      55.67120853      82.55194884
H      80.54949731      54.24446516      83.16610990
C      80.70445488      58.24879522      82.89587904
H      80.18855959      59.15019467      81.11575685
C      78.25347984      58.25446440      84.50592585
H      77.49947904      60.16308798      84.68733957
H      78.67488882      57.69888487      86.44289532
C      76.00092607      56.62741005      83.44200994
H      76.48469601      54.65831523      83.08296194
C      73.62931955      56.83339021      85.07851292
H      71.85297683      56.02647708      84.41332925
H      73.24381539      58.84027956      85.33362598
H      73.92789631      56.27403123      87.03626938
C      75.37920612      57.41164647      80.77182665
H      76.87020018      56.71244773      79.53783538
H      74.79150123      59.38641046      80.76426774
H      73.85419698      56.26458259      79.99892859
C      82.73969010      60.08371947      84.07317853
O      82.60740927      62.27769172      83.57051132
N      84.38375200      59.07838507      85.72101987
H      84.47823831      57.18487931      85.94400758
C      86.10529267      60.78669766      87.15910159
H      84.97334661      62.44965682      87.60129754
C      86.80827086      59.29381387      89.61385608
H      88.34272863      60.20088250      90.64186718
H      87.41676273      57.42865400      88.98646693
C      84.51036366      58.76469051      91.38452962
H      83.24235731      57.45888962      90.42076920
H      83.47857310      60.44843665      91.97034478
C      85.45900628      57.52880950      93.79771014
H      86.92921334      56.13608120      93.42165460
H      83.88675399      56.37607645      94.46100406
N      86.02025499      59.68876667      95.65909054
H      86.41142834      61.43298406      94.98823771
C      86.35284683      59.49601459      98.15919847
N      85.71978850      57.48912524      99.56326512
H      85.63286110      57.59117047     101.46810924
H      84.91287536      56.06616133      98.58060742
N      87.39219629      61.35739501      99.23067328
H      87.71722922      61.18354019     101.10339206
H      87.94966555      62.81437399      98.13274229
C      88.47878893      61.65597176      85.78905002
O      89.56349182      63.45121176      86.71312619
N      89.17042875      60.50890789      83.65743873
H      88.16320462      58.94421451      83.23225032
C      90.72378378      61.59172107      81.62220349
H      92.20910867      62.69910069      82.52171322
C      92.22989566      59.57160364      80.31451288
H      93.25412732      60.55993050      78.82540855
C      94.11206307      58.39619387      82.16644467
H      95.33093654      57.02047312      81.23858906
H      93.12940538      57.25479918      83.57240106
H      95.29314200      59.62451598      83.32106746
C      90.53670088      57.55715539      79.21280244
H      89.02869928      58.33005345      78.04306186
H      89.58049937      56.50457784      80.70568624
C      91.93698807      55.64664209      77.69157277
H      90.59717212      54.23312681      77.01883020
H      93.15775128      54.49957822      78.88965925
H      93.15019237      56.51780592      76.27427803
C      89.22712054      63.30192338      79.77783061
O      90.34583851      65.19164970      78.83296746
N      86.80638114      62.78791783      79.36776000
H      85.80860565      61.52180120      80.39199167
C      85.32294598      64.02568856      77.30606859
H      86.44544340      64.30914751      75.60342519
C      82.82661752      62.53469450      76.93757197
H      81.45467622      62.61217328      78.47014001
H      83.22346004      60.52591543      76.71080480
C      81.54916253      63.36239463      74.45447160
O      82.83606615      63.37184326      72.37766237
O      79.20212245      63.84616456      74.42612569
C      84.71634384      66.71098965      78.16778380
O      84.78815343      68.55347281      76.71647399
N      84.53115066      67.14562670      80.65844307
H      84.42910543      65.65841210      81.85086037
C      84.06249852      69.75344902      81.82440422
H      84.86185276      71.23499445      80.63387664
C      81.15987892      70.16918880      81.87164737
H      80.49847471      70.71154026      83.74436615
H      80.21123630      68.40229470      81.39165689
C      80.42666511      72.28001310      80.01026696
H      78.37064287      72.19308569      79.93278817
H      81.31294675      72.15529116      78.15455572
C      80.92555284      75.02389570      80.69056842
O      83.23668813      75.55679852      81.07418286
O      79.29471904      76.66039869      80.42411702
C      85.17932677      70.03690796      84.44167515
O      85.46278573      68.22088098      85.82306508
N      85.83884127      72.41229394      85.12197663
H      85.70656042      73.80691196      83.82751411
C      86.91220581      73.02078581      87.57484138
H      87.92320939      74.81602581      87.57673111
H      88.28414711      71.51089449      87.84885170
C      85.00358224      73.28912695      89.52881838
O      83.22346004      74.61760455      89.32472795
N      85.65553782      72.16851924      91.80026942
H      87.27314354      71.17263348      91.98546260
C      84.49524586      72.46331655      94.29659788
H      82.45245171      72.50300080      94.04337455
C      84.96767744      70.18052716      96.09372760
H      86.99535377      70.02745933      96.41498108
H      84.52170202      68.39284607      95.17532062
C      83.50880872      70.47154501      98.57871771
H      83.34440252      72.50866998      98.83949994
C      80.97090629      69.47376952      98.20077244
H      80.33784797      69.12228043     100.13018301
H      81.04271589      67.52924115      97.52614014
H      79.52148619      70.69075327      97.39007985
C      84.92799318      69.25834072     100.81615365
H      85.94844539      67.65396308     100.02057887
H      83.58628749      68.72165845     102.28258127
H      86.31127284      70.66051765     101.42086608
C      85.14153225      75.11271284      95.30004254
O      87.31849697      75.22420669      96.08616869
N      83.44077857      77.01944669      95.57783231
H      81.77970914      76.76055418      94.67076368
C      83.74124506      79.45152445      96.84205922
H      85.76136249      79.72742450      97.13874626
C      82.40898800      81.41306037      95.13941582
H      82.07828591      83.04767363      96.34695093
H      80.51170279      80.71197190      94.74635274
C      83.84329027      82.27855502      92.77158875
H      85.80671592      82.49776327      93.35362444
H      83.20456279      84.19284777      92.35017978
C      83.70156081      80.38882871      90.57761650
H      81.97624068      79.27577991      90.74202268
H      85.37396859      79.21530866      90.84028846
N      83.99068893      81.73431384      88.10774421
H      84.31383213      83.61459152      88.14175927
C      84.16832321      80.62504449      85.90810278
N      83.54282380      78.33469620      85.50748080
H      83.54282380      77.34070016      83.87853671
H      82.92110383      77.31613372      86.99658512
N      85.20956241      81.72675493      83.95223603
H      85.41932203      80.60803696      82.41966799
H      86.05238034      83.41994971      84.18467238
C      82.64709353      79.48931898      99.42342536
O      80.33784797      79.47987035      99.77680419
N      84.27603760      79.77277793     101.33960785
H      86.12796939      79.97497864     100.92953723
C      83.49558064      80.22253279     104.04002675
H      81.69089200      79.26822100     104.32159597
C      85.39664530      78.85248121     105.83526674
H      86.14119748      77.07802820     105.10016321
H      84.31572185      78.41595443     107.53413070
C      87.66242715      80.43418214     106.63462098
H      87.17865721      81.80612344     108.08971023
C      89.72033910      78.66161886     107.69853688
H      88.91531571      77.49565772     109.19142068
H      91.34739347      79.65561490     108.47521441
H      90.50079608      77.55801869     106.14329213
C      88.88885953      82.05367759     104.67497479
H      90.92220504      82.31257009     104.88473441
H      88.27658820      84.02088268     104.74678438
H      88.59217251      81.45274462     102.72855669
C      82.90787575      83.03066609     104.70898987
O      81.94600506      83.39727300     106.78957854
N      83.06283330      84.85047253     103.03847181
H      83.95100468      84.33646697     101.43031471
C      82.23324346      87.49797909     103.32759993
H      81.11074602      87.66805446     105.04725088
C      84.60673970      89.22707867     103.46932940
H      85.26058502      89.51431707     101.53802911
H      85.94844539      88.46551897     104.83182208
C      84.00958619      92.00497635     104.36505967
H      82.68110860      91.91237976     105.93542224
H      82.83984560      93.04243610     103.02146427
C      86.32639066      93.38258683     105.39496051
H      87.36385040      94.23296367     103.83215685
H      87.59817646      92.16749281     106.46454560
C      85.31916653      95.69939129     107.03146351
H      83.70156081      95.30443849     108.24277806
H      84.89208838      97.21306207     105.70109618
N      87.20700311      96.73307159     108.84938021
H      88.13296901      95.41971180     109.87928106
H      86.13930774      97.47384430     110.24777769
H      88.48256837      97.89525327     108.03301844
C      80.50036443      88.29544360     101.28102632
O      80.73091103      87.48097156      99.11917942
N      78.57851276      89.81100410     101.93676136
H      78.79394157      90.63870423     103.64318422
C      76.80028031      90.76909534     100.04703505
H      75.94234457      89.11558482      99.17020204
C      74.98992251      92.69661618     101.22622426
H      76.18611925      94.19705887     101.97833533
C      73.14932907      93.66982523      99.21933492
H      71.97202957      95.10979668     100.10372684
H      72.18556865      92.06166814      98.36517862
H      74.35119500      94.40114932      97.71511277
C      73.48759008      91.62325164     103.43720405
H      74.53071901      90.27398705     104.59371656
H      71.78683639      90.65760149     102.79280739
C      72.70335367      93.70950949     105.21354679
H      71.71880626      92.99519294     106.87650595
H      71.67912200      95.28365150     104.36883912
H      74.48347584      94.45028220     105.94109142
C      78.14198599      91.99363799      97.80770936
O      79.91832873      93.42416081      97.91920321
N      77.24247626      91.14137143      95.51358163
H      75.70423905      90.03210208      95.71767207
C      77.97380035      91.89537223      92.86229560
H      79.20968136      93.52809576      93.08906276
C      79.69912048      89.88848288      91.99680095
H      81.10129739      89.53132461      93.46322858
H      80.95011930      90.71240355      90.57950621
C      78.51615180      87.49608937      90.89886997
C      78.83740528      86.73452966      88.28159903
H      79.85785749      88.00253602      87.05138720
C      77.87364486      84.50654234      87.34051532
H      78.33095862      84.12670735      85.38842804
C      77.04405500      82.70941262      88.91654707
O      76.69445563      80.36048281      87.98113254
H      77.14798995      80.14694374      86.23880487
C      76.84185429      83.11192432      91.51870019
H      76.18045008      81.63415835      92.76025039
C      77.47869206      85.53455346      92.46356336
H      77.47302287      85.69140074      94.49690886
C      75.76282056      92.59835041      91.10107068
O      73.69923943      92.98952376      91.93066054
N      76.47146793      92.66071138      88.65009566
H      78.17789079      92.09946267      88.00380926
C      74.64599232      92.64181412      86.49958711
H      72.76571462      92.33189900      87.28382353
C      74.59307997      95.34979193      85.36008215
H      73.82963055      95.10790696      83.46279693
H      76.55272616      95.90915091      85.07095401
C      73.18334415      97.43227032      86.81328167
H      74.08663333      97.77431078      88.63308812
H      71.27283084      96.72929213      87.13642488
C      72.98114342     100.13268922      85.81550619
H      71.96258095     100.20449882      84.02782509
H      74.83307522     100.96983798      85.48480407
C      71.47881101     101.83722236      87.53704685
H      72.68445640     103.48506370      87.80160853
H      71.20291097     100.94905099      89.37386084
N      68.91823185     102.65736358      86.45234396
H      67.75227073     103.35845204      87.79027018
H      67.85809539     101.19471541      85.83629317
H      69.17523464     103.82899389      84.96890880
C      74.93134098      90.46106995      84.65332451
O      77.04783446      89.65415682      83.94656686
N      72.64477214      89.72974587      83.67066682
H      71.03850478      90.29099459      84.53805119
C      72.34052621      88.32001004      81.33685483
H      73.84852781      86.92161257      81.20835344
C      69.87632310      86.76854474      81.34252401
H      68.36832150      88.17072166      81.30472948
H      69.82530049      85.71974663      83.11508729
C      69.59475388      85.00543009      79.18445655
O      71.06874040      83.06090171      79.00304282
O      68.15667215      85.48164112      77.38732683
C      72.28761388      90.06233770      78.98792502
O      72.06840562      92.39803942      79.19012573
N      72.52949885      89.10991564      76.69001782
H      72.45579951      87.20696124      76.56907533
C      72.91689274      90.52343092      74.32408048
H      73.99025729      92.20717707      74.83052713
C      74.07718469      88.77354436      72.29640414
H      74.31151076      89.96407193      70.63155525
C      76.69256591      87.79466613      72.82552750
H      76.54705699      86.80444954      74.62643669
H      78.01726405      89.36313897      72.96914670
H      77.26515299      86.38870975      71.43279922
O      72.45202006      86.71185295      71.63122048
H      73.41767021      85.56478908      70.61076827
C      70.41489509      91.73474549      73.30173853
O      70.51694031      93.46384506      71.72759652
N      68.34753450      91.09790772      74.34108801
H      68.28328382      89.46707391      75.33130460
C      65.80018344      92.46984902      74.14077703
H      65.72648412      93.25975462      72.23971235
C      63.51739406      90.72374191      74.34675719
H      61.92057532      91.98985854      74.64722368
H      63.59676255      89.48975063      75.99459853
C      63.03173440      89.04755467      71.97137122
H      61.79207393      87.55467088      72.66301105
H      64.75894425      88.13481686      71.31941563
C      61.79207393      90.46862886      69.95503324
O      59.49227700      90.20973635      69.43157906
O      62.76339326      92.25630995      68.81930773
C      65.48648887      94.84712473      75.99270881
O      63.80652217      96.43260510      75.81129508
N      67.44424534      95.07578161      77.66700633
H      68.81240719      93.75297319      77.52905630
C      67.86754403      97.05621479      79.60208606
H      67.56140837      98.99885344      78.99359420
H      69.86120529      96.84834489      80.08018682
C      66.38977804      96.81244009      82.15888576
O      66.35387325      98.67759996      83.57240106
N      65.10665389      94.66760073      82.71824476
H      65.36176693      93.20117311      81.52204801
C      63.70258724      94.04777050      84.98969578
H      62.69914257      95.74096527      85.59251848
C      61.84876571      91.85379825      84.50025668
H      60.45036824      91.98040991      86.00825826
H      62.74638572      90.00753564      84.67600121
C      60.43902989      91.71584823      81.96802342
C      59.40723932      89.34424170      81.36331100
H      59.74927978      87.72474625      82.55950775
C      57.96537815      89.13826153      79.17500793
H      57.66491166      87.23908659      78.49470645
C      57.26995886      91.35302077      77.92778856
O      55.94148127      90.92405290      75.83586152
H      55.36700447      92.48874629      75.11965525
C      58.06364392      93.77187045      78.63076675
H      57.28885613      95.40648371      77.68023441
C      59.74361061      93.88336431      80.66978144
H      60.30863877      95.68805294      81.43701031
C      65.79829371      93.29187997      86.98335705
O      67.81652142      92.42638532      86.16321582
N      65.34286968      93.96840199      89.44378070
H      63.84242698      95.04554599      89.93510955
C      67.22881653      93.25408544      91.42610360
H      69.07696886      93.62258208      90.59462403
C      66.95102676      94.61468839      93.96211632
H      68.08297282      93.57344919      95.33216789
H      64.94602715      94.54098906      94.43265818
C      67.90155910      97.28109222      94.14164032
C      66.18001843      99.18026716      94.59517464
H      64.17501882      98.83255752      94.43832735
C      66.93023978     101.75029495      94.74446301
H      65.64711561     103.27152463      95.19421788
C      69.58341552     102.32666147      94.59706436
O      70.20702521     104.80976185      94.79737535
H      68.81051745     105.96438463      94.69533012
C      71.30684591     100.37457419      94.16809649
H      73.34397089     100.51630367      94.18321429
C      70.45457935      97.90848135      93.95266768
H      71.78683639      96.40236948      93.61251696
C      67.24393434      90.35335555      91.88152765
O      65.31452377      89.05322385      91.96278589
N      69.49459838      89.30833690      92.54860104
H      71.11787329      90.31178157      92.48246061
C      69.86498474      86.59846937      92.90575931
H      68.00738377      85.77832815      93.24024087
C      70.60008827      85.47030276      90.44155620
H      71.47125210      83.62592988      90.72879459
C      68.46847700      85.05456297      88.44222575
H      67.07763843      84.05111830      89.58551017
H      69.17523464      83.75443127      87.00981321
H      67.70313784      86.75720638      87.56917221
O      72.60508789      86.84035434      89.33984575
H      74.28883404      86.45296044      89.89164584
C      71.62243022      85.95596242      95.14886445
O      73.11909346      87.61325240      95.76491522
N      71.72825489      83.60703262      95.98412348
H      70.23537110      82.54122698      95.45688983
C      73.64254763      82.28422420      97.39196958
H      75.46613354      83.07790925      96.85906676
C      73.06429138      82.82468592     100.24545631
H      72.39154881      84.76921430     100.34372208
C      71.17834452      81.07479936     101.35850511
H      69.54184154      81.07857881     100.10561657
H      70.53772731      81.86470496     103.14996566
H      71.73203434      79.09058673     101.42086608
C      75.55873013      82.70941262     101.80637024
H      77.03649609      83.61270180     100.69332144
H      76.23147268      80.79889932     102.18998468
C      75.07873964      83.97741897     104.38395694
H      74.25292924      85.86147611     104.50678914
H      76.94012005      84.19473750     105.24000295
H      73.81073328      82.77933249     105.47621874
C      73.60664284      79.42506829      96.77969825
O      71.92856588      78.46130787      95.54948642
N      75.71179796      78.14383385      97.62062647
H      77.01948856      79.24176483      98.47289303
C      76.34674599      75.49065810      97.03481131
H      74.74803754      74.35682231      97.66975935
H      78.12686817      75.18830189      98.02502789
C      76.82106730      75.11460257      94.23612664
O      78.66544018      76.17473903      93.11551893
N      75.27338145      73.66518248      92.98701755
H      73.90144015      72.81102619      93.99991085
C      75.36597804      73.17763309      90.14675890
H      76.71902207      74.47020589      89.28504369
C      76.01226443      70.55091352      89.42866290
H      74.80850878      69.15629550      90.35084934
C      75.73258495      70.17485798      86.44289532
H      73.82207164      70.26367512      85.68133561
H      76.35430490      68.29647003      85.86652879
H      76.99114267      71.41829790      85.39031777
C      78.70323470      69.81014081      90.36407741
H      78.63709428      69.77801546      92.42198937
H      80.07895547      71.28979651      89.96345544
C      79.77470952      67.13995752      89.67999649
H      78.14387572      65.90596624      89.91810200
H      81.23357824      66.70343075      91.06705561
H      80.52115141      67.43664456      87.78271127
C      72.79783997      73.93919280      89.08473271
O      70.99126162      72.28946173      89.13575531
N      72.49737350      76.26922534      88.14364901
H      73.99781619      77.41628921      88.42521822
C      70.22592246      77.19897069      87.08540226
H      69.94435325      76.30701987      85.25047801
H      70.56418347      79.22475730      86.91910635
C      67.82785978      77.19897069      88.76158951
O      65.83797796      77.45597347      87.65420989
N      67.84675703      76.82858433      91.34862483
H      69.49270866      76.41662400      92.22167839
C      65.66790260      77.22731658      92.94733328
H      64.04840714      76.29757124      92.07994892
C      66.17812871      75.91962598      95.62885492
H      67.10598433      77.35203852      96.78158797
H      67.48770903      74.33036615      95.62507548
C      63.86321396      75.26578067      97.10662090
N      62.87110766      72.86204880      97.23890175
H      63.54951940      71.24822253      96.47734205
C      60.71304020      73.04535225      98.62029168
H      59.42424685      71.51089449      99.00390613
N      60.60532580      75.40562042      99.57082401
H      59.29952493      76.03300955     100.81426393
C      62.59331788      76.88716585      98.63163004
H      62.91457135      78.86570930      99.02469312
C      64.92901961      80.12993620      93.02481207
O      66.38032942      81.55856929      94.13408141
N      62.59331788      80.87448837      92.12908180
H      61.25917111      79.57057721      91.73790845
C      61.60688075      83.44073670      92.03081603
H      62.89756382      84.70874306      91.04437889
C      59.02362489      83.42561889      90.64186718
H      57.74994934      82.14060500      91.63208377
H      59.40345988      82.83602428      88.70489772
C      57.67813975      86.01454394      90.64375691
H      57.45704176      86.89326667      92.49379898
C      59.08220640      87.84757846      88.72946416
H      58.47749398      87.77198941      86.76036935
H      61.11177246      87.54333253      88.88631145
H      58.76851182      89.56156023      89.82550543
C      54.95315440      85.61959114      89.32094849
H      53.93648165      83.94718335      89.96534517
H      54.91913933      85.44195687      87.27059544
H      53.74372957      87.25231467      89.65920951
C      61.06830876      84.58024167      94.64997670
O      59.85699418      83.29333805      96.08616869
N      61.67113145      86.88381804      95.37185215
H      62.87866657      87.90049080      94.29848761
C      60.77540117      88.18583947      97.64519291
H      60.03462846      86.75342693      98.92642735
C      63.12055153      89.07779029      99.07760545
H      62.62544323      89.72785614     100.96922149
H      64.05785578      90.53476928      97.96266692
C      64.93846824      86.77610364      99.45744043
H      65.65845397      86.18272958      97.62062647
C      67.29306723      87.66238528     100.70277008
H      66.75260550      88.11969905     102.63596010
H      68.11698789      89.24975539      99.67664869
H      68.63099346      86.09769190     100.74434405
C      63.94258248      84.57079304     100.92386805
H      65.41845872      83.23664626     101.45299143
H      62.90134328      83.31601476      99.66531034
H      63.09598509      85.33802192     102.63784983
C      58.74583511      90.11336031      97.16520241
O      56.80697592      90.12280894      98.44454713
N      59.00472762      91.90860031      95.47578710
H      60.66012786      92.14481610      94.55549038
C      57.08287595      93.68872250      94.58383627
H      55.26495925      92.76464633      94.28714924
C      56.70493070      95.78253925      96.62474069