 %block lattice_cart
   137.793   0.000   0.000
   0.000 143.498   0.000
   0.000   0.000   162.326
 %endblock lattice_cart

 %block positions_abs
N      85.15287061      36.82969232      84.14971244
H      86.83283730      36.22497990      83.47508015
H      83.74124505      36.03789701      83.13870886
H      84.90531646      36.21553128      85.94117299
C      84.87886029      39.56601602      84.18939669
H      86.34528792      40.25387640      85.46307223
C      85.81994400      40.39938534      81.52677232
H      84.64453423      39.78522428      79.94885085
H      87.71156004      39.70207632      81.11103253
C      86.04860088      43.27176932      81.66283261
H      84.44233352      44.21663249      82.53588617
H      85.72734741      43.89348929      79.72586314
S      88.93799241      44.67583597      82.87981636
C      87.61896345      45.44873404      85.97707779
H      87.41865246      43.58168444      86.81800599
H      85.76703167      46.35013349      85.94495244
H      88.94744105      46.56556229      87.08634713
C      82.27859688      40.40883396      85.04733244
O      80.65721172      40.77733059      83.46185206
N      81.94978452      40.76977168      87.48129993
H      83.46156557      40.30111956      88.54899530
C      79.86352666      41.85447459      88.90993302
H      78.04749967      40.97764159      88.49041378
C      80.76114666      41.18929094      91.59523411
H      82.49591541      42.23619930      91.96939992
H      80.87264052      39.19562968      92.09034241
C      78.97724503      42.18517669      93.53976249
O      77.10263652      43.36436591      92.92371171
N      79.69345130      42.05289586      95.86790531
H      78.78260321      43.06956861      97.20016236
H      81.08240014      40.79055867      96.21750468
C      79.30227795      44.76465312      88.24096991
O      80.93500149      46.34635404      88.05199728
N      76.84374401      45.39582171      87.76475888
H      75.35463968      44.20529412      87.77987669
C      76.02549251      47.98474676      87.33768073
H      77.04972419      48.56678245      85.64826541
C      73.13421127      47.98852620      86.95217656
H      72.71847148      46.69595340      85.40449071
C      71.52605417      47.14570826      89.26898102
H      69.50593674      47.13059046      88.85513096
H      72.07218507      48.30222077      90.88280729
H      72.31595977      45.35802718      89.91526742
C      71.96636039      50.55477453      85.91093736
H      72.22903236      52.05143777      87.30177593
H      69.98025804      50.33367655      85.40827016
C      73.40066267      51.38436438      83.56956646
H      72.38210018      53.09267698      83.03477392
H      73.51593598      49.90659842      82.13715392
H      75.26393282      52.03443024      84.15916107
C      76.77004469      49.82534019      89.44094612
O      77.25948381      52.03065079      88.93638919
N      76.72091181      48.96173525      91.82767045
H      76.18989871      47.14948773      92.09412186
C      77.51270713      50.33934573      93.98384817
H      76.43745286      52.09301176      93.88180295
C      76.62642548      49.07133939      96.34411634
H      77.45790507      50.06155598      97.94660425
H      77.44089752      47.18350279      96.41214649
C      73.66522435      49.08456747      96.70127461
C      72.35375430      51.04610338      97.85967684
H      73.31940443      52.76197487      98.39635911
C      69.75538061      50.90437390      98.08644400
H      68.65555989      52.34812480      99.02185852
C      68.56674277      48.82000579      97.10378632
H      66.52772807      48.75764482      97.09622741
C      69.80829295      46.69595340      96.06821630
H      68.86154006      44.91961068      95.72995529
C      72.38587965      46.88303631      95.85656695
H      73.49703872      45.31267374      95.17059630
C      80.30005343      51.13492052      93.99707626
O      81.10696658      52.56733306      95.63735870
N      81.91010026      49.92171622      92.47584658
H      81.13531247      48.62158451      91.31366489
C      84.64642396      50.57934099      92.22451298
H      85.10562746      51.57900620      93.96495091
C      86.33017010      48.13970432      92.24341024
H      88.23501423      48.88614621      92.02042253
H      85.82183373      47.10224456      90.53698738
C      86.14686665      46.31422869      94.56777360
H      86.99724349      44.54733459      93.93660502
H      84.20989719      45.89092999      95.12713259
C      87.52258740      47.26665076      96.99418219
O      86.39253107      47.60113232      99.05020442
O      89.84506104      48.09057142      96.91859314
C      85.15287061      52.27064603      89.84912700
O      86.53804000      54.17737988      89.75842014
N      84.08895469      51.48829933      87.73263353
H      83.17621689      49.81211210      87.76286915
C      84.77870481      52.50308236      85.27409960
H      86.79126333      52.27820494      84.90182351
C      83.50313954      50.94972734      83.16705476
H      81.48113238      51.28420890      83.34468903
H      83.98501975      48.95984553      83.40327055
C      83.91698960      51.62435964      80.46285640
H      83.22157031      53.50085787      79.97530701
H      83.04204631      50.15793202      79.31012335
S      87.21834148      51.49774797      79.71263506
C      87.18054695      52.44072139      76.45096744
H      86.23946324      54.27186620      76.40183456
H      86.17899200      50.98185268      75.39461043
H      88.95311023      52.95283722      75.54011936
C      84.16643348      55.30932594      85.00575846
O      85.83695153      56.76819466      84.28766246
N      81.95167423      56.12379798      85.84290722
H      81.03326725      54.90492452      86.98808136
C      81.11074602      58.79587098      85.73330309
H      81.00492135      59.36845806      83.75664937
C      78.51048262      59.07366076      87.08067795
H      78.45001138      61.09944737      87.45106431
H      78.50103398      57.97195032      88.82111589
C      76.13887610      58.49729423      85.46685168
H      76.11619939      56.46394872      85.14370848
C      73.75026204      58.70894358      86.98808136
H      72.16100221      57.71683726      86.13203534
H      73.19657222      60.67236922      87.27531976
H      74.19812717      57.89258181      88.82489534
C      75.78360756      59.97694993      83.07256844
H      73.97513948      59.49318000      82.21274297
H      77.31428587      59.67648345      81.72519358
H      75.74770276      61.94037558      83.68672949
C      82.88708877      60.78764252      86.98997109
O      82.94000109      62.99673259      86.12825589
N      84.50280475      59.99584719      88.70017340
H      84.62941643      58.10801061      88.95906591
C      86.29993448      61.47172344      90.12502704
H      85.71222961      63.43136963      90.37447092
C      86.64008521      60.22828354      92.65159112
H      87.76447237      61.62479127      93.66448443
H      87.79848744      58.55020656      92.37758081
C      84.25903007      59.62357112      94.28431466
H      83.02125933      58.72595112      92.90481445
H      83.28204157      61.32621452      94.90792434
C      84.85618358      58.01541402      96.59356021
H      86.09395432      56.47717680      96.00774505
H      83.14976071      57.06677142      97.24740552
N      86.12230021      59.51585671      98.47572762
H      86.32828038      61.37534740      98.08644400
C      86.74402016      58.84878332     100.76229646
N      86.78748387      56.65103163     101.76952058
H      86.95944896      56.64347272     103.66869553
H      86.72701263      55.21672935     100.51096286
N      87.06149419      60.70827402     102.34777683
H      86.91787498      60.08088489     104.14490656
H      86.61173933      62.46949894     101.76574113
C      88.84917527      61.80053582      88.74552683
O      90.69543789      62.97027642      89.82456056
N      89.14586232      60.89346719      86.41738402
H      87.90998131      59.57254851      85.80700242
C      90.95244066      61.87801461      84.52387825
H      92.12596070      63.12523398      85.66905240
C      92.74768067      59.69727045      83.47885960
H      93.94765687      60.38891028      81.95574019
C      94.39930146      58.60311891      85.57834553
H      95.27235502      60.25851916      86.43817101
H      95.91108252      57.54109272      84.66749745
H      93.18609716      57.54487217      86.86335943
C      91.12440577      57.67526328      82.11069775
H      89.33861439      58.25918871      81.26599009
H      90.71433516      56.19182813      83.47885960
C      92.81382109      56.34867542      80.17561800
H      91.84628122      55.02208755      78.93217809
H      94.35961720      55.33956156      81.08646609
H      93.56782189      57.67148384      78.78855889
C      89.75624391      63.31987578      82.28644230
O      91.14330302      64.20426769      80.64804958
N      87.22590037      63.58065801      82.25431695
H      86.16576391      62.77941406      83.62058907
C      85.93899676      65.13023359      80.28711186
H      87.02369966      65.02818837      78.53722529
C      83.37652787      64.04553069      79.51799325
H      82.04049138      64.42536567      81.04111266
H      83.29149019      61.98761873      79.58602339
C      82.28426606      65.05653426      76.95930382
O      83.79982657      65.36078020      75.19429944
O      79.99769722      65.67069532      76.93662710
C      85.78403920      67.83443194      81.16961404
O      86.29615503      69.52762672      79.60492066
N      85.44577818      68.17458268      83.63570688
H      85.12641444      66.64768381      84.73552760
C      85.30026926      70.64256525      84.90182351
H      86.44922286      71.89167433      83.73397265
C      82.45056198      71.63278184      85.04166326
H      82.34095785      72.70236692      86.79910873
H      81.09184876      70.08509598      85.10969341
C      81.74191461      73.45636772      82.95540541
H      79.75581227      73.87777669      83.31445341
H      81.59451596      72.75338953      81.02410512
C      83.37652787      75.90545302      82.86280882
O      83.34818198      77.41912380      81.00142840
O      84.90720620      76.17568388      84.63159265
C      86.35473654      70.72382347      87.57956570
O      86.62874686      68.78685400      88.89292549
N      87.04259692      73.05196629      88.26931580
H      86.57205507      74.37855416      86.98052246
C      88.56760605      73.75494448      90.48218532
H      89.85450968      75.34042485      90.20817500
H      89.96033436      72.27150932      90.79965934
C      87.09928872      74.28406785      92.91993226
O      84.92421373      75.24782827      92.89347609
N      88.18021217      73.67746570      95.08177916
H      89.95844462      72.99716423      94.92871133
C      87.12574489      74.35020827      97.60078434
H      85.08861991      74.14422810      97.39858362
C      88.14052791      72.27717850      99.40169351
H      90.18710151      72.38489291      99.60767368
H      87.95911419      70.37989328      98.61934682
C      86.90275718      72.39623126     101.95093431
H      84.86752193      72.46237168     101.64101919
C      87.69077305      69.85076992     103.24917629
H      89.70900076      69.70526099     103.63279073
H      86.86496265      68.33331970     102.13045831
H      86.56638589      69.98683021     104.97071696
C      87.71911895      74.65256448     103.55153250
H      89.72789801      75.02106111     103.28697081
H      87.34306340      74.09131576     105.49795060
H      86.46623039      76.21347841     103.05642420
C      87.86462787      76.99015593      98.42848446
O      90.10395356      77.64400123      98.81776808
N      86.02214471      78.73815277      98.63068518
H      84.28737596      78.33186161      97.94849398
C      86.18466118      81.33274699      99.61901204
H      88.15942517      81.91289297      99.54531271
C      84.57650408      83.12231782      97.90692000
H      83.91698960      84.69079066      99.06721196
H      82.91354494      81.97903340      97.49306994
C      85.80860565      83.77805284      95.34445112
H      87.74179566      84.24481524      95.87924367
H      84.88075002      85.50526269      94.71517226
C      85.80104673      81.61053676      93.50952687
H      83.87730536      80.89055104      93.38858438
H      87.10117845      80.13843996      94.12557765
N      86.64386468      82.27005124      90.85824085
H      87.35062231      84.01237890      90.52942847
C      86.05427006      81.02283189      88.81166725
N      84.98090552      78.84208771      88.93072001
H      84.64831369      78.13721981      87.18839235
H      84.75602808      77.87265811      90.55966409
N      86.10151323      81.95824640      86.52320869
H      85.17743705      81.18345861      85.04544271
H      86.50213519      83.82340627      86.51187033
C      85.04137676      81.40644632     102.22872408
O      82.81338944      80.87732295     102.63690496
N      86.52292218      81.78439158     104.17514218
H      88.37485397      81.49337373     103.80853527
C      85.75002412      82.06974026     106.71871380
H      84.36296502      80.59386401     107.08721043
C      88.03848269      81.31196000     108.45159283
H      89.49168223      80.21024956     107.49539131
H      87.20511339      80.31607424     110.04841156
C      89.57294045      83.53994733     109.76306289
H      88.32572110      84.38654471     111.16901926
C      91.53258664      82.30406632     111.39578642
H      92.67020188      83.57774185     112.54662975
H      92.82326971      81.08708257     110.34887804
H      90.71244542      81.10975929     112.85843459
C      90.34205907      85.81517781     108.12278045
H      88.81516020      86.87531427     107.23649881
H      91.36440101      85.20857566     106.44281375
H      91.48156404      87.00003621     109.36811009
C      84.35351639      84.69457010     107.22327072
O      83.32361554      84.90055028     109.27362377
N      84.34217802      86.55217107     105.42803072
H      85.24924665      86.38209570     103.75940239
C      82.95889836      89.05038926     105.76440201
H      81.90632080      88.73480496     107.50861940
C      84.93933153      91.20089780     106.05353013
H      86.01836526      91.25758959     104.29797439
H      86.27158859      90.66043607     107.52940638
C      83.71289916      93.78982285     106.64123502
H      82.66410106      93.46856938     108.38356268
H      82.54315857      94.51169830     105.10488753
C      85.82939264      95.65498272     107.10421796
H      86.80260168      96.18221637     105.36566976
H      87.08039145      94.80082643     108.50072571
C      84.59918081      97.93966183     108.42135720
H      83.72612725      97.56549603     110.25061228
H      83.32172581      98.70500099     106.99839329
N      86.61362906      99.70277649     108.99205455
H      87.86084841      98.58027905     109.89912318
H      86.02781389     101.20510890     110.01439649
H      87.60762510     100.34906288     107.49350158
C      81.15987891      89.51337220     103.62712155
O      81.79860641      88.71968716     101.57865823
N      79.21535053      91.08184504     104.03530243
H      78.96779638      91.50892319     105.87967531
C      77.57506810      91.96434723     102.06998707
H      76.89287690      90.20879149     101.23094858
C      75.43211845      93.72557215     103.11878517
H      76.33918709      95.31672171     104.05986887
C      74.01671344      95.03137304     100.93993073
H      75.25259445      96.54882327     100.29742378
H      72.07785426      95.53026078     101.43314930
H      73.87498397      93.96178794      99.18437499
C      73.62176064      92.21001166     104.89134845
H      74.68756629      91.15176492     106.30108428
H      72.49926321      90.76626075     103.94081612
C      71.93045559      93.65376256     106.69225763
H      70.99882052      95.13719771     105.61133418
H      72.91122355      94.46445515     108.31175308
H      70.34308549      92.56150074     107.42925089
C      78.80339020      93.21534605      99.81176412
O      80.39453975      94.88208466     100.15002513
N      78.44434220      92.29126988      97.48551103
H      77.14421049      90.90799022      97.29086922
C      79.58384716      93.07172685      95.24429562
H      80.45879045      94.90476137      95.58822581
C      81.57750843      91.23869233      94.11423929
H      82.86819150      90.68122306      95.62035116
H      82.61685789      92.13631232      92.57978152
C      80.71012405      88.70267961      93.07677954
C      81.15987891      87.88820757      90.47651614
H      81.96112286      89.16566256      89.10079538
C      80.94067066      85.33896678      89.77731740
H      81.17121726      84.78149751      87.82711985
C      79.91454927      83.60230830      91.45728409
O      79.01503954      81.29873192      90.74107782
H      79.54983209      81.06440586      89.02331660
C      79.39487453      84.41678034      93.90447967
H      78.33662780      83.31318017      95.25752371
C      80.07895546      86.74492315      94.78698186
H      79.64242868      87.24948009      96.71828215
C      77.61664208      93.62730639      93.22606792
O      75.36219859      92.72212749      93.60968236
N      78.34418670      94.81783396      91.12847171
H      79.88431365      95.94222112      91.04343403
C      76.50170356      95.30916280      89.12536182
H      74.69701493      95.11830045      90.09668115
C      76.64532275      97.89997759      88.04821782
H      75.16944650      98.18532625      86.64037172
H      78.50103398      98.25902558      87.23185606
C      76.47713710      99.98812515      90.19116746
H      78.29505382     100.22245123      91.13036144
H      75.07496018      99.42498672      91.59145466
C      75.61353218     102.42587210      88.94772755
H      73.84663808     102.37295976      87.89137054
H      77.10452625     103.19688043      87.75342052
C      75.01259921     104.34961349      90.93382990
H      76.46012957     104.21166347      92.39458834
H      73.16633660     104.00946276      91.78042729
N      75.12976224     106.85728030      89.73385370
H      73.86553534     107.07648855      88.31844869
H      76.77004469     107.42041874      88.93449946
H      74.84819303     108.20465516      91.05477239
C      76.73225016      93.34573717      86.91060258
O      78.85252309      92.67110487      86.10368945
N      74.55906490      92.79393708      85.69928802
H      72.93767972      93.37219333      86.52131896
C      74.27749569      91.13853683      83.35602739
H      75.75715139      89.70801401      83.42405754
C      71.62431994      89.74769826      83.45618288
H      70.18812793      91.19900807      83.17839312
H      71.25393358      89.11463996      85.37992427
C      71.56195897      87.30806159      81.75731893
O      72.34808512      85.25392909      82.59446768
O      71.06874040      87.69734522      79.45941173
C      74.83685467      92.57661856      80.97119278
O      75.06173211      94.88964357      81.09024554
N      74.94834853      91.43144442      78.73186710
H      74.34741555      89.63242496      78.52777666
C      75.36597803      92.94700491      76.32813523
H      77.15365913      93.96745712      76.39238593
C      75.72502603      91.13475739      73.98676433
H      76.32217956      92.20245275      72.32758463
C      78.07017640      89.40943726      74.41573220
H      78.43111411      88.46646382      72.62238193
H      77.55239138      87.94867881      75.77255569
H      79.71234856      90.40343330      75.16595355
O      73.55373051      89.66077085      73.31402176
H      73.07562975      90.43177919      71.74365920
C      73.26460237      94.76114217      75.73098172
O      73.73703396      96.80204659      74.61415347
N      70.96669517      94.11863523      76.45474689
H      70.85331161      92.37063840      77.21063742
C      68.61398593      95.72868205      76.23553864
H      68.67634689      96.81338495      74.48565208
C      66.33497598      94.01847973      76.08625026
H      64.73626753      95.30538335      75.93318243
H      66.41812394      92.84684943      77.77944504
C      65.97025881      92.36307949      73.74487936
H      67.65967413      91.25003068      73.35937519
H      65.64144642      93.53093035      72.08003048
C      63.69124887      90.66610525      74.09447873
O      63.61565983      88.83496046      75.57035498
O      61.86199380      91.17066218      72.70741962
C      68.47036672      97.74879947      78.26888415
O      66.64678083      99.16231476      78.59580681
N      70.36009304      98.02847897      79.94507139
H      72.05139809      97.15920486      79.78444466
C      70.48481496      99.68009978      82.20140461
H      69.69490937     101.40919934      81.40960929
H      72.45768924     100.12796490      82.59446768
C      68.89177568      98.92042979      84.51631935
O      68.92768048     100.19977450      86.42872237
N      67.61054125      96.65275821      84.53332688
H      67.82597004      95.42254638      83.08957598
C      66.10631910      95.76269713      86.60635665
H      65.08586690      97.28581653      87.54744035
C      64.36210171      93.81249956      85.56700718
H      63.17535359      93.25314058      87.15815673
H      65.40901009      92.26859317      84.69017417
C      62.51205966      94.86885657      83.51854385
C      61.61443965      93.15109535      81.58346411
H      62.41001444      91.27837658      81.43984491
C      60.25572643      93.94289068      79.52555215
H      59.82297912      92.64464870      78.01188138
C      59.68880855      96.53937464      79.24020348
O      58.95181529      97.38030285      76.96497300
H      58.82898307      99.18877093      76.93851683
C      60.36722029      98.18532625      81.19984967
H      59.95337023     100.17898752      81.05056129
C      61.77506639      97.38030285      83.37492465
H      62.42702198      98.71633936      84.77521185
C      68.00360432      94.77625998      88.69828368
O      70.32796769      94.88019493      88.35624321
N      67.14377884      94.26036471      90.96217580
H      65.28239844      94.50980857      91.30421626
C      68.81051745      93.53093035      93.12213297
H      70.73803829      94.13753250      92.72906990
C      67.97903787      94.79515725      95.62224089
H      68.99382091      93.78226394      97.10000686
H      65.92868483      94.77059080      95.81688270
C      68.99760036      97.54848848      95.86790531
C      67.20613982      99.57238537      95.94349436
H      65.26350117      99.10940242      95.52586484
C      68.06974475     102.02336039      96.32710880
H      66.73937742     103.55781817      96.51797116
C      70.73047940     102.41264401      96.64269310
O      71.37865552     104.87684713      96.77119448
H      69.77238814     105.71210616      96.86379107
C      72.48225568     100.45488755      96.39513895
H      74.42678405     101.05204107      96.26096838
C      71.55062061      98.05115568      96.02853204
H      72.98492289      96.59795615      96.01341423
C      68.90311404      90.56406003      93.60590291
O      66.87543772      89.37353245      93.56810838
N      71.05173287      89.61163797      94.34856535
H      72.49926321      90.85318816      94.26352767
C      71.70179871      86.89232182      94.70194417
H      70.05962655      85.83596480      95.35578948
C      72.82996533      85.65455108      92.29821230
H      73.67845243      83.81773709      92.68371647
C      70.82874515      85.00637495      90.26486679
H      71.74715215      84.74937217      88.43750144
H      69.36231754      86.44067723      90.07967361
H      69.79884431      83.33207744      90.87335866
O      74.60252861      87.11341978      90.96217580
H      75.71179795      87.90710484      92.15837255
C      73.43467775      86.31406555      97.00363082
O      75.03338620      87.85419251      97.71227819
N      73.17767496      84.10686522      98.03353166
H      72.07596453      82.83129996      97.14158084
C      74.80661905      82.99570615      99.99317785
H      76.33729736      84.31662484     100.38624092
C      73.27027155      82.78216708     102.55186728
H      72.35564401      84.60386324     102.84477485
C      71.26149249      80.61087154     102.48194740
H      70.19946629      80.19702148     104.19970862
H      72.43690225      79.00460418     101.95093431
H      69.99915531      80.98314763     100.89646703
C      74.91811291      82.31351496     104.99906285
H      75.56817876      80.36520712     105.15024096
H      73.53105378      82.56862800     106.50139527
C      77.20468173      84.00482000     105.61511363
H      77.45979479      84.28638922     107.63901051
H      77.00248102      85.76793465     104.56631553
H      78.83929500      83.09019247     104.76284706
C      75.98391854      80.34819958      99.18815444
O      74.84819303      78.89500005      97.68015284
N      78.02482296      79.51294056     100.40702791
H      78.92811213      80.86976405     101.39913423
C      78.76748539      76.94669222     100.49206560
H      77.11208514      75.84120233     101.01740951
H      80.39265002      76.81630110     101.75251305
C      79.60652389      76.08497703      97.95227343
O      81.34696182      77.10164978      96.77497394
N      78.30072300      74.18580208      96.83355545
H      76.69634536      73.73793695      97.76141107
C      78.77693403      73.13889371      94.32021946
H      80.30005343      74.02517534      93.25441382
C      79.46101495      70.28729669      94.72462089
H      77.74136402      69.20826297      95.07988943
C      80.53248978      69.20448353      92.11490885
H      82.38064212      69.94147678      91.58200603
H      79.11141559      69.48416301      90.65037096
H      80.81216928      67.16924828      92.27742531
C      81.55105226      69.75439387      96.75418695
H      81.42822005      70.86555295      98.48328652
H      83.40298404      70.12855968      95.93026628
C      81.58506734      66.90657633      97.57621789
H      82.89086821      66.50217489      99.11634484
H      82.24269209      65.86344739      95.92459710
H      79.58006771      66.47382900      97.74629326
C      76.52438027      73.87021778      92.72340072
O      74.77071424      72.35465729      92.58356098
N      76.39587887      76.31174418      91.87869306
H      77.85852705      77.48526422      92.23774106
C      74.56662381      77.26416624      89.94928249
H      74.59496970      75.99049071      88.33167677
H      75.08629855      79.18601790      89.41637967
C      71.74337270      77.64967042      90.70328329
O      70.28639370      78.42823765      89.15937690
N      71.02716643      77.11109842      93.12969188
H      72.41422553      76.17001471      94.04242969
C      68.44580027      77.33597584      94.25785849
H      67.12866103      76.42890721      92.96339596
C      68.55351468      75.63711189      96.72206160
H      69.89711008      76.35898735      98.10723099
H      69.10153530      73.68124515      96.37057251
C      65.90411839      75.39333720      97.95983234
N      64.42824214      73.22204166      97.97306042
H      64.72870862      71.62333320      96.97339520
C      62.41568361      73.65478898      99.44326749
H      60.91335119      72.29229632      99.67381410
N      62.42891169      76.17001471     100.07065663
H      60.97571216      76.95803058     101.02685814
C      64.55863325      77.27172515      99.12957292
H      65.21247855      79.02161171      99.94971414
C      67.38566382      80.01371803      94.55454552
O      68.59886811      81.63699293      95.67704295
N      65.30696488      80.54473112      93.31866451
H      64.42635241      79.08019323      92.46828767
C      64.33564555      83.10342055      92.94071925
H      65.94002319      84.34686046      92.59489933
C      62.78040079      83.04105958      90.43116270
H      60.92468956      82.30784577      90.94705799
H      63.72715367      81.85809091      89.03465496
C      62.40056580      85.66588943      89.10835429
H      64.18446744      86.62587041      88.73985765
C      61.06074984      85.13298661      86.59501829
H      62.06608424      83.89332615      85.29299686
H      60.63178197      86.89043209      85.61047088
H      59.24661259      84.31095566      87.12036220
C      60.67146622      87.69167604      90.39525790
H      60.66768677      89.24125161      89.03843441
H      61.53507115      88.09040829      92.22262325
H      58.91591048      86.62964985      90.58800999
C      62.82197478      84.10497549      95.14602986
O      61.06263957      82.78972598      95.90758956
N      63.47582008      86.30650665      96.23451221
H      64.76272370      87.37798147      95.31799495
C      62.14545276      87.20412665      98.47572762
H      61.39901086      85.50337297      99.36578871
C      64.06352495      88.56283987     100.01018539
H      63.02606521      89.70423456     101.37267806
H      65.00649839      90.03493666      98.91981330
C      65.93435400      86.90743962     101.50117945
H      66.98504184      85.69801478     100.20671692
C      68.05273720      88.59496522     102.56509536
H      69.39066343      87.37609174     103.54775304
H      67.18724255      89.79305170     104.00317708
H      69.14688874      89.68344758     101.20260269
C      64.74193671      85.12920716     103.43059001
H      66.20836432      84.29583786     104.61355868
H      63.64589545      83.65333091     102.50273439
H      63.54007076      86.39154433     104.52663127
C      59.93825242      89.07684543      97.59322543
O      57.89923772      88.78393785      98.65714135
N      60.28596205      90.92688748      95.84144914
H      61.99805410      90.95901283      95.00052093
C      58.60599536      92.97724053      94.95516750
H      56.84477045      91.96245750      94.61501676
C      58.03529802      94.86696686      97.11701440