 %block lattice_cart
   137.793   0.000   0.000
   0.000 143.498   0.000
   0.000   0.000   162.326
 %endblock lattice_cart

 %block positions_abs
N      86.21300707      42.43367570      79.85058507
H      87.73045730      42.77004699      78.74131574
H      84.52359175      42.47147023      78.96052398
H      86.18277145      40.64221516      80.50820984
C      85.96545292      44.20623898      82.08991075
H      87.01803048      43.57318067      83.74342128
C      87.20511338      46.85185582      81.53055177
H      85.78025974      47.97057380      80.54978381
H      88.90964652      46.32462218      80.50065093
C      87.72856757      48.37497523      83.99097543
H      85.92387894      48.25214302      84.97741256
H      88.08572585      50.35918786      83.57523564
S      90.28914673      46.97657776      85.75409009
C      90.54992896      49.60707679      87.95751096
H      90.44977346      51.50625173      87.16571563
H      92.31493333      49.40298635      89.00252962
H      89.22145136      49.54660555      89.53165298
C      83.23101895      44.46702122      83.07445816
O      81.56994952      44.85063566      81.58535383
N      82.73969011      44.53316164      85.48196950
H      84.28926568      43.96246429      86.44006073
C      80.32461988      45.35519258      86.69517378
H      78.84118472      44.12876021      85.96195997
C      80.59485074      44.85252538      89.53354271
H      82.34473731      45.75959401      90.13636540
H      80.55894594      42.81162097      89.81700165
C      78.64276346      45.90510294      91.27964982
O      76.75303715      46.95012159      90.55588464
N      78.88464843      45.88998513      93.70794813
H      77.40310300      46.24903313      94.85312227
H      80.26792809      44.86197402      94.52808935
C      79.98257942      48.29938618      86.23786001
O      81.46601457      49.94344807      86.93894847
N      77.79049689      48.99291574      85.15315711
H      76.49225492      47.67577650      84.68072553
C      77.20846119      51.53081817      84.38970768
H      78.51993125      52.10340525      82.91005198
C      74.58174161      51.63097367      82.97241295
H      74.81606768      50.47824062      81.28110789
C      72.35942347      50.53682213      84.61269538
H      72.02116246      51.77081343      86.22652165
H      72.87153930      48.67355199      85.32701194
H      70.81929652      50.20423030      83.28799724
C      73.92600658      54.40887135      82.11636692
H      73.71813669      55.69199552      83.71318566
H      71.99659602      54.31816449      81.39449147
C      75.72313631      55.68065716      80.15483101
H      76.46012957      54.30304668      78.81123560
H      77.42011054      56.46111412      81.02221539
H      74.84252384      57.17165122      79.03800277
C      77.27271188      53.46778764      86.51187033
O      78.21946477      55.63341400      86.07156410
N      76.63587412      52.62119026      88.79465971
H      76.32784873      50.74469203      88.94583782
C      76.82673647      54.15942748      91.11335390
H      75.67967260      55.86774006      91.00374977
C      75.71179795      52.58906491      93.36968712
H      76.32406927      53.50747190      95.10823533
H      76.49792409      50.68611051      93.41315083
C      72.91500301      52.43410735      93.38480493
C      71.50526718      54.29170832      94.56777360
H      72.47658650      55.80537909      95.53153402
C      68.87854760      54.25391379      94.49218455
H      67.69557893      55.73167977      95.25374426
C      67.53873164      52.53993203      92.81032813
H      65.56396765      52.78559645      92.37002191
C      68.98437227      50.53682213      91.92404649
H      68.15100297      49.28582331      90.54265655
C      71.58841513      50.45556390      92.19427735
H      72.76382490      48.97968765      91.41948956
C      79.47235331      54.99279678      91.71995605
O      79.67833348      56.96189160      93.00685968
N      81.43388922      53.61707602      91.06044156
H      81.32050565      51.90687371      90.22140308
C      84.13808758      54.47123232      91.23240666
H      84.13808758      56.19466271      92.36435272
C      85.67254534      52.52670394      92.68938565
H      87.65675797      52.88575194      92.26041777
H      85.12263499      50.67288243      91.97695882
C      85.21523158      52.24135527      95.46539360
H      86.10340294      50.41587965      95.81499297
H      83.24235731      51.84073329      95.90758956
C      86.24135296      54.28792886      97.29464867
O      88.56949578      54.95122280      97.36078910
O      84.73524109      55.39908794      98.79320164
C      85.45900627      55.30460162      88.82111588
O      87.45455726      56.47434222      88.84379260
N      84.19666909      54.76791935      86.63848199
H      82.54315857      53.87029935      86.95973546
C      84.95444935      55.44066192      84.05522612
H      87.00291267      55.40475712      83.84546650
C      83.44833747      54.09517678      82.06912377
H      81.48302211      54.70177894      81.95007101
H      83.26314430      52.06750045      82.36959025
C      84.47823831      54.43910697      79.29689526
H      84.40264926      56.44032714      78.81123560
H      83.48424227      53.31471981      77.88715944
S      87.69266277      53.58873013      78.87926575
C      88.27280875      54.83405978      75.73098171
H      86.98212568      54.00446992      74.35715068
H      90.20788850      54.32761312      75.23398369
H      87.82494362      56.83905939      75.88971872
C      84.38375200      58.17131644      83.58468428
O      86.07505705      59.43176389      82.74186633
N      82.19733865      59.22389399      84.26876520
H      80.81972817      58.12218355      84.99064065
C      81.72868653      61.98667386      84.11380764
H      81.73435571      62.45343626      82.10691829
C      79.20023272      62.55359177      85.22496671
H      79.44400742      64.00868102      86.66304843
H      78.77882375      60.93220658      86.42116346
C      77.20657146      63.33971790      83.28988696
H      77.60341399      62.22288965      81.60425109
C      74.51749092      62.67075479      84.32356726
H      74.16789155      63.21877542      86.27754426
H      74.34741555      60.61851201      84.28199328
H      73.03027631      63.61183849      83.25398216
C      77.49758931      66.11761559      82.66249783
H      75.99336717      66.76390198      81.41149901
H      79.15676902      66.45020743      81.49086751
H      77.39554409      67.34026851      84.31600835
C      83.77337040      63.76490632      85.22307698
O      84.11541086      65.91730459      84.58623921
N      85.35318160      62.80681508      86.95784575
H      85.04893566      60.94921412      87.27154031
C      87.57927919      63.98978376      88.11246851
H      86.86307292      65.81903883      88.72662957
C      88.29548547      62.37973694      90.44439078
H      89.48601304      63.60050014      91.60090329
H      89.36318083      60.70732915      89.89070098
C      86.26591941      61.45755050      92.23207188
H      84.94500071      60.21222086      91.25697311
H      85.26436446      63.13940691      92.87268910
C      87.12196543      60.16686742      94.64903184
H      88.50713481      58.82705147      93.92526666
H      85.53081587      59.24279126      95.56932855
N      88.45044302      61.76557589      96.44616155
H      89.08161161      63.50412409      95.97184025
C      88.61295949      61.25534978      98.82721671
N      87.91565048      59.46955842     100.18026075
H      88.13107928      59.43743307     102.07565624
H      87.59250728      57.82171707      99.27319212
N      89.73356719      62.86917605     100.22561418
H      89.79214871      62.68965205     102.12478914
H      90.24946247      64.51701740      99.41681132
C      89.84506104      64.60583453      86.40226620
O      91.83494285      65.52991070      87.28476840
N      89.87340694      63.48333710      84.19317614
H      88.31816218      62.41186228      83.90215829
C      91.73289763      64.05781390      82.24108886
H      92.90641767      65.64896347      82.82312457
C      93.57538079      61.92242317      81.68361960
H      94.92653510      62.70665959      80.34380364
C      95.48022491      61.40274843      83.90026856
H      95.99234074      63.27546721      84.59001867
H      97.10916899      60.29725854      83.29744587
H      94.72811384      60.46355446      85.57267635
C      92.42831691      59.48656595      80.34002419
H      90.94677148      60.13852153      79.06823839
H      91.65352913      58.23934659      81.78188538
C      94.59016382      58.05415341      78.96808289
H      95.44809956      57.03370120      80.53844546
H      95.83171400      58.93476587      77.57724432
H      93.62829312      56.61040250      77.85692382
C      90.48378854      64.99322843      79.85436454
O      91.84061203      65.64329428      78.11770605
N      87.93265801      65.27668737      79.69751725
H      86.98779486      64.85338868      81.30189488
C      86.67599002      66.90941091      77.80968067
H      87.83439225      66.88673420      76.10703725
C      83.95478413      66.03446763      77.40905868
H      83.04393604      66.17052792      79.25154183
H      84.01525537      64.02379883      76.96308328
C      82.68110859      67.28168700      75.09225422
O      83.95478413      67.10783217      73.14961557
O      80.59107129      68.28135221      75.37382344
C      86.63063659      69.60982981      78.81690478
O      87.71156004      71.30113486      77.45441211
N      85.91820977      70.12005593      81.18473185
H      85.24924665      68.69898173      82.26943475
C      86.09962349      72.57292068      82.47730465
H      86.82716812      73.93352361      81.11292226
C      83.39353541      73.37983381      83.20862873
H      83.53715461      74.91618131      84.57301114
H      82.42788527      71.93797263      84.31789808
C      81.56994952      74.02612020      80.98820032
H      79.62920060      73.91084690      81.67039151
H      82.01781466      72.82236454      79.37815351
C      82.03671192      76.76244392      80.21530225
O      84.00580674      77.36904605      78.92083974
O      80.51737196      78.42162361      80.92583935
C      87.88352513      72.74299604      84.88670570
O      88.61484921      70.83626219      85.94117298
N      88.66209237      75.05980050      85.60480170
H      88.33327999      76.67173704      84.63915155
C      90.03025422      75.46042249      88.09924043
H      91.47589485      76.90606311      87.85546574
H      91.16409001      73.77667633      88.45639870
C      88.10084366      76.01222257      90.13636540
O      86.39442080      77.60715157      89.74330233
N      88.40319987      74.78012100      92.30577120
H      89.79592816      73.47809957      92.38513971
C      86.98401541      75.18830189      94.66981882
H      84.97901579      75.18263271      94.19927697
C      87.67565524      72.75811386      96.17215124
H      89.73167746      72.76000357      96.29120400
H      87.29015107      71.07058825      95.05532299
C      86.47567903      72.52756725      98.66847970
H      86.67032084      74.24721819      99.78530795
C      83.69400189      71.71687465      98.56076530
H      82.81338943      72.10993773     100.38246146
H      83.41810185      69.73455175      98.06943646
H      82.73591065      72.82614401      97.11512467
C      87.87596623      70.56036216     100.12734842
H      87.92131966      68.69520228      99.25429486
H      87.23345928      70.20698333     102.05108980
H      89.76380281      71.26711979     100.55253683
C      87.67754496      77.62037965      96.03042177
O      89.91498092      78.07391398      96.42537457
N      85.88419469      79.19074223      96.96583630
H      84.10785196      78.50666129      96.84111436
C      86.38308244      81.53967202      98.37368239
H      88.31627246      82.22186322      98.20360703
C      85.07728156      83.54089219      96.93938012
H      84.71256438      85.08479859      98.25273991
H      83.21212169      82.79445030      96.48395608
C      86.35284682      84.60102865      94.62635512
H      88.32761081      85.09991640      94.92682161
H      85.56483094      86.48130633      94.30888109
C      86.19222008      83.15727775      92.19049791
H      84.61240888      81.83824878      92.29632257
H      88.00824707      82.19351733      92.07144514
N      85.63664054      84.91850267      90.10235032
H      85.66498644      86.79122145      90.48029558
C      85.04704593      84.29111355      87.74586161
N      84.95066989      82.00454471      86.86524916
H      84.34784720      81.78344673      85.06811942
H      85.40609393      80.53433763      87.99152603
N      84.58973217      86.02966174      86.11691753
H      83.93021768      85.42872879      84.43128167
H      84.73146164      87.80978393      86.79154982
C      85.23601857      81.22786719     101.00985060
O      83.54093406      79.69151969     101.37645751
N      86.16765364      82.75287632     102.86178239
H      87.90053267      83.54278192     102.72383238
C      84.94500071      83.02688663     105.41858209
H      82.95889836      82.55634478     105.13512314
C      85.82372345      81.09747608     107.33476457
H      85.68199398      79.16617579     106.63367612
H      84.62752669      81.50187751     108.96370865
C      88.72256361      81.40361173     107.94325644
H      89.61262471      80.98031305     106.13667809
C      89.52380757      83.98308815     108.76339766
H      88.33705945      84.65205126     110.30541433
H      89.26680479      85.21141026     107.13256386
H      91.55715308      83.94340389     109.09409977
C      89.40664454      79.41561966     109.83298276
H      91.09417014      78.55579418     109.02229017
H      88.18021216      77.79990366     110.19581021
H      90.01891586      80.10348003     111.67546591
C      84.61618834      85.68195210     106.38234251
O      83.65620737      85.95407270     108.49127707
N      84.98846442      87.43183867     104.54174908
H      85.63664054      86.88192832     102.83532622
C      83.92076905      90.02643291     104.72316281
H      83.21968059      90.35335556     106.63178638
C      85.92954812      92.00308663     103.97861064
H      84.75791781      93.67549442     103.70649005
H      86.94811061      91.27554199     102.33832820
C      87.92698884      92.41882641     106.15368562
H      88.47123001      90.58579188     106.91713506
H      86.91787498      93.27298271     107.73349682
C      90.27591864      94.04966022     105.59054718
H      91.00346327      93.25408544     103.83499144
H      91.75179489      94.22351504     107.01729056
C      89.33294521      96.69149760     104.80442104
H      88.65642319      97.74218544     106.44470348
H      87.90620185      96.50252498     103.33232424
N      91.50802020      98.15792522     103.84444007
H      90.94677148      99.90214262     103.30964753
H      92.33572032      97.50785938     102.24951106
H      92.84027725      98.55098829     105.15213068
C      81.73813516      90.07934524     102.88445910
O      81.71545845      88.90771492     100.82843687
N      79.98068969      91.73852494     103.47972289
H      80.20934657      92.84401483     105.01984984
C      78.27426683      92.88558882     101.69204181
H      77.12531323      91.27176255     101.13457254
C      76.32217955      94.66004183     102.97705569
H      77.44656670      96.09623382     103.93514693
C      74.42867378      95.93560708     101.26118420
H      75.54361231      97.27164358     100.15569431
H      72.97547425      97.05621479     102.19470900
H      73.44223665      94.61279866     100.03097237
C      74.82173686      93.16526830     104.92158407
H      76.00281580      92.33567845     106.39179114
H      73.68790107      91.73852494     103.95971339
C      72.98492288      94.74318977     106.57887405
H      74.16789155      96.15859478     107.49539131
H      72.30840086      93.30132861     107.88656466
H      71.41078086      95.61624334     105.57542937
C      79.76715062      94.27264793      99.69271136
O      81.06917205      96.18883041     100.27285734
N      79.24180670      93.42038135      97.36834801
H      78.01726405      91.96151264      97.22661852
C      80.29816371      94.60523975      95.09122779
H      81.42822005      96.18694068      95.77530871
C      82.21434619      92.61157850      94.08400366
H      83.58250804      91.90482085      95.45027579
H      83.21779086      93.73596566      92.67804729
C      80.88397887      90.29666377      92.85946101
C      80.61374800      90.03777125      90.19305719
H      80.83106653      91.61758245      88.91938165
C      79.75392253      87.76065105      89.15748717
H      79.60274443      87.60569349      87.12981084
C      79.32306493      85.65927540      90.64092232
O      78.78449293      83.35002983      89.65448519
H      78.72591142      83.16861611      87.85168628
C      79.47046359      85.81045349      93.34701040
H      79.08306969      84.20985530      94.55076606
C      80.13186779      88.19528811      94.38069069
H      80.41721647      88.15938331      96.39891840
C      78.13442708      95.36679946      93.30165698
O      75.94990346      94.92082405      94.02542216
N      78.61630729      96.54598868      91.20217105
H      80.38698085      97.15826000      90.85068194
C      76.72280153      97.08645040      89.28220910
H      74.87842864      96.30977290      89.77164822
C      76.56973369      99.87757618      88.68316586
H      75.65699589     100.32544130      86.89170532
H      78.48213672     100.58055436      88.38080965
C      75.22235883     101.39124695      90.79021070
H      76.07462540     100.99818387      92.62135550
H      73.21546949     100.93393317      90.70517302
C      75.35274995     104.24095422      90.43683188
H      74.05639770     105.35400302      91.58578549
H      74.56851353     104.65480429      88.57734120
C      78.11930927     105.19148656      90.84123331
H      79.14921011     104.50362619      89.19528169
H      79.04527516     104.22583642      92.40592670
N      78.33284834     108.00717876      91.00374977
H      79.26070396     108.60244256      89.44661530
H      79.34385192     108.38890348      92.57600207
H      76.61319740     108.82920971      90.89414565
C      77.42011054      95.62569196      86.94272793
O      79.67833348      95.56144127      86.33801551
N      75.50014860      94.51075345      85.63314759
H      73.73892368      94.72429252      86.33990523
C      75.58329656      93.24841627      83.07067871
H      77.50703795      92.51898191      82.98186157
C      73.95057303      90.83901521      83.30878423
H      72.00037547      91.50230916      83.29366642
H      74.14332511      89.65793627      84.98686119
C      74.47591694      89.00220124      81.06945855
O      73.05295303      89.02109850      79.15138634
O      76.42233504      87.73608461      81.11859143
C      74.96724578      95.15703984      80.90127290
O      74.93323071      97.48896211      81.14126815
N      74.63843340      94.25186093      78.56557118
H      74.76882452      92.35457572      78.39549581
C      74.96535606      95.73907554      76.12593451
H      76.84752346      96.55732703      75.98231531
C      74.40788679      94.20839724      73.64661359
H      72.54083720      93.39581491      73.96786706
C      74.19434772      95.66159676      71.16351321
H      74.30017239      94.18949997      69.72921094
H      75.69479041      97.07133260      71.08414471
H      72.32162894      96.49496608      70.94997414
O      76.22013433      92.31867091      73.47653822
H      75.46991298      90.66705013      73.50488412
C      73.09830646      97.98218067      76.10892697
O      73.95057303     100.07032825      75.43051524
N      70.62654444      97.68171419      76.81190516
H      69.98025804      95.96206326      77.32213127
C      68.53083796      99.57899941      76.75143393
H      68.76516402     100.83188795      75.13382821
C      66.05340676      98.33933895      75.98987422
H      64.43769077      99.60923503      75.84058584
H      65.45625325      97.25841550      77.63960529
C      66.15734171      96.63291609      73.65228277
H      67.51416520      95.10979668      73.93385199
H      67.28739805      97.70628063      72.30679763
C      63.72526395      95.78820842      72.25010584
O      62.56308226      93.78887800      72.48632163
O      62.84654121      97.14503192      70.53801380
C      68.46847699     101.39880586      79.12870962
O      66.56741232     102.75562934      79.42539666
N      70.34875467     101.24762774      80.71230027
H      71.79061585     100.02308509      80.45529749
C      70.60386772     102.59878206      83.11225269
H      70.41111564     104.63212757      82.84013210
H      72.59563926     102.51941355      83.63003770
C      68.88421678     101.68604425      85.34401947
O      68.47792562     103.21105338      87.12603138
N      67.94313308      99.43915967      85.15126738
H      68.03572967      98.40925882      83.54877947
C      66.62599384      98.41114855      87.33579100
H      65.60176217     100.08922552      87.95373150
C      64.91957098      96.21528657      86.37581004
H      63.49849679      95.97907079      87.84601711
H      66.11576773      94.53909934      86.35691277
C      63.48148925      96.48929689      83.99097543
C      63.69313860      94.67515963      82.05400597
H      65.18980184      93.30132861      82.26376559
C      61.98104656      94.63169593      80.04711661
H      62.12844521      93.24841627      78.55234310
C      60.34076412      96.66504144      79.57657476
O      58.69859195      96.68204897      77.61125939
H      57.71971372      98.21083756      77.60559021
C      60.33698467      98.66815134      81.35858667
H      59.07275776     100.25741115      81.16205514
C      61.90356778      98.53587049      83.61680963
H      61.73538214      99.92670906      85.10402422
C      68.35698314      97.30376893      89.40882077
O      70.13521560      95.90915091      88.75497547
N      67.95069198      97.76297242      91.78231701
H      66.32552735      98.57744446      92.36246300
C      69.61554086      96.68015924      93.88369267
H      71.60353294      96.73307159      93.34512068
C      69.27916958      97.93304779      96.47639718
H      69.98214777      96.51008389      97.78408778
H      67.22881653      98.12768961      96.53875814
C      70.36198276     100.44638380      97.04331507
C      68.84453253     102.66114303      97.47417267
H      66.81307674     102.46650121      97.42126033
C      69.98025804     105.06487491      97.71416791
H      68.97681337     106.79397447      98.12234879
C      72.62776461     105.28975234      97.58755625
O      73.58963530     107.67080748      97.75763163
H      72.33674675     108.97282892      97.57999734
C      74.07529496     103.09578009      97.35700964
H      76.09352266     103.37545958      97.47795213
C      73.04728385     100.65614342      96.94315958
H      74.26615732      99.08011167      96.49907389
C      69.17523463      93.91548965      94.10290093
O      67.05874116      93.06700254      94.19171806
N      71.23503631      92.42638532      94.28431465
H      72.90366465      93.34479230      94.18793861
C      71.30684591      89.65226709      94.21817423
H      69.50215728      88.87181012      94.83233528
C      71.85108709      88.64882241      91.51019643
H      72.05328781      86.61169745      91.75397112
C      69.87443337      89.30644717      89.52976325
H      69.57585661      91.33979268      89.41071049
H      68.02817076      88.45418061      89.85479618
H      70.77394309      88.55811556      87.83467875
O      74.18111964      89.72596641      90.52753875
H      75.30928624      89.60502393      91.94105402
C      73.56695858      88.56000528      95.99451697
O      75.44345681      89.89415206      96.62946501
N      73.19468250      86.22997273      96.84489381
H      71.80384393      85.09991640      96.18726906
C      74.89354646      84.95818693      98.69682559
H      76.77382414      85.79911513      98.70816395
C      73.79750519      85.04511435     101.33677325
H      73.66333463      87.01609888     101.91880896
C      71.25393358      83.88860184     101.54464315
H      71.45613429      81.86848441     101.20638214
H      69.77238815      84.55945467     100.28230597
H      70.63410335      84.08702310     103.50050988
C      75.33763214      83.95852171     103.63845990
H      75.55684039      81.95730155     103.19437422
H      74.39654843      84.20985530     105.45259717
C      78.02860241      84.85614170     103.97483119
H      77.80561470      86.87814886     104.29797439
H      79.17944573      84.43473274     102.31943094
H      78.69567580      84.10403063     105.77007118
C      75.44534654      82.12170774      97.97117069
O      74.01482372      81.10503497      96.37057250
N      77.57128864      81.01054866      98.79887082
H      78.65032237      81.92895566     100.07821553
C      78.04749967      78.26288661      98.51541187
H      76.39020970      77.14416862      99.01052016
H      79.55361154      77.74321187      99.82121275
C      78.99425255      77.46920155      95.96428135
O      80.94822956      78.47831540      95.05343326
N      77.77726881      75.60782113      94.88335789
H      76.41666586      74.69319359      95.86034641
C      77.57317837      75.59081359      92.16971091
H      79.02070872      76.84181241      91.41004093
C      78.21001613      73.01133717      90.81855659
H      76.64532275      71.71309521      91.14547925
C      78.60685866      73.77100716      88.05388700
H      80.44556236      74.69886278      87.96318014
H      77.32751395      75.15995599      87.23185605
H      78.81472855      72.17985760      86.76320393
C      80.51926169      71.48443832      91.95995129
H      80.07895546      71.04791153      93.92526666
H      82.15009550      72.70898096      92.25663832
C      81.54160362      69.18842084      90.57856135
H      83.15920935      68.42119196      91.59523411
H      82.23513318      69.63061680      88.68883504
H      80.28304590      67.56892540      90.39903735
C      75.07684991      76.55835347      91.40248203
O      73.14177016      75.19019162      91.46862246
N      75.02393757      78.86759903      90.53320792
H      76.44879121      80.09781086      90.85446140
C      73.00759959      80.08269304      88.99497071
H      72.64855160      79.16050660      87.18839235
H      73.61987092      82.00454471      88.57167201
C      70.39977728      80.31323965      90.14392430
O      68.76516402      81.40361173      88.91560220
N      70.11631834      79.81624163      92.68371647
H      71.64888638      79.28900799      93.69094060
C      67.58030562      80.26221704      94.01219406
H      66.14978280      79.23420592      92.94449871
C      67.83730840      79.48364980      96.84111436
H      69.11476339      80.80456849      97.77085970
H      68.53272769      77.54668033      96.88079861
C      65.70758685      79.39105321      98.58533174
N      64.48493392      77.08558711      99.19571335
H      65.08208744      75.33759027      98.72328176
C      62.87110765      77.81502147     101.03441704
H      61.38389304      76.59236854     101.71471852
N      62.66701721      80.44741022     101.16480816
H      61.30074509      81.24109527     102.23439326
C      64.38288870      81.41495009      99.57554833
H      64.68524491      83.39727300      99.19193389
C      66.64300137      82.94373868      93.90636939
O      67.95447143      84.73519923      94.61690649
N      64.27328458      83.21774899      93.08433845
H      63.39456184      81.72108575      92.29254312
C      63.13755906      85.74053362      92.85946101
H      64.66823738      86.80822900      91.98829718
C      60.56942100      85.49864865      91.36090805
H      59.17102353      84.35725396      92.35490409
H      60.91335119      84.62181564      89.52787352
C      59.34487835      88.12536823      90.87146893
H      59.01039679      88.88314848      92.75930553
C      60.94736627      89.89604178      89.32000363
H      61.55207869      88.99275260      87.57011706
H      62.70103228      90.49319531      90.22329281
H      59.72471334      91.50608861      88.91560220
C      56.75973276      87.85135791      89.74708178
H      56.95626429      87.04444477      87.86113491
H      55.93392236      89.73730477      89.69794889
H      55.59944080      86.57201320      90.86768948
C      62.49505212      86.85358242      95.50885730
O      61.40656976      85.51376647      97.01118972
N      63.00905767      89.31400608      96.10223138
H      63.75927902      90.53476928      94.84367364
C      62.01884108      90.40059872      98.46438926
H      61.07397793      88.91338411      99.52830517
C      64.25438731      91.54010367      99.96105250
H      63.52684268      92.51709218     101.62212193
H      64.95547578      93.18794503      98.94626947
C      66.37277051      89.79021711     100.76796563
H      67.01338773      88.74330873      99.11256538
C      68.53650714      91.24530637     101.81865346
H      69.84608747      89.86580617     102.60855906
H      67.76738853      92.41504696     103.33043451
H      69.65333539      92.29788393     100.44293271
C      65.15389704      87.84757846     102.61422824
H      63.29062689      87.15593863     102.07565624
H      64.89500453      88.70551420     104.46993948
H      66.60142739      86.47752689     103.13957216
C      59.91557570      92.32056065      97.84455903
O      57.88789936      92.21095651      98.97650509
N      60.25383671      94.04021159      96.14380534
H      61.79207393      94.20839724      95.02697709
C      58.21860147      95.93371735      95.37279701
H      56.52918615      94.78665348      95.11390450
C      57.66113221      97.90092244      97.44771651