 %block lattice_cart
   137.793   0.000   0.000
   0.000 143.498   0.000
   0.000   0.000   162.326
 %endblock lattice_cart

 %block positions_abs
N      88.39753068      36.55946146      82.05589569
H      87.11629625      35.86026273      80.82757358
H      88.14619709      35.72420244      83.75286992
H      90.04915149      35.83380656      81.43417573
C      88.39753068      39.33546942      82.53210672
H      90.05482066      39.72475304      83.69239867
C      88.98334585      40.71496963      80.04522689
H      87.55471275      40.21230242      78.64871915
H      90.78425502      40.11214693      79.24965211
C      89.08350133      43.71396529      80.32679611
H      87.13897296      44.23364002      80.75765371
H      89.62585279      44.41127429      78.46541569
S      91.20755371      44.95551547      82.64171084
C      91.78769969      48.20395500      81.47952916
H      89.88096584      48.88047702      81.10158390
H      92.94421220      48.15104267      79.77499603
H      92.61351010      49.26031201      83.04233282
C      86.19222009      40.30867848      84.00042406
O      84.05116016      39.49609615      83.55822811
N      86.65520302      41.61636908      86.15471206
H      88.41642795      42.19462533      86.60635665
C      84.53304038      42.09824930      87.95940069
H      83.04582576      40.67906482      87.83089930
C      85.75191385      41.96974790      90.61446616
H      87.23534900      43.34357893      91.00941896
H      86.50024547      40.06301405      90.82422578
C      83.85462864      42.35903152      92.85190211
O      81.80427558      43.39838099      92.46261849
N      84.49335612      41.51999303      95.15736822
H      83.16487853      41.87526158      96.48206636
H      85.75569330      40.12159556      95.46917306
C      83.45589638      44.66827707      87.33012183
O      84.78626371      46.60713628      87.22240743
N      80.98224464      45.00275863      87.45484376
H      79.84462939      43.47585977      87.59657324
C      79.68967184      47.36491652      87.29043757
H      80.12052944      48.18883719      85.45173387
C      76.82673647      46.97941236      87.49074856
H      76.50926245      45.42227787      86.17927850
C      75.80061509      46.35202322      90.11935787
H      76.08407403      47.77309741      91.58389576
H      76.97035568      44.74008668      90.65037096
H      73.78994628      45.93061426      90.00219483
C      75.45668489      49.36235723      86.40604566
H      76.30895147      51.07066982      87.18083345
H      73.43845720      49.14125926      86.74997585
C      75.81384317      49.42282847      83.49775686
H      77.75081264      50.02376144      83.13114996
H      74.57796217      50.94405817      82.87225746
H      75.42078009      47.65026519      82.52454781
C      80.61185828      49.38692367      89.25575294
O      81.15798918      51.57144729      88.53954667
N      81.26948304      48.70095302      91.60279302
H      80.74791857      46.95673565      92.17538009
C      82.54882775      50.40926561      93.36401794
H      81.61152350      52.24041041      93.33567205
C      82.34284758      49.41337985      96.00774506
H      83.19700388      50.74563689      97.32677402
H      83.41432241      47.66727273      96.22128413
C      79.65754649      48.85213114      96.72206160
C      77.85852704      50.83823348      96.71639242
H      78.54638741      52.76008514      96.63513419
C      75.29416843      50.49997247      97.09811714
H      73.96380110      52.03820969      96.96961575
C      74.43812242      47.99797484      97.57810762
H      72.45768924      47.53688161      97.72928573
C      76.22580350      45.93061426      97.92770699
H      75.54739176      44.05789548      98.36423377
C      78.68433744      46.38036912      97.29086922
H      80.01470477      44.83457300      97.24173634
C      85.34184325      50.95350679      93.02764666
O      86.40764888      52.32355836      94.55454552
N      86.58339342      49.67416207      91.26264228
H      85.68766315      48.27765434      90.32155858
C      89.14964177      50.51698002      90.48029559
H      89.97356243      51.98529736      91.66515399
C      90.90708724      48.04143854      90.13636540
H      92.66642243      48.60646671      89.22740705
H      90.01513642      46.64304107      88.91182275
C      91.11873657      46.75831437      92.72718018
H      92.05037165      44.93661821      92.49663357
H      89.35184248      46.30478006      93.68527142
C      92.68154023      48.53087765      94.45439003
O      95.02291114      49.00519896      94.02542215
O      91.78580996      49.58156548      96.47828691
C      89.24790752      52.01553299      87.87436301
O      90.86740298      53.60101335      87.38870334
N      87.49424151      51.28420889      86.30400044
H      86.09206459      50.08990187      86.79910873
C      86.95189006      52.73173926      83.95318091
H      88.80193211      52.64481184      83.05367118
C      85.08295073      51.35412877      82.26187586
H      83.37652787      51.13492051      83.39382192
H      85.79726729      49.46251273      81.87070251
C      84.40075953      52.79598994      79.89971796
H      86.01080635      52.68260636      78.61659380
H      84.36674447      54.83311491      80.20585363
S      81.44522758      51.65837470      78.55234310
C      81.35263099      53.63502843      75.82357831
H      79.73691500      52.99063175      74.71997814
H      83.05527441      53.61046199      74.66517608
H      80.78571310      55.57577735      76.22231056
C      86.12041049      55.49451912      84.42183303
O      87.52825659      57.26897213      83.83601787
N      83.93966632      55.95561234      85.65582431
H      83.01559015      54.50997171      86.48919362
C      82.87764012      58.45194080      86.10935863
H      82.73213121      59.34767108      84.25931657
C      80.07706573      58.03242156      86.83690326
H      79.16432793      59.84655882      87.18839235
H      79.92588763      56.89669604      88.55088503
C      78.50481343      56.50741242      84.90182352
H      79.24747589      54.64036282      84.45017893
C      75.82896099      56.14836442      85.77487707
H      74.73291972      57.88313318      85.58590444
H      75.84596852      55.60979243      87.76286915
H      74.45135049      54.98618275      84.78088103
C      78.34796615      57.85667701      82.30911901
H      80.11108081      57.95116332      81.24520310
H      77.58073727      59.75963142      82.49053274
H      76.97791457      56.80032000      81.19229076
C      84.25525061      60.23773216      88.14648359
O      83.50313954      62.47327840      88.38647884
N      86.16576391      59.24940530      89.58078587
H      86.22056597      57.34645090      89.45228448
C      87.72856757      60.50229385      91.37224641
H      86.75346880      61.83644063      92.60245824
C      88.67532045      58.23462227      92.95583706
H      90.10773301      57.35967899      91.76341976
H      87.07283255      57.02519743      93.42070973
C      89.89986311      59.16247790      95.49562923
H      88.41264849      59.39491424      96.90158560
H      90.92409477      60.94826927      95.40492236
C      91.77636133      57.17259609      96.47828691
H      92.87240260      58.23273255      97.86345630
H      93.00468344      56.44694119      94.99107230
N      90.55370841      54.90681423      97.69149120
H      90.56882623      53.30054688      96.65970063
C      89.20255410      54.77831285      99.86845591
N      89.11184723      56.54142751     101.58054795
H      87.96289364      56.28442473     103.08477010
H      90.27591864      58.04942910     101.67314454
N      87.80415662      52.79221049     100.13679705
H      86.50024547      52.77331323     101.53141507
H      88.21422724      51.22562738      99.13146265
C      89.81860488      62.08210505      90.10612978
O      90.85039545      63.72049776      91.33634161
N      90.22111659      61.77218994      87.64570612
H      89.22712054      60.48906576      86.63848200
C      92.13162988      63.24050728      86.13959425
H      92.83838753      64.68614790      87.42838760
C      94.46922133      61.43392892      85.68417021
H      95.81659619      62.61689759      84.66749745
C      95.83360372      60.52119112      88.08223290
H      97.80080882      59.96939104      87.82334040
H      94.89252003      58.90736484      88.94772755
H      95.47077627      61.86667626      89.59779340
C      94.01379729      59.02830733      83.98908571
H      92.62484846      59.32121490      82.49809165
H      93.07082386      57.58644615      85.11725231
C      96.26824078      57.95305305      82.77210196
H      96.89562992      59.35145052      81.39260175
H      95.92997977      56.04442949      82.07290322
H      97.81970609      57.70738864      84.10624874
C      91.08283177      64.63701502      83.92672474
O      92.51713405      65.86155768      82.64171084
N      88.69232799      64.13812728      83.39571164
H      87.69644222      63.09499836      84.64671046
C      87.53581549      64.99039384      80.97875169
H      88.57516496      64.36111499      79.31579253
C      84.81649932      64.10411221      80.59324752
H      83.51825734      64.73339107      82.06345459
H      84.84295550      62.04997970      80.73119754
C      83.81683410      64.97338630      78.05912454
O      82.08206535      66.63067628      78.22542045
O      84.60484998      64.26473895      75.97475641
C      87.64919907      67.89301346      80.78977906
O      88.54870880      68.96259855      78.83013287
N      86.91220580      69.23471914      82.80233758
H      86.20544817      68.14245733      84.19884533
C      87.43377026      71.95403530      83.37681438
H      88.37107452      72.85354503      81.77810592
C      84.93366235      73.24282866      83.69239867
H      85.29837954      74.81130150      84.97552284
H      83.48424227      72.01828600      84.49364263
C      84.02848345      74.32753156      81.11103253
H      81.97624067      74.46926103      81.22252638
H      84.63886505      73.12944508      79.55011860
C      84.55193765      77.09976005      80.56679135
O      83.38408677      78.05218213      78.96241371
O      86.12418994      78.18824241      81.78188537
C      89.21200272      72.23371481      85.67472158
O      89.49168223      70.45737206      87.14870810
N      90.56693649      74.34264936      85.84290722
H      90.75968858      75.55396393      84.38214878
C      91.94454698      75.04373784      88.06900482
H      92.62106900      76.96181003      87.74019244
H      93.61506503      73.89667396      88.42994254
C      90.42331730      75.19869539      90.51997984
O      88.15564572      75.62010435      90.38958873
N      91.63085241      74.75838916      92.68371647
H      93.47333556      74.26706032      92.61568632
C      90.55559813      74.83775766      95.25374426
H      88.55059851      74.39934116      95.07233053
C      92.00123877      72.86488339      97.01685891
H      93.97411303      73.45636773      96.99985137
H      91.74612572      70.97137763      96.24963002
C      91.15086192      72.95747998      99.82688194
H      91.24156878      74.87366246     100.57899301
C      88.52036290      72.21481754     100.04986964
H      87.87029705      72.11466204     102.00384665
H      88.22367586      70.34776794      99.23350787
H      87.22590038      73.58486912      99.21839006
C      92.90830740      71.28885164     101.44070821
H      92.78736492      69.26684449     101.05331431
H      92.46989089      71.47026537     103.44381810
H      94.83204879      71.99560929     101.24795612
C      90.77669611      77.46636696      96.39135950
O      92.78925463      78.26194175      97.27386169
N      88.76413759      78.97247884      96.41592594
H      87.07850172      78.12021226      96.13435672
C      88.91531570      81.44613058      97.76141108
H      90.88441052      82.04517383      97.80109533
C      87.29393053      83.28861374      96.10790055
H      87.26558463      84.94590371      97.33433293
H      85.41365285      82.45713416      96.20238687
C      88.27280875      83.91033369      93.50385769
H      90.32694126      84.06151180      93.46984262
H      87.45077781      85.73580932      93.01630830
C      87.53959495      81.99604093      91.45917382
H      85.68955289      81.10409011      91.62924919
H      88.79815267      80.38221466      91.69161016
N      87.75880320      82.97680890      88.82111589
H      88.41831767      84.75882080      88.62458435
C      86.76480715      81.94501833      86.73863749
N      86.20355843      79.61498578      86.64226145
H      85.81049537      78.89122061      84.92072078
H      86.50780438      78.57752604      88.21640347
N      86.59095233      83.14688427      84.54277552
H      86.60229069      82.16422657      82.90627253
H      87.29393053      84.92133727      84.55033442
C      87.94966555      81.27605521     100.51096286
O      85.81805428      80.74882157     101.07599103
N      89.68254458      81.81651694     102.14746585
H      91.43054143      82.34375058     101.58999659
C      89.11184723      82.01304848     104.94992997
H      87.41298327      80.98692708     105.49795060
C      91.24156878      81.08897230     106.73194188
H      90.75590912      81.42912305     108.70292643
H      93.00279371      82.05084300     106.27840757
C      91.62518324      78.24871365     106.08754521
H      92.25446210      78.07863829     104.13356820
C      93.84183219      77.32841694     107.82420369
H      93.37506980      77.72336974     109.79140878
H      95.67864618      78.10320473     107.30830841
H      93.93253906      75.27050499     107.76751190
C      89.28192261      76.57063669     106.59399186
H      87.99690871      77.12432650     105.08032109
H      88.32005190      77.20747446     108.30041472
H      89.58994799      74.53540145     106.61288913
C      88.08194639      84.70023929     105.65290816
O      87.12952433      85.13109689     107.75806327
N      88.22367586      86.58618616     103.86900652
H      89.05704518      85.95312784     102.27407751
C      87.19377503      89.08440433     103.99561818
H      86.57961398      89.57573318     105.89857258
C      89.46522605      90.92877721     103.56098113
H      88.79437322      92.82039325     103.09799818
H      90.42709675      90.17477641     101.90180143
C      91.15464138      91.06672724     105.92502875
H      92.21477784      89.39431945     106.48816719
H      90.36095632      91.66766021     107.72782765
C      93.37129035      92.92054875     105.47905334
H      92.50957514      94.75358328     105.85510887
H      94.38229392      92.67299460     103.70082088
C      95.34983379      92.63708980     107.60688517
H      96.40430108      90.91743887     107.19303510
H      94.34260966      92.81283436     109.39456626
N      97.15263269      94.64964832     107.48405296
H      96.24745380      96.32772529     107.53885502
H      98.12395202      94.57972846     105.84188079
H      98.47355139      94.60807435     108.86166344
C      84.96767744      89.62486606     102.25329052
O      84.98846442      88.54394261     100.24073200
N      83.13086345      91.33317865     102.89768719
H      83.34251281      92.45756581     104.42458605
C      81.11263575      92.13631233     101.09677802
H      80.10352191      90.49225043     100.37112311
C      79.04716490      93.91454480     102.32321039
H      79.86919583      95.56049641     103.24539684
C      77.27082215      95.03326276     100.18404021
H      76.36753297      93.61785776      98.99162290
H      78.42544494      96.30126913      99.04453524
H      75.77982809      96.19355473     101.00796088
C      77.64120851      92.45567607     104.37734290
H      79.02637791      92.25914454     105.88912395
H      76.96468649      90.66799499     103.61389347
C      75.31117597      93.88241945     105.68692323
H      74.54583682      92.79015763     107.25728580
H      73.75404148      94.18855511     104.37167372
H      75.94990347      95.68899780     106.44281376
C      82.38064210      93.56872487      98.79887082
O      83.88108481      95.23735321      99.26185377
N      81.59640569      92.99613780      96.54631706
H      80.24147193      91.67710884      96.29309373
C      82.72457230      93.88430917      94.17848999
H      83.67510463      95.69277726      94.44305167
C      84.71256437      91.90198627      93.38858439
H      85.90687141      91.39364990      94.98918257
H      85.84828989      92.94133575      92.02042254
C      83.53526489      89.62864551      92.26797668
C      83.45211693      89.41510644      89.55810915
H      84.23257390      90.80594501      88.28443362
C      82.68299831      87.08318417      88.58490010
H      82.54504829      86.90554990      86.55722377
C      82.04049137      84.98558797      90.13258595
O      81.34696181      82.70090885      89.18961252
H      81.26759330      82.55162047      87.38114444
C      82.12552905      85.28038527      92.88591719
H      81.68333309      83.68734599      94.08211394
C      82.88708876      87.61608699      93.88558241
H      83.56361078      87.61419727      95.81121352
C      80.54949731      94.35863048      92.28876367
O      78.36875314      93.68399819      92.81977677
N      81.07673095      95.74379986      90.24407980
H      82.83606614      96.47134450      90.11179896
C      79.36085945      96.14442185      88.19183703
H      77.37286737      95.85151426      88.64537134
C      79.32495465      98.80137704      86.99564027
H      78.49725453      98.71255991      85.11158314
H      81.31861592      99.27569834      86.79154983
C      77.90577020     100.79503830      88.44128090
H      79.11897450     101.48289868      89.95873113
H      76.27304667     100.10528819      89.49385846
C      76.98358376     102.93231876      86.74241694
H      75.26771227     102.25201728      85.83345859
H      78.19678806     103.17987290      85.09646533
C      76.37131243     105.52313353      87.84034793
H      77.96624145     106.22989118      88.93638919
H      74.66866902     105.29447665      88.97607345
N      75.58707602     107.22388721      85.72385446
H      77.09318788     107.41852902      84.56734196
H      75.05984237     108.89440527      86.48163471
H      74.12631758     106.61350562      84.65426937
C      79.81061432      94.09406879      86.08668191
O      81.86663655      93.58951186      85.26843042
N      77.79238661      92.97535081      85.52543320
H      76.12564801      93.42510567      86.33990524
C      78.00781542      91.02893271      83.41082945
H      79.77470952      90.00659078      83.68295004
C      75.67211370      89.24314134      83.67350141
H      73.82585109      90.15398942      83.73775211
H      75.91210893      88.18300489      85.42338798
C      75.63620890      87.32506914      81.50409560
O      74.03183125      87.56506438      79.93184331
O      77.17255639      85.54305723      81.70818605
C      78.24970039      92.37441785      80.88237565
O      78.05694830      94.62130243      80.59324752
N      78.62953537      90.92121832      78.78477944
H      78.74102923      89.02393309      78.95674453
C      78.45946001      91.85285339      76.28845098
H      79.56683963      93.58762215      76.30545852
C      79.72557664      89.99525242      74.30801780
H      79.64809786      90.71334842      72.37860724
C      82.52804076      89.70423457      75.18485081
H      83.57116969      88.81606321      73.64850332
H      82.63953462      88.74425361      77.00465725
H      83.30849772      91.61096842      75.17540218
O      78.59174086      87.58774110      74.37037877
H      78.93000187      87.14176568      72.64316892
C      75.79305619      92.68811242      75.25099123
O      75.60597327      93.84273519      73.34236766
N      73.85608670      92.03426712      76.75521338
H      74.22080389      90.74547376      78.11392660
C      71.29361783      92.81094462      76.49065170
H      70.96291573      93.37597279      74.53856441
C      69.53995181      90.52815523      76.92528875
H      69.55506963      90.08406955      78.93595755
H      70.17112040      88.83685019      75.93507216
C      66.87921717      90.87397516      75.79901187
H      65.95136154      92.48402197      76.68907296
H      65.85498551      89.25070025      76.54923321
C      66.89055552      91.12719849      72.95686349
O      67.24960351      93.18888989      71.88916812
O      66.25938694      89.11841942      71.78712290
C      70.60197799      94.98601962      78.13849304
O      68.39666740      95.81371974      78.35203211
N      72.55973446      96.20300335      79.32524117
H      74.35875390      95.78537385      78.85469931
C      72.26304742      98.38563724      80.96741333
H      71.11409382      99.83505733      80.06034470
H      74.11497922      99.27758807      81.09969417
C      71.22747741      98.00391254      83.57712537
O      71.47503155      99.68765867      85.22118726
N      70.04450873      95.85907317      84.18750697
H      70.07474436      94.35863048      83.00642802
C      69.03539489      95.59640121      86.72729913
H      68.26816600      97.46723027      87.12225193
C      66.98504184      93.72179271      86.67816625
H      66.45969793      93.39298034      88.64159189
H      67.89588991      92.01536985      85.96573943
C      64.76839287      94.41910172      84.95095640
C      64.36399144      93.04716042      82.76454306
H      65.62443889      91.48435675      82.39982588
C      62.35710210      93.46478993      81.10158390
H      61.99994383      92.48213225      79.34980761
C      60.42958126      95.26002992      81.77054701
O      58.33765423      95.48490735      80.29467076
H      57.23783351      96.51858766      81.30000516
C      60.86610803      96.79259796      83.91538638
H      59.41857768      98.13052419      84.45017893
C      63.06763918      96.41465271      85.47063114
H      63.44369473      97.67321043      87.03154507
C      70.94590819      94.85751823      88.82111589
O      72.99248178      93.78982286      88.42238364
N      70.16356149      95.43577447      91.15681761
H      68.47981534      96.29937939      91.39870258
C      71.71502679      94.78570863      93.29409807
H      73.63876819      95.31672171      92.78576169
C      71.12354246      96.27859241      95.57688746
H      72.27438578      95.44333338      97.06599179
H      69.13555038      96.27103350      96.11734918
C      71.99470629      98.94499623      95.30665659
C      70.15033340     100.91598078      95.22539836
H      68.29651190     100.09394983      95.44082716
C      70.92701092     103.46144212      95.35201003
H      69.54184154     104.91275193      95.72617584
C      73.48003117     104.04347784      94.85123255
O      74.37009227     106.49634259      94.97973394
H      73.37987567     107.87206334      95.62602034
C      75.34141160     102.09517000      94.76052569
H      77.31428586     102.42398238      94.36368316
C      74.51749091      99.61962854      95.09311752
H      75.92722675      98.14375229      95.14225041
C      71.74148296      91.96245752      93.79676527
O      69.86687446      90.57539840      93.84589815
N      74.09041278      90.87775461      94.07644476
H      75.65321643      91.96812669      94.02542215
C      74.58930051      88.16788708      94.01597352
H      72.76949408      87.31373078      94.47139756
C      75.16755678      87.35530476      91.20972995
H      76.91177415      88.37953642      90.81666687
C      75.40566229      84.52260502      90.97540389
H      73.90144015      83.45113019      91.88247252
H      77.21035091      84.14277003      91.89192115
H      75.26015337      83.96135631      88.99875016
O      73.37042704      88.30205764      89.52031462
H      73.59530448      90.10107709      89.55999888
C      76.67933783      87.34396641      95.80743407
O      78.32528945      88.86519609      96.44427184
N      76.50359327      85.05928729      96.81654792
H      75.02771702      83.97458438      96.27797592
C      78.45946001      84.01237891      98.50029406
H      80.23013356      84.96858042      98.06565701
C      77.94545446      84.46024404     101.35000134
H      77.59018590      86.48603066     101.47850273
C      75.59841438      83.09775138     102.37612273
H      74.16222237      83.12042809     100.90024648
H      74.84252384      83.94245903     104.09388395
H      76.10864047      81.13432574     102.72572210
C      80.14320616      83.96324602     103.16224888
H      81.83451121      84.75315162     102.29108505
H      80.51926169      81.94690805     103.35689069
C      80.07895545      85.09141264     105.88534449
H      79.68400266      87.11153007     105.93636711
H      81.76081188      84.76260025     107.02673919
H      78.59741002      83.93678987     106.73005216
C      78.57284358      81.09653121      98.00518577
O      76.94578924      80.05529201      96.71639242
N      80.41721646      79.70380292      99.04453524
H      81.48491183      80.61654072     100.33521831
C      80.93122203      77.02228128      98.65714135
H      79.23613753      75.89033521      98.95193865
H      82.34473730      76.26828048      99.95538332
C      82.04805028      76.40812023      96.03231150
O      83.43699911      78.01249787      94.85312228
N      81.31672620      74.14422810      95.05154354
H      79.94100543      73.22771084      96.00585533
C      81.37530771      73.34676361      92.19049790
H      83.00614151      74.50705555      91.70294852
C      82.04805028      70.44225425      92.13758557
H      80.23769247      69.63156168      92.69316510
C      83.02692851      69.82242403      89.40315159
H      83.70156080      67.87789566      89.31244473
H      84.39886981      71.25105712      88.84190288
H      81.32428509      69.88856444      88.24663909
C      84.31383213      69.79407814      93.93849474
H      83.69589163      70.45548235      95.79042653
H      86.12607966      70.73894129      93.68716114
C      84.65776231      66.94248113      94.19738725
H      85.78592893      66.27729747      92.60812742
H      82.87575040      65.91258028      94.30699138
H      85.87663578      66.89523797      95.85656695
C      79.17755600      74.41823842      90.65792986
O      77.74514347      73.05385602      89.37480570
N      78.81661829      76.93724360      90.80910797
H      80.43611373      77.65156014      91.52342452
C      76.87586935      78.27328009      89.24063513
H      76.89287690      77.34353476      87.40193143
H      77.48625096      80.21591875      88.92694056
C      74.13198675      78.38477395      90.29699214
O      72.55973446      78.79862402      88.66426860
N      73.68601134      77.99549033      92.72529045
H      75.24125610      77.59675807      93.75708102
C      71.17078561      78.26383147      93.90070022
H      69.90466899      77.24904843      92.63269386
C      71.23881576      77.23015118      96.54064788
H      72.76382491      78.26194175      97.46472404
H      71.71691652      75.23837965      96.33088826
C      68.88043733      77.16401075      98.25840910
N      67.65400496      74.97570769      98.86501124
H      68.24359956      73.26739510      98.24707074
C      65.74727110      75.60687627     100.36734366
H      64.60398668      74.09509522     101.12890336
N      65.82663960      78.11643281     100.71694303
H      64.50383118      79.11042886     101.66936509
C      67.81085223      79.15200283      99.54720244
H      68.14344406      81.13621546      99.18815444
C      70.16923067      81.10975930      93.95172283
O      70.89488557      82.51949512      95.69594022
N      68.54406604      81.76927377      92.12057803
H      68.37965985      80.58252566      90.63336342
C      67.15511720      84.19379263      92.25474860
H      68.39666740      85.76415521      91.76719921
C      64.89122509      83.95190768      90.45761888
H      63.80652217      82.23792590      90.80910797
H      65.71325602      83.88198779      88.57167202
C      62.88244601      86.04005524      90.47651614
H      61.93380340      86.25359431      92.29443285
C      64.01817152      88.77259950      90.01731264
H      65.14255868      89.29605369      91.66326426
H      62.51772883      90.17477641      89.86613454
H      65.14444840      88.74047415      88.29577197
C      60.83587241      85.50148325      88.59623846
H      60.20848327      83.54183707      88.54143639
H      61.51806361      85.73769903      86.66682789
H      59.23149478      86.68445192      89.11780292
C      66.21214378      84.78338725      94.85312228
O      64.85343055      83.31506991      95.95483272
N      66.78851030      86.89421154      96.07955466
H      67.91478718      88.09418774      95.11012506
C      65.72648412      87.51971094      98.65714135
H      65.66979233      85.72825041      99.67192438
C      67.71258647      89.11275023     100.10089225
H      66.95480621      90.18422505     101.68826235
H      68.75760511      90.38075659      98.85934206
C      69.74782171      87.44790134     101.46149520
H      70.37332111      85.90777440     100.24073200
C      72.02683164      89.12975776     102.16258366
H      73.03972494      89.77226472     100.49017587
H      73.35530923      88.01292951     103.26996328
H      71.52983362      90.83807035     103.20193313
C      68.56107359      86.37264708     103.80286610
H      66.66000890      85.62809491     103.52696606
H      68.54973523      87.97513499     105.10110807
H      69.71191691      84.84007904     104.55875662
C      63.28117827      88.74992277      98.46249954
O      61.40090059      87.59718972      99.29586884
N      63.25661183      90.95712312      97.23039798
H      64.87232782      91.88686846      96.82788628
C      60.87555666      92.21001165      96.52553007
H      59.47715919      90.74169431      96.16459234
C      59.69447772      93.63675502      98.82910644