 %block lattice_cart
   137.793   0.000   0.000
   0.000 143.498   0.000
   0.000   0.000   162.326
 %endblock lattice_cart

 %block positions_abs
N      85.36074050      39.79183833      78.66572668
H      83.83951082      39.99025958      77.53189089
H      84.97712606      38.39533058      79.90916659
H      86.76480715      39.13043411      77.55456761
C      85.87852551      42.12187086      79.77121657
H      87.39219629      41.79494821      81.12804007
C      86.82716812      44.00592801      77.83991628
H      85.48357271      44.62008906      76.40372428
H      88.24824231      42.68122985      77.16150454
C      88.37674370      45.99958926      79.35925624
H      89.87529667      45.18322749      80.51198929
H      87.08606063      46.94634215      80.65749821
S      89.62963225      48.49213828      77.52244226
C      91.12251603      50.48957899      79.99042483
H      92.08627645      49.27637469      81.34913804
H      89.55026374      51.33239691      81.02221539
H      92.42264774      51.70278328      78.95296508
C      83.32928472      42.82862850      81.08268663
O      81.58695706      43.68845399      79.80712137
N      82.95322918      42.34107913      83.50720549
H      84.40453899      41.74959478      84.59568785
C      80.68366788      43.08374156      84.86969817
H      79.15676902      41.98959002      84.02688023
C      81.14665083      42.50359558      87.68916983
H      82.18033112      44.12120130      88.43372199
H      82.15765440      40.71402476      87.81956094
C      78.62764565      42.31651267      89.11024401
O      77.04594473      44.04183280      89.35212898
N      78.12497845      40.13387879      90.14770376
H      76.34296654      39.79939724      90.74485727
H      79.35141083      38.68256898      89.98140784
C      79.98257942      45.87108788      84.64293101
O      81.63797967      47.62853335      84.85080090
N      77.56561946      46.26982013      84.20829396
H      76.36942271      44.78449525      84.25931657
C      76.68878645      48.92299586      83.62247880
H      78.12308873      49.53148774      82.27132449
C      73.90144014      48.99291574      82.54722453
H      73.90710932      47.66443814      80.97308251
C      71.93045560      48.06694984      84.59379812
H      72.50304267      46.86697365      86.16605042
H      70.46969716      47.03137984      83.57901509
H      71.10842465      49.66376858      85.60291198
C      72.88854684      51.53837709      81.55133876
H      72.90177492      53.02181224      82.97997185
H      70.97236436      51.29838185      80.83135304
C      74.33229774      52.43032790      79.17217333
H      73.44223665      54.18021447      78.55612255
H      74.15466347      51.04893798      77.65472310
H      76.20690624      52.87063413      79.90727687
C      77.10830570      50.64075708      85.76731816
O      77.72057702      52.83283961      85.37047564
N      77.06295226      49.78093162      88.21073429
H      76.98925294      47.88364639      88.40537610
C      77.62609071      51.36452226      90.45572915
H      76.30706174      52.93866429      90.30833049
C      76.90799471      50.03226522      93.04087474
H      77.56561946      51.20011607      94.60367840
H      78.02293323      48.30316563      93.10134599
C      74.19812717      49.72990900      93.39992274
C      72.81673724      51.47979557      94.81154830
H      73.75026204      53.15598282      95.50885731
C      70.25426836      51.16610101      95.16114767
H      69.07129969      52.46245325      96.20427659
C      69.02783598      48.95890067      94.27108657
H      67.01338773      48.69244925      94.46194893
C      70.36009303      47.15421205      92.90481445
H      69.17145518      45.75770429      92.00908418
C      73.02460713      47.53215730      92.54009727
H      74.00537509      46.18289272      91.36468750
C      80.38320140      52.47379161      90.46139833
O      80.86130215      54.13486105      91.98262801
N      82.18977975      51.57239216      88.94583782
H      81.58317760      50.06439056      87.94239315
C      84.84862467      52.56638821      88.57356174
H      85.13964253      54.25391380      89.71873589
C      86.68543865      50.44611527      89.48818928
H      86.36796463      48.67733145      88.47718570
H      86.19788926      50.12297207      91.46106355
C      89.47278496      51.12830648      89.54677079
H      89.79781789      53.09929102      90.05321744
H      90.19843987      50.98657701      87.62302940
C      90.78047557      49.21212399      91.35523887
O      91.71966955      49.98880150      93.33000287
O      90.96377902      46.90098871      90.71651138
C      85.59128711      53.65487056      85.87692229
O      86.91976471      55.58050168      85.74842090
N      84.29115541      52.80638345      83.96073981
H      83.50502926      51.11318867      84.36514124
C      84.13808758      53.82305619      81.32646133
H      85.96923238      53.85329182      80.37970845
C      82.30316333      52.42843818      79.51232407
H      80.33784796      52.67032314      80.08302142
H      82.92677301      50.49335843      79.85247481
C      82.76236682      52.87063413      76.72308803
H      84.66910067      52.18655321      76.35648113
H      82.29182497      54.83594951      76.33569414
S      80.66099116      51.06027632      74.70108088
C      81.70223036      51.97490387      71.63405507
H      83.76203204      51.96356550      71.65106261
H      81.01248026      53.88352744      71.28634543
H      80.98035491      50.65209545      70.23376787
C      83.36707924      56.58205661      81.19040103
O      84.52737120      57.88596777      79.62759737
N      81.42066114      57.55526567      82.51320945
H      80.66288089      56.32127439      83.75475964
C      80.67043980      60.22544894      82.66627729
H      81.14098165      61.07204633      80.84836057
C      77.90199075      60.50134898      83.56200756
H      77.42955917      62.50634860      83.60358154
H      77.56372974      59.83805505      85.48196949
C      76.06517677      59.19365838      81.65527371
H      76.93634060      57.42298483      81.07323800
C      73.38365513      58.91397888      82.69273345
H      72.60319817      60.81882300      82.72296907
H      73.37987568      58.05226368      84.56356250
H      72.08730288      57.87084996      81.47763943
C      75.87809387      60.81693328      79.14004799
H      77.75459209      61.33471830      78.46541569
H      74.87842865      62.57248902      79.54822887
H      74.83118549      59.80026052      77.68873818
C      82.32584005      61.71077382      84.39348714
O      82.81149971      63.87640019      83.84546650
N      83.51636762      60.56559969      86.20951412
H      83.01936960      58.72311653      86.17360932
C      85.15476034      61.59739026      88.10113016
H      84.10218278      63.12995830      88.99119125
C      85.77081111      59.78892217      90.32533803
H      87.57738947      58.87807409      89.93794414
H      84.27414787      58.38296579      90.45572915
C      86.11852076      61.04936961      92.87835828
H      84.47823832      61.99801222      93.68716114
H      87.64352989      62.43075956      92.82544594
C      86.72890235      59.11240015      94.91737297
H      85.26436446      57.66675952      94.85312228
H      86.74213044      59.85695232      96.83922463
N      89.25735616      58.02769724      94.44116194
H      90.65008445      59.15397412      93.78353718
C      90.12096109      55.79215102      94.57533251
N      88.69232799      53.92699115      95.06477162
H      89.58238909      52.24702446      95.24051617
H      86.89519827      54.18777337      95.64302788
N      92.37729430      55.26869682      94.16715163
H      92.68154024      53.41298559      93.84589815
H      93.59049860      56.60284360      93.54165222
C      87.71911894      62.77468974      87.13170056
O      88.78492458      64.53591467      88.30522060
N      88.70933553      61.86006220      84.98875092
H      87.63597099      60.59772503      84.04010831
C      90.80504201      62.73689521      83.54311029
H      91.60061679      64.16363859      84.79977829
C      92.91208685      60.73378532      83.33713013
H      94.66008369      61.38385117      82.46029712
C      93.69254382      59.84750368      85.99975450
H      92.26013127      58.56437951      86.73485804
H      93.97978222      61.31582103      87.41515951
H      95.43109203      58.74012406      86.01487231
C      92.12596070      58.36406853      81.80645181
H      90.32505153      57.57227321      82.42061286
H      93.43743077      56.80126487      82.07857240
C      91.91998054      58.61729185      78.92839864
H      91.45321814      56.75780116      78.17817729
H      93.61128559      59.34294675      78.00810192
H      90.36284605      59.92876192      78.60336571
C      90.06615902      63.94820978      81.02032567
O      91.59116816      64.64362906      79.40838912
N      87.59439701      64.51134823      80.72363864
H      86.30560366      64.08804953      82.06723404
C      86.57016534      65.87762034      78.47486432
H      87.39408602      65.26912848      76.68718323
C      83.67699436      65.36550451      78.28589169
H      82.83795588      66.41997181      79.84491590
H      83.48046282      63.31515146      78.31045813
C      82.29182497      66.15918957      75.78011460
O      81.37719744      68.37205909      75.64594403
O      82.23702291      64.82126335      73.78645334
C      86.97267705      68.74055571      78.68840340
O      87.22023120      70.25800594      76.90639148
N      87.45266753      69.62683735      80.93906744
H      87.44510863      68.44575840      82.43951013
C      88.49012728      72.13450418      81.41905792
H      90.10584328      72.29702063      80.14916184
C      86.35095709      74.12627570      80.98253114
H      86.04860088      74.81791553      82.90060335
H      84.81083015      73.20219954      79.97152756
C      87.46967507      76.26355616      79.38571241
H      87.57361002      75.48687865      77.48086828
H      89.32916576      76.78512063      80.09813923
C      85.99001937      78.67673666      79.63326655
O      83.83573137      78.65028050      78.77155135
O      86.92543389      80.40394652      80.87103729
C      89.70333157      72.14584253      84.05522613
O      89.17231848      70.39973541      85.49897703
N      90.95622012      74.21131338      84.90371324
H      91.59116816      75.40373069      83.55633838
C      91.43432087      74.46642644      87.58901433
H      92.31115388      76.31457878      87.82334039
H      92.71366559      72.93196867      88.08601235
C      89.12885477      74.39083738      89.39370296
O      87.22967983      75.65317457      89.11024401
N      89.59183772      73.06613925      91.52720397
H      91.04692698      71.83403768      91.58956494
C      87.67376551      72.87527689      93.57755702
H      85.72734741      73.08314678      92.93693980
C      88.03281351      70.09548949      94.62068594
H      89.96600353      69.94242164      95.31232577
H      87.74746484      68.62717213      93.20717066
C      86.22812488      69.60794010      96.86757053
H      86.78937360      70.94964577      98.33021869
C      83.37085870      69.75533875      96.44616156
H      82.77559491      71.44664379      95.43326826
H      82.47134897      69.88572985      98.29431389
H      82.76236682      67.99978300      95.55987992
C      86.55693726      67.09838355      98.16581250
H      85.01681032      66.81492461      99.50373873
H      88.25580122      67.34782743      99.30909692
H      87.02369966      65.52802098      96.91670341
C      88.16887381      74.94641692      95.55421074
O      90.05293094      74.92185048      96.88079861
N      86.35095709      76.80212816      95.92648682
H      84.65776232      76.74165693      95.04587436
C      86.77047633      79.09058674      97.31543566
H      88.75090951      79.64616627      97.19260345
C      85.42499120      81.32613296      95.95294299
H      85.00358223      82.84169347      97.28142059
H      83.72801697      80.63638285      95.01185929
C      87.01047158      82.54689615      93.94983310
H      88.96255886      82.71319207      94.58478114
H      86.16387419      84.38937931      93.58889537
C      86.90653663      81.05968155      91.57633685
H      85.04704594      80.27922458      91.16059706
H      88.21611696      79.52711351      92.00341500
N      87.57361002      82.57902151      89.23685568
H      88.47500947      84.21930394      89.61102149
C      87.36007094      82.08391321      86.87658751
N      86.13930775      80.18095881      86.17927850
H      86.04104198      79.76143957      84.32167754
H      85.58561794      78.72209009      87.27720949
N      88.14430736      83.47097233      85.07189888
H      87.73990593      82.97775375      83.27287943
H      88.88696980      85.13771094      85.63125787
C      85.68577343      78.85815039      99.95916278
O      83.77337040      77.71108652     100.39757928
N      86.96889760      80.04300880     101.89424252
H      88.80571157      80.47386640     101.60700412
C      86.07883650      80.29434240     104.58332306
H      84.32894994      79.25877237     104.90835599
C      87.87596623      78.73720791     106.24061304
H      87.54904357      76.74165693     105.85699860
H      87.40353465      78.88460656     108.24183321
C      90.74268104      79.10948400     106.12345001
H      91.21511262      79.02066686     104.12034012
C      91.68565447      81.71730630     106.91524533
H      91.12818521      82.21052488     108.83709699
H      90.76913721      83.14027022     105.74361502
H      93.71333081      81.92139674     106.61477885
C      92.04281275      77.01755696     107.55397283
H      94.06481990      77.40306114     107.48972213
H      91.84250176      75.24688341     106.52407199
H      91.45510786      76.85693022     109.52117792
C      85.48168299      82.99476130     105.28819098
O      84.64831368      83.51632575     107.34988239
N      85.90498168      84.80133964     103.59688593
H      86.75535852      84.13048681     102.02652336
C      85.09995827      87.47152293     103.57609894
H      84.56705545      88.03466137     105.48472251
C      87.53392576      89.05511357     103.11500572
H      87.14842160      91.07523101     103.23027902
H      88.33894917      88.69984503     101.25173557
C      89.70333157      88.64504297     105.10488753
H      90.85606462      87.06145231     104.46804976
H      88.86996227      87.78899694     106.78485422
C      91.31904757      91.04121593     105.53763485
H      92.76090875      90.64059395     106.95303986
H      90.09639464      92.54543807     106.23683359
C      92.37162513      91.85568797     103.09043928
H      90.88630024      92.39803942     101.76952058
H      93.56971161      90.38170145     102.29486450
N      94.11584251      93.89470266     103.37389822
H      95.71077152      93.43549918     104.31687165
H      93.32404719      95.38569673     104.26017986
H      94.54858984      94.45595139     101.60322467
C      83.11385592      87.83812984     101.64479865
O      83.38030733      86.80822899      99.55098189
N      81.42444059      89.65604654     101.89046307
H      81.84773929      90.78988234     103.36633932
C      79.57817799      90.36469392      99.81365385
H      78.80339020      88.52410049      99.31287638
C      77.40310300      92.11458047     100.79253208
H      78.33851753      93.87580540     101.31409654
C      75.38865475      92.96117786      98.79320164
H      74.08285387      94.26508902      99.70782918
H      74.19434772      91.44183791      98.07888509
H      76.37887134      94.01186569      97.32677402
C      76.16155281      91.00720085     103.20760231
H      77.75459209      90.83901522     104.50206483
H      75.29227871      89.19495333     102.76162690
C      74.18489909      92.78354359     104.46804976
H      72.65044132      93.03298747     103.12067490
H      74.95212797      94.67893908     104.72316281
H      73.38932431      91.85946743     106.12722946
C      81.02570834      91.61191328      97.64046859
O      82.83417642      92.96495733      98.04675975
N      80.17155205      91.07712073      95.29153878
H      78.63331483      89.96407193      95.08933807
C      81.18444535      91.81222426      92.99741104
H      82.44300308      93.43927863      93.03709529
C      83.13464291      89.69384107      92.06010679
H      84.53681983      88.98708344      93.39425356
H      84.09084442      90.50642339      90.42549353
C      82.02915301      87.25609413      90.85824085
C      81.93277697      86.88759749      88.16727058
H      82.73024148      88.23875182      86.85957997
C      80.96145765      84.76354512      86.90115395
H      80.88208914      84.38371014      84.89804406
C      80.20745685      82.91728251      88.51498022
O      79.38731563      80.58724998      87.86491437
H      79.63675950      80.41339514      86.07534355
C      80.19422876      83.07790925      91.26642174
H      79.49314030      81.60581246      92.49285411
C      80.91988367      85.37392673      92.44561095
H      80.94256038      85.54778154      94.47895647
C      79.09440805      92.56244562      91.05855184
O      76.87964881      91.92749758      91.41193066
N      79.76904034      93.38825601      88.78143163
H      81.56805979      93.90982048      88.41104528
C      77.86230649      94.07422666      86.74997585
H      76.02360279      94.07422666      87.68161092
C      78.30072300      96.69716678      85.61047088
H      76.95901732      97.04865589      84.08735147
H      80.25470001      96.96361819      85.00953791
C      77.65065715      98.74374038      87.53988145
H      78.88275870      98.50752459      89.17260498
H      75.77982810      98.19005058      88.19750620
C      77.67900304     101.40069558      86.42116347
H      76.28627475     101.41770311      84.90560297
H      79.53282455     101.76352304      85.59724280
C      76.67744810     103.27152464      88.33167677
H      78.05127913     103.81954527      89.76408932
H      74.97102524     102.48161903      89.17260498
N      76.10108157     105.75840446      87.36224717
H      75.42266982     106.84499709      88.77765218
H      74.80094987     105.75651473      85.96384970
H      77.68656195     106.69948817      86.86335943
C      77.86230649      92.03899143      84.65237964
O      79.77470952      91.60435437      83.50153632
N      75.67589315      90.88625837      83.79633362
H      74.09230250      91.51742696      84.65804882
C      75.29605816      89.49353009      81.44740381
H      76.14076582      87.61514213      81.52677232
C      72.28761387      89.14582044      81.27543872
H      71.44479594      90.96184743      80.79355851
H      71.34275071      88.45229088      82.97052322
C      71.43156785      87.09357766      79.34791788
O      71.11409383      87.62459075      77.00654698
O      71.55062061      84.81078827      79.97152756
C      76.14643500      90.97129605      79.10603291
O      76.61130768      93.23329845      79.11926100
N      76.38831997      89.58234721      76.98387026
H      76.64343302      87.72852570      77.34858744
C      77.10263652      90.44595214      74.39683494
H      79.08495942      90.99964196      74.36848904
C      76.56973370      88.42772444      72.49388054
H      74.54583681      88.07245590      72.35970997
C      77.55239138      88.85480259      69.82558699
H      79.59140607      89.15337935      69.85204316
H      76.45635012      90.31556102      68.87694438
H      77.46735369      87.05578313      68.82592177
O      77.71868729      86.03344121      73.16851284
H      76.45635012      85.00543009      73.96975679
C      75.43400818      92.74574906      73.64661359
O      76.39209942      94.46162057      72.38805587
N      73.09830646      92.90259636      74.48943153
H      72.58619063      91.50230916      75.67806938
C      71.32763290      94.94350076      74.13605271
H      72.20257619      96.29087564      72.84536964
C      68.94090857      93.90604102      72.92095869
H      67.36676655      95.22884944      73.05890871
H      68.24359956      92.21662570      73.87149102
C      69.15633737      93.14637104      70.15817882
H      70.71914103      91.84057017      69.85771234
H      69.73270390      94.69972608      68.93552589
C      66.68079590      91.88025441      69.13205743
O      66.24426912      89.71273833      69.86527124
O      65.29751624      92.99141348      67.55980514
C      70.85331160      96.61590856      76.64371953
O      68.86909897      97.80832587      76.99898807
N      72.65422078      96.90314695      78.39360609
H      74.31717993      96.09056465      77.92684369
C      72.73925846      98.70972532      80.37214954
H      72.09675151     100.55976737      79.73342205
H      74.71780191      98.90814658      80.90694209
C      71.23125686      97.96328341      82.72296907
O      71.48636991      99.33711444      84.64860019
N      69.91222790      95.89025365      82.76832251
H      69.50782646      95.06255352      81.09591472
C      68.45146946      95.23073917      85.00575846
H      67.42345834      96.87858051      85.69172911
C      66.45213902      93.34668204      84.22908095
H      64.76461342      93.69250195      85.35913728
H      67.16456584      91.45506599      84.62781320
C      65.58286491      93.44494780      81.53433122
C      65.97403826      91.21885020      79.96396866
H      66.94913704      89.54455269      80.60269615
C      64.66445792      91.16593787      77.54511898
H      64.59075860      89.38014650      76.56057157
C      63.29062689      93.20873201      76.59458664
O      62.13222466      93.15770941      74.25132601
H      61.67491090      94.79421240      73.61637797
C      62.93724807      95.29876932      78.14794167
H      61.68813898      96.76141748      77.46008129
C      64.16557018      95.42538097      80.43828996
H      63.63266736      97.01464080      81.60047164
C      70.05017792      94.20650751      87.16004646
O      71.55251034      92.52087164      86.61202583
N      69.58341552      95.10979669      89.42204885
H      68.06974474      96.25686056      89.60535231
C      70.91567257      94.12902872      91.77097866
H      72.95468726      94.35768561      91.58956494
C      70.41111564      95.54443373      94.16337217
H      71.22180823      94.50319454      95.74318337
H      68.37965986      95.55388236      94.50919209
C      71.51471581      98.25241155      94.37502152
C      70.09742107     100.39158174      94.85879146
H      68.14155434     100.05521045      95.33122303
C      71.18968288     102.79720332      94.87390927
H      69.98025804     104.34677890      95.42192990
C      73.77482848     102.97861706      94.67737773
O      75.06173210     105.31620851      95.12335314
H      73.90710932     106.71082653      95.24240590
C      75.33763214     100.86212359      94.16526190
H      77.37664683     100.91125646      94.20305643
C      74.22080389      98.55665749      93.94416392
H      75.42078010      97.02219971      93.33756177
C      70.38088002      91.25286528      92.13569584
O      68.14722352      90.58012272      92.18860818
N      72.31784949      89.69762053      92.48907466
H      73.95624221      90.61791723      92.82544594
C      72.46902760      86.98397354      92.31521984
H      70.58119101      86.19973712      92.55143563
C      73.14365989      86.28099536      89.50330709
H      74.97480469      87.20507152      89.32756254
C      73.45357501      83.54845110      88.90237412
H      73.84663808      83.42372916      86.88225669
H      71.69612953      82.59413931      89.39181323
H      74.99181222      82.67917700      89.96440031
O      71.19157261      87.34491126      87.98585686
H      71.28983838      89.12503345      87.65515475
C      74.23970115      85.88793227      94.37880097
O      75.80439454      87.22963796      95.31799495
N      73.93923467      83.48042095      95.19327301
H      72.33863648      82.61681603      94.60934758
C      75.93100620      82.08013376      96.74095886
H      77.65065715      83.12515240      96.29309373
C      75.47936161      82.46941738      99.57176888
H      74.89165673      84.43851220      99.71349835
C      73.51404625      80.85181166     100.91725402
H      73.41389075      81.07857882     102.96382761
H      74.13198675      78.90917300     100.61867726
H      71.75660078      81.08046853      99.86845591
C      78.09852228      82.35981326     100.91158484
H      79.44967660      83.64671687     100.03664155
H      78.94322995      80.48142529     100.93426155
C      78.07017639      83.05523254     103.77074075
H      79.99391778      83.13838049     104.50206483
H      77.09318788      81.65494533     104.91969435
H      76.91933306      84.73708896     104.07120723
C      76.33540763      79.33625115      95.97939916
O      74.74425808      78.44807979      94.63769348
N      78.05694830      77.99454547      97.06410206
H      79.31550603      78.80145860      98.24896046
C      78.44623193      75.36971562      96.37435196
H      76.71713235      74.26422573      96.56332459
H      79.84651912      74.58547920      97.66503503
C      79.55928072      75.25444232      93.75141184
O      81.49058102      76.42229317      93.33756177
N      78.33284835      73.84281676      92.10168077
H      76.87964881      72.88094607      92.88213773
C      78.44812165      73.89572909      89.28787829
H      79.76148144      75.33003136      88.61135627
C      79.82573213      71.60349107      88.00475412
H      78.29127437      70.30146964      87.56255816
C      81.10318712      72.58236931      85.58968389
H      79.93911571      73.90706746      84.52387825
H      81.72679680      71.00066838      84.42750221
H      82.90031684      73.50644547      85.99786477
C      81.75514270      70.10871757      89.71117698
H      80.76114666      69.19975920      91.26831146
H      82.80394080      71.63939588      90.60501753
C      83.65242792      68.36638991      88.75686519
H      85.36263023      69.47754898      88.47529597
H      82.88708876      67.51601306      87.04477315
H      84.10029305      66.96799243      90.20061610
C      75.89132195      74.37760930      88.25608772
O      74.19056827      72.74110631      88.16916031
N      75.41322119      76.76055419      87.58901433
H      76.77004469      77.98698656      88.13136578
C      73.21924894      77.82069064      86.16227096
H      72.85453176      76.77756172      84.42183303
H      73.73703395      79.74443204      85.64259623
C      70.70969240      78.04934753      87.65893420
O      68.77461266      78.37438045      86.38714840
N      70.72103076      77.69974817      90.05132772
H      72.38965909      77.50132690      90.95461689
C      68.51005097      77.87927217      91.66704371
H      66.90378361      76.91929119      90.81099769
C      68.76138457      76.58480963      94.22762287
H      70.10120053      77.36337688      95.58444636
H      69.07507914      74.57036138      93.93849474
C      66.14600335      76.60559663      95.46539360
N      64.22037224      74.76122374      95.34256139
H      64.30352020      73.05669061      94.48840510
C      62.31363839      75.53790127      96.87512943
H      60.65256896      74.38894767      97.16803701
N      62.86921793      77.71297624      98.09967208
H      61.75238968      78.40461607      99.48295174
C      65.29751624      78.43674142      97.23606716
H      66.43324175      80.01466290      97.85778712
C      67.74282209      80.68551573      91.75775058
O      68.65555990      81.85336659      93.49629878
N      66.26505611      81.63226862      89.98896675
H      65.90789784      80.56835270      88.44317062
C      65.20302992      84.21930394      90.03432018
H      66.72236988      85.55911989      89.65259546
C      63.19047140      84.38182040      87.97262877
H      61.29318618      83.90938882      88.62080490
H      63.71581532      83.02688665      86.51187033
C      63.12055153      86.93484066      86.58367993
H      64.95925523      87.26743249      85.71251610
C      61.26295056      86.74208857      84.38781796
H      61.75049995      84.99787118      83.40516027
H      61.62577801      88.39748882      83.21618764
H      59.29763520      86.34713577      84.86402899
C      62.42324252      88.98897315      88.32978705
H      60.87366694      88.38426073      89.54677079
H      61.67680062      90.48563640      87.12792111
H      63.99549481      89.51242735      89.55432970
C      64.07297359      84.79567047      92.70072401
O      62.75583435      83.23097708      93.77786801
N      64.75327506      86.95184819      93.98384817
H      65.94380264      87.98363876      92.90859390
C      63.42101801      87.92316752      96.06632657
H      62.44780896      86.35091522      96.97150547
C      65.42979708      88.66960941      98.01274467
H      64.48493392      89.44628692      99.67003465
H      66.39544723      90.37792199      97.38346581
C      67.21936790      86.56634402      98.75918657
H      68.14533379      85.66494457      97.15480893
C      69.28105931      87.76820996     100.26340871
H      70.45646907      89.00787042      99.11256539
H      70.63221362      86.36036386     100.92481292
H      68.63855236      88.82645670     101.91125006
C      65.91734647      84.63126427     100.39757928
H      64.44335995      83.65049633      99.34122227
H      64.98949085      85.58935553     101.96794185
H      67.30251586      83.33113257     101.19315406
C      61.49916635      90.06800689      95.49751895
O      59.24850231      89.85068836      96.25718893
N      62.30418976      92.06544759      94.05376805
H      64.11076811      92.20339762      93.44527617
C      60.36155111      93.93249719      93.29220834
H      58.61922345      92.84590456      93.14291996
C      59.86455309      95.81088515      95.41059154