 %block lattice_cart
   137.793   0.000   0.000
   0.000 143.498   0.000
   0.000   0.000   162.326
 %endblock lattice_cart

 %block positions_abs
N      87.93832719      40.35781135      79.56240182
H      86.49268656      40.93039842      78.45880164
H      87.20322365      38.72886727      80.23136492
H      89.48223359      39.88726950      78.54572905
C      88.20666833      42.39871577      81.43890004
H      89.64852950      42.03021914      82.85997423
C      89.03625819      44.88181615      80.14443751
H      87.38841683      45.75675943      79.27138396
H      90.58205430      44.60402638      78.81029075
C      90.03970286      46.64871025      82.11542207
H      91.49290239      45.81723067      83.31539827
H      88.48634782      47.10413429      83.38720788
S      91.67242638      49.54188123      80.92111503
C      93.81726575      50.70784237      83.58373941
H      93.77002260      52.76386460      83.70279217
H      95.63896192      49.87825252      83.09807974
H      93.61884449      49.80266346      85.42433284
C      85.70656041      42.81445556      82.72958311
O      83.68455327      43.12248095      81.63543158
N      86.05804951      42.68784390      85.26370610
H      87.71156003      42.23430958      86.10085485
C      84.10029306      43.45885223      87.22713174
H      82.33339894      42.45918701      86.88887073
C      85.25491583      42.40438495      89.75369582
H      87.29015107      42.72185897      89.72723966
H      84.99224387      40.40883396      90.19211232
C      84.34028829      43.80467215      92.14986878
O      82.47134897      45.23897442      92.18577358
N      85.67821452      43.39838099      94.07549989
H      85.30404871      44.25064756      95.74223851
H      87.14842160      42.18139724      94.09250744
C      83.46723474      46.34824376      87.13453515
O      85.19633432      47.87514263      87.34429477
N      81.02948779      46.97563290      87.19689612
H      79.81439377      45.50164638      87.20634476
C      80.11674998      49.56833740      86.51659464
H      81.09562822      50.00297445      84.75536972
C      77.14421050      49.54755041      86.31817338
H      76.46579875      48.29655159      84.82906904
C      75.79305618      48.76142427      88.89198063
H      73.77104902      48.65370987      88.50836618
H      76.00659526      50.33367656      90.20723014
H      76.57540288      47.04555277      89.71779102
C      75.90077057      52.02876106      85.43945064
H      76.05383842      53.57266746      86.79438441
H      73.91088877      51.53932195      85.22591157
C      76.85319265      53.10023588      83.02438043
H      77.17066666      51.69805896      81.55039389
H      78.57662304      54.21139495      83.20579414
H      75.39810338      54.33800662      82.25526181
C      81.03704669      51.46751235      88.47624083
O      81.14476110      53.72573529      88.01703733
N      81.67766392      50.63981222      90.79115556
H      81.41121251      48.79543934      91.21067480
C      82.53937912      52.16482136      92.86796478
H      81.24491660      53.75597091      93.06449632
C      82.28615579      50.62280468      95.28681446
H      83.53148544      51.28042944      96.78914688
H      83.01936961      48.70662220      95.12051854
C      79.66888485      50.64926085      96.52647493
C      79.40810261      51.94939256      98.77146978
H      80.86319187      53.08511807      99.64074389
C      76.90421525      52.07600422      99.66720005
H      76.65855083      53.24952426     101.32071059
C      74.89732591      50.94216843      98.39163480
H      72.92823108      51.14625887      98.88674309
C      75.37920611      49.55888877      96.24679543
H      73.73325450      48.80299824      95.30382201
C      77.78293798      49.24141475      95.43799257
H      78.13442708      48.18316801      93.72779026
C      85.24735692      53.03220573      92.49946816
O      85.82561318      55.24507525      92.91520794
N      86.74779961      51.38436439      91.33728647
H      85.83884126      49.71762578      91.13130630
C      89.33861440      51.87569323      90.54549114
H      90.07938710      53.30621605      91.83050504
C      91.07338315      49.58156549      90.15620752
H      92.87807177      50.47729576      89.71968075
H      90.54425978      48.43072216      88.53293263
C      91.21889207      47.89215016      92.57127775
H      89.47089524      46.81311644      92.75269147
H      91.50235101      49.19039214      94.14730950
C      93.48278419      46.06856427      92.66009490
O      93.26735540      44.08057219      91.41665498
O      95.52746806      46.64304107      93.78070259
C      89.18176711      53.48574005      88.20789969
O      90.69921733      55.15814784      88.08128804
N      87.55093329      52.71284199      86.45234396
H      86.71000509      51.02342666      86.73958235
C      87.23345928      53.95628190      83.92200041
H      89.10239860      53.74841201      83.08107220
C      85.24546720      52.32544809      82.33463031
H      83.41810186      52.40670632      83.28138320
H      85.63097136      50.30533066      82.43100635
C      84.89775755      52.88102763      79.52460729
H      86.69677701      52.50497209      78.59297222
H      84.51414311      54.89736560      79.35642164
S      82.17655167      51.03854447      78.25093175
C      82.68110860      51.69050005      74.91367508
H      81.07862067      50.71918073      74.05951880
H      84.48012804      50.89492527      74.30707293
H      82.56583528      53.74463255      74.79462232
C      86.46056121      56.70016451      83.93711822
O      87.42999081      58.31588050      82.47069061
N      84.60107053      57.39747352      85.67566643
H      83.69589163      56.01797331      86.63564741
C      84.09651360      60.15080475      85.87219797
H      83.79226766      61.01629941      84.02782509
C      81.62853104      60.46638905      87.31216942
H      81.49058102      62.48461675      87.69956331
H      81.85529819      59.42326012      89.07339434
C      79.30038821      59.70860880      85.78527057
H      79.55361154      57.81888248      85.00292386
C      76.93823033      59.96750130      87.58051056
H      76.63020493      61.98194955      87.87341813
H      77.40310300      59.26830257      89.46078825
H      75.41889037      58.92059292      86.66777276
C      78.65410181      61.47550290      83.50059145
H      77.11019541      60.54008837      82.51037487
H      80.20745684      61.58888648      82.15132687
H      78.17600107      63.35578058      84.19034156
C      86.28670640      61.51140770      87.20256529
O      86.68354892      63.71671831      86.85674538
N      87.57738947      60.20938627      88.94867242
H      87.27881271      58.33288804      89.12630669
C      89.72789801      61.26574328      90.27337055
H      89.13452394      63.21783056      90.56627814
C      89.80537680      60.20560682      93.09473194
H      91.44376951      60.79331170      94.19833210
H      89.83939187      58.14580514      93.08150385
C      87.63030180      60.98417406      94.56871847
H      85.93521731      60.13946640      93.75802588
H      87.22023119      63.00240176      94.54604176
C      87.68699359      59.91458897      97.25590929
H      87.66242715      57.85478728      97.25590929
H      86.05804951      60.66481031      98.27258203
N      90.08694601      60.55520619      98.62218140
H      91.18676672      61.77785911      97.65086208
C      90.52158306      60.25096025     101.12984823
N      89.13263423      58.73162029     102.43564910
H      89.43121099      58.86012168     104.31592679
H      87.83628197      57.55998998     101.66842022
N      92.09950453      61.54164332     102.46966418
H      92.63807654      61.14669052     104.25734527
H      92.99901425      62.97405587     101.58338254
C      92.15052714      61.65124745      88.94678269
O      94.03269456      62.51863182      90.08628765
N      92.27902854      60.96527680      86.50147684
H      91.09417013      59.54987179      86.01581717
C      94.09505552      62.06131806      84.58718409
H      95.43298175      63.23483810      85.62464382
C      95.98667156      60.00907528      83.41555376
H      97.45498890      61.00496105      82.36675566
C      97.15074297      58.44249217      85.48858354
H      95.88840580      56.94015975      86.11975213
H      97.49278344      59.65569646      87.11563788
H      98.96488023      57.62235095      84.96701907
C      94.59772273      58.13257705      81.53527608
H      93.44121021      59.37979642      80.37309441
H      93.20310470      57.07055086      82.61430981
C      96.22288735      56.32032952      80.12365053
H      97.64585127      57.16692691      78.90099761
H      94.91519675      55.34523074      78.86887225
H      97.03357994      55.06744097      81.54472472
C      92.91019712      63.78663818      82.60108173
O      94.28780761      65.35133157      81.49181239
N      90.47433990      63.60900391      82.05684055
H      89.49357194      62.48650648      83.24736812
C      89.08161161      65.19448428      80.28616700
H      90.18710150      64.98472466      78.55895714
C      86.52670163      64.17592180      80.01593612
H      85.36074050      64.69370681      81.63165213
H      86.54748862      62.12178930      79.83641214
C      85.19255487      65.15291030      77.58196863
O      83.06094358      66.24139266      77.76338236
O      86.11663103      64.72961161      75.45224708
C      88.78114512      68.03852238      81.10819793
O      88.49012727      69.75061442      79.52082783
N      88.91720542      68.59599165      83.52893735
H      88.96633830      67.17869691      84.80450260
C      89.24223835      71.12255573      84.49269777
H      90.56126732      72.05797025      83.21713250
C      86.66843112      72.53229156      84.53994092
H      86.18466118      73.18424714      86.43155696
H      85.06027402      71.30963863      84.13742921
C      86.67599001      74.77350696      82.65588379
H      84.73902054      75.20814402      82.10030425
H      87.78336963      74.32564183      80.97780683
C      87.86840731      77.15456212      83.89365453
O      90.05482066      77.21125391      84.78560534
O      86.70055645      79.23137134      84.21301827
C      90.35528715      71.07720230      87.20256529
O      90.68976871      69.08732049      88.27026066
N      91.17920781      73.17668823      88.41954904
H      90.69732762      74.69791791      87.37264066
C      91.86328875      73.34676360      91.11240903
H      92.83271834      75.13066524      91.46389813
H      93.17853826      71.84065173      91.60751733
C      89.57294046      73.33731497      92.81694217
O      87.56794084      74.46926103      92.38230513
N      89.97923162      72.17324356      94.98823771
H      91.68376474      71.33420507      95.16776171
C      88.28792656      72.31686276      97.29370380
H      86.29804476      72.35087783      96.76080099
C      88.72823279      69.76951169      98.91130954
H      90.71244542      69.80352676      99.46121989
H      88.25391149      68.41457792      97.43354355
C      87.16731885      69.20826297     101.24701126
H      87.59061755      70.68224950     102.62273201
C      84.28926569      69.26684449     100.49678991
H      83.00047234      68.73394167     102.01235042
H      84.11352113      67.83443194      99.02658283
H      83.92454850      71.16790916      99.79381172
C      87.69644222      66.72327287     102.56037104
H      89.71089047      67.02373935     102.86083752
H      87.23912845      65.01873974     101.49645512
H      86.77614551      66.78374411     104.40285420
C      89.03247873      74.75460970      98.89997118
O      91.12440575      74.81508094      99.86184187
N      87.34306341      76.58008532      99.30815205
H      85.65553780      76.44213530      98.42942933
C      87.80604636      78.83830826     100.86906599
H      89.83372268      79.19735626     100.85394818
C      86.57016534      81.13999491      99.85995214
H      86.38308244      82.51760539     101.37929209
H      84.78059452      80.48803933      99.07382599
C      88.13674846      82.09052725      97.72078195
H      89.94521653      82.58563554      98.58060742
H      87.38841683      83.91978232      97.14441543
C      88.36918479      80.53339277      95.32460899
H      86.58528315      79.50727138      95.23579186
H      89.90364256      79.16712064      95.47578710
N      88.59973140      82.15477794      93.14386482
H      89.57671991      83.78561175      93.30071211
C      88.19910942      81.59352923      90.68344117
N      87.43188054      79.42223369      90.01447805
H      87.48101342      78.96114047      88.16443600
H      86.85740374      78.28839791      91.43744197
N      88.75846842      83.19790687      88.94678269
H      88.22367586      83.12042809      87.11563788
H      89.62396306      84.85519684      89.33228685
C      86.79504277      78.30729517     103.58649243
O      84.65965205      77.41156490     103.80759041
N      87.82305389      79.16712064     105.66708110
H      89.39908564      80.23292628     105.52346191
C      86.80260168      79.56774262     108.29758014
H      84.96200826      78.65500481     108.40529453
C      88.56760605      78.06163075     110.20242425
H      88.72445333      76.12655100     109.51456387
H      87.73990593      78.37910477     112.06191494
C      91.45321813      78.77594730     110.45564758
H      92.11651208      78.57752603     108.51489865
C      91.76502297      81.58974978     111.40617991
H      90.62173856      81.80328885     113.10693360
H      91.24723797      82.99570615     109.99644408
H      93.71899999      81.90533407     111.97309780
C      92.81571081      76.83897782     112.11293756
H      94.74134191      77.53817656     112.33025609
H      92.98767591      75.17034949     110.91674081
H      91.85195039      76.22859623     113.82880904
C      86.33017011      82.35130948     109.04402203
O      85.35129187      82.80673352     111.01311684
N      87.01803047      84.07096042     107.29224573
H      87.35062231      83.46246855     105.51401327
C      86.67032083      86.74681288     107.55491768
H      85.59128712      87.02838210     109.28779671
C      89.08350133      88.15087953     108.04246708
H      90.36851523      88.17733570     106.43053054
H      90.12663026      87.33829722     109.62038854
C      88.46367111      90.97413065     108.51678838
H      86.84606539      91.12530875     109.78101528
H      87.79848745      91.90765544     106.80847579
C      90.62551802      92.42355073     109.90762695
H      91.23589960      91.34640673     111.55546829
H      89.78081034      94.25658525     110.31769755
C      93.12373619      92.79771654     108.42986097
H      92.73634230      93.50825363     106.53635520
H      94.29347678      91.11963957     108.18608627
N      94.59772273      94.43610925     109.86794269
H      94.90007894      93.64431393     111.57625529
H      93.83805274      96.12363485     110.33848455
H      96.29091750      94.88019493     109.10638300
C      85.32294598      87.71246303     105.19464953
O      85.98246045      86.75059234     103.14429648
N      83.41999158      89.34518656     105.47810847
H      83.32172582      90.31839562     107.11839091
C      81.51325772      89.92155309     103.45232187
H      80.64020418      88.20946105     102.71532860
C      79.49314030      91.83395612     104.26868364
H      80.61563774      93.45912075     104.85638851
C      77.52593520      92.49158088     102.15974906
H      75.95368292      93.61596803     102.87406561
H      77.12153377      90.70578951     101.21110645
H      78.34040724      93.82005847     100.81237420
C      77.94356472      90.86641625     106.61761343
H      79.15298956      90.25981410     108.17096847
H      76.86453099      89.18833928     106.10360789
C      75.71557741      92.35741031     107.89884788
H      74.13576621      92.46890416     106.58170863
H      76.37320216      94.25280580     108.37127945
H      75.30928625      91.32373001     109.63361663
C      82.92866273      91.03649161     101.19787838
O      84.81649932      92.50291923     101.47755786
N      82.03482220      90.44311755      98.86973556
H      80.55894595      89.24881052      98.66186566
C      83.11007646      91.55427662      96.46789341
H      84.19099991      93.24747140      96.92898664
C      84.91287536      89.76281608      95.19988706
H      86.15820500      89.18833928      96.73434482
H      86.04482143      90.83051145      93.84684302
C      83.65998683      87.44979107      94.11518415
C      83.64108956      87.18900884      91.51870019
H      84.42154652      88.57606795      90.24124520
C      82.71323394      84.93645508      90.41321030
H      82.51292294      84.74937217      88.38931342
C      82.15387494      82.87665339      92.00058040
O      81.56994951      80.57496675      91.01981245
H      81.36207963      80.33119205      89.23402108
C      82.21812564      83.24892948      94.58572600
H      81.77403996      81.68612582      95.82160701
C      82.95322917      85.47691680      95.73090014
H      83.01370042      85.47313735      97.77180456
C      80.87453024      92.09473835      94.67265341
O      78.81472855      90.99680736      95.01091442
N      81.28082140      93.68210845      92.65820516
H      82.97401616      94.55894146      92.61285173
C      79.47613276      94.02036946      90.60407267
H      77.59018590      93.94100096      91.42421389
C      79.84273967      96.73212672      89.41732453
H      78.84496418      97.12518979      87.65987906
H      81.87797491      96.97023224      89.22646217
C      78.81283883      98.72389826      91.39964743
H      79.98446914      98.67287564      93.09284222
H      76.89476662      98.39886533      92.07805919
C      79.17944574     101.21455754      90.08439793
H      77.63364960     101.66998158      88.79938404
H      80.94445010     101.09361505      89.02993064
C      79.20023273     103.13451947      92.23490646
H      80.73846994     102.50335088      93.44622103
H      77.46357424     103.07782768      93.34228608
N      79.55361154     105.72911370      91.26736659
H      80.16021369     106.92720018      92.62041063
H      77.95112363     106.41130490      90.48501991
H      80.75925693     105.78958494      89.78771090
C      79.58762662      91.91710408      88.55371961
O      81.61152350      91.06861696      87.77893183
N      77.32940368      91.46168003      87.47657562
H      75.82140208      92.41599182      88.15120790
C      77.06106253      90.01225995      85.06339511
H      78.40843739      88.46268438      85.21268349
C      74.29450321      88.93700568      85.06717457
H      72.98870233      90.42422029      84.50214639
H      73.86742506      88.25481448      86.96445979
C      74.22458334      86.83185057      83.20390443
O      73.10964481      87.14554514      81.18189727
O      75.13543143      84.78905642      83.84452165
C      77.72624619      91.43333414      82.58218446
O      77.90010101      93.70667489      82.48580843
N      77.70356949      90.11619490      80.35986632
H      77.44089752      88.23402749      80.53750059
C      78.00970514      91.19711835      77.82952278
H      79.84462939      92.10040753      78.07140775
C      78.55583605      89.41699616      75.52027723
H      78.89409706      90.74925321      73.98581946
C      80.97279600      87.88253840      75.86987659
H      81.80427558      87.09830198      74.15589483
H      80.51170279      86.29138884      77.09063980
H      82.37875238      89.18078037      76.63899521
O      76.48469601      87.77293427      75.22925937
H      76.80972894      86.85830674      73.69669133
C      75.87620413      93.20400770      77.39110628
O      76.46390902      95.06916757      76.16089446
N      73.60664284      92.85062887      78.31518245
H      73.36664759      91.09318340      79.01816064
C      71.40889114      94.57972845      77.92400910
H      71.59597404      95.08428538      75.93601702
C      69.01649762      93.01881452      78.18479133
H      67.56896726      94.42477089      77.77094127
H      68.40044685      92.36685894      80.03861285
C      68.89744486      90.73035595      76.55962670
H      69.14121955      89.08629406      77.77661045
H      70.12765669      90.85885734      74.91367508
C      66.33497598      90.60374429      75.09130935
O      66.25938693      91.35585536      72.85387341
O      64.47359556      89.71557292      76.23459377
C      71.21235960      97.02314457      79.67956485
O      69.71947581      98.74468524      79.41311343
N      72.79972969      96.83606167      81.56173225
H      73.93167576      95.29782445      81.55795280
C      73.37609622      98.86751746      83.34374417
H      72.64666186     100.65708827      82.62753790
H      75.34519105      99.05460036      83.92011070
C      72.04194945      98.67476537      85.78527057
O      72.34997484     100.31693754      87.51625986
N      70.68701569      96.65464794      86.17833364
H      70.37521084      95.49624571      84.69300875
C      69.28294904      96.05560470      88.53104289
H      68.30973998      97.64864398      89.40598617
C      67.16456583      94.24713662      87.77326265
H      65.92112592      93.98257494      89.39464782
H      67.84864676      92.31583633      87.56161330
C      65.51105531      95.08050592      85.45078901
C      64.46414694      93.25692003      83.81617574
H      64.85532027      91.28404576      84.15821621
C      62.78984941      94.08084070      81.91322134
H      62.09065068      92.65976652      80.62631772
C      62.14545275      96.57905889      81.50126101
O      60.36155110      97.14030760      79.85152994
H      59.63211675      98.72200853      80.36553550
C      63.32653169      98.29870983      83.16799962
H      62.77662133     100.26402520      83.18500715
C      64.76461341      97.57683438      85.15977116
H      65.63388753      98.96200377      86.37675490
C      71.14432945      95.00113742      90.54927059
O      73.16255716      94.17343729      89.94644790
N      70.57552183      94.95578399      93.09662167
H      68.75193594      95.36774432      93.47645665
C      72.19123783      93.64809338      95.04115004
H      74.15844291      93.91454479      94.49312941
C      71.94746313      94.74791409      97.69054633
H      72.94523863      93.65187283      99.12295889
H      69.93112515      94.90854083      98.07038132
C      72.81862696      97.42565628      97.89274706
C      71.02905614      99.40231000      97.72834086
H      69.04295378      98.93554760      97.61684700
C      71.90777887     101.89296928      97.50346344
H      70.43946153     103.30837429      97.53369905
C      74.49670392     102.47500499      97.40519767
O      75.44345681     104.84094233      97.50346344
H      74.26993677     106.12595622      96.98945787
C      76.26359804     100.40764440      97.68109770
H      78.22891340     100.91409105      97.46755864
C      75.43778764      98.01714061      97.85873197
H      76.77193440      96.47890340      97.73401005
C      71.83596929      90.68122307      94.95800209
O      69.75727033      89.67966812      94.80493425
N      73.89766069      89.28282560      95.33027818
H      75.44345681      90.38831549      95.14886445
C      74.17734018      86.62398067      95.62318575
H      72.34052621      85.77927301      96.01624883
C      74.78583205      85.43534282      93.07772440
H      75.51148696      83.56073432      93.53125873
C      72.42745361      84.97424960      91.36941181
H      73.11720372      84.63976804      89.45700878
H      71.59219458      86.85641701      91.44500088
H      71.23503632      83.41900485      92.00435986
O      76.55083644      86.74303343      91.61318651
H      77.84529896      87.26459789      92.77158875
C      76.12186855      85.63565381      97.62818536
O      77.95301335      86.96413141      98.27636150
N      75.93478565      83.29050346      98.33494300
H      74.48158611      82.35319921      97.52614014
C      77.57884755      81.82785529      99.96955626
H      79.42322043      82.56862801      99.42909454
C      77.11775432      82.59319445     102.66619572
H      76.69634536      84.60764270     102.68320325
C      74.82551631      81.33652645     103.96443770
H      75.35841913      79.48270494     104.68820288
H      73.34964006      81.39321824     102.52824569
H      74.23781142      82.45524443     105.59338177
C      79.55172182      82.31351495     104.14207196
H      81.06728231      83.17145070     103.04603070
H      79.80683486      80.30662561     104.53702476
C      79.90321091      83.60797748     106.71209975
H      78.03616131      83.71380215     107.57570467
H      80.98602408      85.35408459     106.56848055
H      80.98791381      82.36453756     107.94609103
C      77.70167975      79.04995761      99.38752057
O      76.28060557      78.03328485      97.69621551
N      79.09062859      77.57030191     100.78024885
H      80.15643424      78.38288422     102.13896207
C      79.46290468      74.93602343     100.20199261
H      77.62798043      74.04218288     100.47222346
H      80.67043979      74.07430823     101.63251542
C      80.46256990      74.68091037      97.65464153
O      82.48835650      75.72781875      97.07260584
N      79.21535053      73.23338002      96.14286048
H      77.69790030      72.22237644      96.70410920
C      79.62164168      73.30896907      93.42354432
H      81.02759807      74.73760216      92.95111275
C      80.56650484      70.83531733      92.28214963
H      78.91110460      69.67124592      91.89475574
C      81.75325298      71.56475168      89.74424718
H      80.17155204      72.21670726      88.59907304
H      82.62441681      69.90368226      88.89764981
H      83.09306893      73.06141492      90.19967123
C      82.45812088      69.31030819      93.81282794
H      81.60963377      68.63378617      95.56460424
H      84.20611772      70.38367274      94.00369029
C      83.17432715      66.70437561      92.61474146
H      81.60585431      66.08832483      91.42988306
H      83.74124506      65.26629388      93.97723414
H      84.70500548      66.88767906      91.24657960
C      77.06673172      74.18391235      92.36907704
O      75.10708553      72.83653749      92.63552844
N      77.04027554      76.52717298      91.29382277
H      78.57095385      77.64967041      91.50169266
C      74.86142111      77.94257799      90.17510479
H      74.44379159      76.71047644      88.57828605
H      75.38865474      79.83419403      89.55338484
C      72.39343855      78.23548557      91.58484062
O      70.41678481      79.03861925      90.48690964
N      72.45202005      77.53628683      94.00935947
H      74.06206687      77.15645185      94.95989181
C      70.06529572      77.67612658      95.66853919
H      68.44013109      76.85220591      94.70666848
C      70.64166225      76.32119281      98.21400053
H      71.97202957      77.33408612      99.41964592
H      71.64321720      74.61099050      97.65464153
C      68.33619615      75.84120233      99.55759593
N      66.95669593      73.51116979      99.56704457
H      67.32519257      71.92946886      98.56359989
C      65.05752100      73.67557598     101.30559277
H      63.88022150      72.13733876     101.94809971
N      65.31074433      75.87143795     102.47155390
H      64.39611679      76.19080170     104.11750552
C      67.24771379      77.30196077     101.36606401
H      67.92234609      79.13499529     101.95565862
C      69.34531000      80.51449550      96.15986802
O      70.72858966      81.80517857      97.52425041
N      67.25905214      81.28739357      94.89186166
H      66.57875067      80.02127694      93.63519367
C      66.40489586      83.84986245      94.86351577
H      67.88077211      85.19345785      94.34762048
C      64.41690377      84.12765221      92.77158875
H      62.78040078      83.04672876      93.39708815
H      65.20491964      83.07129520      91.18799809
C      63.62321873      86.80917385      91.88908655
H      64.02195097      87.85797196      93.61629640
C      65.41845872      87.92411238      89.97101435
H      64.74760588      89.82517705      89.53448756
H      65.57719574      86.77137933      88.27215039
H      67.28739805      87.90710484      90.83083982
C      60.90768201      87.40443764      90.96312067
H      59.49605646      86.91310880      92.37663595
H      60.67902512      86.39532379      89.18110875
H      60.56564154      89.41510644      90.67210280
C      65.50727585      84.65677558      97.49023535
O      64.59453805      83.04294931      98.94532460
N      65.75483001      87.06995608      98.04392515
H      66.52772806      88.10930556      96.64174823
C      65.18602239      88.36630833     100.29269946
H      64.54351543      86.97169031     101.66842022
C      67.69179947      89.50581330     101.20165782
H      66.87354798      90.34296206     102.89485260
H      68.55351468      91.03649161     100.12451382
C      69.71758608      87.55561575     102.03313741
H      70.22781219      86.46524366     100.36261934
C      72.08730288      88.91810842     102.94776493
H      73.57073804      87.50459313     103.15752455
H      71.44668566      89.91588391     104.63151108
H      72.69957421      90.13131271     101.39818936
C      69.15444765      85.64888190     104.12506443
H      70.90433420      84.87787356     104.89040359
H      67.90911800      84.16355701     103.42586569
H      68.13966462      86.44445667     105.73133180
C      63.13000015      90.40910248      99.84672405
O      61.09665465      90.26170383     101.03158245
N      63.55896802      92.11552534      97.99101282
H      65.12366142      92.02292875      96.90064073
C      61.88467051      94.24146744      97.06882638
H      60.04974626      93.42888513      96.60395370
C      61.44436428      95.99891291      99.30815205