 %block lattice_cart
   137.793   0.000   0.000
   0.000 143.498   0.000
   0.000   0.000   162.326
 %endblock lattice_cart

 %block positions_abs
N      88.04793133      43.72719337      78.22164100
H      86.33394956      43.28121796      77.50921418
H      89.45199798      42.59524731      77.59614159
H      88.33327999      45.48274912      77.52811144
C      87.89297376      43.68561940      81.09591472
H      88.40131014      41.73353210      81.51354424
C      89.89419392      45.61314024      82.29778066
H      91.71589009      45.05567097      81.51921341
H      90.01135695      45.42983677      84.34624398
C      89.60695552      48.33623585      81.52677232
H      91.01102217      49.46629219      82.52454781
H      87.80226690      48.84268249      82.37525943
S      89.34428357      49.28865790      78.27644306
C      92.51902377      49.06755993      77.17473262
H      93.69821300      47.87514262      78.36903965
H      93.46199720      50.89492527      77.31457237
H      92.67398134      48.46662697      75.20941726
C      85.24168775      44.04655711      81.86125388
O      83.56739024      44.71174077      80.24931733
N      84.67854930      43.74042146      84.23663985
H      85.97868100      43.02232546      85.43472633
C      82.17466193      43.94451190      85.49141812
H      80.81972817      42.54233498      84.82812419
C      82.87575040      43.70262693      88.33734595
H      84.46123077      44.91205177      88.85135151
H      82.98724426      41.72219375      88.89292549
C      80.68366787      44.43962018      90.13447568
O      78.49914427      44.64182091      89.62991875
N      81.44711731      44.88370588      92.37191163
H      80.06572737      45.11425248      93.67015361
H      83.19322443      44.50576061      93.04276447
C      81.05216451      46.57690064      84.87158789
O      82.35607566      48.39292763      84.66182827
N      78.56717441      46.85091096      84.36703097
H      77.62987015      45.18984153      84.48608373
C      77.07051116      49.31133463      84.04577749
H      77.81128388      49.96706966      82.23919914
C      74.21324498      48.85024140      83.87381240
H      73.75971067      47.22696650      82.69084373
C      73.15688797      48.06789471      86.48919362
H      72.86775984      49.74786140      87.64570612
H      74.26048815      46.55233420      87.33957046
H      71.27850001      47.40082132      85.97329833
C      72.80917834      51.22373765      82.69651291
H      73.61798119      52.91882216      83.54500002
H      70.79284036      51.16515614      83.11225270
C      73.19468251      51.52609386      79.70696588
H      72.30462141      49.84423745      78.91517055
H      75.20157184      51.40893083      79.25154184
H      72.24226043      53.20039137      78.98131098
C      77.65821605      51.34656986      86.11691753
O      78.06261749      53.62935925      85.60858116
N      78.10986064      50.54532590      88.52631858
H      77.63742906      48.70662221      88.72851930
C      79.33629301      51.80388363      90.76753399
H      78.27237711      53.56699828      90.83367441
C      78.40843739      50.59823825      93.28653917
H      79.32117521      51.55255003      94.86824009
H      79.06228271      48.65937904      93.52275495
C      75.58707602      50.84957184      93.85912624
C      74.54394709      52.74307760      95.43893744
H      75.76471029      54.16982097      96.23640194
C      71.97769876      52.89803516      95.97939916
H      71.32196372      54.05265794      97.52897474
C      70.36576221      51.03476502      95.13658123
H      68.33808588      51.23885547      95.22350864
C      71.30495619      48.89559483      93.68527142
H      70.05962655      47.53310217      92.81788704
C      73.95057303      48.97496334      93.03331584
H      74.84441358      47.48396927      91.96562047
C      82.12741879      52.58245087      90.48596477
O      83.12708401      53.49329896      92.27931504
N      83.47101420      51.86624459      88.47340625
H      82.58095310      50.52264919      87.44917458
C      86.20544817      52.21206451      88.04821783
H      87.01992021      53.17771466      89.67527218
C      87.30715861      49.61558057      88.41671446
H      86.95755923      48.57245163      86.67816625
H      86.47945849      48.81055715      90.12313732
C      90.28914672      49.88770116      88.70206313
H      91.05826533      51.43538700      89.82456056
H      90.93732285      50.21462381      86.77643202
C      91.50046130      47.41593914      89.53921189
O      93.81915549      46.90571302      88.97985290
O      90.14930699      45.76620807      90.44439079
C      86.84984483      53.35912838      85.49897703
O      88.41264850      55.00885945      85.35913728
N      85.34184325      52.78843104      83.54877947
H      84.11352114      51.41082056      84.03065968
C      84.67665958      54.30399155      81.30567434
H      86.37930299      54.47973609      80.16050020
C      82.56016611      52.91504271      79.80712137
H      80.80838981      52.90181461      80.88993455
H      83.15354017      51.05744173      79.14382744
C      82.08584480      54.35123470      77.44874294
H      83.65809709      54.24352031      76.12404479
H      81.37341799      56.27308636      77.66039228
S      79.56117044      52.72418034      75.77066597
C      79.42699989      54.66303955      72.97198130
H      81.01059054      54.10179082      71.78145372
H      79.66132594      56.64347272      73.48976631
H      77.58640646      54.71595188      72.05168459
C      83.90376152      57.02897688      81.97274773
O      85.30971790      58.75429701      81.16961405
N      81.75892215      57.30865638      83.20484929
H      80.72524186      55.74963218      83.57334592
C      80.82917681      59.87868416      83.46941097
H      81.08240014      60.91614391      81.70818605
C      77.82640170      60.01852392      83.80767198
H      77.43333863      62.04053106      83.83034869
H      77.41255163      59.10011692      85.60669143
C      76.16911172      58.57288329      81.82912853
H      76.60374877      56.56032477      81.81779017
C      73.50837706      59.01318951      82.78910950
H      72.29706251      58.33288805      81.27165927
H      73.21735921      60.98039461      83.33146095
H      72.98870233      57.74896261      84.33112617
C      76.47902684      59.86545609      79.24398293
H      76.13320691      61.89502214      79.29311582
H      75.31495542      58.79398126      77.92495397
H      78.45757029      59.61979166      78.72619792
C      82.23135372      61.44337755      85.51598457
O      81.73057625      63.75829228      85.71440583
N      83.84329028      60.20749654      86.95406629
H      83.69967107      58.30454214      86.92949985
C      85.68388370      61.44148782      88.78143164
H      84.63886505      62.74350925      89.98896675
C      86.80071195      59.29853818      90.41415517
H      88.66398209      58.79587098      89.69416944
H      85.56483095      57.65069684      90.34612502
C      86.97078733      60.12812804      93.22606792
H      85.05082538      60.43993289      93.90258994
H      88.05549022      61.85722761      93.49629879
C      88.52414236      58.24974008      94.85123255
H      88.87563145      59.03208677      96.72395133
H      90.23245493      57.94360443      93.74196321
N      87.15787023      55.92537672      95.19705247
H      85.24924666      55.97450960      95.20839083
C      88.20099916      53.55943937      95.55421074
N      90.61606937      53.19472219      95.73940392
H      91.32660648      51.42404864      95.77908817
H      91.79714832      54.56666350      95.13847095
N      86.95000033      51.49396851      95.69405049
H      87.88919431      49.89903951      96.16648207
H      85.04704593      51.55066030      95.56554910
C      87.75691346      63.05909356      87.54933008
O      88.89074926      64.54252870      89.00819879
N      88.35595671      62.54319827      85.12103177
H      87.78903881      60.86701102      84.40671522
C      90.14552753      63.81120463      83.32957122
H      90.99590437      65.43258980      84.27065493
C      92.51524432      62.16336327      82.85713964
H      93.69254381      63.31231687      81.61936891
C      94.03647401      61.54353305      85.34590920
H      95.68809480      60.47961713      84.72985842
H      92.96121974      60.45316096      86.72351968
H      94.63929670      63.36900866      86.08857164
C      92.06737918      59.49884918      81.71196550
H      90.41575840      58.55587574      82.49998137
H      93.59049860      58.13635650      81.95007101
C      91.40030580      59.44593684      78.90194247
H      92.78358546      60.32276986      77.65472310
H      89.75435419      60.52686029      78.29723005
H      91.33794484      57.48818038      78.26510470
C      88.89074926      65.09054933      81.09213527
O      90.21355768      66.20359813      79.49153708
N      86.39631052      65.10944661      80.88426537
H      85.32105626      64.36867388      82.27699367
C      84.94122126      66.55697695      78.73564656
H      86.29237557      66.13745771      77.23709359
C      82.32584005      65.47794323      78.12337523
H      80.99736244      65.38345691      79.69751725
H      82.52804077      63.48617169      77.63771557
C      81.11263576      66.55319750      75.66295157
O      78.78827238      67.24672706      75.86137283
O      82.47323869      66.67980916      73.69952593
C      85.09995828      69.42558150      79.09091510
O      84.70311574      70.88822966      77.27299839
N      85.27570281      70.17202339      81.45496272
H      85.41176312      68.94181156      82.90627253
C      85.66876590      72.91590600      82.03132925
H      86.60607014      73.81730545      80.43262078
C      83.13842235      74.13477947      82.58690878
H      82.32772977      73.29385127      84.28388301
H      81.95734341      73.76817257      80.94095716
C      83.31794636      76.93535386      82.87603691
H      84.26847869      77.26227652      84.67316663
H      81.39987415      77.65533960      83.07823762
C      84.52548147      78.13533007      80.52521737
O      86.89141882      78.58508493      80.63860095
O      83.16109908      78.51327533      78.62226298
C      87.65108879      73.02928957      84.17049943
O      87.73801621      71.23593930      85.79755379
N      89.00602256      75.05885564      84.26876520
H      88.78303486      76.22481677      82.77399169
C      90.73134269      75.72781876      86.37769976
H      91.93509835      77.25093816      85.69172911
H      91.97856205      74.17257399      86.89170532
C      89.28381233      76.63866683      88.69450422
O      87.58683810      78.27705955      88.54899530
N      90.01324669      75.70703176      90.92816073
H      91.29448113      74.29162675      90.97729361
C      88.98145612      76.45725312      93.34701041
H      86.97645650      76.01316742      93.50385769
C      90.33261043      75.00405358      95.43326826
H      92.35272786      75.39900637      95.47862169
H      90.13796863      73.04818684      94.81343803
C      89.41420344      75.24215909      98.23006320
H      90.06426930      77.06007580      98.94815920
C      86.60607014      75.06452481      98.66847970
H      85.68955289      76.65945382      97.74062408
H      86.20355843      75.38766801     100.66214096
H      85.87096661      73.32030743      97.85589739
C      90.56126732      73.08031218      99.68515246
H      89.76947200      71.38711741      98.81965781
H      90.06048985      73.24471837     101.67503427
H      92.60595119      72.88756010      99.51507709
C      89.32538630      79.29940148      93.87991323
O      91.44565923      80.31229478      93.54543167
N      87.31849697      80.52394413      94.88335790
H      85.61207411      79.78884060      94.45250030
C      87.26558463      83.07696438      95.96617108
H      89.16286984      83.84608299      96.19671769
C      85.77270083      84.97047016      94.38824961
H      85.63853027      86.69012109      95.51074704
H      83.83762110      84.39221389      93.98006872
C      87.14275241      85.98525318      91.84656771
H      89.11562668      86.46146421      92.19805681
H      86.07127759      87.63687398      91.24563475
C      87.23723874      84.01048918      89.73196397
H      85.34373297      83.21680413      89.59401395
H      88.51847317      82.44768552      90.13447568
N      87.80037717      85.38809966      87.31122456
H      88.79437322      87.00570538      87.49452802
C      87.26369490      84.53772282      85.04544271
N      86.75157907      82.17556493      84.73363787
H      86.57394479      81.58974978      82.92516979
H      86.94433116      80.98881680      86.21707303
N      87.48668260      85.99092235      83.14059859
H      86.94244142      85.51660105      81.37370449
H      87.74935457      87.82773633      83.59413291
C      86.19599953      83.18656851      98.57210366
O      83.91887933      82.72547529      98.98028455
N      87.72100866      83.92167204     100.39568955
H      89.60317607      83.95757684     100.07821553
C      87.08984008      83.92356177     103.08099065
H      85.99568855      82.23981562     103.53830441
C      89.35751165      83.56640350     104.93859161
H      88.97578695      84.08418851     106.89634807
H      90.76346803      84.97613932     104.40757852
C      90.68220981      81.00771407     104.81575940
H      90.77102694      80.37465575     102.85800294
C      93.34105472      81.45557920     106.07431713
H      94.44465489      79.72270017     106.22549523
H      93.21066361      82.10186561     108.02640441
H      94.45410352      82.68390131     104.85355393
C      89.51435893      78.59075411     105.95148491
H      89.32916576      79.06318570     107.94703590
H      90.86362353      77.05629636     105.67747460
H      87.71344977      78.16367597     105.05008546
C      85.57805902      86.24981486     103.89735241
O      84.50658420      86.30839638     106.02896369
N      85.53837477      88.27560147     102.34021793
H      86.30371393      88.08473911     100.60166972
C      84.01525537      90.50547853     102.85233376
H      82.83228669      90.20501203     104.51151346
C      86.09017486      92.51614731     103.45893591
H      87.47912371      92.34229249     101.94904458
H      87.04637637      92.06828219     105.22960946
C      85.34751242      95.33372925     103.62523182
H      83.76581150      95.92521358     104.80631077
H      84.99224388      95.89875741     101.67692399
C      87.79848745      96.57338971     104.59277170
H      89.50113086      96.04993552     103.55720168
H      88.17643270      95.83639645     106.48060828
C      87.63030180      99.46278124     104.73450117
H      89.33861440      99.97678680     105.76251228
H      86.05049060      99.76702718     106.01951506
N      87.27503326     100.58905812     102.16636311
H      88.06682858     102.31815770     102.32510012
H      85.43632956     100.81393556     101.71093907
H      88.17076353      99.30971341     101.06843212
C      82.49780513      91.11586012     100.58277246
O      83.17054770      90.43555865      98.44360227
N      80.59674047      92.72023776     100.82843688
H      80.29816372      93.57628379     102.51029330
C      78.80339019      93.42888512      98.75540712
H      77.79994552      91.73758007      98.14502552
C      76.62075631      95.25814019      99.68515246
H      77.60908317      96.99479868     100.18215048
C      74.76882452      95.90820605      97.44771651
H      75.86486579      96.47323421      95.79798544
H      73.50081816      97.40486929      98.07699537
H      73.61798119      94.28115169      96.93182122
C      75.13165198      94.09406879     101.88290416
H      76.51115218      93.82572765     103.38901603
H      74.21324498      92.36685893     101.24228694
C      73.34208115      95.81749918     103.33043452
H      74.45135050      97.47856862     103.83121199
H      72.50682213      94.89909219     104.97449641
H      71.78872613      96.27859240     102.05864871
C      80.16588287      94.47201405      96.44616156
O      81.83451121      96.06505333      96.85434244
N      79.22290943      94.01092083      94.07077559
H      77.82451196      92.76937064      93.68716114
C      80.12619861      95.41120804      91.77853757
H      80.86697133      97.27636791      92.24529997
C      82.25592017      93.98068521      90.42171407
H      83.67132517      93.65943173      91.88436224
H      83.06850249      95.18822032      88.96095563
C      81.39798443      91.43711359      89.22551732
C      81.02948779      90.94200530      86.62714364
H      81.23735769      92.43110963      85.24764343
C      80.59674047      88.39843369      85.95629080
H      80.49658497      87.86931031      83.98719598
C      80.64776308      86.48792038      87.76475888
O      80.18666985      84.05584261      87.15059783
H      79.97691023      84.04639398      85.34779892
C      80.71768296      87.14743486      90.35179420
H      80.79327201      85.69423532      91.78042729
C      81.20145289      89.59085098      91.05288266
H      81.76459132      89.79683115      93.00496994
C      77.84529896      95.70222588      90.00786401
O      75.70423905      94.99546824      90.78076207
N      78.24025176      96.52425682      87.60602187
H      80.05249929      96.98723977      87.22996633
C      76.08407404      96.68488356      85.77109762
H      74.44190187      96.02725880      86.82745463
C      75.68723150      99.44388398      85.10213450
H      74.26993677      99.27947779      83.61869935
H      77.42766944     100.24512793      84.34435425
C      74.41922515     101.14085821      87.15248755
H      75.50581779     101.17487328      88.90048439
H      72.49926322     100.41142385      87.32256292
C      74.30773129     103.91497643      86.20573467
H      76.14643501     104.76913273      85.83912777
H      73.25137428     104.78425054      87.74586162
C      72.57107282     103.74490108      83.85869459
H      70.99504107     102.43154128      84.03443914
H      73.52349488     103.24979277      82.10124912
N      71.68101172     106.23367062      83.31067396
H      70.86087051     107.11806253      84.79032966
H      70.64355198     106.37540009      81.71574495
H      73.27594074     107.15207761      82.80800676
C      76.48847546      94.86885657      83.46752124
O      78.47079837      94.81405451      82.39226697
N      74.57418270      93.48368720      82.99131021
H      73.15310852      93.60462967      84.26120629
C      74.47024777      92.05505409      80.68584411
H      75.86486579      90.53949359      80.66883657
C      71.86242545      90.74925321      80.83135304
H      70.46591771      92.22701919      80.50065093
H      71.39377333      89.84407432      82.62092385
C      71.65455556      88.54772206      78.93406782
O      70.50371223      88.87086526      76.85536887
O      72.49737350      86.40666214      79.44996310
C      74.56662381      93.57061460      78.20463346
O      74.34552583      95.84017590      78.23297936
N      75.03716565      92.40087401      76.02010984
H      75.15432868      90.49791962      76.02388930
C      74.95779716      93.59518104      73.48787658
H      76.15399390      95.26380937      73.63149578
C      76.22580350      92.00970066      71.54523793
H      76.07651513      92.79771653      69.64606299
C      78.97157584      91.76592597      72.19530379
H      79.43266905      93.10763165      73.68818757
H      80.23958219      92.04938491      70.60037478
H      79.37786700      89.87053048      72.89639225
O      75.17511568      89.57195373      71.50555368
H      75.93100620      88.99936665      69.95786783
C      72.23092209      94.56650036      72.58458741
O      71.97391931      96.20678280      70.99721730
N      70.22403274      93.77092559      73.84314513
H      70.56607320      92.48969115      75.21697616
C      67.67668167      94.90287165      73.72598210
H      67.39511244      95.43010529      71.75688728
C      65.57530601      92.85062887      74.34581233
H      65.60554163      92.75236311      76.40372428
H      66.03828895      91.10074231      73.36315465
C      62.84843094      93.27392757      73.24977107
H      62.09631986      95.04838057      73.97731570
H      61.75427940      91.58640198      73.69763620
C      63.09220563      93.36841388      70.32825419
O      64.22415170      91.70167527      69.10371154
O      62.01695136      95.04082167      69.14906497
C      67.31574395      97.25747063      75.43051523
O      65.32964159      98.51602836      75.16028437
N      69.01649762      97.88297004      77.13882782
H      70.50182251      96.68677329      77.18607098
C      68.67634689      99.88419021      79.11359182
H      67.61998988     101.45455277      78.30100950
H      70.60764718     100.35284233      79.65594327
C      67.16267611      99.16798394      81.54755931
O      67.07196924     100.76669241      83.27287943
N      66.35387325      96.76614179      81.85369497
H      66.37277051      95.36963405      80.54978382
C      65.76616836      95.74757931      84.41994330
H      64.52083873      97.07794663      85.38181400
C      64.36021199      93.14353645      84.08924120
H      63.23015566      92.80149599      85.77676680
H      65.72837383      91.60718896      83.95696036
C      62.54796445      92.64653843      81.80645181
C      62.55741309      90.36374904      80.55167354
H      64.11643729      89.07117625      80.79733796
C      60.52028811      89.83651541      78.92083973
H      60.48249360      88.02237814      77.98353548
C      58.66268716      91.55238689      78.35014239
O      56.89012388      91.06672723      76.58702774
H      56.00384224      92.62386171      76.31112770
C      58.74583511      93.90131670      79.59358230
H      57.27184859      95.29404499      79.35169733
C      60.71492992      94.47768324      81.31512297
H      60.68847377      96.13119375      82.51131973
C      68.03761940      95.33561897      86.16982987
O      70.25048890      95.02003468      85.48196949
N      67.44991451      95.23924293      88.66237888
H      65.69813822      95.02948331      89.39181323
C      69.38688398      94.77059081      90.61824561
H      71.16322672      95.35451624      89.75653041
C      68.96358528      96.37307872      93.11268434
H      70.32796769      95.60584984      94.45439003
H      67.02661581      95.93277249      93.66070498
C      69.31885383      99.14341749      92.84245348
C      67.19480146     100.63063210      92.36435272
H      65.31263405      99.89552858      92.07333487
C      67.43668643     103.24223387      92.26608696
H      65.71514576     104.17953812      91.69727934
C      69.79317513     104.41764363      92.38324999
O      69.87254365     106.96121525      91.95995129
H      68.13588517     107.46388245      91.80688346
C      72.03628027     102.95499547      92.59111988
H      73.95624220     103.58427433      92.31521984
C      71.69423980     100.21678204      92.80465896
H      73.29105854      98.98468048      93.11457407
C      69.67790184      91.86797119      91.28153955
O      67.85431594      90.49791962      91.28153955
N      71.98714739      91.08373477      91.86735470
H      73.39499349      92.36496921      92.00341500
C      72.86775984      88.35685970      91.82011155
H      71.32007400      87.08507389      92.29821230
C      73.77104902      87.61797671      89.00063989
H      75.06362183      86.04572442      89.31055500
C      71.72636515      87.02460265      87.08445741
H      70.63221362      85.49203461      87.91593698
H      72.30840086      86.51626627      85.17583383
H      70.49237387      88.66677481      86.91816149
O      74.97858414      89.65132223      87.84601711
H      76.39209942      89.95556816      88.93827892
C      75.02393757      87.81828770      93.70227895
O      76.59618987      89.38487081      94.45816948
N      75.12787252      85.38809966      94.39202906
H      73.75593122      84.17489537      93.85912624
C      76.90988444      84.39221389      96.41403621
H      78.73913950      85.33140787      96.31388072
C      76.12186855      84.98747768      99.10500648
H      75.73447466      87.00192593      99.29775857
C      73.82585109      83.34908497      99.82877166
H      74.33418747      81.35353398      99.91569907
H      72.40855636      83.62309528      98.36045432
H      73.24381539      83.96513575     101.70715962
C      78.28560519      84.73992354     101.05331431
H      80.06761711      85.58652092     100.46371970
H      78.74480869      82.74815200     101.29897873
C      77.89443185      86.30272720     103.61200374
H      75.85163769      86.45957448     103.81042500
H      78.80905938      88.14710008     103.53830441
H      78.70890389      85.40321747     105.27874235
C      77.51081740      81.53305798      95.91136901
O      76.15210419      80.21024956      94.50352291
N      79.49314030      80.62409963      97.16992674
H      80.57595348      81.89777516      98.09022345
C      80.06950682      77.96525470      97.19827263
H      78.31206135      76.95425113      97.57054872
H      81.30916729      77.46258750      98.76674547
C      81.02570834      77.07897306      94.64336266
O      82.43355444      78.49248834      93.36401794
N      80.02604313      74.82830902      93.77219883
H      78.47646754      74.02328561      94.54698662
C      80.77815420      73.74360612      91.22862721
H      82.69244695      74.16501510      90.60123807
C      80.74224939      70.89011939      91.33256216
H      78.75614703      70.38178301      91.53098342
C      81.43766867      69.71470962      88.65481997
H      81.55105226      67.66246685      88.77387273
H      83.22157032      70.38745219      87.87247328
H      79.97502052      70.21359737      87.29043757
C      82.35607566      69.57109042      93.24118573
H      82.24836126      67.51506819      93.26386245
H      81.78537832      70.19281039      95.11957369
C      85.08861992      70.06997817      92.97095487
H      85.64419946      69.31597737      91.13603062
H      85.97301183      69.31975682      94.67359828
H      85.47601381      72.07875724      93.22039874
C      78.74291895      74.86799328      89.31811391
O      77.25381462      73.47337527      88.17671921
N      78.60874839      77.43046216      89.23496595
H      80.02037394      78.42256847      90.05321744
C      76.90799470      78.83641853      87.48885884
H      77.37664684      78.62665891      85.49519758
H      77.22924818      80.82063116      87.92727534
C      74.02616208      78.41689929      87.92916507
O      72.52949883      78.18257323      86.17927850
N      73.30428663      78.32241298      90.37447092
H      74.75559644      78.37532531      91.61602110
C      70.80795817      78.15800679      91.43271765
H      69.65900457      77.13755458      90.05888662
C      70.76638418      76.63677712      93.94416392
H      72.19690701      77.22637172      95.30476687
H      70.93456983      74.63366721      93.49440906
C      68.27194546      76.74071205      95.31232577
N      66.21403351      75.17790839      95.06477163
H      66.14222391      73.45069854      94.25596876
C      64.39989623      76.34764898      96.14380535
H      62.42135279      75.85254069      96.12490809
N      65.09342580      78.57374658      97.04331508
H      64.03706879      79.95891596      97.81810286
C      67.57274671      78.94224321      96.57844240
H      68.73681812      80.59575373      96.82788628
C      69.43790660      80.71291676      91.31555462
O      70.23726082      82.33241221      92.86701992
N      67.56518782      81.21747369      89.77542768
H      66.95858567      79.79073032      88.66426860
C      65.89655948      83.46435827      89.72251534
H      67.03039527      85.11030990      89.22551732
C      63.75927902      82.95980135      87.78176642
H      62.88622547      81.18534834      88.36191239
H      64.88555591      82.96358080      86.05644629
C      61.73916159      85.14810442      87.59846296
H      60.30107986      84.94590370      89.05922140
C      62.78229051      87.91655348      87.61736023
H      61.45381292      89.24125161      86.76698339
H      64.52461818      88.08473911      86.53076760
H      63.16779469      88.55906041      89.53543243
C      60.66768677      84.82496122      84.96796394
H      62.19269591      85.22558320      83.64326579
H      59.00472762      85.96824564      84.55600360
H      60.34643330      82.85775613      84.45584810
C      64.87799700      83.89332615      92.25474860
O      63.45881253      82.27949988      93.25441382
N      65.45058407      86.11186484      93.45094535
H      66.51072054      87.34396639      92.45128013
C      64.80051822      86.85263756      95.96617108
H      64.26572567      85.08574345      96.88079861
C      67.25527270      87.89765620      97.34756101
H      68.54595578      88.79905566      96.01908341
H      68.26438655      86.31406555      98.19226867
C      66.69969316      89.87619965      99.45838530
H      65.52428339      91.42199578      98.77241465
C      65.37877446      88.32284463     101.55220206
H      65.06885936      89.43022424     103.26240437
H      66.33875543      86.56161970     102.01329528
H      63.54007077      88.09229801     100.65080261
C      69.15633736      90.98168955     100.63190534
H      70.13899506      91.94356025      99.09933730
H      70.49048415      89.63053523     101.43314930
H      68.46469753      92.35363085     102.00573637
C      62.59520761      88.71023852      95.85656695
O      60.59776689      88.28693983      96.99229247
N      62.68024529      90.70767924      94.34478590
H      64.33375582      90.95712312      93.42259946
C      60.59209772      92.61441308      94.14447491
H      58.77418101      91.66010129      94.29943247
C      60.75461419      94.80649561      96.02286287