 %block lattice_cart
   137.793   0.000   0.000
   0.000 143.498   0.000
   0.000   0.000   162.326
 %endblock lattice_cart

 %block positions_abs
N      88.53264613      39.15311082      80.15861047
H      90.38457790      39.14177247      79.69373779
H      87.50652473      38.51060388      78.68273422
H      88.43438036      38.17423259      81.79133400
C      87.85423438      41.86297836      80.41372352
H      89.30365445      42.67934012      81.62881754
C      87.75029943      42.92311482      77.74731969
H      86.16859851      42.15966539      76.67206542
H      89.32444144      42.38643255      76.53222567
C      87.66904120      45.81628580      77.64905392
H      85.88891901      46.47013111      78.45596706
H      87.72762271      46.12053174      75.61003923
S      90.25607652      47.40365591      79.18162196
C      92.58610906      46.90665789      76.63427089
H      92.57855015      44.91110690      76.12404479
H      94.34355454      47.62475389      77.43740458
H      92.24406860      48.08206765      74.97698092
C      85.32956003      41.92344960      81.61747918
O      83.69305704      40.37576375      81.06756882
N      84.80799556      43.65632863      83.27854861
H      86.33678414      44.45001368      84.10246928
C      82.51008837      44.14765747      84.59946730
H      80.90949018      43.06862375      83.87570212
C      82.93338705      43.55617313      87.34712936
H      84.32422562      44.76370825      88.26742608
H      83.71951320      41.67211600      87.62113968
C      80.44650723      43.79049920      88.73040902
O      79.82667700      45.88998513      89.67527218
N      78.84590905      41.90833179      89.02331660
H      77.03933069      42.15777566      89.58645504
H      79.50731326      40.21135756      88.44506035
C      81.69183688      46.97468803      84.31411863
O      83.21495627      48.72835405      84.73552760
N      79.32212007      47.49436277      83.81712061
H      78.01820892      46.10541393      83.67917059
C      78.11269523      49.92644053      83.66027332
H      78.84212959      50.79571464      81.94062238
C      75.44629141      49.50881102      82.91194170
H      75.55589553      48.23324576      81.30000516
C      73.94395898      48.46568209      85.19473109
H      72.02399705      48.00836833      84.60324675
H      73.90427474      49.57495144      86.92761012
H      74.68473170      46.64965511      85.82589968
C      74.13293161      52.03915455      82.25431695
H      74.33702206      53.31471981      83.85680486
H      72.12604228      51.73679834      81.90660731
C      75.08913313      53.12007800      79.66728163
H      77.10925056      53.48668491      79.83735699
H      74.52221524      55.04381939      79.19673977
H      74.47875153      51.81616685      78.19518483
C      78.74008437      51.78971068      85.75031063
O      79.46195983      54.00069047      85.27598932
N      78.72118711      50.95634138      88.13703496
H      78.47174323      49.07984315      88.38458911
C      79.31645090      52.56638819      90.41793462
H      78.49630967      54.45422478      90.37069146
C      78.39048500      51.28326403      92.85568156
H      79.12558853      52.32261350      94.47328729
H      79.13692689      49.36519182      92.94449870
C      75.55967498      51.33617636      93.24685491
C      74.42205975      53.11818828      94.92682160
H      75.48597566      54.60540289      95.83577996
C      71.81045797      52.91220811      95.41248127
H      70.94118388      54.17832474      96.75607667
C      70.32702283      51.25113868      94.05943722
H      68.33147184      51.08295304      94.44683112
C      71.45518943      49.66943776      92.28309449
H      70.15694745      48.64709582      91.08500801
C      74.03655557      49.50503157      92.01853281
H      74.87559405      48.21245877      90.67682712
C      82.08678966      53.07283485      90.71462165
O      82.88992336      54.52036520      92.34734519
N      83.64959333      52.23001691      88.92505083
H      82.89181307      51.13964483      87.55688898
C      86.38213758      52.73646356      89.09701593
H      86.72417805      54.27092133      90.42738325
C      87.78620423      50.34784950      89.58834477
H      89.69482780      50.46312281      88.82300561
H      87.09834385      48.98346710      88.20695483
C      88.07344263      49.26503633      92.19616708
H      89.15814553      47.53593675      91.91459786
H      86.22718002      48.77937666      92.96717542
C      89.51908325      51.05082769      93.99140708
O      88.80665644      51.09618112      96.17215124
O      91.52408288      52.08072853      93.32433369
C      87.30432401      53.90809388      86.71974023
O      89.08255648      55.43877219      86.69328406
N      86.12702452      53.37519106      84.56167278
H      84.97240175      51.85585110      84.52576798
C      86.92826848      54.15564802      82.00487307
H      88.98429071      54.13297131      81.87826141
C      85.81332996      52.63630807      79.83546727
H      86.31599715      50.67855161      80.22475089
H      86.75063421      53.28259447      78.11959577
C      83.00897611      52.96701017      79.46508091
H      82.50252946      54.74713236      78.56179173
H      82.07734103      52.85551632      81.29811543
S      81.63892454      50.38753376      77.62259775
C      82.15859926      51.64798121      74.55557195
H      84.14659135      51.42877295      74.06046365
H      81.46884916      53.58495068      74.42896029
H      81.30822242      50.82595026      72.86804635
C      86.42749101      56.98078886      81.35669695
O      87.90714672      58.17509589      79.98664537
N      84.37146878      58.08816848      82.46407657
H      83.09968298      56.84094911      83.15004722
C      83.65526250      60.75079286      82.25242722
H      83.83478651      61.07960523      80.22664061
C      80.78098879      61.00023673      82.94973623
H      80.41060243      62.99578772      83.31256368
H      80.56744972      60.08371947      84.78088103
C      78.93850564      59.88907766      81.03922293
H      79.57912286      57.98612326      80.58946807
C      76.24564563      59.56215500      82.21652242
H      76.28344017      58.26769248      83.81901033
H      74.99086737      58.59839459      80.89560373
H      75.34991536      61.39518953      82.49998137
C      78.78354807      61.33660801      78.62982188
H      77.23397249      60.47111336      77.58480323
H      80.59390588      61.18542991      77.65850255
H      78.35646992      63.30003365      79.08335619
C      85.30877304      62.70099041      83.60358154
O      84.74374486      64.93086746      83.59035345
N      87.38369252      61.76746561      84.91883105
H      87.57266516      59.89285711      85.23252562
C      89.23184485      63.53435971      86.21896275
H      88.05265564      64.63418043      87.50208692
C      91.15180679      61.94321016      87.58712460
H      92.64847004      63.28869529      88.02932056
H      91.97761719      60.45599555      86.42305319
C      90.12568541      60.55993050      89.88692153
H      88.58177900      59.35806456      89.24441458
H      89.41325858      61.83738549      91.34012106
C      92.07588297      58.90075080      91.08878746
H      93.68970924      59.99490233      91.74830194
H      92.76941251      57.47778688      89.76975849
N      91.18960132      57.44566153      93.25630354
H      91.32188217      55.55026604      93.05410283
C      90.50552039      58.19399315      95.54098265
N      90.81354579      60.49001062      96.35545470
H      89.84600592      60.96622166      97.93148644
H      91.63935618      61.79959096      95.23862644
N      89.16759416      56.57071825      96.82221709
H      88.42682145      57.03181147      98.52108105
H      89.19216060      54.75280154      96.24774030
C      90.36946009      65.52613125      84.44450974
O      90.47339504      67.69742678      85.10213450
N      91.04220266      64.84960923      82.15983063
H      90.73984645      63.04681033      81.61181000
C      92.11934666      66.46910468      80.23042007
H      93.40814001      67.78624392      81.15260651
C      93.91836611      64.95921335      78.36903965
H      94.55898333      66.37839782      77.01977506
C      96.07832329      63.90096662      79.99609400
H      97.39924199      62.69343151      78.97753152
H      95.34321976      62.68965205      81.49275724
H      96.71894051      65.35416615      81.30567434
C      92.78453032      62.72744658      77.07079767
H      91.96249939      61.31393130      78.32368622
H      94.32276755      61.84872384      76.01822011
C      90.69638276      63.50979327      75.23398369
H      89.09767429      64.09371870      76.39427565
H      90.33544503      61.95076906      73.93574172
H      91.35211778      65.01968460      73.99432323
C      90.26174570      68.19064535      78.80745615
O      90.95716498      69.94242164      77.37882306
N      87.72951245      68.16229946      79.37626377
H      87.18905072      67.09460409      80.86347838
C      85.84545531      69.16574413      77.79834230
H      86.40481429      68.84638038      75.84247557
C      83.29999396      67.90907613      78.33124512
H      82.42127122      68.76890160      79.98475565
H      83.40203919      65.92108405      78.86036849
C      81.49719505      68.11505630      75.95207969
O      79.24842075      68.68197419      76.37915784
O      82.36835890      67.73333158      73.73543073
C      85.66404159      72.09293019      77.92306424
O      85.23507370      73.27778858      75.95396942
N      86.09678891      73.37038517      80.11136731
H      86.86590752      72.19497541      81.40394011
C      85.80010187      76.07647325      80.81245577
H      86.67882461      77.27078028      79.38382268
C      82.97118159      76.89472475      80.88804482
H      82.05655405      75.83836774      82.39982587
H      82.08678966      76.64906033      79.04367194
C      82.66693564      79.68207106      81.69495796
H      83.93494201      79.81435190      83.31445341
H      80.72618672      80.03733961      82.29211147
C      83.51164331      81.49242887      79.62759737
O      85.69994639      82.33902626      79.76932685
O      82.17182736      82.19918651      77.79645258
C      87.39503089      76.63772197      83.22185682
O      87.95627960      74.84248197      84.64671046
N      88.50618995      78.98098260      83.45996234
H      87.89013918      80.29623211      82.22030187
C      90.47528478      79.45341418      85.30622494
H      91.21794722      81.25810280      84.65048991
H      92.06265487      78.14194411      85.26654069
C      89.55120860      79.57813611      88.08412262
O      87.36101580      80.20363552      88.58490010
N      91.17637323      79.02822576      89.96817976
H      92.85633992      78.20052563      89.60157285
C      90.52630738      79.09625590      92.61946577
H      88.49863104      78.97342369      92.95772678
C      91.79809320      76.90417338      93.73251457
H      93.74640103      77.14794807      93.10512544
H      91.04031295      75.22042723      92.81977676
C      91.73195277      76.60937607      96.66536981
H      92.67870565      78.31390921      97.32488429
C      89.25074212      76.14450340      98.20549676
H      89.84978537      76.18040820     100.17459157
H      88.43627008      74.35304286      97.59700488
H      88.04131728      77.80368310      98.02219330
C      93.68781950      74.33981477      97.21528017
H      95.60778143      74.56280248      96.50474307
H      93.01318721      72.48788299      96.61623693
H      93.99773462      74.13572433      99.24106678
C      91.05354102      81.71163712      93.79109609
O      93.16247559      82.62059548      94.09723175
N      88.97106263      82.89460579      94.75674623
H      87.33644936      82.00832415      94.32588864
C      89.03153387      85.45707467      95.74885255
H      90.97228280      86.12981724      95.58255663
C      87.44983294      87.40727223      94.45061057
H      87.69171791      89.04566494      95.67704295
H      85.49018675      86.83090570      94.71706198
C      88.10556798      88.05355863      91.70105879
H      90.08600115      88.57512309      91.49318889
H      87.01330616      89.66738490      91.03020595
C      87.57455488      85.93328570      89.78676603
H      85.83033750      85.05645269      90.44628051
H      88.97673180      84.44040192      90.00030510
N      87.72384326      86.91405366      87.21484852
H      88.56666119      88.62425597      87.12981084
C      86.90748150      86.02210284      85.04544271
N      85.78120462      83.83946895      84.80166802
H      85.06877779      83.21207981      83.14626777
H      85.48451758      82.97964348      86.47974498
N      87.32322128      87.30900646      82.97052322
H      86.52953623      86.57390292      81.39827093
H      88.15281114      89.03054713      82.95918486
C      88.33422487      85.32668356      98.63446463
O      86.29143071      84.49331425      99.40736269
N      90.22017173      86.15060423     100.24640117
H      91.91903568      86.67594814      99.55287162
C      89.78175522      85.82179185     102.91091527
H      88.76508245      84.03033131     102.99973241
C      92.23839943      85.24920478     104.50017510
H      92.03241926      85.46463358     106.53730007
H      93.45160372      86.89137694     104.22616479
C      93.74451129      82.94373868     103.74428458
H      94.03552914      82.82279619     101.70904934
C      96.42792266      83.40105244     104.77985460
H      96.46949664      83.68640112     106.82075902
H      97.03452480      85.25298423     104.11656066
H      97.73183381      81.91194811     104.20726753
C      92.76374333      80.33024718     104.58710251
H      90.93637799      79.98064782     103.70460033
H      92.53508645      80.28678348     106.63367611
H      93.89946886      78.67862639     104.11845039
C      88.13202415      87.98363875     104.10711203
O      87.16070482      87.80033530     106.13100891
N      87.89769809      90.11902949     102.75406799
H      88.68193450      90.06233770     101.01363006
C      86.47284444      92.38859079     103.56098113
H      85.48829703      92.01820443     105.33165468
C      88.37390912      94.49185617     104.20726753
H      89.43971476      95.18916518     102.58777208
H      89.92726415      93.74163483     105.33354441
C      86.95472466      96.88047023     105.31086769
H      85.35790592      96.57244485     106.57698432
H      86.06655328      97.67037583     103.62901127
C      88.76886192      98.89869794     106.53918980
H      89.90458742      99.62813229     104.98394504
H      89.91403605      98.17682248     108.09254483
C      87.00952671     100.87913111     107.73349683
H      85.55632718     100.01552619     108.90890659
H      86.03631767     102.06209978     106.35588634
N      88.63658108     102.58744370     109.32275666
H      89.97072784     103.42081300     108.24372293
H      89.55876751     101.45927709     110.55107876
H      87.54998844     103.84033224     110.27139926
C      84.55855168      93.10479706     101.58621713
O      84.95539422      92.32811955      99.34311200
N      82.56678016      94.40681849     102.19470900
H      82.17749653      94.89058843     103.99750790
C      80.58445725      94.86791171     100.19537856
H      79.96840647      92.99897239      99.59066614
C      78.44150762      96.39481057     101.16669789
H      79.08590428      97.94438615     102.36100492
C      76.49886897      97.57399979      99.26374349
H      74.89449132      98.37902320     100.27474707
H      75.99998121      96.13780779      97.87668438
H      77.41160677      98.98562535      98.07510564
C      76.92405738      94.58256304     102.86934130
H      78.19962265      93.89659239     104.33576891
H      76.41005183      93.04999500     101.59188631
C      74.53355360      95.61246388     104.21482643
H      73.12759722      95.95072489     102.75028854
H      75.03622079      97.41148333     105.08599026
H      73.78900143      94.25941984     105.57920883
C      81.62947590      96.18316122      97.93904535
O      83.02787338      97.90470190      98.10345153
N      80.86980593      95.24585697      95.68649158
H      79.66038109      93.77187045      95.71861693
C      81.55766630      96.15859478      93.05788228
H      82.07356158      98.15036632      93.12780215
C      83.64203442      94.37280342      91.89570060
H      84.90059214      93.78887799      93.41882000
H      84.76642158      95.44238851      90.54454628
C      82.75953223      91.97852018      90.65037096
C      82.82756238      91.65726670      87.94050342
H      83.40014945      93.18605529      86.71407105
C      82.03765678      89.44439719      86.90871286
H      82.33623354      89.06645193      84.92638995
C      81.28176626      87.32412427      88.42805281
O      80.47107368      85.14149038      87.33957046
H      80.17627637      85.37770617      85.56700717
C      81.33089914      87.67561336      91.05855184
H      80.94350525      86.08635353      92.28120476
C      81.92049375      90.02454317      92.13758556
H      82.01309034      90.16438292      94.17093108
C      79.18605977      96.39670030      91.30043681
O      76.97696971      96.01119613      92.05254788
N      79.63203519      97.08267095      88.89103576
H      81.48207724      97.34723263      88.50553159
C      77.79900066      97.27164358      86.97296355
H      75.99998121      96.65937226      87.76664860
C      77.31334101     100.07788716      85.98841614
H      76.53666348      99.74340560      84.11191791
H      79.03866113     101.20416404      85.98841614
C      75.24220096     101.50463052      87.41704923
H      75.97163532     101.81076618      89.31811391
H      73.45640959     100.49740640      87.21673825
C      74.80756392     104.22394669      86.48730389
H      74.04411448     104.21638778      84.57490086
H      76.46674362     105.44659961      86.45706827
C      72.73831359     105.43337153      88.11057879
H      73.49987330     105.92659009      89.96062085
H      71.09614143     104.21827751      88.36947130
N      71.85581142     107.83332394      86.92949985
H      70.48198038     108.48338980      88.08412262
H      71.06779553     107.50451157      85.22307699
H      73.16728148     109.20148579      86.69706351
C      78.30544732      95.69750156      84.70529198
O      80.32745447      95.60301525      83.61680962
N      76.31934496      94.54287878      83.70940621
H      74.70740842      94.90192678      84.66182827
C      76.17950522      93.22007037      81.23764419
H      77.76687531      91.99552771      80.76521261
C      73.77388361      91.65726670      81.55322849
H      72.29800736      93.08589980      81.69684769
H      73.97986378      90.32689938      83.11414242
C      73.27877532      89.96785138      79.27421855
O      74.37103713      87.90427025      79.09091510
O      71.96163609      90.76909534      77.37693333
C      75.98486340      95.18538573      79.04934112
O      75.26487768      97.42660114      79.37248432
N      76.51776623      94.23863285      76.76466201
H      77.07901495      92.42260586      76.58513801
C      76.51587649      95.63136114      74.24943629
H      77.59113078      97.38691689      74.34392260
C      77.88781780      94.03832186      72.34081271
H      77.01098480      94.16871297      70.47943229
C      80.71295864      94.83767609      72.46175519
H      81.60301974      94.40870822      74.27022328
H      80.91137990      96.83322708      71.99499279
H      81.95072938      93.96084308      71.06902690
O      77.66483010      91.39648447      72.82269292
H      75.97919422      90.88814810      72.39372505
C      73.81356787      96.44583318      73.31969094
O      73.68695621      97.91037107      71.51500231
N      71.73675865      95.56900017      74.60092538
H      71.86148059      94.24619175      75.97097696
C      69.17051033      96.56866539      74.41951165
H      69.01555276      97.16581891      72.45419629
C      67.36204223      94.33311916      75.06201860
H      67.57558131      94.29910409      77.11237165
H      68.15950675      92.62102712      74.24187738
C      64.48587879      94.98318502      74.39872466
H      63.88683554      96.89180859      74.89005351
H      63.07236350      93.74541428      75.24721178
C      64.26856026      94.59768085      71.45642080
O      64.17785341      96.58378320      70.07881031
O      64.13438970      92.61157849      70.41707132
C      68.79256505      99.09145002      76.01255094
O      66.97653808     100.51252421      75.82357830
N      70.56134889      99.69238299      77.71897380
H      71.91628266      98.35445676      77.82290874
C      70.37426598     101.70305178      79.58602339
H      69.24231993     103.23939928      78.81123561
H      72.28666902     102.22083679      80.15483101
C      69.23287129     100.87346193      82.12581556
O      68.60359243     102.66114303      83.53177194
N      69.08736236      98.42059718      82.60202659
H      70.04545361      97.18471617      81.50787505
C      67.99132110      97.47951348      85.01331736
H      66.75921955      98.90247739      85.84857639
C      66.24899344      95.27609259      84.55033442
H      65.42696249      94.70161580      86.34746414
H      67.45085937      93.92871773      83.55822810
C      64.09848489      95.67860430      82.67572592
C      62.96275938      93.63203070      81.45496272
H      63.75077526      91.78198864      81.79700318
C      60.92941387      94.19516914      79.75798849
H      60.26423020      92.74574906      78.48431295
C      59.78423972      96.63291609      79.36492542
O      57.88695450      97.05810451      77.61503885
H      57.81325518      98.80232189      77.12182028
C      60.98799538      98.58122392      80.58946807
H      60.32092199     100.48039886      80.25309678
C      63.15929091      98.18627112      82.06534432
H      63.97754242      99.78308985      83.03855337
C      69.95096728      96.63291609      86.90682313
O      71.86714976      95.60301525      86.26620591
N      69.38026995      97.09211958      89.34834953
H      67.72864914      98.01241630      89.60913176
C      70.77488795      96.30788316      91.56499849
H      72.72319579      96.89180859      91.24185529
C      69.99632071      97.56077171      94.07833449
H      71.23031201      96.59512156      95.41626072
H      68.13305057      96.71984350      94.33344754
C      70.45174477     100.29520568      94.31644000
C      68.66028421     102.08288677      95.23295727
H      66.69307912     101.68793397      95.60901280
C      69.31790897     104.73795224      95.48429086
H      67.97053411     106.21760795      95.88869230
C      71.89171622     105.45982770      95.15925794
O      72.67973209     107.79363969      95.77908817
H      71.46085862     108.96904946      96.43293347
C      73.54711646     103.62868290      94.21061533
H      75.46518866     104.13512955      93.73440430
C      72.91216841     101.08133183      93.89125158
H      74.39371385      99.82844328      93.26197272
C      70.84480784      93.38069710      91.79554510
O      68.77933698      92.15615445      92.10923967
N      73.15972257      92.46417984      92.13380611
H      74.62992963      93.59801563      91.68783070
C      73.87214939      89.76943012      92.38324999
H      72.31312518      88.48630595      92.79898977
C      74.90582968      89.05322385      89.77542767
H      75.78644214      87.19373315      89.84156809
C      72.70429853      88.91716355      87.94995205
H      73.48097605      87.99119766      86.28132372
H      72.10336556      90.75397753      87.23374578
H      71.09992088      87.80600448      88.60757681
O      76.61414226      91.06011319      88.96095563
H      78.35646992      90.55744599      88.91371247
C      75.92439217      89.23274785      94.35045508
O      77.44940130      90.96373715      95.08177916
N      76.06990108      86.84602351      95.24618535
H      74.73575432      85.57045825      94.76997432
C      78.20529182      86.03911038      96.74473832
H      79.87014071      87.08412903      96.12868754
C      77.76498560      86.54744675      99.51129764
H      76.76532037      88.34835593      99.58310724
C      76.03777575      84.51599097     100.66592042
H      75.27999550      85.09046777     102.49328576
H      77.29066428      82.91539278     100.98906361
H      74.66016526      83.84135867      99.28830993
C      80.30855720      87.24853522     101.00229170
H      81.17216214      88.78110326      99.93270661
H      81.56522520      85.61770141     101.06276294
C      79.97596537      88.08190452     103.62145237
H      78.76087136      89.73541504     103.79908664
H      81.79955126      88.71685256     104.33954837
H      79.16527279      86.54366730     104.72694226
C      78.95173371      83.23664625      96.29498345
O      77.58735132      81.72864466      95.11768396
N      81.12302924      82.42784339      97.14158084
H      81.88647868      83.64671686      98.39635911
C      82.17938625      79.88049232      96.67292872
H      81.09090391      78.45752841      97.68960147
H      84.12958381      79.88238205      97.33433293
C      82.44961713      79.00554904      93.88558240
O      82.77653978      80.63638285      92.28687394
N      82.12647392      76.52811784      93.56243920
H      81.60868891      75.42640740      95.03264628
C      81.79388209      75.35837726      91.08122856
H      83.22251518      76.22387191      89.87369344
C      82.58756715      72.54646450      91.07933883
H      81.54632795      71.41640817      92.45128013
C      82.13403282      71.44853351      88.54710557
H      80.16304829      71.41640817      87.94806233
H      82.67449455      69.46054143      88.49797269
H      83.20928710      72.39150694      87.06367041
C      85.27097850      72.42552202      92.05443761
H      85.16893329      73.05480088      94.01408379
H      86.39536566      73.57069616      90.76375454
C      86.35946086      69.64762434      91.88436224
H      87.00385754      69.50967432      89.93038523
H      85.25397097      67.94876038      92.23963079
H      87.97517687      69.42652636      93.14480969
C      79.29944335      76.14072395      89.84723727
O      77.54577733      74.56469220      90.04187908
N      79.22385431      78.36115237      88.72851930
H      80.55044218      79.70285805      89.02142687
C      77.02232316      79.23987510      87.26965058
H      76.73130529      77.93974340      85.69739829
H      77.57223351      81.11070415      86.61013610
C      74.50331797      79.54412104      88.55088502
O      72.66083482      79.64616626      87.28287867
N      74.31056589      79.51199569      91.06800047
H      75.81856748      79.88049232      92.17915954
C      71.71597167      79.71230668      92.28309449
H      70.28733858      78.75610517      91.14736898
C      71.98242308      78.57280171      94.90981407
H      73.21641436      79.64049708      96.16648206
H      72.91216841      76.75866445      94.63202430
C      69.52199942      78.21942289      96.35356497
N      67.94029850      76.15206231      96.04742931
H      68.25777251      74.51744905      95.11390451
C      66.00521875      76.53756647      97.62535078
H      64.47454043      75.19775052      97.79542615
N      66.42095853      78.55390445      99.08610922
H      65.21909260      79.30979498     100.36545393
C      68.47320131      79.78033683      98.20738648
H      69.53333778      81.35825830      98.95382838
C      70.86748454      82.46374819      92.39458834
O      72.12982172      84.25142928      93.39236384
N      68.46375267      82.83602428      91.83900881
H      67.42251348      81.25054390      91.62924919
C      67.09748056      85.23786642      91.71995605
H      68.51855475      86.57957210      91.06989020
C      65.13405492      84.60480810      89.56755778
H      63.87171773      83.15160857      90.30266131
H      66.11293314      83.88671211      87.90270890
C      63.52400809      86.89326667      88.70773231
H      62.53568123      87.91182915      90.20061609
C      65.35137345      88.87558957      87.39815197
H      66.81213188      89.65415681      88.62269462
H      64.07580818      90.35524528      86.74808612
H      66.19608110      88.15938330      85.65960376
C      61.40373518      86.24509054      86.95028684
H      62.08025720      86.12036861      85.00764819
H      60.06958839      87.81356338      86.91438204
H      60.44375420      84.47630672      87.39437252
C      66.06191054      85.99564667      94.26163794
O      65.04712750      84.44418137      95.79798543
N      65.96175504      88.44473197      94.63769348
H      66.88583121      89.55778077      93.39047411
C      64.93185421      89.50486843      96.98473356
H      64.34603904      87.98930793      98.24896046
C      66.87071339      91.15270978      98.44927145
H      66.00332901      91.57411875     100.26907789
H      67.44707992      92.81377921      97.37779663
C      69.20263567      89.62392119      99.00107153
H      69.75821520      88.99086288      97.12268358
C      71.48164561      90.89192755     100.14057650
H      72.90838897      89.41983075     100.34277722
H      70.79945441      91.85757769     101.82621237
H      72.20919023      92.23930241      98.76296602
C      68.62437941      87.12381328     100.59411082
H      67.31668880      87.69829008     102.07565624
H      70.24765432      86.24887000     101.51251780
H      67.86848889      85.53833290      99.51696682
C      62.40151066      91.02231866      96.65025200
O      60.65729329      90.63303504      98.14313579
N      62.34292916      92.51898190      94.62068594
H      63.99643967      92.89125799      93.74007348
C      60.04691168      93.95139445      93.99140708
H      58.39151143      92.74574906      94.19549752
C      59.72565821      96.05277011      95.93782518