 %block lattice_cart
   137.793   0.000   0.000
   0.000 143.498   0.000
   0.000   0.000   162.326
 %endblock lattice_cart

 %block positions_abs
N      85.80482618      39.71719413      78.57596468
H      87.35818122      39.16161459      77.61976317
H      84.27036841      39.57546466      77.44968780
H      85.45711655      38.58902752      80.07451765
C      86.01647553      42.25320684      79.63043196
H      87.71344975      42.28533219      80.80017255
C      86.52103245      44.37536949      77.59330700
H      86.87819072      46.23297046      78.40588931
H      84.85996302      44.47363526      76.37821297
C      88.84350609      44.10702836      75.92656839
H      88.60351085      45.45251349      74.38455172
H      88.83027802      42.35147261      74.85131412
S      91.93509835      44.61536473      77.53472548
C      94.01757674      45.57345597      74.97792578
H      94.04025345      43.95773998      73.70236052
H      95.86383935      46.12525606      75.70547040
H      92.91586630      47.15326717      74.24471197
C      83.67132517      42.69540280      81.19890480
O      81.66254611      41.64660470      80.52616224
N      83.93966631      44.18072768      83.08485167
H      85.65364808      45.00464835      83.22091196
C      81.99891738      44.78355038      84.75725945
H      80.48146716      43.40027071      84.59852244
C      82.96267780      44.33757497      87.48602425
H      84.60484997      45.55266898      87.74113730
H      83.59951557      42.39493632      87.72224003
C      81.01436997      44.72496886      89.49480331
O      78.81661827      45.20873880      88.95434159
N      81.51703717      44.41505374      91.88152765
H      80.08084519      44.82890381      93.06638605
H      83.31794636      43.99742423      92.35206950
C      81.03137752      47.46696174      84.23002580
O      82.73213119      48.95606607      83.89365453
N      78.50292371      48.17938856      84.36608611
H      77.18011529      46.96618427      85.01426223
C      77.84340923      50.91382253      84.18467238
H      78.31962026      51.55066030      82.28360771
C      74.99748139      50.96862460      84.17522374
H      74.37198199      49.66282372      82.71068586
C      73.85797643      50.02187172      86.57706589
H      73.56884831      51.51097605      87.97168391
H      74.90299509      48.52331875      87.52381878
H      71.89266106      49.50786616      86.23124598
C      73.88065314      53.63313870      83.34941335
H      74.71591217      55.02586699      84.61552998
H      71.86053571      53.75219146      83.73302779
C      74.31717993      54.54398678      80.66033281
H      73.92600658      53.08133862      79.26382505
H      76.33162818      54.83878409      80.35419714
H      73.55750995      56.42993364      80.33152043
C      78.94134021      52.30655083      86.46557204
O      79.75392252      54.49674362      86.09707540
N      79.43077933      51.00074995      88.61419086
H      78.89409706      49.17338460      88.52159427
C      80.42855483      52.04576860      90.98201793
H      79.77659924      53.99218670      91.15776247
C      79.33062383      50.87602801      93.51803064
H      80.23958219      51.84545761      95.09217265
H      80.07139654      48.98252224      93.84306357
C      76.56973369      50.95917597      93.78637178
C      75.44534653      53.09078725      94.76336027
H      76.79461113      54.49674362      95.36429324
C      72.69957421      53.02464683      95.29248365
H      71.65644527      54.51564089      96.21655981
C      71.28038974      50.96484515      94.47612188
H      69.30562575      50.67571702      94.90320003
C      72.43501251      48.83701332      93.34984499
H      71.33141235      47.23452540      92.73568395
C      75.08440880      48.86157976      93.04181961
H      75.93289592      47.12681100      92.37663595
C      83.24046757      52.53709744      91.01225355
O      84.35729582      53.48951950      92.79237574
N      84.52548146      51.72640485      89.07528407
H      83.64297928      50.60579715      87.81105717
C      87.21078255      52.18938780      88.76725869
H      88.03470323      53.49140923      90.13353081
C      88.75657868      49.69494906      88.56316824
H      90.75023995      50.18060873      88.74647169
H      88.16131490      48.49875231      86.99658513
C      88.21233750      48.07356389      90.85162681
H      86.17899200      47.78254603      91.01414328
H      88.68098964      48.92583045      92.66576407
C      89.58805827      45.60369160      90.46801237
O      88.39375123      43.75364953      89.63275334
O      91.95021615      45.53377172      90.52092470
C      87.59061755      53.75975036      86.35218846
O      88.90964652      55.65892531      86.58840425
N      86.15064609      53.36479756      84.38498336
H      84.82405823      52.01175352      84.60797107
C      86.41331806      54.77642312      82.07384809
H      88.39564096      54.55154569      81.55984253
C      84.95444935      53.61802089      79.69468266
H      85.20578294      51.57900620      79.57562990
H      85.63286109      54.46839773      77.94479609
C      82.13497768      54.10368055      79.86475803
H      81.41877141      56.02553221      79.67389567
H      81.58695705      53.41015099      81.72613845
S      80.43800346      52.31788919      77.42701108
C      80.49658496      55.00319028      75.27650254
H      79.14921010      56.42615419      75.90956086
H      79.98446913      54.28320455      73.41512212
H      82.38820100      55.81766232      75.26327446
C      85.87852550      57.51841600      82.22313647
O      87.20700310      59.06043267      81.07607259
N      83.76581149      58.30265242      83.54594488
H      82.72457230      56.95338783      84.40199091
C      83.25369566      61.05220420      83.78971958
H      83.24424702      61.52274606      81.78471995
C      80.51926169      61.53030496      84.91410674
H      80.23202328      63.56742993      84.80261288
H      80.54004867      60.97094597      86.89453991
C      78.53315933      60.18670955      83.35886197
H      78.99803200      58.19682775      83.10185920
C      76.20123707      60.31710067      84.95001154
H      76.42611449      59.20216214      86.66588302
H      74.57796215      59.62168139      83.88987508
H      75.51526641      62.15580437      85.57740066
C      78.08718393      61.52652551      80.81340064
H      76.15210418      61.28841999      80.14632725
H      79.27771150      60.75740690      79.32051685
H      78.52371070      63.52585595      81.04772670
C      85.35507132      62.65091266      85.17110951
O      85.45144736      64.95637877      84.68544985
N      87.04070719      61.46227481      86.70556728
H      86.87819072      59.58577659      87.00603376
C      89.31593768      62.71138391      87.93199965
H      88.69799717      64.45371157      88.83906829
C      90.49701661      60.94071035      90.01447805
H      92.04848193      61.87801460      90.99335629
H      91.22456125      59.36656833      88.90520871
C      88.76602732      59.95994240      92.09695645
H      87.25424627      59.10578610      90.98768711
H      88.06115940      61.45660564      93.32149910
C      90.11718163      57.85667701      93.74101834
H      91.44943867      58.74484838      95.03548086
H      90.89196942      56.59245011      92.31238525
N      88.25958067      56.48473571      95.12807746
H      87.61518399      54.87657861      94.32872323
C      87.04826610      57.12913238      97.21622502
N      87.44321890      59.24562585      98.38029644
H      86.15253583      59.71994715      99.70499459
H      88.34839781      60.71583292      97.56393467
N      85.24168774      55.84033903      98.15730874
H      84.46878967      56.42993364      99.80137063
H      84.99602332      54.01297369      97.66031072
C      91.33605510      63.66002652      86.04038362
O      93.17286907      64.67103009      86.98335705
N      91.10550849      62.94759970      83.67822573
H      89.57105073      61.84210980      83.40988459
C      92.64563544      63.90758066      81.65432885
H      93.93064933      65.35511102      82.35730704
C      94.23111581      61.85155843      80.53561087
H      95.30070090      62.53185991      78.91233596
C      96.09060650      60.94260008      82.59352282
H      97.68175607      60.04498008      81.63921104
H      95.17975843      59.50451835      83.75003532
H      96.78791551      62.49406538      83.75381478
C      92.87051286      59.36089915      79.56807099
H      91.47022567      59.74073414      78.10542283
H      91.90675244      58.60689836      81.22536097
C      94.54670010      57.35023036      78.35486669
H      95.10605910      57.99273730      76.48025820
H      93.51113009      55.58333625      78.12054063
H      96.10005514      56.83811453      79.60775525
C      91.15464137      65.41180281      79.58129908
O      92.31871279      66.49839544      77.82007416
N      88.72067388      65.50061994      79.79105870
H      88.14619708      64.64646365      81.39732607
C      86.91031607      66.70059615      78.09975365
H      87.96478335      66.38879131      76.35931572
C      84.46123078      65.20015346      77.84086115
H      83.14787098      65.99950769      79.21280245
H      84.66910067      63.16680795      78.10164338
C      83.32361554      65.56487064      75.20280321
O      81.04460561      66.30186390      75.09130936
O      84.77114588      65.28708087      73.36220979
C      86.54370918      69.56542124      78.38510233
O      87.00291266      70.93547282      76.54072944
N      86.04671115      70.52351248      80.71891432
H      85.79348782      69.19503489      82.06439946
C      85.53459532      73.05574574      81.40488497
H      86.01458580      74.21981715      79.77783061
C      82.61118871      73.21259303      81.89054463
H      82.13875714      72.12600040      83.57429078
H      81.70978926      72.40945935      80.22191629
C      81.37152826      75.82419479      82.60297146
H      82.56772500      76.57630587      84.10152442
H      79.43644851      75.82041534      83.30594964
C      81.88553380      77.96714443      80.65277390
O      83.80171630      79.34097546      80.96457874
O      80.52304113      77.98604169      78.56840578
C      87.07661199      73.92501985      83.61397503
O      87.51313876      72.43969497      85.29772118
N      87.90809157      76.24749349      83.65743873
H      87.24290790      77.54762519      82.42911663
C      89.35940138      77.15078266      85.80416783
H      89.84317132      79.11231858      85.40165613
H      90.97511737      75.87332768      85.85141099
C      88.05737994      77.16590047      88.36096753
O      85.80482618      77.80651770      88.59151413
N      89.35940138      76.41189968      90.29037810
H      90.92598449      75.45191871      89.77637254
C      88.64319511      76.35142843      93.07205522
H      86.61740850      75.99993934      93.21756416
C      89.98679051      74.11588221      94.25502390
H      91.94454697      74.44847404      93.70889299
H      89.14586230      72.46237168      93.35551418
C      89.92442954      73.80974654      97.12929761
H      90.79559337      75.48215433      97.95132856
C      87.33361478      73.63967117      98.03447653
H      86.22056597      72.06552916      97.30882161
H      86.17143309      75.20247484      97.36173396
H      87.30337914      73.88911505     100.07916040
C      91.64030103      71.56475168      97.81337855
H      91.27936331      69.89612335      96.66064549
H      91.32093729      71.02051051      99.77302474
H      93.60750613      71.90679215      97.30693190
C      89.43499044      78.86098498      94.33817185
O      91.65163940      79.53561727      94.58194655
N      87.50180042      80.13466051      95.26602748
H      85.71789877      79.55451453      94.92209729
C      87.70778058      82.52894375      96.64174824
H      89.69388294      83.05050821      96.79670579
C      86.32072147      84.85708657      95.31327064
H      86.45111259      86.56728888      96.45277560
H      84.35918555      84.22591798      95.33405762
C      87.08606063      85.51660105      92.74513257
H      89.04759653      86.12131347      92.58828528
H      86.09773377      87.27215680      92.32183388
C      86.34528791      83.64199255      90.66454391
H      84.48201776      82.80484379      90.93099532
H      87.80793608      82.20391083      90.47935073
N      86.35473654      85.01960303      88.26459148
H      87.20322366      86.72980535      88.31183465
C      85.58372820      84.26182278      85.99503019
N      84.77870479      82.03950464      85.51881916
H      83.91321014      81.63510321      83.86530862
H      84.89208838      80.56551811      86.72635426
N      85.59128711      85.94745865      84.10719359
H      85.19255485      85.11030989      82.43856527
H      86.06560841      87.78427263      84.29049705
C      86.69299756      82.31351495      99.27224725
O      85.12830417      80.66756333      99.59916992
N      87.41298328      83.97647411     101.12228932
H      89.23089998      84.52449474     100.92197832
C      86.57772424      83.91978232     103.80003151
H      85.13775279      82.47225196     104.07593155
C      88.72445333      83.50215280     105.62361739
H      87.95533473      83.97647411     107.47365946
H      90.07182819      85.03094139     105.31370229
C      89.95466516      80.74504211     105.76534686
H      90.71811460      80.40489138     103.88317946
C      92.10328399      80.67323251     107.62294784
H      93.34483418      79.07263432     107.25445121
H      91.16597973      80.54284140     109.45220291
H      93.10483894      82.47036224     107.52468207
C      88.10273337      78.58508494     106.31714695
H      89.19688491      76.84842645     106.49289151
H      86.77803524      78.70791715     104.74678438
H      87.00291266      78.85909525     108.03868763
C      85.32105624      86.43311831     104.70521041
O      84.25714034      86.52571490     106.71021003
N      85.45900626      88.42677957     103.06681769
H      86.32261119      87.88253840     101.45488115
C      83.98501975      90.86641624     103.36917390
H      82.98157507      90.84940871     105.17008309
C      85.68766315      93.13597755     103.23122389
H      84.62374723      94.75358327     103.93042261
H      86.63441604      93.49502555     101.43787362
C      87.87974567      92.90921039     105.21543652
H      88.71689444      91.08751422     104.74111520
H      87.03314828      92.88653367     107.09193475
C      89.82805350      95.08995455     105.08126594
H      88.81893965      96.85495893     105.41007833
H      90.60851048      95.15231552     103.17642183
C      91.80281750      94.72712710     107.15051625
H      92.73823203      92.90354121     106.92374910
H      90.91653586      94.72523738     109.00811723
N      93.81537603      96.63008150     106.98799980
H      94.39174254      96.57905889     105.17008309
H      95.15708170      96.14442184     108.25600616
H      93.12562592      98.40075505     107.17886216
C      81.87041600      90.97035119     101.32071059
O      81.88553380      89.54360783      99.46877880
N      79.90510063      92.53504458     101.90463602
H      79.95045407      93.63675502     103.46177050
C      77.82451196      93.27203784     100.17742616
H      77.23680708      91.46168003      99.39318975
C      75.61164245      94.56083119     101.60227981
H      76.17100143      96.43166024     102.25990456
C      73.51215652      94.86507712      99.69176650
H      71.81707201      95.73624095     100.47222346
H      73.05106330      92.94889464      99.09461298
H      74.16600182      95.83072727      97.99101282
C      74.57796215      93.22668441     104.06270346
H      75.91588839      93.09818302     105.62550712
H      73.85608670      91.31428138     103.81136987
C      72.35753374      94.52681611     105.46677012
H      73.12287290      96.17276773     106.44186889
H      71.57140759      93.36085498     106.97099225
H      71.08385820      95.48868681     104.16474869
C      78.84496418      94.69689148      97.87762924
O      80.15832396      96.62819177      98.30659712
N      78.85630253      93.58573241      95.63452410
H      78.28371546      91.76781570      95.52680971
C      79.60085469      94.62697161      93.21756416
H      80.31328151      96.51291847      93.63897311
C      81.58506732      92.94322546      91.97979342
H      83.15731962      92.58606719      93.26480731
H      82.58095309      94.15831948      90.64753637
C      80.68177814      90.35807987      90.91020832
C      80.47768770      89.99336269      88.27026067
H      80.75169802      91.68655746      87.16477078
C      80.05249928      87.59341027      87.35374341
H      79.87864446      87.21168555      85.35630269
C      79.82762186      85.51660105      88.97134913
O      79.26448342      83.10908973      88.07939830
H      79.18322518      83.07129520      86.26715078
C      80.04494039      85.87375933      91.64909132
H      80.03738148      84.28638922      92.93032575
C      80.62130690      88.24914530      92.63552845
H      81.29404947      88.33796244      94.55926984
C      77.32562422      94.84995931      91.21823371
O      75.48692051      93.35896525      91.33917620
N      77.75459208      96.33528419      89.27559507
H      79.45723550      97.19510967      89.21890328
C      75.81384316      96.55260272      87.23658038
H      73.97324973      95.85529371      87.85074143
C      75.28660953      99.37963328      86.42399805
H      73.84474834      99.22845518      84.96134989
H      76.94578922     100.37929850      85.72101987
C      74.22647306     101.03125408      88.54616071
H      75.80817398     101.53203155      89.76692390
H      73.11153454      99.99946351      89.93510955
C      72.45957897     103.29514620      87.78271127
H      72.15344330     104.37795938      89.50803140
H      70.68134650     102.57327075      87.03248993
C      73.33452225     104.94298755      85.55283422
H      73.46113390     103.66742229      83.94278741
H      75.28283007     105.52502325      85.89109524
N      71.63943774     107.20121049      84.98591633
H      71.59786376     108.34260519      86.51470492
H      69.83474912     106.59838780      84.85930466
H      72.03628027     108.19142708      83.40421541
C      76.45257066      94.85373876      84.97835742
O      78.65410182      94.24524689      84.20167991
N      74.36631282      94.18099620      83.77838122
H      72.74681736      95.06727784      84.26971006
C      74.14143538      92.56528020      81.52771718
H      75.71746712      91.24247178      81.58629869
C      71.83785900      90.78893747      81.90566245
H      70.15600258      91.97757532      81.87542683
H      72.02872136      89.61730715      83.58940859
C      71.34841988      88.94834404      79.73247719
O      69.70813745      89.42833452      78.08652557
O      72.55217554      86.93389579      79.71546964
C      74.21891415      94.27170306      79.12587504
O      73.56128940      96.46378558      79.31106822
N      74.84441356      93.04716041      76.96402814
H      75.10897526      91.17066218      77.18701583
C      74.80094986      94.18855510      74.42234624
H      76.12564801      95.76269712      74.30140376
C      75.46613353      92.43110963      72.37199320
H      73.73136476      91.40498824      71.94869449
C      76.39209942      93.50825363      69.84920856
H      77.92088800      94.77437026      70.40100865
H      74.91622317      94.83862095      69.30496738
H      76.67366863      92.04938492      68.42246520
O      77.42011054      90.90987995      73.08064056
H      76.49036519      89.45857014      73.65133791
C      72.07596451      95.33561897      73.88188452
O      71.80195421      97.20455830      72.52695076
N      70.10120052      94.35107157      75.04406619
H      70.44891017      92.72779666      75.98514991
C      67.38566382      95.12396963      74.95146960
H      67.14377884      95.85340398      73.03906659
C      65.76427863      92.90543094      75.16689840
H      65.41656900      92.48402197      77.15300077
H      66.68457534      91.29349439      74.27305786
C      63.28684743      93.20967687      73.67401462
H      62.43080142      94.98601961      74.26927842
H      62.02828971      91.71868281      74.33730856
C      63.41156937      92.96968163      70.79785118
O      63.75549957      90.96657174      69.71314828
O      63.12055152      94.96901207      69.43535850
C      66.79040002      97.17999186      76.69379728
O      64.79106959      98.31193792      76.48025820
N      68.43635165      97.87541114      78.43801466
H      70.20891493      97.17054322      78.36620506
C      68.23793038      99.64041552      80.53183141
H      67.00204937     101.05771025      79.69090320
H      70.10497998     100.27158410      81.13276438
C      66.94346786      98.61996331      82.91288657
O      66.38599860     100.01080187      84.62686833
N      66.53339725      96.07450196      83.08296194
H      66.58253013      94.96145316      81.53338636
C      65.50727586      94.76681135      85.41866366
H      64.21092361      96.07261224      86.34273983
C      63.83864752      92.43866854      84.81395124
H      62.94291725      91.93789106      86.59974261
H      65.16901485      90.94389502      84.32640185
C      61.61443965      92.60307473      83.03571878
C      60.90579229      90.34863123      81.81684531
H      61.89411915      88.64598783      82.35919675
C      58.83276251      90.15587915      80.23325466
H      58.26962408      88.40410286      79.34886275
C      57.46082122      92.42921991      79.78916898
O      55.40668872      92.66354597      78.32463107
H      54.86244754      94.37941746      78.54950851
C      58.06931309      94.63453051      81.14032329
H      57.06964787      96.39575544      80.90032805
C      60.15368122      94.76870108      82.73525230
H      60.51272920      96.39575544      83.91444152
C      67.61998988      94.45311679      87.37453040
O      69.93112516      94.43232980      86.71123646
N      67.01716717      94.20556264      89.82361570
H      65.29562651      94.32839485      90.63997747
C      69.00515927      93.61407830      91.74735707
H      70.75126638      94.64586887      91.38452962
C      68.41745438      94.83106205      94.33061294
H      69.84041830      94.20178319      95.68365698
H      66.45024928      94.42288117      94.78225753
C      68.55540439      97.75446866      94.23612664
C      66.35765269      98.93365787      93.67865738
H      64.54540517      98.00013308      93.58417105
C      66.40111640     101.48478840      93.09095249
H      64.64934011     102.28792208      92.41632019
C      68.57997083     102.88318587      93.29504293
O      68.76327430     105.35494789      92.67521269
H      67.08708705     105.84249727      92.18577359
C      70.88165749     101.62273842      94.02258757
H      72.65988995     102.62240364      94.00180058
C      70.87409858      98.97901131      94.54982121
H      72.59752898      97.93777211      94.88430276
C      69.36987644      90.74925321      92.07805919
O      67.66912276      89.19778791      92.08561809
N      71.64132747      89.95367844      92.78481683
H      72.96791534      91.20089780      93.35362445
C      72.44635087      87.18333966      92.80938327
H      70.85331159      85.99848126      93.35362445
C      73.46491335      86.46713339      90.18644314
H      74.99748139      85.09897154      90.33951098
C      71.44290620      85.21424484      88.53860180
H      69.82152103      86.33863200      87.94900720
H      70.47536634      83.80450901      89.68566568
H      72.24792962      84.08418851      87.01548240
O      74.15655318      88.42488985      88.60852168
H      75.32629377      89.52282084      89.46078825
C      74.50993202      86.73925398      94.92776647
O      75.66266506      88.52693507      95.86885016
N      74.89354646      84.39599335      95.54759670
H      73.87498396      82.94090409      94.84461850
C      76.69445563      83.54561651      97.42220520
H      78.39520930      84.55284063      96.84394895
C      75.93100619      84.19001318     100.26057411
H      75.09763689      86.07218059     100.24356658
C      73.97513946      82.50248758     101.38685100
H      73.44601610      83.27727537     103.22177525
H      74.59874914      80.54662085     101.56070582
H      72.20257618      82.78783626     100.37773716
C      78.27993600      84.14277002     101.94243053
H      79.99013831      84.71157764     100.94843450
H      78.55961550      82.22658754     102.64162927
C      77.98702843      86.08729840     104.06081373
H      77.79238661      88.00348088     103.33515884
H      79.78037869      86.17422581     105.06803787
H      76.47146792      85.38432021     105.26456940
C      77.23113790      80.70157841      97.14630516
O      75.58140683      79.12176721      96.28836940
N      79.50447865      79.89844472      97.89652650
H      80.84996379      80.94535310      98.75824171
C      80.26981781      77.22826144      97.59606002
H      79.00181145      75.88277631      98.50690811
H      81.77592968      76.83708810      98.94532461
C      80.98035490      76.38166406      94.94666373
O      81.53026526      77.99549033      93.43866213
N      80.77059528      73.98927054      94.20022184
H      80.27737672      72.77228680      95.58539123
C      80.77248502      73.22960057      91.59050980
H      82.14253659      74.21414797      90.40754113
C      81.46790429      70.51595358      91.16910083
H      80.11863971      69.36511025      92.21789894
C      81.53215499      69.80541649      88.37986479
H      81.44144812      67.74939426      88.35340863
H      83.29337992      70.39690082      87.49169343
H      79.80872460      70.51784331      87.50303179
C      84.24013279      70.01706583      92.04782357
H      84.37997255      70.59343236      94.01880811
H      85.61018438      70.95625981      90.83272955
C      85.02058976      67.18058664      92.04593383
H      83.61652311      66.10344264      93.09851140
H      86.88763936      67.02940853      92.90386959
H      85.20200349      66.42469611      90.13919999
C      78.02860241      73.90612259      90.72312541
O      76.29005419      72.41701825      90.43588702
N      77.70734893      76.38355378      90.09195682
H      79.26070397      77.42290325      90.48690963
C      75.90455003      77.62699370      88.47435110
H      75.87809386      76.75960932      86.60541179
H      76.27493639      79.65089058      88.55371962
C      73.13799070      77.43235189      89.38141974
O      71.51660553      77.91801155      87.92066130
N      72.52571939      76.83519837      91.82294614
H      73.89577096      76.54795997      93.12118811
C      69.91033816      76.93913332      92.79804490
H      68.75949483      75.80718726      91.51870020
C      69.80829295      75.65978860      95.44744121
H      71.28605893      76.77661685      96.35073037
H      70.18623820      73.63967117      95.31138091
C      67.32708229      76.02639551      96.76080099
N      65.11232306      74.72059463      96.35262010
H      64.72681889      73.28818208      95.15264389
C      63.32464196      75.91490166      97.75668676
H      61.44814374      75.11932688      97.84928335
N      64.39611679      77.80084852      98.95666297
H      63.58353446      78.65500481     100.45899539
C      66.78473084      77.96336498      98.28392040
H      68.15100297      79.18412818      99.17965066
C      68.75004621      79.53750700      92.80749354
O      69.60987169      81.36298262      94.04148482
N      66.60709657      79.79073032      91.39208853
H      66.04206841      78.30162599      90.34140070
C      65.30129568      82.29083824      91.36563237
H      66.58064040      83.74970695      90.67966172
C      62.70481174      82.23981563      89.76503417
H      61.55963759      80.85842569      90.77603776
H      62.93346862      81.47825592      87.86585924
C      61.21192794      84.70968792      89.75558555
H      61.05508067      85.34463596      91.70956256
C      62.61410487      86.92633688      88.43844630
H      62.69347337      86.76948960      86.38620352
H      64.59075859      87.11908897      88.98079775
H      61.69002871      88.64220837      89.11118887
C      58.83654198      84.39599335      88.24947368
H      57.56664588      85.85108261      88.96756968
H      58.01640076      82.60642253      88.85607583
H      59.17858244      84.41489061      86.21801789
C      64.44524967      83.15822261      93.99991085
O      62.95803505      81.76549432      95.32082954
N      65.26917033      85.31817979      94.92587674
H      66.24426912      86.41422105      93.70322382
C      64.78917986      86.08729840      97.47700726
H      64.69280382      84.42622897      98.69210127
C      66.96803430      87.65766096      98.40297315
H      67.00960828      89.37542218      97.26346819
H      68.74815649      86.76193069      97.87762924
C      66.85843017      88.21701995     101.18087084
H      65.22003745      89.41699616     101.52480103
C      66.16679034      86.38587516     103.24445197
H      64.52839762      85.29172362     102.64540873
H      65.93624372      87.51593149     104.95087482
H      67.70502756      85.10653044     103.74522945
C      69.16389627      89.70045511     101.87251067
H      68.92012158      90.40343330     103.79436233
H      69.52483400      91.28971494     100.61206322
H      70.81362735      88.46835355     101.93109218
C      62.23049042      87.50081368      97.50913261
O      60.56186210      86.71846699      98.83383076
N      61.96592874      89.44534206      95.94632895
H      63.58353446      89.96312707      95.07516512
C      59.54518934      90.50169907      95.30382201
H      58.17513777      88.99369747      94.99957606
C      58.63245153      92.21379111      97.47889699