 %block lattice_cart
   137.793   0.000   0.000
   0.000 143.498   0.000
   0.000   0.000   162.326
 %endblock lattice_cart

 %block positions_abs
N      87.41676274      37.40700372      83.30689451
H      86.91598525      36.70402553      81.60425109
H      86.54370918      36.71536389      84.85647008
H      89.31593768      37.24637698      83.24642327
C      86.98590513      40.08474590      83.24642327
H      87.72100866      41.12976455      84.86024954
C      88.04415187      41.40377487      80.88804483
H      87.38085793      40.57796447      79.12115071
H      90.03592341      40.88221041      80.90316264
C      87.82494361      44.32718147      80.94662633
H      85.96923238      44.94323225      80.29845022
H      89.13830341      45.05094665      79.53500078
S      88.23312449      45.84463170      83.99853433
C      91.60628596      46.06950914      84.26498574
H      92.47367035      44.30261503      84.86591871
H      92.01824631      47.54349566      85.64259623
H      92.34327923      46.57217633      82.40738477
C      84.10218278      40.45891171      83.37114519
O      82.79638189      38.92634367      82.17116899
N      83.28582101      42.06517908      85.08512697
H      84.55382737      42.96468880      86.19250658
C      80.71579322      42.65666341      85.59157361
H      79.45156633      41.82896329      84.19128642
C      79.83329104      41.43212076      88.04065891
H      79.67077457      39.39499580      87.79310477
H      77.86041676      41.99336948      88.22396237
C      81.14476109      42.00659756      90.55588463
O      82.75480792      43.71679988      90.68627575
N      80.84618434      40.57607474      92.71206237
H      81.95545368      40.95590973      94.21628451
H      80.17533151      38.80918064      92.44750067
C      80.13942671      45.55550358      85.62369896
O      81.94411532      46.99925448      86.06022574
N      77.86230649      46.58918387      85.16827492
H      76.38454051      45.45723781      84.74497622
C      77.30861669      49.31794867      85.14748793
H      78.22324421      50.30816526      83.58846372
C      74.53260873      49.64109187      84.57490086
H      74.21513470      48.74914105      82.74564578
C      72.73736874      48.36174715      86.57612102
H      73.23814620      46.37564480      86.78210119
H      70.74559720      48.66788282      86.14148397
H      73.10775508      49.30472058      88.36947130
C      73.57262776      52.47379161      84.46151728
H      74.37954090      53.45455957      86.08290246
H      71.51660553      52.48324024      84.59379813
C      74.29072376      53.88541717      81.99731417
H      72.95090780      53.50936163      80.47797421
H      76.21446515      53.39786778      81.44173463
H      74.02427235      55.89419624      82.35636217
C      78.18167025      50.99602563      87.27909922
O      78.86953062      53.15031363      86.95406629
N      78.15521408      50.08517755      89.66393382
H      78.00970514      48.18222315      89.65259546
C      78.94322994      51.37586062      91.91648758
H      77.57695782      52.90464921      92.11301912
C      78.36875314      49.55605418      93.95928173
H      78.89598679      50.52548378      95.69594022
H      79.56494991      47.92144092      93.59078510
C      75.68534179      48.68678008      94.38635988
C      74.03183126      50.28359881      95.80365461
H      74.75370670      51.99758058      96.64080337
C      71.48070073      49.82817477      96.01530396
H      70.30907043      51.35696336      96.68993625
C      70.42434372      47.52270867      94.97028531
H      68.46280782      47.11263806      95.35578947
C      72.06840562      45.81250636      93.74385292
H      71.42400894      43.99269992      93.08622818
C      74.63465396      46.48524892      93.36779739
H      75.88187331      45.29850080      92.26797667
C      81.80805503      51.97868332      91.76908893
O      82.56205583      53.75691578      93.07866927
N      83.40676349      50.39509267      90.50675176
H      82.63386544      48.96456985      89.50708653
C      86.02781389      50.98657700      90.24974897
H      86.78559415      52.04482374      91.84656771
C      87.46778534      48.49024854      90.37636063
H      89.07405270      48.72457460      89.10835428
H      86.23568379      47.05027709      89.57133723
C      88.04037241      47.50948059      92.98607268
H      88.57327523      45.51770905      92.95583705
H      86.20355844      47.43389153      93.91392830
C      90.04915148      49.03259999      94.42226468
O      89.33861439      50.88642151      95.69782993
O      92.26013128      48.21812795      94.11612901
C      86.43221533      52.37552584      87.73452325
O      87.70211140      54.34273093      87.74586161
N      85.18121650      51.47601612      85.68039075
H      84.07005743      49.92266109      85.70117774
C      85.72167823      52.49835805      83.13681913
H      87.75124428      52.20167102      82.95540540
C      84.17588210      51.12830647      81.06756882
H      82.15765441      51.42499351      81.34724832
H      84.39320063      49.09685069      81.33968942
C      84.71445411      51.67821683      78.10636769
H      85.62341247      49.94533780      77.46197101
H      86.12230021      53.17299035      77.94385123
S      81.93844615      52.10340525      76.01066120
C      81.56050088      55.41987493      76.51332841
H      81.28838029      55.97356474      78.47864377
H      79.87675474      56.08127914      75.52500155
H      83.17432716      56.37607645      75.66862074
C      85.06594320      55.25546874      83.04044310
O      86.51725301      56.65197649      81.86125387
N      83.03448742      56.14930929      84.29333163
H      82.07450644      54.87563375      85.34212974
C      82.23513318      58.79870558      84.39726659
H      81.88364409      59.53380912      82.50565055
C      79.93911571      59.32782895      86.26242645
H      80.16021369      58.57193842      88.16538085
H      78.34229697      58.38485552      85.36291673
C      79.10007722      62.14541088      86.47785526
H      80.66666034      63.05436924      87.46051293
C      78.34418670      63.44932204      83.80389253
H      76.77004469      62.45343627      82.92516979
H      79.88431365      63.58727206      82.44517931
H      77.87364485      65.42786549      84.13270490
C      76.91933307      62.35517050      88.40159664
H      77.51459685      61.49534503      90.17415992
H      75.32818350      61.17976073      87.83089929
H      76.48469601      64.36394957      88.51498022
C      84.56894517      60.43142911      85.41960853
O      84.57650408      62.74634385      84.69773306
N      86.13174883      59.54514747      87.08634713
H      85.90498168      57.66298007      87.30744510
C      88.02525461      61.01157509      88.51875967
H      87.21267230      62.74823357      89.26520156
C      88.89641844      59.50168377      90.88847648
H      90.35528715      60.54103324      91.90514923
H      89.80159733      57.77258419      90.23085172
C      86.77614551      59.01224465      92.86135075
H      85.16231925      58.07871985      91.98640746
H      86.22056597      60.93787577      93.34323095
C      87.37896820      57.34361632      95.14602985
H      88.41642796      55.67309826      94.53942771
H      85.58750767      56.49701893      95.70916829
N      88.35595670      58.81193366      97.31354594
H      89.05137600      60.56182023      97.00363082
C      88.25958067      58.12218356      99.66814493
N      87.18432639      56.06427160     100.41458682
H      86.87819074      55.65609072     102.25329052
H      86.84228593      54.75469127      99.06910167
N      89.07027326      59.40152827     101.59377603
H      89.10050888      58.60217404     103.32476533
H      89.98301106      61.06826688     101.40858285
C      90.27969810      61.63329505      86.91060258
O      91.41731334      63.73278098      87.24130468
N      90.78992421      59.97789480      85.04922217
H      89.59939662      58.54737198      84.61269538
C      92.53414159      60.56748941      83.03099446
H      93.86261918      61.86573139      83.92105556
C      94.22544663      58.28658975      82.32990599
H      95.51990917      58.92909670      80.86347837
C      95.96588458      57.85762188      84.53521660
H      95.16086117      57.25668891      86.33423605
H      97.37184095      59.33538785      84.83190364
H      97.13940462      56.23812643      84.04766721
C      92.78925464      56.05860243      81.35291749
H      91.37951881      56.72189636      80.00176318
H      91.78769970      55.07216529      82.85902936
C      94.69220904      54.27848024      80.17939745
H      95.99045102      53.66998837      81.66094288
H      95.29125228      54.85295704      78.29345059
H      93.66608765      52.52481422      79.83168782
C      91.34361401      61.93943071      80.71041055
O      92.84405670      62.58760684      78.97186235
N      88.89263899      62.34194242      80.68773383
H      87.86462787      61.87140056      82.22597106
C      87.60006619      63.88395909      78.85469930
H      88.48445809      63.51924191      77.02922369
C      84.85051440      63.33971791      78.82068423
H      83.76770122      64.04458582      80.42317214
H      84.72390273      61.31015185      79.15138633
C      83.23668813      63.90285635      76.42451127
O      83.98690948      63.40963778      74.23242874
O      81.32428509      65.30503328      76.76466200
C      88.14808681      66.69587184      79.48019872
O      89.22523082      67.93931176      77.77188613
N      87.34495313      67.64451445      81.71952440
H      86.67787974      66.48233277      83.07823762
C      87.49613123      70.32792582      82.51320946
H      88.71878417      71.31814240      81.18473185
C      84.79760206      71.46932051      82.43195121
H      84.99035414      73.30613448      83.34279930
H      83.55227242      70.33170527      83.61680961
C      83.81116492      71.75466918      79.72586313
H      81.83829065      72.19119596      80.12648512
H      83.72234778      69.93108329      78.77155135
C      84.93933153      73.73132290      78.22919989
O      86.09395432      72.95275566      76.20908248
O      84.84862467      76.02923010      78.94162671
C      88.54870879      70.55658270      85.24008452
O      88.97578694      68.70465091      86.50431142
N      89.05704517      72.84315154      86.05455656
H      88.85106500      74.32847642      84.87536735
C      90.37985360      73.58770370      88.34868431
H      91.30581949      75.34325945      87.79310477
H      91.73289764      72.09670964      88.78143163
C      88.73957115      74.15084215      90.61446616
O      87.55093331      76.14261368      90.94138881
N      88.48256837      72.30835899      92.31333011
H      89.36696029      70.62461285      92.15459309
C      86.74213043      72.50489053      94.59989895
H      84.77492534      72.72220905      94.02731188
C      86.93866198      69.77612573      95.89436148
H      88.97011776      69.59849146      96.18726906
H      86.27914750      68.40040498      94.50919208
C      85.49869053      69.54557912      98.50029406
H      86.29237557      70.94397659      99.78908741
C      82.76992572      69.76856683      98.13179743
H      82.11608042      69.72132367     100.08388471
H      82.02348383      68.11694603      97.15291920
H      82.11608042      71.44853352      97.13780138
C      85.86529742      66.80358624      99.72861617
H      87.85328952      66.46910468     100.14246622
H      85.45711655      65.25590039      98.43037419
H      84.81838905      66.47099441     101.46905409
C      87.51124904      74.59870728      96.65592118
O      89.43310071      74.44186000      97.91447891
N      86.14308719      76.70386240      96.63702391
H      84.64075478      76.82102543      95.46728333
C      86.51725301      78.82602504      98.13935634
H      88.49579646      79.33247170      98.41714611
C      85.66120698      81.16928567      96.80898901
H      86.07316733      82.85681127      97.91447891
H      83.61274366      81.01243839      96.69938489
C      86.90653663      81.76454946      94.15959272
H      85.78214947      83.19696201      93.19772202
H      86.62307768      80.08080332      93.00496994
C      89.69766239      82.57524205      94.03109133
H      90.88063107      81.58691519      95.39925317
H      89.78270007      84.38371013      95.00996955
N      90.55748786      82.87381881      91.56499849
H      90.22111659      84.50654234      90.63903260
C      92.11084290      81.36203776      90.38769899
N      93.08972112      79.23798538      91.14169979
H      94.31804322      78.36871128      89.96629003
H      92.96121974      78.77500243      92.98985214
N      92.79492382      82.28422420      88.12380687
H      93.74734589      81.24298500      86.83690326
H      91.91242164      83.88860184      87.58901432
C      85.40042476      78.73720791     100.65647179
O      83.15165045      77.94919204     101.01740950
N      86.98590513      79.60837174     102.36478436
H      88.48256837      80.43985132     101.52385616
C      86.78181469      79.72742450     105.10677724
H      85.43632956      78.38193936     105.89479313
C      89.49924112      79.35703814     106.40879867
H      89.16286985      79.04334357     108.41568803
H      90.68787898      81.03700483     106.33698907
C      90.92976395      77.07046930     105.47527389
H      91.33794484      77.34636934     103.47405371
C      93.52624791      76.70008294     106.63556583
H      94.74512137      78.35170374     106.45415211
H      94.55992819      75.17129436     105.72282802
H      93.32026774      76.34103494     108.65190381
C      89.33861439      74.59114838     105.71526912
H      90.56504677      72.97543238     105.36000057
H      87.84384087      74.70831141     104.30175383
H      88.59784167      74.25855655     107.60688516
C      85.78214947      82.31445982     106.06297876
O      84.60484997      82.34469544     108.20403867
N      86.18655091      84.30812108     104.64568403
H      87.07850172      83.91505801     103.00540158
C      85.20956240      86.86870023     104.90835598
H      84.33839857      87.35813935     106.71115488
C      87.57172028      88.43528335     104.72505254
H      88.40697932      88.30678196     102.84666458
H      89.00413283      87.75309215     106.04030205
C      87.32983533      91.30199816     105.09921834
H      85.77270083      91.81600372     106.34454798
H      86.96322842      92.18450035     103.27374273
C      89.59939662      92.64748330     106.31809182
H      90.50457552      91.36624886     107.65223860
H      88.80004240      94.25375066     107.32909539
C      91.52502773      93.56022111     104.24695177
H      90.45166319      93.89470266     102.52163165
H      92.92342521      92.11458048     103.81042500
N      92.78925464      95.94127626     104.91213544
H      93.58104997      95.92048927     106.64879393
H      91.53069691      97.36612990     104.74017034
H      94.10072471      96.20583795     103.54964276
C      83.24046759      87.52254554     102.90335637
O      82.85118395      86.15249396     101.07977048
N      81.66443584      89.44250747     103.37767768
H      81.80994476      90.40437816     105.02173956
C      79.78037871      90.46673913     101.53141507
H      78.60496894      88.89826629     100.90024647
C      78.27804629      92.53032027     102.89579746
H      79.44022797      93.98729925     103.77263047
C      76.63587411      93.93627664     100.93804101
H      75.19968212      95.13247340     101.80164593
H      75.62865000      92.54354835      99.80231549
H      77.73191537      95.26286452      99.80609494
C      76.72091181      91.50419888     104.98772450
H      77.73380511      90.31934048     106.33509936
H      75.37353694      90.14170621     104.23561341
C      75.20346158      93.44305808     106.54107952
H      73.63309901      94.13847736     105.40346428
H      76.35052545      94.95672885     107.33665429
H      74.26426759      92.34512709     108.00750713
C      81.20523234      91.29065981      99.14280100
O      83.03826686      92.68905728      99.23728733
N      80.48713634      90.23052334      96.89591641
H      78.87519980      89.21763004      96.79198148
C      81.37341799      91.25853446      94.50541263
H      82.48268733      92.92149361      95.00807983
C      83.05716412      89.30833690      93.11646379
H      84.44233352      88.66016078      94.49596400
H      83.93588687      90.26831787      91.52153479
C      81.78348859      86.91972284      92.31144038
C      81.32239537      86.45862962      89.71873589
H      81.83451120      87.89104217      88.35624322
C      80.05816846      84.29489299      88.93638918
H      79.55361154      84.11158954      86.96540465
C      79.52904510      82.38437969      90.78076207
O      78.23647230      80.30379102      90.03432018
H      77.75081264      80.26977595      88.28632333
C      80.27170754      82.70563317      93.30543643
H      79.96179242      81.20708020      94.65281128
C      81.15798919      85.15849792      94.12179819
H      81.64553858      85.39660343      96.09089300
C      79.30416768      92.06355787      92.67993702
O      77.04027555      91.56844957      93.16559667
N      79.94856434      93.51486768      90.64092232
H      81.76459132      93.97218144      90.27620515
C      78.10041200      94.27831711      88.58678983
H      76.26737748      94.50508426      89.49952762
C      79.01126009      96.70472569      87.36791634
H      78.29694355      96.75385858      85.43661606
H      81.06917205      96.63669554      87.44917459
C      78.05505858      98.95350000      88.92505084
H      78.84685391     100.58622354      87.94806232
H      78.79205183      99.02530960      90.84690249
C      75.13354170      99.11790619      88.92694055
H      74.37387171      97.90659163      90.41037571
H      74.18678881      98.89491849      87.11091357
C      74.20001690     101.80887646      89.76030987
H      74.87086973     103.24695819      88.44883979
H      74.95023824     102.38713272      91.58956493
N      71.37865552     102.00918745      89.64692629
H      70.80795817     103.74206648      90.20628527
H      70.25426835     100.80543179      90.61068671
H      70.77205337     101.71439015      87.86113492
C      77.87931403      92.14103665      86.57801076
O      79.75014309      91.60057492      85.16260575
N      75.70990822      91.22451938      86.06400519
H      74.25103950      91.63458999      87.22240743
C      75.20724103      89.45384583      83.89459938
H      76.58296178      87.92127779      83.88515075
C      72.57107281      88.45418061      84.11380764
H      71.08574794      89.81100410      83.67350140
H      72.36131319      87.87025518      86.07723327
C      72.23659125      86.12792752      82.27699366
O      73.81640246      84.46874782      81.75920866
O      70.15411287      85.92950626      81.25843117
C      75.28660953      90.76342616      81.25276200
O      75.40755201      93.02920801      81.14315787
N      75.41889038      89.41983076      79.11359182
H      74.97858414      87.56600924      79.20996786
C      75.62298082      90.44595214      76.43018044
H      77.01381937      91.95206401      76.63049144
C      76.79272140      88.71118339      74.56313085
H      76.77760358      89.43494857      72.63372029
C      79.45723550      88.02332301      75.39461042
H      80.30005343      89.78832739      76.04089683
H      80.51737196      87.27499139      73.79401225
H      79.43266906      86.68161733      76.95930381
O      75.23180747      86.54555703      74.51588770
H      75.36030885      85.86147611      72.83970045
C      73.14743934      91.53821395      75.31902138
O      73.05862221      92.45095176      73.21008682
N      71.09519656      91.43238928      76.76655174
H      71.22936714      90.58012271      78.46919514
C      68.77083321      92.82511757      76.47175443
H      68.47981535      93.44116835      74.52911578
C      66.46914656      91.06956183      77.08969494
H      64.62477368      91.98229964      76.98953944
H      66.61465548      90.02454318      78.85847877
C      66.42379313      89.05511358      75.03934188
H      67.86565429      87.64537775      75.45319194
H      66.74882605      89.89604179      73.18552037
C      63.81219135      87.79655585      74.77855966
O      63.17157414      86.18839876      76.41695236
O      62.36655072      88.54677720      73.06268815
C      68.62343454      95.25719534      77.99676357
O      66.60520684      96.49496607      77.95141014
N      70.71914103      95.96773243      79.32335144
H      72.38965909      95.14948094      78.90194246
C      70.71725131      98.13902796      81.06378936
H      69.57774634      99.63947066      80.23042007
H      72.65422077      98.77397600      81.36425586
C      69.52294428      97.74029571      83.73775210
O      69.48514975      99.44482885      85.36858591
N      68.57619139      95.51986729      84.37458986
H      68.40233657      94.23674313      82.97241295
C      67.45180423      94.96050831      86.86524915
H      66.56741232      96.62346746      87.70239790
C      65.17090458      93.31455669      86.80666763
H      64.14478318      93.49786014      88.58490009
H      65.94758208      91.40971256      86.91060258
C      63.35865705      93.49786014      84.64104127
C      62.48371375      91.32467488      83.39004246
H      63.14322824      89.45573556      83.87381239
C      61.00216832      91.46640435      81.27165927
H      60.31808740      89.85635753      80.22097143
C      60.09698942      93.78698826      80.54222491
O      58.46426589      93.99485816      78.62226297
H      58.11466652      95.75608308      78.36903964
C      60.78862925      96.04143176      81.72330386
H      59.82675856      97.81021559      81.39449147
C      62.47993431      95.86946666      83.78499525
H      63.10732344      97.51541828      84.81678583
C      69.42089905      94.17627189      88.91182274
O      71.44857538      93.11802515      88.37703021
N      69.05240242      94.68271854      91.36468751
H      67.31196449      95.38569673      91.70672796
C      70.68512596      93.77187045      93.39425356
H      72.60130843      93.75864237      92.64214248
C      70.57363211      95.36490974      95.82633132
H      71.23692605      94.11769037      97.32488430
H      68.71036195      95.83923104      96.56521431
C      72.15344330      97.85745874      96.05687793
C      70.91945202     100.11379196      96.57466295
H      68.93145993     100.08733579      97.03953562
C      72.30651113     102.37768408      96.52175060
H      71.37865552     104.16914463      96.82410681
C      74.97858414     102.31910257      96.05309848
O      76.18422953     104.56976661      95.70538884
H      75.14865950     105.86422913      96.44049237
C      76.21068569      99.98529057      95.88113338
H      78.20434696      99.85489946      95.46917305
C      74.76882452      97.67415529      95.79798543
H      75.72691575      96.10946190      94.90792433
C      70.01805257      90.95806797      94.16904135
O      67.92990500      90.11336031      94.72462089
N      72.06462616      89.41038212      94.54509688
H      73.79561546      90.20973635      94.43171330
C      72.13832550      86.61358718      95.11579424
H      70.34875467      86.09013299      95.99262724
C      72.61264680      85.22463834      92.61568632
H      73.31751472      83.32357367      92.98229323
C      70.25426835      84.86181089      90.99052169
H      68.66311880      84.53110878      92.25852804
H      70.34119576      83.30278668      89.64692629
H      69.89333063      86.53610840      89.84723727
O      74.37765117      86.22052411      90.86957921
H      75.98580827      86.31123097      91.70672796
C      74.17356073      85.78777678      97.04520479
O      75.67211369      87.33357291      97.89936109
N      74.10364085      83.32168394      97.81810286
H      73.00382015      81.96486045      97.05087398
C      75.90077059      82.09525157      99.50940790
H      77.73380511      83.00420992      99.27319213
C      74.76126561      82.40327696     102.21360627
H      74.54961626      84.39882794     102.67092003
C      72.18745838      81.10692470     102.55375700
H      72.32162895      79.27577991     101.61645275
H      70.65489034      82.13871527     101.63912946
H      71.67534254      80.92740070     104.54174908
C      76.28627475      81.19385211     104.55308744
H      76.55083643      79.15105797     104.48694701
H      75.14110061      81.51510559     106.23305414
C      78.82606691      82.55256533     104.78174433
H      78.60874838      84.59346975     104.59466141
H      80.06005819      82.09525157     103.20004339
H      79.90321092      82.28233447     106.51651308
C      75.96691101      79.31924361      98.61367763
O      74.51749091      78.50855102      97.11134522
N      77.64120852      77.85848517      99.62279148
H      78.77315457      78.50099212     101.01929924
C      78.17411134      75.17129436      99.00674072
H      76.56973369      73.94486198      99.41114214
H      79.92588763      74.57792029      99.91002989
C      78.79772101      74.99177036      96.05876767
O      80.69122678      76.03300955      95.26319288
N      77.33885231      73.79746333      94.39202905
H      75.91966785      72.62016383      94.88335789
C      77.15365913      74.14139351      91.72562522
H      78.15710379      75.86860336      91.22484775
C      78.21757505      71.85104522      90.21573391
H      76.96090704      70.26745457      90.60879697
C      78.17600106      72.40284531      87.40571088
H      79.21912998      71.07814716      86.22652165
H      78.81661829      74.33225587      87.07122932
H      76.23714186      72.60315630      86.73485804
C      80.86319187      71.01767592      91.15303815
H      80.76492611      70.82870329      93.20150147
H      82.33528868      72.36505078      90.63903260
C      81.39798443      68.28135222      90.26108733
H      81.50758855      68.15474056      88.20695484
H      79.81817322      67.11728081      90.88658674
H      83.22534977      67.56892540      90.88847648
C      74.42867379      74.72342922      91.02453676
O      72.89232630      72.95086594      91.11713335
N      73.93545522      77.14227890      90.28565377
H      75.26582253      78.51233048      90.31966884
C      71.53550279      77.78856530      89.09512620
H      71.01960752      76.24276917      87.83656848
H      71.69990898      79.57435666      88.08223290
C      69.25271342      77.97564820      90.80532851
O      67.19858091      78.05879616      89.82834001
N      69.47759084      77.90572833      93.33945149
H      71.21991850      77.56368787      94.03676050
C      67.41211999      78.28367359      95.18193465
H      65.73782246      77.29156728      94.49974345
C      68.05273720      76.96842408      97.63290968
H      69.39255316      77.98509684      98.82154754
H      68.99949009      75.19964025      97.16614728
C      65.84175741      76.44496989      99.28075103
N      63.85187560      74.84437170      98.77619411
H      63.65912352      73.57636535      97.36267882
C      61.97159792      75.06546968     100.54497792
H      60.30296960      73.89194964     100.50907312
N      62.75394463      76.79645898     102.16258365
H      61.71081570      77.32369263     103.67247498
C      65.08964635      77.65439473     101.42181093
H      65.99860470      79.26255182     102.28919532
C      66.67134727      81.00487948      95.54287238
O      67.93179471      82.40327696      96.92804176
N      64.39422706      81.51510559      94.72273115
H      63.44180499      80.27733485      93.62668989
C      63.46070227      84.07757447      94.55643524
H      64.92146071      84.98275337      93.42259946
C      61.15523616      84.40260739      92.85568156
H      59.54329962      83.29711750      93.50385768
H      61.62010883      83.40861135      91.11335390
C      60.10265861      87.08223931      91.93349513
H      59.57353524      88.17639084      93.59834401
C      62.14167329      88.79055189      90.87524838
H      61.45759237      90.52721037      90.00597429
H      63.25850155      87.66427501      89.56188859
H      63.15456659      89.35369033      92.57789179
C      57.79908222      86.55689539      90.17793937
H      57.96915759      87.78710722      88.53387749
H      56.05675456      87.01798861      91.17949433
H      57.74428016      84.62937455      89.45606392
C      63.00338850      85.21896916      97.08866850
O      61.65601364      84.05678748      98.66092080
N      64.19769553      87.42427977      97.46094458
H      65.35231830      88.40126827      96.29498345
C      63.64022627      88.91716356      99.76452097
H      62.61410488      87.74175379     101.11189583
C      66.00427387      89.92816713     101.11756500
H      65.44491489      90.98074469     102.79753170
H      66.90378361      91.28688035      99.85711756
C      68.04706803      87.82679147     101.87723499
H      68.90311404      86.92917147     100.23128336
C      70.04828819      89.21385059     103.55909139
H      69.27727986      90.18894936     105.20126357
H      70.82685543      90.75775698     102.44037342
H      71.50148773      87.84001956     104.04664078
C      66.86409936      85.86714529     103.71215924
H      65.61310054      86.71185295     105.11433615
H      68.47225644      84.79000129     104.40946823
H      65.68868958      84.44796083     102.78997279
C      61.75994858      90.97696524      99.24673595
O      59.69258799      90.99964195     100.21238609
N      62.20781372      92.53598945      97.34567129
H      63.94258248      92.46040039      96.55387595
C      60.54296483      94.63925483      96.57088350
H      58.54741385      94.13658763      96.66536981
C      60.86610803      96.82377845      98.51730159