 %block lattice_cart
   137.793   0.000   0.000
   0.000 143.498   0.000
   0.000   0.000   162.326
 %endblock lattice_cart

 %block positions_abs
N      88.65358861      39.88537978      78.88587979
H      87.97706659      38.23753843      79.56996072
H      90.44126970      39.52444205      78.32274136
H      87.57833433      40.62993194      77.49504122
C      88.96917290      41.87526158      80.82851844
H      90.58488890      41.48219851      82.04550220
C      89.86490317      44.41883320      79.61909360
H      90.70583138      45.70951627      80.98536573
H      88.23217964      45.40149088      78.84241610
C      91.90013841      44.32056743      77.45913644
H      90.94960608      43.52310293      75.81318481
H      93.31176397      42.95618503      78.07896666
S      93.58388456      47.10602402      76.55206779
C      95.92336573      47.62569875      79.14099284
H      97.26129196      46.09313071      79.46413605
H      94.79708885      47.79199467      80.86064379
H      97.04397344      49.31889353      78.78950375
C      86.49741088      42.29289110      82.25337208
O      84.50752908      42.14549245      81.08174178
N      86.66748625      43.41538853      84.48702858
H      88.30965842      43.38704263      85.45645819
C      84.27698247      44.05033657      85.95156649
H      82.88425417      42.61036512      85.47724518
C      84.80421611      44.14293316      88.73513334
H      86.20072385      45.53377173      89.33039712
H      85.71884364      42.37414933      89.25480807
C      82.60079523      44.53599623      90.45856373
O      80.40682298      44.69284352      89.64787115
N      82.94472541      44.89126478      92.90575932
H      81.38381148      44.94228739      94.00180058
H      84.67949417      44.94228739      93.70511354
C      83.34912685      46.72240958      85.04638758
O      84.83823118      48.52331875      85.16921978
N      80.80366550      47.09846511      84.60608135
H      79.69250643      45.54888954      84.65710395
C      79.57534340      49.56833740      84.02404565
H      80.56178053      50.36958136      82.40266046
C      76.79555599      49.11858254      83.43256131
H      76.71051831      47.58223505      82.05873027
C      75.22708315      48.43261189      85.82306510
H      73.50554248      47.52365353      85.14465334
H      74.89260160      49.93305458      87.19122695
H      76.13037233      46.89059522      86.84162757
C      75.42739414      51.32200342      82.04928165
H      75.62770513      53.13803041      82.99792425
H      73.42806370      50.83256431      82.15888577
C      76.01698875      51.82467062      79.26193534
H      75.65038185      50.17493955      78.08463584
H      77.84057464      52.63347348      78.75359896
H      74.78866665      53.39125373      78.73092224
C      80.02887771      51.52042468      86.12731103
O      80.15548938      53.72006611      85.39220750
N      80.58256752      50.72484991      88.50836618
H      80.73185590      48.85591058      88.86552445
C      81.13814706      52.53520771      90.60218294
H      80.10824622      54.31155045      90.42832811
C      80.18950445      51.23885546      93.05693741
H      80.96807169      52.19883643      94.70477876
H      80.93594634      49.31700380      93.13441620
C      77.31712045      51.30877534      93.16843127
C      76.03966547      53.43471744      94.12841223
H      77.19239852      55.08066906      94.47612187
C      73.40349726      53.46684279      94.34762048
H      72.21296968      54.88602725      95.20555623
C      72.02399705      51.37113631      93.80337932
H      70.00010017      51.42782810      94.04715401
C      73.22964244      49.10724418      93.01158398
H      72.14493954      47.41593913      92.66387435
C      75.88092846      49.03921404      92.72056613
H      76.82579161      47.29310692      92.24624482
C      83.94628036      53.15125849      90.87241379
O      84.74563459      54.48540527      92.66954352
N      85.50152512      52.24041041      89.13764504
H      84.70784006      51.32956233      87.65987906
C      88.31532760      52.57678169      89.09607106
H      88.82933315      53.96762026      90.52470415
C      89.62868738      50.09935050      89.77637254
H      89.45672229      48.79543934      88.19089217
H      88.55721256      49.12047227      91.23713097
C      92.37823917      50.26375669      90.53037334
H      93.59522291      51.19350203      89.15087313
H      93.05854064      48.32489749      90.40187195
C      92.48595357      51.33523151      93.22890251
O      92.92437007      53.68794077      93.55582516
O      91.89257951      50.14659366      95.12996718
C      89.24129349      53.66337432      86.62997823
O      90.67748549      55.45105542      86.68855974
N      88.13769332      52.98307285      84.43411625
H      86.62213282      51.83978843      84.63442725
C      88.72539821      53.99596615      81.96235423
H      90.77197180      54.16604152      81.78471996
C      87.54242953      52.24607959      79.80806623
H      87.99785358      50.24485942      79.95168544
H      88.31721732      52.54654607      77.92211937
C      84.68516335      52.37647070      79.56051210
H      84.10123792      54.31910935      79.20713327
H      83.73652074      51.83222953      81.30850892
S      83.06755763      50.43572178      77.31929669
C      84.40926331      51.32578287      74.28061677
H      83.56644537      53.16826603      73.90645097
H      83.85746322      49.97084911      72.82930697
H      86.45961636      51.51664523      74.31463185
C      87.99407412      56.71150287      81.67700557
O      89.49640654      58.26485790      80.44301427
N      85.79443269      57.45227558      82.75792902
H      84.99885792      56.22017403      83.97869220
C      84.50185990      59.96561158      82.60486119
H      84.97240175      60.86701103      80.81340063
C      81.54065876      59.73695469      83.01304207
H      80.85090866      61.67770362      82.97146808
H      81.26853818      58.97161554      84.90654782
C      80.03454689      58.13068733      81.15733083
H      80.43138942      56.11056990      81.24236851
C      77.18106016      58.43115381      82.00203848
H      76.05856273      57.15369882      80.83796707
H      76.66705460      60.40024863      81.68834391
H      76.89382176      57.86801537      83.96168467
C      80.17060719      58.84689360      78.34352835
H      79.81344891      60.84622404      77.99581871
H      78.99330769      57.59211533      77.21536173
H      82.11702529      58.41414627      77.81818442
C      85.80955051      61.97250092      84.29049706
O      85.04421135      64.20237797      84.21490800
N      87.77675560      61.35267069      85.60007738
H      88.54965366      59.64246838      85.25425748
C      89.25641130      62.80964968      87.52570850
H      88.06966318      64.22505469      88.43844630
C      90.17670801      60.95582817      89.54015674
H      91.63557673      59.83711019      88.61041141
H      88.66114751      59.63490947      89.98613216
C      91.16314515      62.29942357      91.96467560
H      89.42459694      62.81153941      92.94544357
H      92.06643433      64.11545056      91.60184815
C      92.78075087      60.64780278      93.63897313
H      93.71994485      61.89880160      94.97689936
H      94.19804561      59.77474922      92.42954829
N      91.28408763      58.42548463      94.77469863
H      91.28786709      56.67559807      94.01502866
C      90.02552991      58.44816135      96.87985374
N      90.08033197      60.47583768      98.21589026
H      88.78020027      60.36623356      99.60861854
H      91.06676911      62.04242080      97.74534840
N      88.74429547      56.52819941      97.62440592
H      88.30965842      56.39402885      99.47633770
H      88.86523795      54.97673411      96.51891603
C      91.19149104      64.46316020      86.31439393
O      92.24028915      66.05053031      87.60507700
N      91.44660410      64.46316020      83.74814560
H      90.89291429      63.00240176      82.65399407
C      93.21160847      66.03541250      82.23825428
H      93.81443117      67.53963464      83.51004008
C      95.39991154      64.43103486      81.21780207
H      96.10288973      65.36078020      79.51704839
C      97.45215432      64.35544580      83.33996472
H      96.54697542      64.03608206      85.16355061
H      98.47260653      66.12045018      83.06217495
H      98.81086754      62.86823119      82.91666603
C      94.73283816      61.79675637      80.16522452
H      94.19615588      60.65347196      81.79416860
H      96.45626855      60.82543705      79.58885799
C      92.97728241      61.85155844      77.77850018
H      93.19838039      60.15836366      76.62576713
H      93.59144346      63.38601620      76.54828835
H      91.02897458      62.14446602      78.37754341
C      91.73951168      67.23727843      80.05373066
O      92.96405433      68.61110946      78.53061124
N      89.26397021      67.03885717      79.75515390
H      88.27564334      66.35288652      81.23858906
C      87.98840494      67.93647717      77.57440973
H      89.20160924      67.66624630      75.93223757
C      85.55065800      66.42469612      77.33063505
H      84.34312289      66.87445098      78.93501269
H      86.06655328      64.43292458      77.45157753
C      84.04076668      67.08987978      75.08564018
O      81.73908003      67.85710866      75.24059773
O      85.21617644      66.81397974      73.00694123
C      87.34967745      70.80886116      78.01849541
O      86.51252869      71.98616065      76.23270405
N      88.06399400      71.99560929      80.24459301
H      88.65925779      71.03751805      81.78471996
C      88.19438511      74.70925627      80.55639786
H      89.08066675      75.67868587      78.96713802
C      85.46939977      75.76939273      80.91544586
H      84.52831607      74.60343160      82.33085087
H      84.51508798      75.48782351      79.11075722
C      85.00830655      78.56051850      81.48803292
H      85.60546006      78.83830827      83.44200993
H      82.97685076      78.88366170      81.60708568
C      86.23095947      80.30662561      79.56240181
O      88.43060090      81.15322300      80.05373066
O      85.00263737      81.19857643      77.68779331
C      89.85167509      75.17412894      82.88454068
O      90.25229707      73.46392663      84.41710872
N      90.93070881      77.40778545      83.15288182
H      90.40158545      78.72870414      81.88109600
C      92.69760292      78.13155062      84.97268826
H      93.75395993      79.63577277      84.04672235
H      93.97694763      76.55173943      85.30716981
C      91.58077467      78.73626304      87.57106193
O      89.62301821      79.97403378      87.63531263
N      92.85822965      77.73659783      89.53070812
H      94.26229630      76.57252642      88.96945941
C      91.94171239      77.58352999      92.22356812
H      89.96316894      77.01850183      92.30482635
C      93.27585917      75.37632966      93.59172996
H      95.25440262      75.94135783      93.62196558
H      93.23239546      73.59053829      92.56749830
C      92.65413921      74.98137686      96.32427422
H      93.49128797      76.62921821      97.23512229
C      90.03686827      74.64500558      97.32960862
H      89.42270722      72.81008133      96.62663043
H      88.91059139      76.18891197      96.56237972
H      89.96883812      74.44658431      99.37996166
C      94.07899285      72.73449227      97.34472643
H      93.67081197      72.19403055      99.28925480
H      96.07643356      73.16723960      97.09339282
H      93.44215508      71.05452558      96.33561257
C      92.26107614      80.08930708      93.66542929
O      94.31709837      80.76960856      94.14730951
N      90.18804637      81.42723331      94.35706913
H      88.54020503      80.60142292      93.86763000
C      90.15781075      83.72891996      95.86129127
H      92.12312612      84.22780771      96.22600844
C      88.84823042      85.98147373      94.59895409
H      88.28509198      87.56695411      95.78759193
H      87.02653425      85.18778868      94.05282318
C      90.21639227      87.08318417      92.17632495
H      92.19682544      87.44790135      92.61663118
H      89.38113324      88.91432897      91.74546735
C      89.88757989      85.39754830      89.76125472
H      88.00919193      84.57929680      89.56472319
H      91.20849858      83.81584737      89.72157047
N      90.35056284      86.98680813      87.47846534
H      91.08755610      88.71968716      87.77893183
C      89.99718402      86.38209571      85.18622733
N      89.07310785      84.18434401      84.42655734
H      89.01452633      83.88387752      82.54438993
H      88.06210427      83.06562603      85.59818767
N      90.47717450      87.98269389      83.32673664
H      90.22773063      87.26459790      81.57685007
H      91.02897458      89.77604417      83.67822573
C      89.09200511      83.10908973      98.52580536
O      87.16259455      82.01115875      98.79225677
N      90.26930460      84.29205840     100.42875976
H      91.69415824      85.48447571      99.98656381
C      89.39247159      84.25615360     103.17831154
H      88.02053029      82.74059310     103.42964514
C      91.72439387      83.67978708     104.72221795
H      91.52219315      84.34875019     106.65918741
H      93.34766877      84.63598859     103.89073837
C      92.41414397      80.81874144     105.02079470
H      90.99118006      79.74348717     106.05069554
C      92.92625980      79.57152208     102.47722308
H      94.37945933      80.71291677     101.56637500
H      91.33699997      79.43357205     101.17142220
H      93.42325782      77.59108890     102.75123340
C      94.86322927      80.42189892     106.39651546
H      94.39835660      80.79039555     108.36938973
H      96.53752678      81.54439635     105.96754759
H      95.47928005      78.48114999     106.09604898
C      87.97517686      86.69390055     104.14018225
O      86.81866436      86.71846699     106.18864557
N      88.31154814      88.72913579     102.70021080
H      88.89358385      88.47024328     100.90119135
C      87.01141644      91.17444164     103.19153963
H      85.91159573      90.95334366     104.92063921
C      89.20916814      93.09818302     103.70365546
H      90.50174094      92.83173161     102.12195454
H      90.18804637      92.63331035     105.45543176
C      88.26808444      95.84773481     104.10805690
H      86.69016297      95.95733894     105.42708587
H      87.90147753      96.57905889     102.21833058
C      90.46205669      97.47100971     105.17764199
H      92.02486035      97.31416243     103.84538493
H      90.98173142      96.67354521     107.00311760
C      89.56632642     100.16575943     105.37606325
H      88.14714195     100.09772929     106.86894703
H      88.39091665     100.81771501     103.81325960
N      91.46361163     102.02336040     106.17730721
H      92.48217412     102.47689471     104.62773164
H      92.61634468     101.39597126     107.56247659
H      90.58110945     103.66364284     106.59682645
C      85.27286823      91.72813145     100.89363244
O      85.85679366      91.00058682      98.78091842
N      83.14314668      93.10763166     101.17709139
H      82.88803363      93.79927149     102.93831631
C      81.26286900      93.76147696      99.31760070
H      80.38792571      92.04560547      98.58816634
C      79.03488167      95.09940319     100.43253921
H      79.83423590      96.75480344     101.36417428
C      77.14893481      96.02914853      98.21589026
H      75.41794551      96.67921439      99.12673833
H      76.71807721      94.37563801      97.06315721
H      77.98608357      97.66754125      97.28992436
C      77.85191300      93.44022349     102.51501762
H      79.17283169      92.93566656     104.01168086
H      77.06389713      91.66577048     101.82715723
C      75.75053734      94.70634012     104.05703428
H      75.02488244      93.39298033     105.47054956
H      74.16883642      95.13908744     102.81359438
H      76.41572100      96.28804104     105.19653926
C      82.35324108      95.31105254      97.16520242
O      83.34723712      97.32550079      97.62629564
N      82.39481506      94.32083595      94.78603699
H      81.31389161      92.78826791      94.43076844
C      83.15448504      95.48301763      92.38230512
H      83.69116731      97.43888436      92.74135312
C      85.36735455      93.92210370      91.16343166
H      86.55410267      93.61029885      92.81694218
H      86.52008760      95.11830045      89.94644790
C      84.92326886      91.38798071      89.88786640
C      85.03287299      91.14987519      87.33862559
H      85.51853265      92.80527545      86.25014323
C      84.55666196      88.75181250      86.20478980
H      84.67760444      88.46268438      84.18845183
C      83.79888171      86.74492316      87.61452564
O      83.60423990      84.51882556      86.37108573
H      83.19983847      84.72102628      84.61364026
C      83.61746798      86.96413141      90.29604728
H      83.07700626      85.33896678      91.40720634
C      84.25997493      89.27904614      91.44311114
H      84.38091741      89.30928177      93.48023611
C      80.80177578      95.71923342      90.81005283
O      78.65504668      95.43199502      91.68121666
N      81.23452310      96.70378083      88.51592508
H      82.99763775      97.39353093      88.28159902
C      79.09346319      97.26880900      86.70556727
H      77.50231363      96.33717392      87.62775372
C      78.52276584     100.07883202      86.44667477
H      76.90327039     100.22056150      85.18433759
H      80.12714348     101.00857737      85.54905478
C      78.02009864     101.73801173      88.89576007
H      79.83045645     101.93076381      89.86141022
H      76.96374163     100.45677729      90.11463355
C      76.71996694     104.25323745      88.28537847
H      77.92183287     105.20188006      86.90776800
H      76.58579637     105.33983008      90.02770613
C      74.23308711     103.79403396      87.17799885
H      72.91405815     103.40475033      88.71056689
H      74.06868092     102.17831796      85.91188222
N      73.27310614     106.15997130      85.96668429
H      71.54211684     105.79525412      85.25047801
H      74.40694193     106.73822755      84.54561011
H      73.29011368     107.58293521      87.23847009
C      79.33156870      95.69277725      84.29616623
O      81.48396697      95.16176416      83.55728325
N      77.29822319      95.25247102      83.02249069
H      75.62581540      95.83261700      83.73680724
C      76.99397726      93.77281532      80.87009242
H      78.50575831      92.38386648      81.03449861
C      74.41828029      92.34607195      81.03827806
H      73.02366227      93.66132146      80.28427726
H      73.97041515      91.74702871      82.95824000
C      74.46741317      90.04249558      79.43767987
O      75.80911886      88.15843844      80.00837723
O      73.39026918      90.08595928      77.37787819
C      77.49853418      95.13530799      78.34541807
O      77.32845881      97.47667889      78.22069613
N      78.05033426      93.65187283      76.30262393
H      78.35646993      91.77537460      76.48403766
C      77.97663494      94.75925245      73.74393449
H      79.18983923      96.42221161      73.77417012
C      79.14070635      92.76370147      71.90523079
H      78.63614942      93.22101523      69.96070242
C      81.99419308      92.37252812      72.28506579
H      82.79543704      94.25469553      72.03751163
H      82.87669527      90.91932858      71.12099438
H      82.44961712      91.80561023      74.21069689
O      78.06734180      90.35807987      72.28884523
H      79.39203995      89.12786804      72.45514116
C      75.22330370      95.56427586      72.90300629
O      74.97008037      97.19510967      71.26839302
N      73.33924657      94.51547776      73.93668658
H      73.72286101      93.13219810      75.19335459
C      70.68796055      95.55293750      73.96881193
H      70.42150914      96.32583557      72.07530617
C      68.91728699      93.38164197      74.37699281
H      68.40895062      93.32117073      76.37254380
H      69.72797958      91.60718896      73.72125779
C      66.53434211      93.51203309      72.87655012
H      65.31924809      95.16554361      73.06363303
H      65.20586451      92.00403149      73.32441525
C      67.16551070      93.55549679      70.06085791
O      68.10281495      91.53537936      69.15189955
O      66.84803668      95.48490736      68.72104196
C      70.21741870      97.72423304      75.98514990
O      68.10659441      98.77114142      76.24215269
N      72.06179158      98.41398314      77.53850493
H      73.83624459      97.89241868      77.06418364
C      71.86903949     100.49268209      79.33752438
H      71.10747979     102.21800221      78.50604480
H      73.79467061     101.04259244      79.81562514
C      70.89772017     100.05237586      82.05495082
O      70.72764480     101.87785147      83.43256131
N      69.97175428      97.77714537      82.66533243
H      69.87159878      96.61685342      81.15355138
C      68.92484590      96.96267333      85.08607183
H      67.56802241      98.35540163      85.76448357
C      67.30157100      94.49469077      84.56450736
H      66.16395576      94.12430441      86.24258434
H      68.62626914      92.98857890      84.09585524
C      65.24365904      94.54004420      82.46691115
C      65.41373441      92.70700968      80.51482387
H      66.81780106      91.22735397      80.47136018
C      63.44652932      92.69000214      78.78383457
H      63.39172725      91.16877246      77.42512135
C      61.41696326      94.44177843      78.86509280
O      59.77668082      94.45689624      76.84497537
H      58.65985257      95.85718344      77.11709597
C      61.29791050      96.26347460      80.75859858
H      59.76534246      97.60140083      80.93245340
C      63.16684982      96.35040201      82.55005912
H      62.88717033      97.66943097      84.08451688
C      70.96386059      96.36363009      87.17043996
O      73.10869996      96.10473759      86.53927136
N      70.17962417      96.09906841      89.55338484
H      68.35036910      96.41087325      90.00124996
C      72.02021760      95.09751346      91.43744197
H      73.78333225      96.12552458      91.16721111
C      71.01110375      95.98001565      94.06794099
H      72.11470392      95.28459637      95.66287001
H      69.12326716      95.16176416      94.15675813
C      71.03000101      98.86562773      94.15675813
C      68.67540203     100.20733341      94.42509927
H      66.84236750      99.40797918      94.83139042
C      68.86248493     102.87373724      94.19077320
H      67.09559083     103.88096137      94.33817185
C      71.15472295     104.13229497      93.96778550
O      71.20952501     106.71555083      93.68999573
H      69.48420489     107.27679955      93.66920874
C      73.39971781     102.79814819      93.80526904
H      75.04944888     103.99056549      93.66731902
C      73.37137191     100.17898752      94.05282318
H      75.12503793      99.13774832      93.96967523
C      72.39816286      92.21379111      91.30705085
O      70.58591533      90.76437103      91.07650424
N      74.74331322      91.54293827      91.33350702
H      76.12470315      92.80905490      91.70389338
C      75.63904349      88.86519608      91.08217343
H      74.14426998      87.57829246      91.68121666
C      76.45729498      88.05261377      88.32128327
H      78.15615894      89.17322147      88.00758870
C      76.94862382      85.31629007      88.07750859
H      77.50420336      84.87976329      86.14242884
H      75.41038660      84.07285015      88.65198538
H      78.60969325      84.91188864      89.22835191
O      74.22930766      88.57795768      86.83406866
H      74.31245562      90.36752850      86.54871999
C      77.85191300      88.29449874      93.02670180
O      79.06322757      90.19745313      93.78259232
N      78.28466033      85.96446619      93.82983548
H      77.31334100      84.56228927      92.97189973
C      80.02698799      85.00070577      95.72145151
H      81.83356634      85.97580455      95.53814807
C      79.25220020      85.35408459      98.49368003
H      79.23141321      87.36664312      98.92831707
C      76.64437789      84.41678034      98.93209652
H      76.20974084      84.89866055     100.88796325
H      76.41383128      82.44957525      98.36517864
H      75.35369482      85.54683668      97.79448128
C      81.13247788      84.26749196     100.57048923
H      83.10724188      84.21080017      99.98845353
H      80.42005106      82.47414169     101.28858523
C      81.15704432      85.86809015     102.89107315
H      82.35513081      87.40632737     102.22777921
H      82.30599792      84.97047015     104.34616242
H      79.29755363      86.53894299     103.46743968
C      80.76965043      82.25115399      95.08272403
O      79.57345367      81.12865656      93.35740390
N      82.61402331      80.88488186      96.21089063
H      83.93305228      81.88454708      97.16142296
C      83.09212407      78.17879378      95.96333648
H      81.19294912      77.45691833      96.30348722
H      84.25241602      77.26605597      97.39952848
C      84.03509750      77.58352999      93.35929362
O      85.63569568      79.01405281      92.42576883
N      83.04866036      75.57286120      92.28592908
H      81.87514032      74.56563707      93.40275733
C      83.57211455      74.69413846      89.75936501
H      85.12924903      75.71081122      88.87308336
C      84.35068179      71.84821063      89.99369107
H      82.87291582      70.79374335      90.96501038
C      84.92704832      71.05074613      87.33106668
H      85.50908402      69.07787186      87.20445502
H      86.32166634      72.27717851      86.44100560
H      83.17338230      71.18680642      86.26148159
C      86.68827324      71.58175922      91.74168790
H      86.31410743      72.54174019      93.52369981
H      88.33611459      72.38678263      90.80438366
C      87.11346166      68.93803211      92.63741817
H      85.64514432      68.17836213      93.86196083
H      88.80476671      68.84732525      93.81093821
H      87.59534187      67.74561481      91.02926109
C      81.13625733      75.44813926      88.35340862
O      79.33723788      74.06863905      87.98869145
N      81.16460323      77.74604646      87.31783860
H      82.61969249      78.86098498      87.85641061
C      79.06700702      78.60398220      85.74180685
H      79.03866113      77.44746970      84.03727373
H      79.58668176      80.50315715      85.13709443
C      76.45918471      78.67957126      87.13831461
O      74.62237073      78.92712540      85.66621781
N      76.19651275      78.65500481      89.55149510
H      77.81033902      78.39422258      90.53793225
C      73.83057541      78.60776166      91.00658437
H      72.58524577      77.26605597      90.06361093
C      74.24064602      77.75738481      93.72401081
H      75.71652227      78.92145622      94.56493901
H      75.12692766      75.90356330      93.56905324
C      71.97486417      77.61187589      95.33027817
N      70.47442148      75.45947762      95.03548087
H      70.96952977      73.94769657      93.97723414
C      68.54312118      75.78073109      96.55104138
H      67.11259836      74.33698019      96.75891126
N      68.55445954      78.17690406      97.45999972
H      67.05590658      79.05184734      98.25935395
C      70.89016126      79.39010835      96.92142773
H      71.63282371      81.25715795      97.28236545
C      72.57012796      81.22314287      90.92532614
O      73.26176779      82.76704927      92.40687156
N      70.53111326      81.54628607      89.46645742
H      70.14938855      80.29150780      88.08128804
C      68.96830960      83.76104531      89.59306908
H      70.24387487      85.29172362      89.07339434
C      66.91984628      83.35853361      87.62019481
H      65.73687761      81.80139912      88.26648121
H      67.80045874      82.77082872      85.85330071
C      65.05090696      85.62620518      86.97768787
H      64.44430481      86.49925874      88.74269225
C      66.34725921      87.63309453      85.22402185
H      66.52867293      86.75248206      83.37020033
H      68.28989786      87.93545074      85.83818290
H      65.19641588      89.33573793      85.07662319
C      62.80780182      84.65299613      85.48669380
H      61.55302355      86.08351895      84.70056766
H      61.62861260      83.91600287      87.00414403
H      63.41818342      83.05806712      84.33396075
C      67.82124573      84.24859470      92.10829480
O      66.43040717      82.65744514      93.08150385
N      68.40328144      86.42177996      93.22323334
H      69.40483638      87.52726985      92.03270575
C      67.83069436      87.02082320      95.77814330
H      67.76077449      85.28983390      96.89308184
C      69.71097204      88.61575221      97.20110722
H      69.81301727      90.38831549      96.15797829
H      71.55723465      87.74836783      96.90630992
C      69.36515213      88.98613857     100.00546107
H      67.64172173      90.05761339     100.35506043
C      69.25932746      86.41611078     101.36984347
H      67.65872927      85.14432497     101.12984822
H      69.49176379      86.69012110     103.39940953
H      71.00732430      85.50148325     100.77457967
C      71.54022712      90.35430042     101.06559753
H      71.83502442      92.19300412     100.18120562
H      73.14460476      89.06739680     100.97300094
H      71.30779078      90.61886210     103.09516360
C      65.29279193      88.20568160      95.93688031
O      63.61849441      87.70868358      97.47133808
N      64.90161858      90.11052572      94.24557526
H      66.35481811      90.47524290      93.06071687
C      62.63205728      91.88497873      94.10951497
H      60.86516317      90.86641625      94.40053282
C      62.61693947      94.11296605      96.16931665