 %block lattice_cart
   137.793   0.000   0.000
   0.000 143.498   0.000
   0.000   0.000   162.326
 %endblock lattice_cart

 %block positions_abs
N      84.88263975      39.07185259      78.20746804
H      83.57872859      39.64066021      76.93568224
H      84.28359651      37.49015167      79.09563941
H      86.43599478      38.62776691      77.19079530
C      85.61774328      41.11086729      79.96302379
H      87.05015583      39.97892122      80.91733559
C      86.64953385      43.34830324      78.53628043
H      85.11129663      44.27426913      77.52905630
H      87.56605111      42.90232783      76.74670960
C      88.38808206      44.98480623      80.19734985
H      89.87529667      43.82073483      81.01182189
H      87.21834147      46.18856189      81.39354661
S      89.75057473      47.49814222      78.40022013
C      92.29981553      48.70000816      80.38632248
H      93.62073422      47.14476340      80.66789171
H      91.48723321      49.43511170      82.13053987
H      93.41475405      50.09462618      79.35831137
C      83.55605188      41.95746467      81.71857954
O      81.51703718      42.77571617      80.94946092
N      83.98690948      41.86675781      84.14309839
H      85.65742754      41.26015566      84.83662795
C      82.15765440      42.74926000      85.95723565
H      80.45501100      41.63243175      85.63598219
C      83.28582101      42.28060788      88.44789493
H      85.13586307      43.18389706      88.54049152
H      83.74880396      40.28694662      88.68600045
C      81.69089201      42.97791688      90.80249392
O      79.43455879      43.60719574      90.84784735
N      82.85685314      42.50170585      92.87363396
H      82.11419070      42.84941550      94.59706436
H      84.68043903      41.94423659      92.77347846
C      81.22790906      45.39109738      85.62464382
O      82.71323394      47.15043259      85.43189175
N      78.75425731      45.93344885      85.49425272
H      77.64687770      44.39143216      85.31094925
C      77.83396060      48.43355675      84.70434712
H      78.88275870      48.80583284      82.97146808
C      74.94456907      48.46190264      84.23947443
H      74.45512995      47.01437230      82.85808450
C      73.40066267      47.70412239      86.60163232
H      71.53928225      47.08807162      85.97046375
H      72.97736398      49.39920689      87.69200441
H      74.37765117      46.24147423      87.67499687
C      73.77860793      50.94689274      83.21902223
H      74.20946553      52.61174164      84.35663747
H      71.72069598      50.83350918      83.26248594
C      74.59496970      51.46089831      80.49781633
H      76.63965357      51.27759486      80.31451288
H      74.33796692      53.39219859      79.82696350
H      73.52349488      50.33651115      79.14477229
C      78.43489357      50.42532828      86.70367755
O      78.63331483      52.69299987      86.14431856
N      78.78071348      49.81305697      89.14898340
H      78.59174085      47.93466901      89.43433208
C      79.22290944      51.39475789      91.32783783
H      78.56717441      53.33361709      91.09729122
C      78.21946477      50.15131797      93.88841700
H      78.99236283      51.31916883      95.39641860
H      78.84118473      48.19923069      94.10195606
C      75.32251433      50.06061110      94.42320953
C      74.07340524      52.19600184      95.58350149
H      75.19401294      53.81360756      96.12774267
C      71.49203909      52.06939017      96.16175775
H      70.79095063      53.52636916      97.40519767
C      69.98781695      50.12297207      95.16965143
H      67.98281733      49.89053574      95.46822819
C      71.20102124      48.19923069      93.77314368
H      70.04450874      46.63264757      93.15709290
C      73.82207164      48.17277452      93.38574979
H      74.80661905      46.66855238      92.42387910
C      81.95923314      52.07883881      91.33539674
O      82.86819150      53.76447468      92.65253599
N      83.56172106      50.82972971      89.80471843
H      82.88708876      49.42944252      88.69544908
C      86.23568379      51.44200104      89.52503893
H      86.63441604      52.81583208      91.00847409
C      87.69644223      48.90409861      89.93510955
H      89.68821376      49.41999388      89.84251296
H      87.32038669      47.62664361      88.36285725
C      87.23912846      47.62664361      92.52214487
H      88.79248349      46.27359957      92.57505720
H      85.29271036      46.95390106      92.50513734
C      87.60951482      49.55227473      94.78414727
O      85.74246522      50.04927276      96.08049951
O      89.61262471      50.69177969      94.95800209
C      86.94244143      52.62307999      87.04949747
O      88.59406223      54.28981859      86.99847485
N      85.41365284      51.98435249      85.11252799
H      84.31383213      50.54816050      85.72101987
C      85.36263023      52.87063414      82.52927212
H      87.32227642      52.64575670      81.93589807
C      83.71289916      51.19444689      80.91166640
H      81.77026051      51.77270314      81.28394248
H      83.79793684      49.17999864      81.34441372
C      84.30438350      51.54971545      78.17534270
H      86.31505229      51.17365990      77.93534745
H      83.88108480      53.42999312      77.45157752
S      82.66032160      49.14031440      76.15900473
C      83.40298404      50.07572891      73.10520700
H      85.40231448      50.20612003      72.63088570
H      82.62819626      51.94655796      72.73293091
H      82.63197571      48.59418349      71.90145134
C      84.46312051      55.63530373      82.29494606
O      85.95411457      57.15464368      81.33685483
N      82.35418594      56.35906891      83.46846610
H      81.23546796      55.08350364      84.33962993
C      81.49058102      58.83838984      83.46468665
H      81.52837554      59.59428035      81.54850416
C      78.63142510      59.10484125      84.40199090
H      78.25914902      61.13062786      84.33396075
H      78.36686342      57.98990271      86.11408294
C      76.47902683      58.15997808      82.53494131
H      76.70390427      56.13608120      82.21368784
C      73.95057303      58.36406852      83.82184492
H      73.34397088      60.31237635      83.53649626
H      74.16222237      57.80470954      85.79282946
H      72.53516802      57.24913000      82.82217970
C      76.73602961      59.57160364      80.05562038
H      78.09663256      58.69477063      78.78194484
H      77.00248102      61.56148545      80.51293415
H      74.96724578      59.29570360      79.03327844
C      83.21590114      60.49001064      85.06528483
O      83.28015183      62.78035893      84.76103890
N      84.41965680      59.41475635      86.99847485
H      84.40453899      57.52503004      87.27815435
C      86.06749815      60.86795589      88.75592032
H      85.00925141      62.47611299      89.48913414
C      87.03881747      58.98011931      90.84784735
H      88.66587183      58.02580751      90.02392668
H      85.48924189      57.63085471      90.98390765
C      87.72478812      60.05915303      93.41031623
H      86.02403444      60.99078810      94.10195606
H      89.23467945      61.44621215      93.21567443
C      88.31438273      57.97667463      95.21500486
H      88.97200749      58.84027955      96.96489143
H      89.84317132      56.81827241      94.46856297
N      86.31505229      56.04537434      95.90097551
H      86.41898724      54.46556315      94.83516987
C      84.81460960      56.18899355      97.89841622
N      84.76736644      58.05226368      99.41586645
H      83.78281903      57.76502528     101.02591327
H      85.50058025      59.76813517      99.01902393
N      83.52770598      54.24257543      98.56171016
H      82.30883251      54.34462066     100.02813778
H      83.74313478      52.55504984      97.69621551
C      88.27091903      62.27013281      87.66554824
O      89.24601780      64.10883651      88.71812580
N      88.91531570      61.51613201      85.27504445
H      87.73045730      60.50134898      84.17711347
C      91.04692698      62.87673496      83.86530862
H      91.80659696      64.29780915      85.14843279
C      93.25412731      61.15330456      83.41555376
H      94.96999881      62.14352116      82.85241532
C      93.81726576      59.72089202      85.88353634
H      92.61917927      58.10706574      86.33140146
H      93.58482942      60.97567030      87.50114206
H      95.82793455      59.27491661      85.94589729
C      92.76279847      59.22011455      81.17055890
H      92.82893889      60.29725855      79.41689288
H      91.13007494      57.97667463      81.35008290
C      94.94543236      57.41920538      80.92300475
H      96.86917375      58.13163219      81.11953630
H      94.90574811      56.64252785      79.01627090
H      94.73756247      55.82616608      82.21368784
C      89.99623915      64.31103724      81.57496034
O      91.47022568      65.38440178      80.09341491
N      87.45455726      64.71354893      81.40677469
H      86.30938311      64.19954338      82.84296670
C      86.28670640      65.92108405      79.12965449
H      87.44699835      65.49400590      77.48370286
C      83.57494914      64.90630103      78.84997499
H      82.38064211      65.91919432      80.18790123
H      83.66754573      62.87484523      79.17122846
C      82.56016611      65.63006620      76.28750611
O      80.68366788      66.92263899      76.10609238
O      83.53715461      64.58882700      74.39022089
C      86.33394956      68.75000435      79.35831137
O      86.46623040      70.12383537      77.51960766
N      86.61929823      69.70620586      81.65999802
H      86.57583452      68.54969336      83.17555852
C      86.66087221      72.34993298      82.39321184
H      87.46211617      73.48187904      80.87009242
C      83.98124030      73.27400914      83.01871124
H      84.12296977      74.44186000      84.71001630
H      82.88141958      71.56947600      83.37586951
C      82.62819626      74.61949428      80.83607734
H      80.60051992      74.54768467      81.18945616
H      83.07228194      73.58392425      79.11264696
C      83.65053819      77.24432413      80.20868821
O      84.58217326      77.62793857      78.09030501
O      83.69967108      78.89783465      82.01526656
C      88.43910467      72.62205356      84.74970054
O      89.05515545      70.72476835      86.04416306
N      89.13641368      74.96531418      85.28827254
H      88.61673894      76.42040345      84.16955456
C      90.48000909      75.77789651      87.64665098
H      91.27369414      77.65439473      87.34807422
H      91.99934904      74.47020590      88.11908255
C      88.66776155      75.78545541      89.88597667
O      86.42465642      76.43930072      89.72157047
N      89.60506580      75.16373546      92.18388385
H      91.49857157      74.93696829      92.14419960
C      88.15564572      75.25822177      94.55360065
H      86.13930775      75.46042248      94.18321429
C      88.59784168      72.79590839      96.09561732
H      90.61228993      72.50111107      96.41120163
H      88.04604160      71.21420746      94.89375139
C      87.05582501      72.29324118      98.57682798
H      85.06594320      72.60504603      98.14974983
C      87.02936884      69.52101269      99.26090890
H      88.83216774      68.97677151     100.09427820
H      86.58528316      68.42497142      97.57338330
H      85.56105149      69.05047083     100.62718102
C      87.98746008      73.85982429     100.66875500
H      90.00568778      73.45164342     100.64607829
H      87.25424627      73.38361327     102.53580460
H      87.69077305      75.87994172     100.40230359
C      88.97011776      77.57691596      96.04648445
O      91.12062631      77.62604884      97.05559829
N      87.28259217      79.41561966      96.31860504
H      85.64419945      79.29467718      95.34728571
C      87.77959019      81.79667480      97.65275180
H      89.82238433      81.77399809      97.91731350
C      87.07661200      84.22686284      96.10695569
H      87.71344976      85.83879939      97.21811476
H      85.01681032      84.15316352      96.12018376
C      88.32572109      84.55567523      93.42165459
H      90.37796387      84.50843207      93.58795050
H      87.80604635      86.42461454      92.72434558
C      87.54715385      82.55634479      91.50925156
H      85.50813916      82.27099612      91.48090568
H      88.46556084      80.78378151      92.01758795
N      88.20477861      83.32168395      88.90331897
H      89.56538155      84.63882319      88.66710319
C      87.34873259      82.31445982      86.79438441
N      85.62341246      80.48709448      86.66210358
H      85.20389322      79.76521903      84.94623207
H      85.51758779      79.49876762      88.29293739
N      87.84573061      83.34436066      84.62119915
H      87.11440652      82.71697153      82.97335780
H      88.66776155      85.06590134      84.66088340
C      86.81394004      81.92706593     100.37395770
O      84.81649933      80.65339039     100.81615365
N      88.12541010      83.41428054     101.96510725
H      89.69388294      84.28922381     101.31882085
C      87.56983057      83.68829084     104.72977685
H      86.26969886      82.21430433     105.34771736
C      89.92820900      83.01554829     106.49856067
H      89.19688492      83.35002984     108.39395617
H      91.48345376      84.32701834     106.17730720
C      90.91275641      80.21497389     106.44942779
H      92.40564020      80.12237730     107.86861226
C      88.89263898      78.10981878     106.65918741
H      89.81104597      76.29757124     106.99177925
H      87.77392101      78.00966328     104.93386729
H      87.78714909      78.43863115     108.36561027
C      92.43209637      79.48742925     104.09671853
H      93.20877388      77.58636458     104.23844800
H      93.99301030      80.79323014     103.77168561
H      91.29070168      79.37026623     102.38651622
C      86.37174408      86.24887001     105.41763722
O      85.45711655      86.44351182     107.52657179
N      86.29615503      88.21418537     103.71121437
H      87.01992021      87.91560861     101.96888671
C      85.01114114      90.58201243     104.09482880
H      84.11163141      90.59335080     105.94676060
C      86.85362429      92.77976415     103.61294859
H      85.70656042      94.48996646     103.63184587
H      87.79848745      92.72874153     101.78369353
C      88.83594719      92.59268124     105.85983318
H      90.06804875      90.95050907     105.68786809
H      88.10840256      92.75330797     107.77979511
C      90.38174332      94.87547063     105.24945159
H      89.27625343      96.61212911     105.25890021
H      91.17353864      94.66193155     103.35972528
C      92.35272786      95.48396250     107.22799503
H      93.83994247      94.07233693     107.04658131
H      91.52691746      95.28176178     109.10449327
N      93.56782188      98.03320330     106.90674157
H      92.41319911      99.54309462     107.06925802
H      94.24056445      98.20138893     105.12850910
H      95.02669060      98.23729374     108.11805612
C      82.78693327      90.93539125     102.33927307
O      82.68488805      89.70895889     100.40041387
N      80.95956792      92.55110726     102.91752931
H      80.92933230      93.64147933     104.48222270
C      78.77504430      92.98007512     101.05992835
H      77.94545445      91.14893034     100.61017349
C      76.60941795      94.65626237     102.18809495
H      77.36719820      96.33055988     103.11784031
C      74.55339572      95.43293988     100.22277959
H      75.30550679      96.53842977      98.65619648
H      73.02838659      96.57622430     101.00512629
H      73.70301888      93.76998072      99.35728495
C      75.35274995      93.21818065     104.39718501
H      76.88153854      92.87047100     105.73133180
H      74.56851353      91.47018381     103.63940476
C      73.20035168      94.46540002     105.82770783
H      73.27405101      93.97596090     107.82892800
H      71.44668566      93.87013622     104.92441866
H      73.54995105      96.48740717     105.64251465
C      79.85218830      94.06288831      98.67698348
O      80.87641996      96.11324135      98.69966018
N      79.85407803      92.69283674      96.51135711
H      79.16999710      90.92972209      96.77591879
C      80.66099116      93.45439644      94.02069783
H      81.28082140      95.41404263      94.18132457
C      82.77937436      91.50230916      93.19866688
H      84.01147592      91.03932620      94.78225753
H      84.10974169      92.41693668      91.92121190
C      81.82506257      89.10235674      91.98546260
C      82.15576468      88.70173476      89.49102387
H      83.12141482      90.23052335      88.54616070
C      81.56050089      86.41516592      88.28726821
H      82.06883727      86.15816313      86.32762202
C      80.50036443      84.48764508      89.72157047
O      80.33406851      82.03100088      88.95623131
H      80.98602409      81.98753717      87.26303653
C      80.16966232      84.88637734      92.33695169
H      79.38542590      83.38971410      93.48212583
C      80.72146241      87.19751262      93.44811076
H      80.59863020      87.29010921      95.48523572
C      78.53504906      93.80399580      92.09884617
O      76.31273092      93.70950948      92.93788465
N      78.93567104      94.13469790      89.57795128
H      80.76870556      94.35390616      89.09040188
C      76.83051593      94.68649799      87.79215990
H      74.94834852      94.14603627      88.43277713
C      76.61130768      97.47573403      87.11563788
H      74.91811290      97.75352380      85.97424319
H      78.13820654      98.01430602      85.84385208
C      76.24848022      99.33144526      89.22457246
H      77.42011054      98.90058767      90.86107544
H      74.29072376      99.17648772      89.84818214
C      76.73602961     102.09422514      88.52537372
H      75.45857463     102.72161428      87.03626938
H      78.65977100     102.46650123      87.89042568
C      76.19745761     103.70427195      90.98201792
H      77.52026603     102.79342388      92.26892154
H      74.23781143     103.28286299      91.45444950
N      76.68689673     106.38012441      90.50958635
H      78.51993125     106.69381899      90.07872874
H      76.14832473     107.36467183      92.05538246
H      75.87242469     107.08499233      88.93355460
C      77.14232077      93.33534368      85.26559582
O      79.28716014      92.90826553      84.38876281
N      75.02582730      92.47740794      84.12231140
H      73.49136953      92.90070662      85.17488896
C      74.78961151      91.28310090      81.68078501
H      76.34674599      89.94517468      81.52960690
C      72.42556389      89.60313421      81.82440422
H      70.62654444      90.59713025      81.95101587
H      72.45579951      88.26520797      83.38909759
C      72.48414541      87.85891683      79.60019635
O      71.11031438      88.23119291      77.72747757
O      73.98080865      86.08824327      79.60586551
C      74.92189235      93.04243609      79.39799562
O      74.50804229      95.30632823      79.69657238
N      75.31684515      91.97096128      77.06985280
H      75.62864999      90.08879388      77.04339663
C      75.29794789      93.32211559      74.68690792
H      76.43745286      95.00964119      75.00060249
C      76.50548300      92.02198388      72.30207332
H      76.14643500      92.85913265      70.45392098
C      79.36652864      92.45851067      72.63844461
H      79.61975197      94.50130481      72.60065008
H      80.43422401      91.38703584      71.24004713
H      80.12430889      92.00686608      74.49793529
O      76.15588363      89.45006638      72.24727126
H      77.30294751      88.58457173      71.13989163
C      72.64855160      94.22351504      73.99715783
O      72.33863648      96.16237424      72.64978296
N      70.71725131      92.96873677      75.14233196
H      71.21046987      91.31900570      75.96625264
C      68.11509817      93.86068760      75.40689365
H      67.64077687      94.82066855      73.64944818
C      66.27450474      91.70639960      75.55240258
H      64.45658803      92.65882165      75.72058821
H      66.49938218      90.55744599      77.24559736
C      66.25371775      90.06422742      73.20347277
H      67.96580979      88.91716356      73.11654536
H      66.23482049      91.46073517      71.68602255
C      63.81219136      88.40126828      72.80663024
O      62.08309178      89.60313421      71.80696502
O      63.81975026      86.15627342      73.53417487
C      67.69179948      95.86757694      77.55740219
O      65.51105531      96.73118186      77.98825979
N      69.59853333      96.95039012      78.78572429
H      71.28983838      96.06977765      78.71391469
C      69.51916482      99.19349525      80.25593138
H      68.33808588     100.62968724      79.37153946
H      71.42400895      99.97962139      80.21813685
C      68.52705851      98.76830682      83.00170370
O      68.13021598     100.47283997      84.47757995
N      68.29840163      96.30221399      83.84452163
H      68.65178045      94.92082405      82.57651528
C      67.07574870      95.49908031      86.21045899
H      66.10253965      97.09211959      87.08162282
C      64.87232782      93.57911838      85.82306508
H      63.67991052      93.61691289      87.50114206
H      65.74160192      91.73474549      85.52826778
C      63.09409536      94.08934448      83.56295241
C      62.36844045      91.96151264      82.06817890
H      63.22259675      90.13225757      82.36108649
C      60.77729090      92.40181888      79.99136968
H      60.32942576      90.80877960      78.79517293
C      59.77195650      94.79232267      79.47547440
O      57.84443566      95.18349602      77.61787343
H      57.69136783      96.93905176      77.18701583
C      60.62422307      96.85212435      80.89654859
H      59.83998665      98.71539449      80.61308965
C      62.30041031      96.45717155      82.89776876
H      63.08842618      97.87068683      84.13931894
C      68.83130445      94.66571101      88.22490724
O      70.49048415      93.09912789      87.74113730
N      68.54217632      95.74474473      90.57194732
H      67.08897678      96.93338257      90.91209804
C      70.13143615      94.72240280      92.48246061
H      72.10431042      95.21562135      92.14419960
C      69.23381615      95.90915091      94.90131030
H      69.81396213      94.75641787      96.50946738
H      67.19102201      95.77120090      95.13185690
C      70.13710533      98.61901845      95.27925555
C      68.43068247     100.65425369      95.36996242
H      66.46914655     100.23851389      94.99579662
C      69.32074356     103.20727394      95.33594734
H      68.02061186     104.75684951      95.07138566
C      71.88132271     103.71938977      95.52680970
O      72.58997008     106.10800382      95.02981168
H      71.11976301     107.16058139      94.87107468
C      73.59341475     101.66525727      95.62318575
H      75.61920136     101.89769361      95.61184739
C      72.66744886      99.14058291      95.50224327
H      73.90710932      97.60234569      94.99768633
C      69.72892444      91.70450987      92.97189973
O      67.54629055      90.82956658      92.84150861
N      71.74904187      90.39681925      93.43488267
H      73.33452225      91.46073517      93.50102309
C      72.34430566      87.64537775      93.39708815
H      70.52827867      86.82523653      93.91487317
C      72.85453177      87.03310642      90.58139594
H      74.44001214      88.26142852      90.12030273
C      73.42522911      84.32134917      89.86518967
H      71.69801926      83.21396954      90.05038285
H      74.78205260      83.61270180      91.24657960
H      73.96002166      84.36859233      87.87530786
O      70.77772255      87.82301202      89.14709367
H      70.79850954      89.60124448      88.78804567
C      74.60441833      87.00853998      95.26035830
O      76.10108157      88.65449159      96.04459472
N      74.54205736      84.69551498      96.27703105
H      73.17200579      83.49175931      95.71011316
C      76.23525214      83.83002033      98.32738410
H      77.82829142      85.13582120      98.38029643
C      74.85953138      83.77332854     100.93142696
H      74.03183126      85.63659868     101.21110645
C      72.68445640      81.88927140     101.04859000
H      71.56195897      82.18028926      99.34594658
H      71.68290145      82.06123650     102.84194026
H      73.58585585      80.03922934     101.12795850
C      76.70012481      83.55789974     103.13106838
H      77.56372974      81.68896041     103.03091290
H      75.78927673      83.51443602     104.97922072
C      78.77693403      85.60258361     103.06492796
H      77.93033664      87.47719211     102.93264713
H      80.28682535      85.35313973     101.68731748
H      79.60463416      85.65927540     104.95087482
C      76.90232553      81.10503497      97.66597989
O      75.58707601      79.72553477      96.34317147
N      79.21912999      80.24520951      98.46722384
H      80.53437950      81.38849393      99.24201163
C      79.90888009      77.57313649      98.31037656
H      78.36875315      76.25788698      98.68643210
H      81.44333786      77.05535149      99.58216237
C      80.67799870      76.96464463      95.68743645
O      82.30127360      78.21375371      94.61596162
N      79.64998759      74.91429158      94.70099930
H      78.89409706      73.60660096      95.86885016
C      79.69534102      74.36249150      92.09695645
H      81.04082615      75.62860812      91.18610836
C      80.52682060      71.55624792      91.48846457
H      79.11330531      70.33926417      92.36718731
C      80.33217879      71.17641294      88.68789017
H      81.33562346      69.42841610      88.26837093
H      81.53593445      72.60315630      87.81483662
H      78.46323946      70.84760055      87.88664622
C      83.21968059      70.77579096      92.55238049
H      82.89275794      70.81169576      94.58383627
H      84.58595272      72.22899048      92.03459548
C      84.28548623      68.21710153      91.90609410
H      85.22090076      68.36261045      90.07872874
H      82.69055722      66.92074928      91.78704133
H      85.81805427      67.75789803      93.20055661
C      77.07240090      74.90484294      91.22012343
O      75.13354170      73.76533798      91.68310639
N      76.97224540      77.11582273      90.01447805
H      78.54260797      78.19107700      90.16565615
C      74.85197248      77.89438997      88.47435110
H      74.65355122      76.47142605      87.00036458
H      75.46235408      79.61404092      87.51625986
C      72.22714263      78.44052088      89.82172596
O      70.52071977      79.08113810      88.56316824
N      71.98147821      78.46697705      92.32372360
H      73.55373050      78.02289137      93.31016074
C      69.50215729      78.38949827      93.62196558
H      68.24170984      77.17440425      92.53726267
C      69.98781695      77.29156728      96.28647969
H      71.45991375      78.23265099      97.37874149
H      70.75693556      75.39239233      96.08994814
C      67.50282685      76.96275490      97.66220044
N      66.05907594      74.80846691      97.56015521
H      66.63355274      73.10582349      96.91386882
C      63.88400096      75.36971562      98.69588074
H      62.34576374      74.07336337      99.04359037
N      63.77250711      77.76021941      99.48011716
H      62.36277128      78.66350859     100.39474468
C      65.99671498      78.80334833      98.81871295
H      66.32174790      80.81590686      98.86406637
C      68.39288794      80.92362126      93.49157446
O      69.55506962      82.61681603      94.65564587
N      66.16868007      81.22219802      92.48246061
H      65.44680462      79.62726901      91.72468036
C      64.85154083      83.69207031      92.18577358
H      66.13844445      85.19629244      91.61885569
C      62.55552336      83.38404492      90.39242332
H      61.03051423      82.80200921      91.64531186
H      62.98449123      82.12926665      88.81450184
C      61.70136707      85.90682955      89.17921902
H      61.22704576      87.27688111      90.64375691
C      63.59676256      87.07279068      87.26303653
H      62.81063641      88.82078752      86.50336656
H      63.97659755      85.80100486      85.68889452
H      65.43924571      87.32223455      88.14742845
C      59.29196602      85.34936027      87.78082154
H      59.63589621      84.18528887      86.11408294
H      58.62300290      87.11625439      86.95879061
H      57.95026034      84.52166016      89.10551969
C      64.00305372      84.70496361      94.79359589
O      63.11488235      83.11759351      96.32238449
N      64.17879826      87.23341742      95.26791721
H      64.91768125      88.19528811      93.79582041
C      63.32086252      88.35969429      97.59417029
H      62.49883157      86.88003860      98.76769033
C      65.40712037      89.59557530      99.18720957
H      64.41312433      90.16060348     100.90308106
H      66.04962731      91.22073993      98.10250668
C      67.50471657      87.85891683     100.08482958
H      68.22470230      86.94239956      98.38785534
C      69.52105455      89.44439720     101.09205370
H      70.05206764      90.88247893      99.71444322
H      71.18590343      88.30867169     101.52102157
H      68.75193594      90.07367607     102.89485260
C      66.43324175      86.07879464     102.24289702
H      65.45814298      87.21074069     103.65830203
H      67.96580979      85.08290887     103.18964990
H      65.16712512      84.76543485     101.28480579
C      61.18358206      90.29855350      97.17465105
O      59.27495848      90.06989660      98.32549437
N      61.43680538      92.33189900      95.71767207
H      63.04118302      92.51898191      94.69721986
C      59.33165027      94.18572051      95.09217265
H      57.64034522      93.06511282      94.72556574
C      58.68536387      95.82789268      97.36362368