 %block lattice_cart
   137.793   0.000   0.000
   0.000 143.498   0.000
   0.000   0.000   162.326
 %endblock lattice_cart

 %block positions_abs
N      89.82049460      39.16444918      79.36492542
H      90.22300631      37.57518935      80.34380365
H      91.48912294      39.26460468      78.44651843
H      88.45422248      38.78272447      78.08936016
C      89.64852951      41.59463722      80.87103729
H      91.12440576      41.63432148      82.30533956
C      89.85450968      43.83018345      79.20429868
H      88.29548547      43.71868961      77.86259300
H      91.65730858      43.49003271      78.27077388
C      90.34961797      46.26415094      80.69718247
H      92.09761481      46.03738378      81.76487784
H      88.95688968      46.65721402      82.16172036
S      90.77669612      49.02882054      78.59391708
C      93.33349582      48.01214778      76.86103805
H      92.91964576      46.50792563      75.51744264
H      94.59961245      47.01815174      78.14983140
H      94.16308567      49.59951788      75.84625502
C      87.05393528      41.49070227      82.13715392
O      85.24168775      40.38332266      81.25276200
N      87.06527364      42.70957575      84.31411863
H      88.66965128      43.11208746      85.26465097
C      84.81460960      43.31239844      85.68228048
H      83.27070320      42.00092838      85.30433522
C      85.25302611      42.98925524      88.58490010
H      86.73646126      44.09474513      89.48818928
H      85.75758303      41.04661659      89.05922140
C      83.02881824      43.53538614      90.45572915
O      81.18255563      44.68622947      89.93038523
N      83.54471352      42.98169633      92.77820279
H      82.26914826      43.37853886      94.14258519
H      85.22090076      42.22958526      93.29976725
C      83.97746084      45.99769953      85.04355299
O      85.47979326      47.76459363      85.07567834
N      81.53404472      46.35863726      84.59190840
H      80.43044455      44.81284113      84.78466048
C      80.27737672      48.78126639      84.22530149
H      81.01248026      49.54282609      82.46029712
C      77.37475711      48.34284988      84.00987270
H      77.09507761      46.85374555      82.61336495
C      76.18233980      47.31105932      86.37958949
H      77.19334338      45.83896252      87.40571088
H      74.34552583      46.43233659      86.07534356
H      75.89321168      48.86441436      87.70050818
C      75.73825412      50.61241119      83.24642326
H      75.25448418      51.98246277      84.70529198
H      74.00915454      49.72423982      82.56801152
C      76.84752347      52.16198676      81.15449624
H      78.69945525      52.81394235      81.77810592
H      75.67778288      53.79282058      80.68206466
H      76.98547349      50.71634613      79.69373780
C      80.95389874      50.75603039      86.25297783
O      81.49058102      52.96889991      85.57267636
N      81.10507685      49.86785903      88.64915079
H      80.57595348      48.09340601      89.11213374
C      82.10663179      51.41743460      90.73540864
H      81.40932279      53.34495544      90.54265656
C      81.25814468      50.26281182      93.26386245
H      82.03671192      51.18877772      94.93249078
H      82.01025575      48.35040879      93.41693028
C      78.42922439      50.01525768      93.87235432
C      77.11208515      51.92766071      95.17059630
H      78.08718393      53.61329657      95.78664708
C      74.43623269      51.75002643      95.96239162
H      73.60286339      53.19188760      97.13969112
C      73.26082292      49.48802403      95.39736346
H      71.30117674      49.25558769      95.92459710
C      74.49103475      47.61908471      94.12746737
H      73.50270789      45.91644130      93.59078510
C      76.99681184      47.81561625      93.51519605
H      77.88120376      46.11297285      92.82355622
C      84.89775756      51.95600660      90.88847647
O      85.98812964      52.91031838      92.78387197
N      86.29615503      51.16799072      88.91938166
H      85.35129187      50.10407481      87.64381639
C      88.86429309      51.91632234      88.19183703
H      89.75813364      53.08417320      89.63558793
C      90.66520227      49.65620967      88.00097467
H      92.55303885      50.43288719      87.71751572
H      89.99623915      48.46001293      86.46273745
C      90.62362829      48.01970669      90.39336818
H      91.29070168      46.13187010      89.91337770
H      88.61484922      47.81183679      90.79776961
C      92.16375523      49.17243974      92.49663357
O      90.92031532      49.62030487      94.50730236
O      94.49945696      49.86030012      92.24341024
C      88.89830816      53.33361709      85.66527295
O      90.38930222      55.01736322      85.37992427
N      87.40920383      52.57772655      83.77932608
H      86.47378930      50.99413591      84.28766246
C      86.99346404      53.75502605      81.24520310
H      88.82082938      53.35818353      80.38537763
C      84.82405823      52.52670395      79.81279055
H      82.99102371      52.80827316      80.71041055
H      85.26247474      50.51414542      79.83735700
C      84.57272463      53.28637392      77.01221616
H      86.34528791      52.74402248      76.11648589
H      84.33839857      55.31405025      76.74576475
S      81.81750367      51.78215177      75.46264058
C      81.20712207      53.76447468      72.65450728
H      83.00425179      54.30493640      71.80224071
H      80.46445963      55.54459686      73.37638273
H      79.77659925      52.82528070      71.50744341
C      86.75535852      56.69166075      81.58346411
O      88.15186627      58.32627400      80.82568386
N      84.77114590      57.42487455      83.07823762
H      83.56550051      56.07372023      83.68672950
C      83.87730535      60.06104275      83.32390204
H      84.08895470      61.03614153      81.52110314
C      81.05594396      60.17253660      83.89081994
H      80.57217403      62.15296978      84.18372752
H      80.74791858      59.24846044      85.70684692
C      79.29660877      59.04625972      81.96140937
H      79.93722599      57.08850326      81.91794567
C      76.52815972      58.92720696      82.70218209
H      76.35241517      57.28503480      83.93239392
H      75.46802326      58.50957745      80.98631059
H      75.96124182      60.73378532      83.51287467
C      79.79738624      60.19332359      79.39516104
H      79.06228270      62.11328553      79.54255969
H      78.84874363      58.94043505      78.06290399
H      81.77026051      59.98167426      78.84147123
C      85.47034463      61.63707451      85.06622970
O      84.79571234      63.77435497      85.50275648
N      87.54148467      60.61851202      86.11124836
H      87.99879844      58.84594874      85.57456608
C      88.96633831      61.97722523      88.04065892
H      87.60384564      62.75768220      89.37669542
C      90.72000433      60.31993526      89.60346258
H      92.27146963      61.45944023      90.33478666
H      91.86328875      59.00279602      88.50553159
C      89.44443907      58.57760760      91.49885807
H      88.10273339      57.32282933      90.56722300
H      88.21800669      59.90608519      92.48718494
C      91.42109279      57.20188684      93.12024325
H      92.60028201      58.67209391      93.95361255
H      92.38485321      55.94521884      91.80121428
N      89.96978298      55.88663733      95.13469150
H      89.76191309      54.02147746      94.78887158
C      88.67343073      56.81449295      97.01496918
N      88.65264374      59.13129741      97.55354118
H      88.12918955      59.61695707      99.32232501
H      89.86017886      60.25757429      96.59544994
N      87.28259217      55.20633585      98.31699061
H      86.38308244      55.96978529      99.81743330
H      87.00480240      53.39030887      97.80298505
C      90.37796387      64.10694679      86.84257244
O      90.46111182      66.12706422      87.93861370
N      91.50046130      63.68931728      84.65804882
H      91.17731810      62.02257866      83.78499526
C      92.96688892      65.61872784      83.34279931
H      93.91175207      66.77146089      84.76765295
C      95.15897144      64.41119273      81.84046689
H      96.25501270      65.73211142      80.70096192
C      97.00523405      63.26601858      83.69050895
H      98.11261367      64.83827088      84.42750221
H      98.23355615      61.94321016      82.70029236
H      95.96588457      62.36461913      85.22307699
C      94.43331653      62.29280953      79.98664537
H      93.79458904      60.64307846      81.03733320
H      96.11517295      61.41975598      79.17784251
C      92.60217174      62.92208839      77.94385123
H      90.71433515      63.45688094      78.56935064
H      92.31871279      61.17787101      76.88371477
H      93.44687940      64.36017011      76.73820584
C      91.25668660      67.28924591      81.84235661
O      92.26769018      69.09204481      80.71419001
N      88.72067389      66.79035816      81.75353948
H      88.11407174      65.55636687      83.08012735
C      87.14086269      67.70687541      79.62759738
H      88.27469848      67.48388771      77.92306424
C      84.90909592      65.95131968      79.21941649
H      83.69778135      66.01746009      80.88426537
H      85.54782341      64.01057076      78.94918563
C      83.29149019      66.65240814      76.89127367
O      81.09940767      67.61994800      77.08402576
O      84.39509036      66.49745057      74.90895077
C      86.53426055      70.55847243      79.78822411
O      85.88608442      71.80191233      77.97408685
N      86.96889760      71.66018286      82.07668268
H      87.73234703      70.52823680      83.40705000
C      87.09928871      74.40973465      82.51887863
H      88.03092379      75.33381081      80.93150853
C      84.37052392      75.38105398      82.66816701
H      83.53526489      74.05068665      84.00042406
H      83.37085870      75.26767039      80.86914756
C      83.89998207      78.07202424      83.71885484
H      84.57650409      78.17406947      85.66149349
H      81.86285710      78.36115238      83.64893497
C      85.08295074      80.17151017      82.02377034
O      87.14653187      79.90883822      80.87481674
O      84.33461912      82.36926189      82.47730466
C      88.83783692      74.82925389      84.74119678
O      89.25546644      73.18519201      86.24352920
N      89.79781789      77.02889532      84.94339749
H      89.47467469      78.20808454      83.47885960
C      91.67053666      77.67140226      86.85769025
H      92.57004639      79.45152445      86.34557442
H      92.98956563      76.09159107      86.77454229
C      90.53103170      77.90572833      89.49385846
O      88.46367111      79.03578466      89.66771328
N      91.57605035      76.83614323      91.42515875
H      93.32593691      76.12560614      91.15870734
C      90.77102694      76.94763708      93.97439954
H      88.73390197      76.64717060      93.96495091
C      92.03525384      74.71020113      95.50885731
H      94.05915072      74.81224635      95.14036068
H      91.10739822      72.98866046      94.85879146
C      91.81226614      74.75177512      98.43037419
H      92.90263822      76.43363154      98.90091604
C      89.12507532      74.85004088      99.43759831
H      88.40886905      73.13983857      98.54564749
H      88.20477861      76.58858910      98.81965781
H      88.92665406      74.49477233     101.45582602
C      93.17286908      72.38394804      99.56043052
H      92.21288812      70.65295874      98.99540236
H      93.08405195      72.37260969     101.61834248
H      95.13440500      72.18174733      98.95760783
C      91.33605511      79.44585527      95.20650110
O      93.52624790      80.12615675      95.46917306
N      89.46900551      80.88582673      96.00207588
H      87.71533949      80.23009169      95.62791007
C      89.68632404      83.38971410      97.44015760
H      91.64408050      83.97363952      97.70471929
C      88.80193212      85.56478907      95.78097790
H      88.67154101      87.21263043      97.00930000
H      86.89708800      85.34558082      95.02886683
C      90.72945296      86.04288983      93.51330632
H      92.67776079      86.11658916      94.17471053
H      90.07938711      87.87592435      92.82733567
C      90.25135220      84.42717384      91.11713336
H      88.20288888      84.22308340      91.02831622
H      90.93543313      82.49398381      91.32311353
N      90.90330778      85.63281922      88.66615833
H      92.19021140      87.03121669      88.48663433
C      89.70333157      85.03755544      86.57612103
N      88.14052791      83.17617501      86.33234633
H      87.01047158      83.14215995      84.79410911
H      88.04793132      81.94974265      87.79121505
N      90.16631452      86.25831863      84.49931181
H      89.11751642      85.85391721      82.95918486
H      91.41920307      87.69829008      84.41616385
C      88.36351562      83.29333804     100.07254636
O      86.09017486      82.57146259     100.32387996
N      89.64097060      83.89616075     102.14179667
H      91.47589485      84.37426149     101.91502951
C      88.58272387      83.55223055     104.61922786
H      87.03503802      82.19729678     104.71371418
C      90.66709199      82.73775851     106.47871856
H      89.62396307      82.44296121     108.22860512
H      91.86706820      84.40638685     106.32187127
C      92.21855730      80.30946020     105.96660273
H      93.18420744      80.59669861     104.17136273
C      94.11962197      79.99576563     108.00183796
H      93.26735540      80.49276366     109.81030605
H      95.68242563      81.31101514     107.72782765
H      94.87740222      78.08525233     107.87711603
C      90.63874610      77.93785367     106.16502399
H      89.41231372      77.65250500     104.53607991
H      89.58238909      78.14761329     107.92057973
H      91.82549422      76.25410754     106.11967056
C      87.41109356      86.07879463     105.48850197
O      86.18466118      86.11469943     107.48972213
N      87.60384564      88.11025043     103.94081612
H      88.64886429      87.64537775     102.41391726
C      86.32072147      90.60846860     104.01262572
H      84.97523634      90.81255905     105.56031157
C      88.49201701      92.62480659     104.19025999
H      89.87151721      92.27520721     102.70115566
H      89.20633355      92.53409971     106.11967056
C      87.39219629      95.31766658     103.94837502
H      85.94088648      95.54821318     105.39023620
H      86.29426530      95.81844406     102.27974669
C      89.63341170      97.28487168     104.18270109
H      91.07905233      96.84267571     102.78430361
H      90.41386867      97.07700177     106.07809658
C      88.67532046      99.98907003     103.88223460
H      87.58683810     100.62779751     105.50928896
H      87.39030657     100.12702004     102.27785696
N      90.83716736     101.85611963     103.78774829
H      92.00123877     101.58399904     102.30053368
H      91.92375999     101.71061069     105.35055195
H      90.16253507     103.60222674     103.40035439
C      84.54437874      90.90893510     101.66558564
O      85.11507608      89.83368081      99.70593945
N      82.50158459      92.49063601     101.84510964
H      82.30505306      93.65659714     103.34366260
C      80.69311651      93.08401007      99.91002989
H      79.62731087      91.39081529      99.42814968
C      78.85441281      95.07011243     100.98717389
H      80.01281504      96.44205374     101.99817747
C      77.39176464      96.32678042      98.85745234
H      75.77037947      97.40392442      99.53775381
H      76.85130292      94.88302952      97.49306994
H      78.57662304      97.76108270      97.97306042
C      77.12531323      93.97218145     103.15280025
H      78.31773054      92.81188948     104.36789426
H      75.74203357      92.74007989     102.25518025
C      75.39810338      95.64458923     104.93103271
H      74.44757105      97.15070110     103.89546269
H      76.55839534      96.58567294     106.35021717
H      74.01671345      94.57122469     106.01573561
C      82.02915302      94.15548490      97.49306994
O      83.54660325      95.97718106      97.51763638
N      81.17688645      93.04243609      95.38602510
H      79.89754173      91.64592835      95.62791007
C      82.09718316      93.77187045      92.92560144
H      82.84173533      95.69372211      92.92749117
C      84.23446362      91.78765782      92.29443285
H      85.48357272      91.43805846      93.89503104
H      85.42121175      92.70984427      90.88847647
C      83.41999158      89.34991088      91.08122856
C      83.81494438      89.29510881      88.44317063
H      84.26091979      91.03365702      87.47374103
C      83.57116969      86.90460504      87.22051770
H      83.81683411      86.72697075      85.20417972
C      82.81905861      84.75031703      88.52253913
O      82.50347432      82.51477080      87.34523964
H      82.99291344      82.69807427      85.60858116
C      82.55260720      84.87125952      91.19083268
H      82.04427083      83.10814486      92.08089378
C      82.86819150      87.17672563      92.47395685
H      82.92866274      87.17105645      94.51486127
C      80.00714586      93.77187045      90.71084220
O      77.83207087      93.17660666      91.37791559
N      80.58351239      94.54665825      88.32411787
H      82.36741403      94.96428776      87.78365614
C      78.73536005      94.72807196      86.28699290
H      76.88531799      94.29721437      87.08067795
C      78.87142035      97.39447579      84.91883105
H      77.43711808      97.46439566      83.44106507
H      80.74980830      97.62691213      84.11380764
C      78.15710380      99.45616720      86.90304368
H      79.79171706      99.64325010      88.14648359
H      76.68500700      98.74185065      88.15404250
C      77.31239614     101.89013470      85.61614006
H      75.32251433     101.67659563      85.12670095
H      78.48024700     102.08288677      83.93050419
C      77.66199551     104.15969599      87.39626225
H      79.63298005     104.72850361      87.23941496
H      77.19334338     103.53230686      89.30110637
N      76.14832473     106.28752782      86.47407581
H      74.45890941     105.65069005      85.85424558
H      77.05917281     106.69192926      84.84513173
H      76.27115694     107.78419107      87.65326503
C      78.88464843      92.69094700      84.24041931
O      80.95578847      92.01631470      83.33713013
N      76.68689673      92.06733732      83.18595202
H      75.11464444      92.79299222      83.98908571
C      76.47902683      90.83334603      80.74631535
H      77.73569483      89.20440195      80.65371876
C      73.65388600      90.23808225      80.22097144
H      72.58430090      91.98229964      79.99420428
H      72.88287766      89.15526907      81.79322373
C      73.19468250      88.54677720      77.78700395
O      71.53928225      89.15337935      76.17884685
O      74.50804229      86.59091046      77.44685321
C      77.31239614      92.53032027      78.67517531
O      77.56939892      94.80555075      78.92650891
N      77.54672220      91.59490574      76.39238593
H      77.44656671      89.73730477      75.95963860
C      78.18544970      92.98574430      73.93952117
H      79.80872460      94.23485340      74.16628833
C      78.92433268      91.26798308      71.77956400
H      78.92055323      92.26764830      69.97865482
C      81.56428034      90.17950074      72.27467229
H      82.28048662      90.68405766      74.13983216
H      82.73780038      90.93728099      70.76100151
H      81.42255087      88.12914768      72.16506817
O      77.18578448      89.20440195      71.45264135
H      77.74892292      88.05355864      70.16762745
C      75.98580827      94.57311441      72.90773061
O      76.48469601      96.58000375      71.74176947
N      73.58396612      94.10446228      73.54645810
H      73.47058254      92.44150312      74.47809317
C      71.35786853      95.82978241      73.50677385
H      71.44668566      97.15637028      71.93263183
C      69.04484352      94.14225681      73.17796147
H      68.40611603      93.45250671      75.01099599
H      69.77616760      92.59268124      72.03467705
C      66.83764319      95.41971179      71.80602017
H      66.50883081      97.19794425      72.79056757
H      65.13877923      94.27264793      72.01766951
C      67.07385897      95.64458923      69.00922522
O      66.90945279      97.76675187      67.88672779
O      67.45369396      93.60935399      67.83759491
C      71.08952739      97.61935322      75.91239544
O      69.29428739      98.98751508      76.13916260
N      72.92067219      97.81021558      77.56212652
H      74.40410734      96.62346747      77.39016142
C      72.79595025      99.46939529      79.78633439
H      72.44824061     101.45738737      79.37059460
H      74.71591218      99.31443773      80.51387902
C      71.06118150      98.59634173      81.98030663
O      70.77583282     100.01741592      83.74720074
N      70.01616284      96.24363247      82.08046213
H      70.63032390      95.08711996      80.69340302
C      68.51005097      95.13814258      84.23663985
H      66.98693156      96.38158250      84.85835981
C      67.32897203      92.79677168      83.09524516
H      66.21970268      91.83679070      84.54466524
H      68.87098870      91.51364752      82.62470331
C      65.80774234      93.00464157      80.61970369
C      65.18413266      90.82011796      79.33468980
H      65.95136154      89.04377521      79.98475565
C      63.37944403      90.75775699      77.45063266
H      63.03362412      88.91527382      76.64749898
C      62.35899182      92.97818541      76.54545376
O      60.42580181      92.82133812      74.91839940
H      59.88911953      94.39548013      74.19652395
C      62.99960904      95.23829808      77.77377586
H      62.07553288      96.98818463      77.27110866
C      64.69469355      95.29310014      79.78066521
H      65.20491965      96.95605930      80.84836057
C      70.41489510      94.41059794      86.41171484
O      72.56351391      93.78509854      85.79755379
N      69.71380663      94.37658287      88.85324124
H      67.84864676      94.25375066      89.23874540
C      71.53172335      93.87580540      90.85824085
H      73.43278802      94.21973560      90.14581403
C      71.08574794      95.48963167      93.24118573
H      71.98147821      94.69405690      94.91737297
H      69.10342503      95.35735083      93.77975773
C      71.68290145      98.19194031      92.95394733
C      69.71758609     100.06654880      93.30543643
H      67.72392483      99.63758092      93.35456931
C      70.45835880     102.64413550      93.21095011
H      69.00893872     104.07276858      93.34701041
C      73.03594549     103.27908353      93.08055900
O      73.73136478     105.81131679      93.20339121
H      72.27627551     106.88846080      93.29787752
C      74.82929576     101.35156269      92.80843841
H      76.77193441     101.96950320      92.83300485
C      74.19434772      98.86657259      92.64781167
H      75.51526641      97.35479154      92.28498422
C      71.38999387      91.00720085      91.71617660
O      69.37554562      89.79966574      92.28687395
N      73.65577572      89.90171096      92.29821230
H      75.22802802      90.94672961      92.01664308
C      74.06395661      87.27121193      92.68182675
H      72.40477690      86.25831863      93.35834877
C      74.96346633      86.06367683      90.22896199
H      75.73636439      84.17584023      90.51620039
C      73.06051193      85.65171648      88.22396237
H      71.10842465      85.77076924      88.87591795
H      73.37420650      83.79600525      87.38681362
H      73.35908869      86.98586326      86.68383543
O      76.82862620      87.62270103      89.20662006
H      77.77159963      88.24064153      90.62769424
C      75.93478566      86.99342216      94.88335790
O      77.22357900      88.82078751      95.62602034
N      76.45823984      84.68795606      95.82633133
H      75.43589791      83.17050584      95.28397988
C      78.49347508      84.03033131      97.67070421
H      80.00714586      85.39471371      97.37023773
C      77.62420098      84.32890806     100.58655191
H      76.95901732      86.27343645     100.47694779
C      75.48503079      82.57335233     101.35189107
H      76.14454528      80.62693422     101.20449242
H      73.81829219      82.72075098     100.15002513
H      74.57418271      82.93240033     103.16413860
C      79.70667938      84.30623135     102.48005768
H      81.35830017      85.35125000     101.83566101
H      80.45123154      82.38815915     102.61611797
C      79.08306969      85.22085888     105.26929372
H      77.95868254      86.94050984     105.42236155
H      80.71579323      85.39093426     106.51651308
H      78.06639694      83.76387990     106.31242264
C      79.39676426      81.33369186      97.09244796
O      78.26292847      79.98064782      95.68271213
N      81.65876666      80.51355064      97.95227343
H      82.85685314      81.87415359      98.54942695
C      82.44678253      77.85092626      98.05053920
H      80.81216927      76.81724597      98.76107629
H      83.99824783      77.90572833      99.40547297
C      83.30282855      77.00432887      95.38602510
O      84.53493011      78.35359347      93.97439954
N      82.89275794      74.54201550      94.78887158
H      82.14253659      73.46109205      96.17026152
C      83.42755049      73.33070093      92.25285887
H      85.08295074      74.15651132      91.34767997
C      83.89620261      70.35627170      92.40781643
H      82.27103798      69.42085719      93.26386245
C      84.36296501      69.40573937      89.79621467
H      86.20355844      70.08415112      89.17449471
H      82.82472779      69.96887781      88.54521585
H      84.55571710      67.35349659      89.73763315
C      86.33583928      70.07281276      94.01975297
H      85.94655566      71.02901427      95.79987516
H      87.67376551      71.34837803      93.11457407
C      87.56038193      67.50089526      94.35612426
H      86.14497693      66.06092381      94.75674624
H      88.66965128      67.48010826      96.09089301
H      88.75468896      67.01523558      92.74985689
C      80.96145765      74.09604008      90.80343879
O      79.21724026      72.49544189      90.23085172
N      80.66855007      76.48654387      90.14392431
H      82.33906813      77.40873030      90.10046060
C      78.58796140      77.52967279      88.62458435
H      78.03049214      76.22387192      87.13170056
H      79.04149571      79.30034634      87.67405202
C      75.94801374      77.79612420      90.01164347
O      74.35497446      78.94696753      88.89859467
N      75.41889037      76.93818846      92.31521984
H      76.89476662      76.13883422      93.22417820
C      72.85453177      77.07802820      93.38858439
H      71.70179872      75.75521978      92.30955066
C      72.90744410      76.41662399      96.15514371
H      74.11686894      77.64305638      97.28142059
H      73.67089353      74.52311823      96.44616156
C      70.32418823      76.64906034      97.45338569
N      68.56863249      74.65539907      97.40803225
H      68.91067295      72.87527688      96.81654792
C      66.48048491      75.49821701      98.74973794
H      64.86854837      74.33414559      99.21272088
N      67.06063089      77.73376323      99.79475659
H      65.98726634      78.81468668     100.94559991
C      69.35853809      78.62571406      98.81776808
H      70.19190739      80.46630749      99.10689621
C      71.58085623      79.75388066      92.96150624
O      72.54461665      81.72108576      93.78542691
N      69.26027232      79.70285805      92.09979104
H      68.71603114      77.98698656      91.46106355
C      67.62565906      81.90816867      91.73507386
H      68.82563527      83.31412504      90.82422578
C      65.48648887      81.27322062      89.83967837
H      64.37532980      79.73309367      90.63714287
H      66.45780820      80.72519999      88.10679934
C      63.85565506      83.59191481      89.28598856
H      63.21692757      84.61992593      90.95272717
C      65.39767173      85.64037812      87.80633286
H      66.49371300      85.05456297      86.16416069
H      66.76772331      86.39626866      89.14803854
H      64.11454757      87.15404890      87.25642250
C      61.64089582      82.87759825      87.83278903
H      60.35021275      84.45740946      87.55310953
H      60.59398745      81.55478985      89.01575770
H      62.21537262      81.98753716      86.06589492
C      66.68457535      82.92673115      94.18604889
O      65.57341628      81.49809805      95.55232101
N      67.10220487      85.32479383      94.85123255
H      68.18312832      86.40004810      93.70038923
C      65.63010807      86.70240431      96.73906914
H      64.91768125      85.42116988      98.18470977
C      67.46125287      88.52410048      98.19037895
H      66.32741708      89.57100886      99.55854080
H      68.00360432      89.99619728      96.85812190
C      69.73648335      87.34113181      99.56420998
H      70.73047939      86.12603780      98.23195293
C      71.54873088      89.26487319     100.56765465
H      72.48036596      90.25697951      99.01996880
H      72.89232629      88.59024091     101.97739048
H      70.36765194      90.61791723     101.57676850
C      68.60264756      85.83879939     101.89235279
H      67.35164874      84.31379026     101.29897873
H      67.37621518      87.13326191     102.92225364
H      69.93679434      85.15849791     103.30964753
C      63.27361936      88.17072167      95.87924367
O      61.24216357      87.38081607      96.72017188
N      63.59109338      89.99052810      94.09723175
H      65.32964159      90.04910961      93.31299533
C      61.53696088      91.54577285      93.20150148
H      59.88534008      90.35524528      92.90103500
C      60.86799776      93.70573004      94.93627024