 %block lattice_cart
   137.793   0.000   0.000
   0.000 143.498   0.000
   0.000   0.000   162.326
 %endblock lattice_cart

 %block positions_abs
N      81.39420498      37.24070780      80.27482864
H      82.93811138      36.23726312      79.76649226
H      80.28304590      37.77927979      78.81973938
H      80.15265479      36.18246106      81.26504523
C      82.33339896      39.52727664      81.66188775
H      83.89998206      38.88099023      82.83540779
C      83.19133469      41.39999542      79.70413129
H      81.60774405      41.85163999      78.46825028
H      84.69933629      40.68378913      78.49470645
C      84.42532597      43.74136632      81.05528561
H      83.08928948      45.01882131      81.96424396
H      85.46845490      44.63898631      79.52271757
S      87.05204556      42.97413742      83.04705714
C      88.12729982      46.07895776      84.03160455
H      89.45199798      45.95045638      85.60385684
H      86.56449617      47.22791136      84.72702383
H      88.97389721      46.92744488      82.35730703
C      80.16777260      40.48725760      83.18500716
O      78.06261749      40.50615486      82.26848990
N      80.74035966      40.55717748      85.62653356
H      82.49969487      40.26615963      86.30683503
C      78.68622716      40.93512274      87.34618450
H      77.11586461      39.67467529      86.90776800
C      79.81628351      40.51371377      89.98991161
H      81.38853579      41.82329411      90.23935549
H      80.48335690      38.59186211      90.30927536
C      78.10986064      40.93134328      92.24246538
O      75.80061509      41.37164952      91.92121190
N      79.10196695      40.78961381      94.38163556
H      78.02482295      40.93890219      95.95010840
H      80.95767819      41.23369949      94.41376091
C      77.68278249      43.57507039      86.80194332
O      79.19078409      45.27204463      86.33329120
N      75.12598279      43.95112594      86.82084059
H      73.85419698      42.54327982      87.02871048
C      74.08096414      46.43611603      85.93266922
H      75.01070949      46.80650239      84.13176004
C      71.13110137      46.30950438      85.56417259
H      70.83441433      44.88654046      84.10341415
C      69.37176618      45.94667691      87.90554349
H      69.58719497      44.13631912      88.86363473
H      67.39511244      45.90699267      87.32728724
H      69.77238815      47.49247304      89.20378547
C      70.24293001      48.72079514      84.25459225
H      70.20513547      50.44611527      85.37897941
H      68.27005572      48.25403275      83.89743398
C      71.61676103      49.26503632      81.79416859
H      73.45546473      50.09462618      82.20612893
H      70.59819855      50.72957421      80.76426775
H      71.78116722      47.63420251      80.54883895
C      74.87653893      48.67355199      87.60885646
O      75.33952186      50.72390504      86.71312619
N      75.18834377      48.14253890      90.04282395
H      75.02393757      46.36619617      90.71745624
C      76.29194392      49.90754327      91.90231464
H      75.48692052      51.77270314      91.56405363
C      75.53227395      48.91354723      94.60084382
H      76.22202405      50.10218509      96.13530158
H      76.49603437      47.11641751      94.90320003
C      72.73547901      48.42410811      94.95989182
C      71.31629455      50.45178445      95.79704057
H      72.25170908      52.21867855      96.20900091
C      68.71603114      50.35162895      96.20522146
H      67.67479195      52.05049292      96.64741741
C      67.56896726      48.11041355      95.44555148
H      65.53373203      47.97435325      95.53436862
C      68.97870310      46.06006050      94.68588150
H      68.07163447      44.39143216      93.93566015
C      71.58841513      46.08084749      94.38163556
H      72.64288242      44.39143216      93.92999098
C      79.16243819      50.28548853      91.96089616
O      80.07328628      51.75002643      93.50669228
N      80.51926170      49.24424934      90.13919999
H      79.64620813      47.94222790      89.05071764
C      83.25369567      49.80738777      89.70456294
H      83.89242315      51.13775510      91.13886521
C      84.66343149      47.21657301      89.74613692
H      86.71000510      47.27326480      89.50425195
H      83.75825259      46.19045162      88.20600997
C      84.31194240      45.62164399      92.21411948
H      85.14342197      43.74514577      92.03459548
H      82.33150922      45.23991928      92.62796955
C      85.74057550      46.73847224      94.46100407
O      84.39509036      47.48113469      96.26191325
O      88.07060803      46.42855712      94.53848285
C      83.49558064      51.26625650      87.19311667
O      84.98657470      53.04259923      87.16288105
N      82.15009549      50.28737827      85.33551570
H      81.00870080      48.78504584      85.62842328
C      82.09907288      51.35129418      82.74659066
H      84.05871907      51.24735922      82.12109125
C      80.33973769      49.79604941      80.97024792
H      78.39331959      50.05305220      81.59196788
H      80.63642473      47.76081419      81.08552123
C      80.71579322      50.55005021      78.16778380
H      80.59863019      48.82661982      77.04717610
H      82.52237159      51.53837707      78.18290161
S      78.17033188      52.80638344      77.23803845
C      79.87675474      54.66020495      74.91367509
H      78.43678329      55.72412087      73.89133315
H      80.81027955      53.40353696      73.57763858
H      81.28649057      55.89608596      75.76405193
C      81.61530296      54.18021447      82.75981874
O      82.94189083      55.76758457      81.61842405
N      79.63864922      54.88508239      84.14876758
H      78.58985112      53.63030411      85.13331499
C      78.85630253      57.39274920      84.04294291
H      79.06795189      58.08816848      82.11542207
C      76.03683087      57.76502529      84.74781082
H      75.56628903      59.76246599      84.57395600
H      75.83085070      57.37007248      86.76036934
C      74.09041278      56.34584082      83.22280169
H      74.89732591      54.45044533      83.25492703
C      71.53172334      56.23434697      84.49080804
H      70.19379711      55.13452625      83.37964897
H      70.57930129      58.06171231      84.49269777
H      71.55817952      55.18554887      86.26715078
C      73.64821682      57.04126011      80.37687386
H      72.99059206      58.99334739      80.40899921
H      72.33485702      55.87718870      79.29784013
H      75.48692052      56.88063336      79.46035660
C      80.82728708      59.14830495      85.46968627
O      80.92177340      61.41786624      85.03693895
N      82.23513318      58.11273492      87.29516189
H      82.19922838      56.20978052      87.43689136
C      84.14564649      59.42987417      88.86552446
H      83.38786623      61.27424704      89.38519919
C      84.71823356      57.99935134      91.32783784
H      86.03537280      59.05192890      92.51080651
H      85.58750767      56.17387573      90.94233367
C      82.37497293      57.52314032      93.03804016
H      81.13153302      56.25891341      91.99113178
H      81.21090152      59.19554811      93.33661691
C      82.77559490      56.33639218      95.58728095
H      84.16076430      54.82272142      95.41153640
H      81.02003917      55.48601534      96.24868516
N      83.86974645      57.97289518      97.50913261
H      84.11730059      59.78325299      96.96111198
C      84.17210266      57.54392730      99.86184187
N      83.70722998      55.33861669     100.94843450
H      84.40264927      55.08917283     102.70776970
H      82.79071272      53.95533703     100.00546107
N      85.24735692      59.25412961     101.34149758
H      85.70845015      58.99145766     103.17642183
H      86.28859612      60.46544418     100.29836865
C      86.58528316      59.90041602      87.35563313
O      88.06304913      61.35739501      88.20600997
N      86.80827086      58.71177816      85.13520471
H      85.38719668      57.54581703      84.62119916
C      88.98334585      59.11617960      83.39287705
H      90.46489128      60.13474208      84.39821145
C      90.46867073      56.66142512      82.81084135
H      92.00690794      57.14141559      81.52582746
C      91.37195991      55.58428111      85.33740543
H      93.11239785      54.48446041      85.28449309
H      90.03025422      54.25202407      86.15187747
H      91.69888256      57.12062861      86.66777275
C      89.00035339      54.44666587      81.60897541
H      87.19755449      54.11029459      82.54816939
H      90.10773301      52.71189713      81.59385760
C      88.61106976      54.71500701      78.71580443
H      90.35150770      55.22523311      77.73881593
H      87.50369015      56.40631206      78.32274136
H      87.72289839      52.96134100      78.10164338
C      87.99501899      60.50512844      80.96079929
O      89.39530619      60.75268259      79.06729352
N      85.74057550      61.38763062      80.83607735
H      84.45367187      60.76024148      82.10030426
C      84.68988767      62.84649934      78.63076675
H      85.94466593      62.69343151      77.00371239
C      82.05182974      61.86951083      78.05251049
H      80.67421924      62.01690948      79.57751963
H      82.24836126      59.83805505      77.76905155
C      81.09562822      63.07515623      75.59775601
O      81.74569407      62.15674924      73.50015981
O      79.46857386      64.76268182      75.62421218
C      84.55949655      65.72455251      79.17689765
O      85.17932677      67.15129588      77.42134191
N      84.10029306      66.62595196      81.49748156
H      83.54660325      65.60172031      83.00926261
C      84.35729584      69.25267154      82.27604880
H      85.74246522      70.24099840      81.11386712
C      81.76648106      70.75878341      82.34218922
H      81.89876190      72.61260492      83.22847086
H      80.43422401      69.51156405      83.29650101
C      80.66288090      71.15373621      79.74759500
H      78.71457306      71.68474931      80.15199643
H      80.12619861      69.41518801      78.78383458
C      81.72490708      73.27967831      78.03739268
O      82.98346481      75.03712379      78.96524830
O      81.37530771      73.06047006      75.65822726
C      85.33239460      69.05991945      85.01048278
O      85.59695630      67.00956641      86.16321583
N      86.19033036      71.17641293      85.94400758
H      85.91254058      72.85637962      85.08040265
C      87.47723397      71.47687941      88.48379974
H      88.95311022      72.91307141      88.50458673
H      88.23501423      69.64384489      89.03559982
C      85.61207411      72.10804800      90.57005759
O      83.69589163      73.37605436      90.23368631
N      86.12041049      71.18397183      92.86040588
H      87.76636211      70.23343949      93.03237098
C      84.53681983      71.48821777      94.97878908
H      82.56205583      71.34648830      94.40620201
C      84.90342674      69.20542839      96.77780853
H      86.84984483      69.38306266      97.42787438
H      84.85051441      67.48199799      95.65342137
C      83.00614151      69.06558863      98.95099379
H      83.13275319      70.96665331      99.73334048
C      80.23202330      68.83693175      98.27825122
H      79.81250404      67.81458982      96.53781329
H      79.57628826      70.75500396      97.91542377
H      79.34763137      67.95631929      99.91853366
C      83.91887933      67.03791229     100.82938174
H      85.79159810      67.58215347     101.49456541
H      84.04738072      65.14440654     100.02813779
H      82.79638189      66.88484447     102.55092242
C      85.17554732      74.02800994      96.21844954
O      87.36007094      74.19808529      96.96678116
N      83.53526489      75.87049309      96.34884066
H      81.83451121      75.24688341      95.75168714
C      83.76959095      78.28556332      97.68109771
H      85.69144260      78.92807027      98.04959434
C      82.33528868      80.51355064      96.30348722
H      82.35796540      82.10658992      97.60739838
H      80.48146716      79.94096357      95.60995767
C      83.89620261      81.78722618      94.18888348
H      85.59695630      82.51288108      95.10162129
H      82.91354492      83.47097231      93.52369982
C      84.84673495      80.14694374      91.96278588
H      83.27259292      79.22475730      91.00469464
H      86.14875638      78.72964900      92.69033051
N      85.90876113      81.71919603      89.90865338
H      84.89964729      83.25932297      89.40220673
C      87.97423199      81.44707544      88.57450660
N      89.61262471      79.66695325      88.61230113
H      90.87685161      79.84269780      87.19311667
H      89.77514117      78.38193936      90.01447805
N      88.47878893      83.18373392      86.83406867
H      90.00757751      82.99287156      85.70212261
H      87.35629149      84.71819169      86.67344193
C      82.68299831      78.05312697     100.40041387
O      80.52115141      77.43707620     100.75757214
N      84.29304513      78.89405518     102.10116755
H      86.02025499      79.53089295     101.60416953
C      83.70534026      79.17751414     104.84127071
H      81.81183448      78.41406471     105.11717075
C      85.45522683      77.51455498     106.46076616
H      85.83695153      75.72876362     105.50456464
H      84.51603285      76.97409325     108.21065272
C      88.00824707      78.69374420     107.29980464
H      87.51880795      80.18851772     108.62828224
C      89.71655965      76.58669936     108.61127470
H      91.13007494      77.82447010     109.45598236
H      90.53859060      75.17696353     107.35460670
H      88.87563145      75.79112459     110.31391811
C      89.29515069      79.75199094     105.01890498
H      91.10172905      80.36048281     105.79936195
H      88.19721971      81.31668433     104.24978637
H      89.60317607      78.39516744     103.50145475
C      83.48046282      81.94974264     105.69542700
O      83.08928948      82.44485092     107.95931912
N      83.90565125      83.86592512     103.97766578
H      84.66721094      83.20263119     102.35817033
C      83.48613201      86.63248444     104.22710966
H      82.26536881      86.69295569     105.88439963
C      85.99568855      88.05922781     104.27057336
H      86.82716813      87.87214490     102.39596486
H      87.34306341      87.09168794     105.49511601
C      86.00513717      90.77854396     104.88662414
H      84.59351162      91.03743648     106.36439012
H      85.16609869      91.64970779     103.21988553
C      88.58461360      91.95206401     105.73322153
H      89.92253983      91.76876056     104.17608704
H      89.38207809      90.68405766     107.15051626
C      88.44666358      94.65626237     106.66107715
H      86.94433116      94.71484387     108.06892325
H      88.03659297      96.05088038     105.20220843
N      90.92220504      95.32900494     107.82325883
H      91.45132842      94.18572051     109.25756110
H      90.75023995      97.16959836     108.29758013
H      92.06171001      95.09656860     106.30958805
C      81.53782417      87.45451539     102.20510250
O      81.68333309      86.29233371     100.09616793
N      79.82951159      89.39148486     102.73422587
H      79.93911572      90.31178157     104.40285420
C      77.83396060      90.10769113     100.78024886
H      76.77382414      88.39559909     100.33994263
C      76.02738225      91.96529210     101.96510726
H      76.99681184      93.40148410     103.08193551
C      74.51182174      93.30888751      99.88829804
H      73.66144490      91.85946743      98.69588074
H      75.88754249      94.49374590      98.91508899
H      73.32885307      94.75263840     100.75757214
C      74.06395660      90.47996722     103.49389585
H      75.14488005      88.90582520     104.26679391
H      72.64477214      89.57478830     102.30903745
C      72.99248178      92.20528734     105.74078043
H      74.52882927      92.19961816     107.11650119
H      71.52794389      91.24908583     106.82737306
H      72.33863648      94.06477803     105.14362692
C      79.23802725      90.97129606      98.33116356
O      81.24302686      92.10891129      98.69399101
N      77.98324898      90.63681450      96.19388310
H      76.17289117      90.03210207      96.25246461
C      78.94889912      91.10924608      93.61818613
H      80.14698560      92.77976414      93.75046698
C      80.55327676      88.81511834      92.81316272
H      81.43577895      88.14993467      94.55171093
H      81.78726804      89.51242733      91.31838921
C      79.25503478      86.61925636      91.68121666
C      79.28716013      86.17139121      89.08473271
H      80.29627398      87.33924208      87.74869621
C      78.13253736      83.90182992      88.08695722
H      78.17978052      83.69584975      86.05739116
C      77.00059129      82.14438445      89.68377595
O      75.67589316      80.13938483      88.80316349
H      75.86864524      80.26599650      87.00603376
C      76.92689197      82.64516192      92.31994416
H      75.84407880      81.39605282      93.51803064
C      78.04560994      84.83913417      93.22701279
H      78.02671269      85.34369110      95.20366651
C      76.85508236      91.70450987      91.60373788
O      74.91433345      92.64748330      92.42576883
N      77.35774957      91.61002355      89.11118888
H      79.11519505      90.99586249      88.69544909
C      75.78171782      92.61346821      87.04949747
H      73.97702920      93.18794502      87.86207978
C      77.08373926      94.96995693      85.70590206
H      75.81384317      95.81277487      84.31884295
H      78.74858814      94.23107395      84.74592109
C      77.75459209      96.97873601      87.57862084
H      79.07740051      96.29465508      89.00158475
H      76.11053021      97.77431078      88.53104290
C      79.13976149      99.21239251      86.44289532
H      78.45190110     100.03631318      84.68356013
H      81.03515698      98.55854720      85.97235347
C      79.10763614     101.29865036      88.54994016
H      80.25658974     100.65047423      90.13164109
H      77.18956392     101.45738737      89.28504370
N      80.32650961     103.64758017      87.61263591
H      82.17655167     103.62112400      87.14209406
H      80.24147193     104.95905022      88.99780530
H      79.44589715     104.38079398      86.08573705
C      75.57762738      90.40815762      85.16166088
O      77.49192014      89.39904377      84.29049705
N      73.24381539      89.80344520      84.42655735
H      71.75471106      90.38170145      85.47157600
C      72.80917834      88.84535396      81.86408847
H      73.74837232      87.02176806      81.68078501
C      69.85931555      88.68094776      81.58818843
H      69.09019695      90.58957134      81.47669457
H      69.19980108      87.74364352      83.29839074
C      69.09586613      87.24853522      79.27138397
O      68.24170983      88.18017029      77.35709121
O      69.72325527      84.94684857      79.28083260
C      73.82585109      90.37036309      79.62287306
O      74.68189710      92.47173875      80.05562039
N      73.70301887      89.50486844      77.23425900
H      72.89610574      87.79844558      76.94324115
C      74.53449846      90.82956658      74.91745454
H      76.14265554      91.98040991      75.49193134
C      75.14488005      88.88692794      72.84064532
H      74.89354646      89.67872326      70.95469846
C      77.97002090      88.26898743      72.92001383
H      78.48024699      86.87058995      71.49704991
H      78.38576069      87.61136267      74.82674768
H      79.14354094      89.93761577      72.64411379
O      73.48192091      86.67594815      72.95402890
H      73.40633185      85.80856377      71.36098962
C      72.39721800      92.63425521      73.88755370
O      72.73736873      94.22918422      72.01861438
N      70.31284988      92.88180936      75.23681829
H      69.83096966      91.42483037      76.36876435
C      68.62154483      95.23829807      75.26327446
H      68.89366542      96.34000851      73.54551324
C      65.79451425      94.57500414      75.33319433
H      64.76650315      96.14536670      76.18357117
H      65.52239368      92.94417033      76.55962671
C      64.91390180      93.82100334      72.78773299
H      65.96647936      92.13536747      72.23971235
H      65.19358130      95.26853369      71.34965126
C      61.98482602      93.25597517      72.82930696
O      61.21192796      91.20562212      73.81007492
O      60.55808264      94.69783634      71.45169648
C      69.42089906      97.19983398      77.24937681
O      68.48548453      99.28420211      77.24748708
N      71.15566781      96.61212910      79.00871201
H      72.09297206      94.95672885      79.12398531
C      71.86431518      98.16359440      81.22914043
H      71.67912200     100.16859402      80.79072392
H      73.81451273      97.57211007      81.52204800
C      70.30907042      97.90470190      83.69712299
O      71.06307122      98.84767532      85.64543082
N      68.18123859      96.67449007      83.26815512
H      67.72959400      96.26630918      81.46157676
C      66.54095616      95.88080502      85.33362598
H      65.61310054      97.49085184      86.22368707
C      64.18257772      94.39359040      84.46435187
H      62.89378437      93.88147457      85.98558156
H      64.80618739      92.76275659      83.37397979
C      62.56119254      95.87702557      82.70501668
C      61.59554240      94.43516439      80.62442801
H      62.13789385      92.47551820      80.45246291
C      60.03273874      95.53687482      78.77816540
H      59.32976054      94.62602675      77.09441925
C      59.55463797      98.10123343      78.93879213
O      58.23749874      99.41648294      77.23047955
H      58.07498228     101.13991335      77.77850018
C      60.66390732      99.49207200      80.88521024
H      60.06297436     101.42526202      81.13654384
C      62.06041507      98.40736910      82.87509204
H      62.66512748      99.56955078      84.43978543
C      67.80518306      94.42760548      87.48980370
O      69.25649287      92.62858603      86.86430429
N      67.10031514      94.76019731      89.92755064
H      65.60743136      95.80899541      90.48501991
C      68.64044209      93.76431154      91.97790369
H      70.58874991      94.18383078      91.45633923
C      67.88644129      95.00964119      94.44399653
H      68.48359480      93.88714376      96.06349198
H      65.83419851      95.19861382      94.39486365
C      69.04862298      97.57211007      94.64997670
C      67.53117274      99.78308986      94.59517464
H      65.51672450      99.55254325      94.36651775
C      68.57052222     102.11123267      95.18854870
H      67.33464120     103.71561030      95.43421312
C      71.22180823     102.28886695      95.48901518
O      72.13265631     104.74173169      95.73467960
H      70.86087051     106.02485587      95.90664470
C      72.76571463     100.21016800      95.52869944
H      74.71969164     100.60701053      95.95388786
C      71.64888637      97.79509777      95.10351102
H      72.90555438      96.20394822      95.31893982
C      68.24359957      90.89759672      92.38230513
O      66.09309101      90.01509454      92.12530235
N      70.33363686      89.51809652      92.98134837
H      72.00793437      90.38926035      92.71111750
C      70.49615332      86.68917623      93.11929839
H      68.55351468      86.25075973      93.64842175
C      71.15944727      85.41172125      90.47935073
H      72.03817000      83.58246616      90.81950146
C      68.95035721      85.09802667      88.77481759
H      67.84297758      86.81200844      88.49513810
H      67.74660155      83.60703262      89.52881839
H      69.67034292      84.34213614      87.00036459
O      73.05673248      86.95940710      89.23780054
H      74.29261349      85.75943089      88.66332374
C      72.21769399      85.82179186      95.39452887
O      73.70301887      87.30522701      96.30915640
N      72.04194946      83.41617025      96.19955228
H      70.52638895      82.47886601      95.51169190
C      73.54617160      82.11036938      98.06282242
H      75.48692052      82.80011948      98.03258680
C      72.25737825      82.56201397     100.73489543
H      72.11186933      84.57268276     101.16386330
C      69.51160591      81.62848917     100.71788789
H      68.26816600      82.56579342      99.37051303
H      68.79917909      81.96863990     102.61895256
H      69.36609699      79.64994572     100.15285972
C      73.89010179      81.42439872     102.81926355
H      73.83529972      79.36837650     102.72099778
H      72.74303792      81.74943165     104.49923024
C      76.55272615      82.46185847     103.36350473
H      77.66577495      82.45429956     101.63062570
H      77.62231125      81.37904529     104.75056384
H      76.34107682      84.36481287     104.12506443
C      73.70490861      79.33814088      97.29748327
O      72.12320769      78.48020512      95.74412824
N      75.49825888      77.88683107      98.28958958
H      76.83807484      78.81279696      99.28358562
C      75.80250481      75.29979574      97.75290731
H      73.92411685      74.46264699      97.88140870
H      77.24625571      74.37760929      98.89619173
C      76.70390427      74.65728879      95.11673910
O      78.75236759      75.63049785      94.32872323
N      75.01070949      73.38550299      93.66920874
H      73.44412637      72.61827410      94.44021708
C      74.93889989      73.55557836      90.86107544
H      76.26359804      75.01822652      90.27148083
C      75.91399867      70.99121975      89.64031225
H      74.69323547      69.53802022      90.44344593
C      75.78360756      71.10838278      86.86052484
H      77.02515773      69.55124830      86.32951174
H      76.97224540      72.66362754      86.21990762
H      73.82963055      71.13294922      86.20856926
C      78.65599155      70.27501348      90.37730551
H      79.05094435      70.97988138      92.27270100
H      79.84273967      71.15940538      88.94111351
C      79.37219781      67.38940140      90.35084934
H      78.32528945      66.64673896      91.96089616
H      81.39231524      67.27223837      90.73446378
H      78.67488880      66.41619234      88.67466210
C      72.21580428      74.13950379      89.98235271
O      70.42056428      72.76756248      90.58328568
N      72.13265631      76.10292942      88.52348399
H      73.79939493      77.02133642      88.35151890
C      69.81207241      76.84748159      87.15532214
H      69.33775109      75.50010673      85.67188699
H      70.29584234      78.58414008      86.16132610
C      67.43668643      77.34258989      88.69733881
O      65.64900533      78.37627018      87.57862084
N      67.55007001      77.13283027      91.17665974
H      69.12610174      76.54323566      92.07805919
C      65.55640874      77.67140226      92.88308260
H      63.95014138      76.83992269      91.89853519
C      66.00616361      76.17473903      95.20933569
H      67.33842065      77.19141178      96.40742217
H      67.05307199      74.43808055      94.85406714
C      63.48526871      75.57758551      96.55860028
N      62.68780420      73.14550775      97.21055585
H      63.43802555      71.52223284      96.54159274
C      60.38989701      73.50833520      98.43509851
H      59.04441187      72.02678977      98.83383076
N      59.95714968      76.03489928      98.72422663
H      58.52662686      76.87771722      99.66342061
C      61.90923696      77.34070016      97.42409493
H      62.27773360      79.34569977      97.36551341
C      64.98760112      80.39449787      93.27236622
O      66.46158765      81.71919603      94.57249792
N      63.06197001      81.58124601      92.03459548
H      61.77884584      80.58913969      91.02737136
C      62.76339326      84.30245190      91.98357287
H      64.67390656      85.00354035      91.66798858
C      61.41034922      85.02999653      89.47401633
H      62.17757810      84.21741422      87.74491675
H      61.75238968      87.06145232      89.40976563
C      58.52851658      84.56134440      89.63464307
H      57.76695688      85.46841303      91.32027894
C      57.41546779      86.17895013      87.39720711
H      57.99183431      88.14993467      87.53893658
H      55.36889420      86.41327619      87.40665574
H      58.12789461      85.53266373      85.57551095
C      57.76695688      81.84013850      89.37953001
H      58.90457213      80.48331502      88.32695246
H      55.84510523      81.84769741      88.63875730
H      57.51184382      80.97842332      91.23335153
C      61.65034446      85.29644794      94.44210681
O      60.29352096      83.92450664      95.72712070
N      62.27584386      87.70395926      95.32271927
H      63.46826117      88.56378473      94.10573552
C      61.34042935      89.00031150      97.47889699
H      60.13667368      87.71907707      98.55226154
C      63.52495296      89.87525480      99.07760545
H      62.60087679      90.71996246     100.71599817
H      64.46036749      91.35868995      97.99857173
C      65.33531077      87.81167366     100.16230836
H      66.04773758      86.45107072      98.78847733
C      67.59353370      89.02865741     101.27157770
H      67.17968365      90.80122069     102.22966894
H      69.00515927      89.55022186      99.86751105
H      68.62154483      87.94962367     102.69454162
C      64.06352495      86.35280495     102.43753884
H      62.21537263      85.61392196     101.90841547
H      63.66857215      87.73419488     103.91341509
H      65.24838336      84.88070814     103.25956978
C      59.42991603      91.00720086      96.64741741
O      57.34743764      90.92594263      97.66975935
N      60.12155586      92.85346347      95.01847333
H      61.87711162      92.80055112      94.27014171
C      58.42647136      95.06066380      94.29659788
H      56.52162724      94.30477327      94.06983072
C      58.29419052      96.97873601      96.46033451