 %block lattice_cart
   137.793   0.000   0.000
   0.000 143.498   0.000
   0.000   0.000   162.326
 %endblock lattice_cart

 %block positions_abs
N      91.81226614      36.55568202      80.65655334
H      93.19365607      36.28356143      79.36776000
H      90.48567827      35.20074824      80.44679372
H      92.61728955      36.30812786      82.36864538
C      90.80315229      39.14082760      80.41088892
H      92.19966003      40.40505451      81.24425824
C      90.43654538      39.87026196      77.53472548
H      88.83027802      41.14771695      77.36653983
H      89.66553705      38.44162887      76.26482939
C      92.80437245      41.04000256      76.14766636
H      92.25824155      42.05478558      74.43935378
H      94.16686512      39.50554478      75.97948073
S      94.26324116      43.52121321      78.04495158
C      91.81982504      45.93628343      78.10731255
H      92.31493334      47.74286179      78.96524829
H      90.29481591      45.20684908      79.28272232
H      91.06015506      46.46540679      76.26671912
C      88.37863343      39.33735915      81.84519120
O      86.84417566      37.52133215      81.87542682
N      87.84006143      41.42172727      83.00170370
H      89.21200273      42.73886650      83.14910235
C      85.67065562      41.90738693      84.67033204
H      84.29493486      40.49576138      84.07695797
C      86.65142358      41.50865468      87.40098656
H      88.17076353      42.86736790      87.68444550
H      87.22590038      39.54333931      87.62397427
C      84.49146640      41.91872529      89.33606631
O      82.20111811      41.72786293      88.77481760
N      85.15853979      42.41005413      91.68310639
H      83.77714985      42.11903627      92.96812028
H      87.00669212      42.67650554      92.08372836
C      84.57650408      44.68528462      84.20923881
O      85.97301183      46.57501093      84.10908333
N      82.02915301      44.82512435      84.12042168
H      81.05594396      43.18295219      84.18467237
C      80.77437474      47.33279117      83.95034632
H      81.45656594      48.13970431      82.18156249
C      77.79616607      47.24019458      83.69712298
H      77.62798043      45.93817316      82.10975288
C      76.50170355      45.97974713      86.01203772
H      76.45068094      47.39326242      87.51059068
H      77.52782494      44.26954482      86.52793300
H      74.64410258      45.19551071      85.59062875
C      76.60374877      49.86313471      82.89209958
H      77.79994553      50.68138621      81.42945142
H      76.53382890      51.21995820      84.44167515
C      73.90710932      49.34345998      82.07384808
H      72.88665711      49.13747980      83.85208054
H      73.79939492      47.72963370      80.79828283
H      73.14743934      50.98374242      81.08552122
C      81.51892691      49.14881817      85.91377196
O      81.87608518      51.40704110      85.36575133
N      81.65309748      48.30977968      88.31939354
H      81.20712207      46.46729653      88.52915316
C      81.86096737      49.98596691      90.51714526
H      80.33406851      51.37113631      90.45289456
C      81.46601457      48.55355437      93.03048125
H      82.99480316      48.66126877      94.40998145
H      80.92366312      46.63548216      92.50891678
C      79.13976148      49.70250797      94.36651776
C      78.99992173      52.27631521      95.08461374
H      80.54004868      53.57455718      94.75580138
C      76.75681660      53.22306810      96.09372760
H      76.76059605      55.21483962      96.54348246
C      74.68945601      51.65270553      96.70221947
H      73.02460713      52.40292687      97.61306756
C      74.88220810      49.06755993      96.25435434
H      73.37231677      47.76553851      96.69088111
C      77.02893719      48.23608035      94.92776647
H      77.06295226      46.27265472      94.37596638
C      84.45745133      51.26720135      90.49446853
O      84.96200825      53.12480232      91.66231939
N      86.22623516      50.39603752      88.85985528
H      85.84073099      48.68961467      88.09829557
C      88.57705469      51.64136716      88.18522298
H      89.07027326      52.99819067      89.65543005
C      90.63496664      49.64959563      88.07561886
H      92.42453746      50.43005261      87.42177356
H      90.29670563      48.09624060      86.76603851
C      90.85417490      48.18694746      90.57383705
H      89.41231372      46.71863012      90.69288979
H      91.08850096      49.54944014      92.10262563
C      93.25223759      46.72996849      90.35084933
O      95.20432487      47.80144330      91.03493026
O      93.16342045      44.41127429      89.83306432
C      88.60162113      52.88858654      85.65676917
O      89.75813363      54.88035806      85.43756092
N      87.30148943      51.78309665      83.63476201
H      86.39820025      50.10879912      83.77838121
C      87.17676749      52.92449133      81.11953630
H      89.06271435      53.15692767      80.32207179
C      85.48924189      51.32011369      79.36209082
H      83.68644299      51.07633901      80.32585124
H      86.27914749      49.42282847      79.21280244
C      84.88263975      52.29710220      76.68056918
H      86.20166871      51.44483563      75.35020187
H      84.93933154      54.34745524      76.49915547
S      81.67388447      51.46562263      75.79617727
C      81.15232001      53.51030650      73.11654536
H      82.76614628      52.97929339      71.95247396
H      81.34696182      55.50207802      73.60409474
H      79.31361630      53.07188998      72.30396305
C      86.12041048      55.66837394      81.29717057
O      87.08039145      57.42581941      80.29372589
N      84.21934581      55.97639933      82.94879136
H      83.48235255      54.45516964      83.83129356
C      83.12897373      58.45949970      83.44956885
H      82.54882775      59.23617722      81.63354186
C      80.55894594      58.07021608      84.83095877
H      79.94100544      59.96372185      85.35630269
H      80.81027954      57.26897212      86.71123645
C      78.46323946      56.68882616      83.48547364
H      78.97535529      54.69327516      83.53082708
C      76.00659526      56.75496657      84.93867317
H      74.51371147      55.62679996      84.07884771
H      75.39621366      58.71272303      85.14654307
H      76.46201930      55.97450961      86.78682550
C      78.09852228      57.61857149      80.86820269
H      79.73880472      57.44849612      79.63421141
H      77.52971466      59.56309987      81.23669933
H      76.39020970      56.75118712      80.11042244
C      84.83539659      60.39835891      84.58151490
O      84.81649933      62.55264690      83.94278741
N      86.36985436      59.58955605      86.34651927
H      86.43599478      57.68849137      86.48635902
C      88.13107928      61.14102134      87.70334277
H      87.19755448      62.80398049      88.48379973
C      89.27247397      59.82955129      89.98991161
H      90.65197418      61.05598366      90.90453915
H      90.31749262      58.23651201      89.20567519
C      87.35062231      59.01318952      91.99869068
H      86.04671116      57.79998523      90.96878983
H      86.42843587      60.77063499      92.55238049
C      88.86807254      57.44471668      94.08683826
H      89.97356243      58.68437713      95.30571172
H      90.33261043      56.26552745      93.24402032
N      87.14653187      55.93482536      95.68554672
H      86.41709751      54.39658814      94.82572124
C      86.88763937      56.17671033      98.19321353
N      87.47723397      58.26485789      99.28169589
H      87.31093806      58.40280791     101.17709138
H      88.23312450      59.74262387      98.33872247
N      85.91443031      54.35312442      99.42342536
H      86.11285158      54.47406692     101.31882085
H      85.42877065      52.66937829      98.66375539
C      90.31560290      62.23328316      86.17266446
O      91.31526812      64.41024787      86.51092546
N      90.95433039      60.96527680      84.06561962
H      90.13985835      59.26263339      83.77838121
C      92.84405670      61.98005982      82.24392346
H      94.02135620      63.47483335      83.03193932
C      94.88874057      59.86545608      81.48425348
H      95.82604483      60.82921650      79.92333955
C      96.69720866      59.33822244      83.70090244
H      95.95832567      58.00596539      85.08418210
H      96.85216621      61.14291108      84.68544984
H      98.58315552      58.82232715      83.05272632
C      93.64719039      57.61857149      80.21246766
H      92.09572508      58.27619626      79.02949899
H      92.76279847      56.46394872      81.67133637
C      95.43487148      55.89892055      78.75737840
H      96.96366007      55.37168691      80.03294367
H      96.24745379      56.86646042      77.13032404
H      94.33883022      54.29454292      78.07140775
C      91.62707296      63.26507373      79.96680324
O      92.98956563      63.92647793      78.25849066
N      89.13263423      63.50317923      79.98570050
H      88.14808682      62.59800034      81.34819318
C      87.51880795      65.01496029      78.28494682
H      88.25391149      64.73906024      76.38010270
C      84.93177263      63.96049300      78.18479133
H      83.83195192      64.59544105      79.80806623
H      85.14342198      61.91202969      78.22258585
C      83.59384640      64.98094521      75.92656838
O      81.58128788      66.11856045      76.07018758
O      84.59918080      64.35355608      73.80440574
C      87.42054219      67.88356483      78.79895238
O      87.69266277      69.44069931      77.16622884
N      86.92921334      68.55819712      81.22158151
H      86.96511814      67.21460171      82.57462555
C      86.63630577      71.18491669      81.92266997
H      87.40542438      72.42835662      80.47136018
C      83.83951082      71.71781952      82.19479056
H      82.93433192      70.39501110      83.48925309
H      82.91732438      71.64412019      80.35419713
C      83.26125457      74.42201787      82.93178384
H      83.92454851      74.83775766      84.83473822
H      81.25247550      74.87555219      82.96579890
C      84.28926568      76.38544351      80.97402737
O      86.61551878      76.79173467      80.75670884
O      82.86063259      77.68746494      79.64932923
C      88.13485873      71.79151885      84.32829157
O      88.31060328      70.13989804      86.00636855
N      89.10050888      74.07052877      84.50592584
H      88.74713006      75.42357281      83.20579414
C      90.84850572      74.54296035      86.62619877
H      91.84250176      76.28150856      86.14809802
H      92.38107376      73.20881357      86.96823923
C      89.53703566      75.14011387      89.17921902
O      87.73045730      76.51961407      89.05827654
N      90.51591389      74.09509522      91.30705084
H      91.93320862      72.86866284      90.94233368
C      89.49357195      74.46548158      93.73534917
H      87.49424151      73.98738083      93.63519367
C      90.79937283      72.80252243      95.77814331
H      92.81571081      73.09920945      95.48334601
H      90.11151246      70.90145775      95.37752133
C      90.19655014      73.48471363      98.52958481
H      91.00535300      75.35365294      98.83572048
C      87.34873259      73.14456288      99.20043766
H      86.75535852      71.21326260      98.80737458
H      86.15442556      74.10832330      97.82282718
H      86.67599002      74.12344111     100.88418380
C      91.93320862      71.98427093     100.20388234
H      91.43243115      70.02840420      99.79759117
H      91.74045654      72.29985522     102.22966893
H      93.92498015      72.12033123      99.70310485
C      89.71466993      77.26983542      94.40053282
O      91.76502298      78.08241774      95.12996718
N      87.72100867      78.90633841      94.33628212
H      86.07694678      78.15989651      93.71078271
C      87.53203604      81.41211551      95.53814807
H      89.48979250      81.99604093      95.80837892
C      86.22056598      83.45679938      93.83739438
H      85.90687141      85.18400923      94.91642810
H      84.35351638      82.88232257      93.18165935
C      87.68132442      84.52827419      91.63019404
H      89.34428357      85.33140787      92.54293185
H      86.32639065      85.84919289      90.81761173
C      88.36162589      82.48170060      89.56472318
H      86.67032084      81.33841617      89.29071287
H      89.91498092      81.31384973      90.24124520
N      89.04759654      83.42467403      87.07406391
H      89.55215347      85.26715719      87.08162282
C      88.71689444      82.28705878      84.81773069
N      87.86273814      79.94568789      84.57395599
H      87.47534425      79.12176722      82.89776876
H      87.32605587      78.95547129      86.11219322
N      89.34995275      83.63065420      82.89209958
H      88.93043351      83.02027259      81.13276439
H      89.93954736      85.44479146      82.85808450
C      86.84417566      81.18723808      98.32738410
O      84.74657945      80.30284615      98.87729445
N      88.48445810      82.20391083      99.93365146
H      89.92065010      83.31129044      99.32704933
C      88.01769570      82.42500881     102.67186489
H      86.70055646      80.89433049     103.08571496
C      90.41764812      81.79384021     104.10049799
H      90.05860012      82.26249234     106.07337225
H      92.12218125      82.71413693     103.39940952
C      91.16597974      78.96869939     103.92286371
H      91.01858109      78.44146574     101.93676136
C      93.94198769      78.44146574     104.97166182
H      95.22322213      79.85120156     104.19120485
H      94.58071519      76.75582987     103.97199659
H      94.12529114      78.14855816     107.00122787
C      89.45010825      77.00149429     105.39307078
H      90.22678576      75.15523168     104.90363167
H      87.56038193      76.94669222     104.57481929
H      89.37829865      77.48904368     107.39240123
C      86.67976947      84.68323176     103.53735955
O      85.16987815      84.58874543     105.36850434
N      86.52670164      86.48981011     101.74022983
H      87.59628673      86.26682240     100.17553643
C      85.50435970      89.00314611     102.12573400
H      84.40075954      88.66866455     103.83215685
C      87.51502850      91.01381491     102.63596010
H      89.23278972      90.13698189     103.35972528
H      86.87630101      92.21946028     104.17797676
C      88.35595671      92.72779666     100.34372208
H      86.78937360      93.58951186      99.31949042
H      89.45577742      91.53537937      99.07382599
C      90.08883574      94.91798947     101.57204418
H      89.27247397      95.69655671     103.29547458
H      90.40819949      96.53559519     100.33427344
C      92.74390121      94.02792837     102.34872169
H      93.82482466      93.90509615     100.60072485
H      92.55492858      92.17410685     103.22366497
N      93.70766163      95.65309300     104.39907474
H      94.10828361      97.47478917     103.99656305
H      95.27991392      94.88397438     105.15685500
H      92.37162513      95.85340398     105.74644960
C      83.43132994      89.67021949     100.22088987
O      83.33306417      88.56472959      98.29147930
N      81.72301735      91.30672247     100.90875024
H      81.72112763      91.85663283     102.73800531
C      79.52526565      91.95111915      99.41964592
H      78.60874839      90.20690176      98.81493349
C      77.44845643      93.38920088     100.82749202
H      78.28938464      95.02570386     101.75534763
C      75.38865475      94.30382841      99.03603146
H      76.25414940      95.28837583      97.44677164
H      74.18867854      95.75702795      99.86751105
H      74.27560595      92.69378159      98.39163480
C      76.51493163      91.73946980     103.03658207
H      78.07773529      91.48813620     104.35561105
H      76.01604389      89.94800925     102.14841071
C      74.23214225      92.98101999     104.37450830
H      72.56729337      93.17377207     103.17831154
H      74.67244848      94.91232028     104.94142619
H      73.62554010      91.87741983     106.00345239
C      80.58729184      93.26825840      97.02914212
O      82.38253184      94.83106205      97.19354832
N      79.63675950      92.56716993      94.85973631
H      78.18733942      91.33128892      94.71233766
C      80.48335689      93.43833377      92.32561333
H      81.01248026      95.42821556      92.33317223
C      82.69055722      91.62986567      91.64720159
H      83.84329028      91.20278753      93.30071211
H      83.87352590      92.56528020      90.24313494
C      81.96679205      89.29038450      90.24880411
C      82.49780514      89.15999339      87.72224003
H      83.39731487      90.76815047      86.84162758
C      81.83451120      86.95846224      86.38620353
H      82.04994000      86.85263756      84.36041692
C      81.11830493      84.71346737      87.56917221
O      80.61374801      82.57240746      86.06683978
H      81.10318712      82.69523968      84.32262239
C      80.54760759      84.88732219      90.27148083
H      79.69723074      83.33963635      91.29571250
C      80.88208914      87.22113419      91.47145704
H      80.13186780      87.30428215      93.36685253
C      78.13820654      93.12463919      90.62863911
O      76.34863572      91.85096365      91.41665498
N      78.16277298      94.20934210      88.37041616
H      79.65187731      95.23735322      87.76192428
C      76.04250005      94.30004895      86.59029397
H      74.39654844      93.48179746      87.52003931
C      75.57573766      96.91165072      85.34307460
H      74.51182174      96.54315410      83.62153394
H      77.35585984      97.75446866      84.74025192
C      73.94112439      98.78436949      86.95690088
H      74.81039850      99.23034491      88.76914842
H      72.02683164      98.06060432      87.18366803
C      73.65199627     101.33172057      85.60952602
H      73.07940920     100.87440681      83.68389491
H      75.52660477     102.18398713      85.61330546
C      71.74715215     102.93987767      86.96257006
H      72.57485227     103.54270035      88.74836142
H      70.26560672     101.59061307      87.44256053
N      70.65300061     104.92975946      85.54905478
H      72.01927273     106.18453775      85.10307936
H      69.14688874     105.75556987      86.38431381
H      69.85931556     104.35528268      83.91255179
C      76.75114742      92.45945553      84.55505874
O      78.90921487      92.62575144      83.46657638
N      74.83685467      90.90987996      83.76704286
H      73.11909345      91.14609574      84.56450736
C      74.75559644      89.59652016      81.31795755
H      76.27115694      88.21324050      81.13654383
C      72.05328781      88.19245352      81.40677469
H      70.42056427      89.37164273      80.97780683
H      71.88510217      87.19089856      83.20012497
C      72.27438579      86.11564430      79.43767988
O      71.08385821      86.38020599      77.40244463
O      73.69357025      84.37709609      79.76649226
C      74.73669917      91.29160466      78.93123322
O      74.44568132      93.52337145      79.13910312
N      75.10897526      90.25603464      76.79017332
H      75.34141159      88.36252888      76.72214316
C      75.09196772      91.69411637      74.29384486
H      76.29194393      93.35707552      74.47903804
C      76.31273092      90.31083671      72.11310068
H      75.86108633      91.31806084      70.37455248
C      79.15676902      89.99525242      72.15278494
H      79.67077458      89.33006876      70.27250725
H      79.64809786      88.63653920      73.62110228
H      80.15265479      91.76781569      72.47025896
O      75.39810338      87.76726509      72.18680002
H      76.29950283      86.79216632      70.95280874
C      72.34619539      92.50480896      73.54362350
O      71.86053572      93.93722150      71.77483967
N      70.32418823      91.43522387      74.79084287
H      70.88732667      89.99336270      75.90389167
C      67.71069674      92.15898904      74.81351958
H      67.10598432      92.99802752      73.03339741
C      66.13088554      89.80439007      75.50137996
H      65.81152180      89.67777839      77.53283575
H      67.18157337      88.10174665      75.01761004
C      63.33975978      89.57384344      74.66612093
H      62.35332264      91.34640673      75.02894838
H      62.63489186      87.99025280      75.77728000
C      63.19236113      89.20723655      71.89200272
O      62.46103704      90.89665186      70.41990592
O      63.95014138      87.22680336      70.91690393
C      67.39511245      94.59484627      76.58419315
O      65.26161144      95.46412036      76.58419315
N      69.21302916      95.24491212      78.14321736
H      70.87409859      94.35863048      77.82952278
C      68.92579076      97.51447341      79.75704362
H      68.11320845      99.12452024      78.76493731
H      70.80417872      98.24768722      80.18034232
C      67.98470706      96.98723978      82.33840976
O      68.03383994      98.59161742      83.99569974
N      66.89244525      94.77437026      82.74281120
H      66.61276575      93.65565229      81.22158151
C      65.73782247      93.97312630      85.14087389
H      64.58130997      95.50947379      85.87597743
C      64.01250235      91.72246226      84.83284851
H      63.29629607      91.30483276      86.71879536
H      65.03484428      90.00659078      84.32829157
C      61.75427940      92.12875342      83.06406467
C      61.24405330      90.30138809      81.03638833
H      62.55552336      88.80661456      80.57718485
C      58.93102829      90.45823537      79.63799086
H      58.57009056      89.00125637      78.25660093
C      57.06964787      92.21379111      80.29750535
O      54.91724960      92.01725957      79.10319832
H      53.65113297      93.16054400      79.72302855
C      57.52318219      94.02603864      82.16833440
H      56.01329086      95.34128816      82.55572829
C      59.78896404      93.89564752      83.50248117
H      59.91935515      95.17499224      85.08985128
C      67.90533855      93.33628853      86.97201868
O      70.04261901      92.71078912      86.08762678
N      67.35731792      93.44589267      89.47212659
H      65.67924095      94.23579826      89.91432255
C      69.18468327      92.89787204      91.40720634
H      70.98181299      93.55738651      90.64753636
C      68.65178044      94.50602912      93.79204096
H      69.60798196      93.83139683      95.48523572
H      66.60331712      94.67232505      93.94888823
C      69.81774158      97.09495417      93.53314844
C      68.40422630      99.35695657      93.42543405
H      66.36332188      99.37018466      93.38574979
C      69.61176141     101.76824734      93.46700802
H      68.52138933     103.39908116      92.89820040
C      72.27060633     101.84572612      93.62007585
O      73.57073804     103.96599904      93.09851140
H      72.36320292     105.29636637      92.83583943
C      73.60097366      99.60640044      94.12652250
H      75.62109109      99.75757856      94.37029720
C      72.41044608      97.25369119      94.03581564
H      73.63687846      95.62285737      94.06605126
C      69.33019219      90.05005449      91.96845505
O      67.34975902      88.95401322      92.20845030
N      71.63943775      89.07873516      92.13097152
H      73.11909345      90.26170383      91.89286601
C      72.52571939      86.42933887      92.34451060
H      70.96669518      85.20479621      92.90386958
C      73.84096890      85.54494696      89.77637253
H      75.05039374      83.91978232      90.14864861
C      71.87754326      85.01204413      87.75058592
H      72.60508789      83.97647412      86.12542129
H      70.78528145      86.64476766      87.12508651
H      70.33363686      83.82907546      88.42899768
O      75.42266982      87.49325477      88.55371961
H      76.23147269      88.52126589      89.80849788
C      74.50615256      86.24414569      94.40053282
O      75.56061985      87.93545073      95.47767683
N      75.05039374      83.81206793      95.06193703
H      74.08285387      82.40422181      94.20967047
C      77.07995980      82.84263832      96.74190373
H      78.73536005      84.06907071      96.65497631
C      75.97258018      82.93523491      99.53113976
H      74.97858414      84.73614409      99.63885416
C      74.09419223      80.76393938     100.19065425
H      73.08696810      81.31573947     101.90085656
H      75.01259921      78.92901513     100.35695017
H      72.59563926      80.59953319      98.78658760
C      78.24970039      83.34152607     101.43220444
H      79.46668413      84.84007904     100.71221870
H      79.14543066      81.48959429     101.51724212
C      77.39932355      84.17678510     104.17797676
H      76.29572338      85.84730316     103.69231711
H      79.14921011      84.53772283     105.20409815
H      76.27871584      82.92767600     105.37228380
C      77.77348936      79.96269542      95.80270975
O      76.41666586      78.91011786      94.16242730
N      79.65376704      78.58130549      96.89119211
H      80.99925217      79.25404805      98.06849159
C      79.64242868      75.85065096      96.69277084
H      77.76026127      75.03428919      96.87985374
H      80.35107605      75.00972276      98.43509850
C      80.88208914      74.82830903      94.32683350
O      82.66410106      75.95080645      93.45755940
N      80.04116093      72.78929433      93.19866688
H      78.70134498      71.81797502      94.14919923
C      81.07295150      71.64789964      90.84973709
H      82.99480316      72.31119359      90.52092470
C      81.17877617      68.76417729      91.04815835
H      79.30038822      67.95159498      90.82517063
C      82.62441680      67.75128398      88.73891280
H      82.96456754      65.73116656      88.94489296
H      84.47634859      68.63756563      88.57450660
H      81.44333786      67.76829152      87.04949747
C      81.84207011      67.55664218      93.51614091
H      81.82317285      65.49873023      93.44433130
H      80.46445963      67.84010112      95.02036306
C      84.45745133      68.40134983      94.48557050
H      85.91065086      67.90057236      93.11551893
H      84.74657945      67.45270723      96.29214887
H      84.54059928      70.44225425      94.75580138
C      79.06984161      72.60032170      88.85040664
O      77.73002565      71.08476121      87.63531262
N      78.90732515      75.10420907      88.52915316
H      80.10919108      76.08497703      89.64220196
C      77.02326801      76.47804010      87.05705638
H      77.32373450      75.66545779      85.19000678
H      77.46357424      78.48870890      87.00603376
C      74.23403197      76.28339830      87.98302227
O      72.69390503      76.15678662      86.27659940
N      73.70868806      76.28906746      90.51147608
H      75.24314582      76.41000995      91.63964268
C      71.11409383      76.06985922      91.47901595
H      69.88577173      74.73949189      90.49446853
C      71.29550756      75.14389332      94.31738486
H      72.00415492      76.70858671      95.45877955
H      72.53327829      73.51683897      94.55360065
C      68.59886811      74.79996314      95.30760145
N      67.00204937      72.74772036      94.91075892
H      67.40078163      71.08098176      94.07172044
C      64.82508466      73.22960056      96.15419884
H      63.23393511      71.95970449      96.01813854
N      64.92901961      75.57097147      97.28803464
H      63.38889266      76.47615038      97.95888747
C      67.37810491      76.37032570      96.94221471
H      68.09242146      78.11643281      97.72078195
C      69.70435800      78.53028288      91.51681047
O      70.59063964      80.25182355      92.73568394
N      67.53495219      78.68713017      90.24880411
H      67.07763843      77.12621623      89.24724916
C      65.82474988      80.88488187      90.25447329
H      67.05685144      82.26060262      89.34362522
C      63.45692281      80.24237491      88.70300799
H      62.59520761      78.53595205      89.46645743
H      63.92557494      80.00048994      86.71312618
C      61.15334643      82.08107861      88.74836142
H      60.16879903      82.09052726      90.55871923
C      61.98104656      84.76448999      87.90176403
H      60.42769153      85.96824564      87.28949271
H      63.30574471      84.92700644      86.33140146
H      62.81441586      85.65266135      89.56283346
C      59.03874269      81.20802506      86.87942209
H      59.74550033      80.80173390      84.98969578
H      57.55530753      82.62531979      86.69044947
H      58.26017545      79.42790288      87.56539276
C      65.15956622      81.48581483      92.97945864
O      63.80274273      80.15166805      94.37029720
N      65.99671498      83.76104531      93.83928411
H      66.50127190      85.04227976      92.52025514
C      65.48081969      84.49047967      96.50568793
H      64.99704976      82.75004173      97.49968397
C      67.78250634      85.92478193      97.63385454
H      68.37588040      87.41199654      96.34128175
H      69.52861345      84.83440985      97.65086208
C      67.35164874      87.09263280     100.25490494
H      65.59798272      88.16788708     100.38718578
C      67.21369872      85.27849554     102.54714295
H      68.89555514      84.08985768     102.57359913
H      65.55451902      84.06340152     102.67186489
H      66.98693156      86.33296283     104.30269870
C      69.32830246      89.17700092     100.59883514
H      68.82563527      90.39965384     102.17864633
H      69.37365590      90.49791962      99.02091366
H      71.28794865      88.56661933     100.76702077
C      63.10921317      86.07784978      96.56048999
O      61.41034921      85.47691681      98.04959433
N      62.95425561      88.05450350      95.01469387
H      64.41501405      88.41733095      93.84117383
C      60.52028812      89.55305646      94.78036781
H      58.80441663      88.44756656      95.06193703
C      60.38422783      91.49191565      97.06693665