 %block lattice_cart
   137.793   0.000   0.000
   0.000 143.498   0.000
   0.000   0.000   162.326
 %endblock lattice_cart

 %block positions_abs
N      86.13930775      36.86465226      79.46413605
H      85.53648505      35.57963837      80.74159103
H      87.58683810      36.33741862      78.33785916
H      84.76169726      37.22558999      78.19423997
C      86.95000033      38.98303546      81.05150615
H      88.41453823      38.33863879      82.35163786
C      88.14052791      41.27149402      79.75137444
H      86.59284206      42.20690855      78.76493731
H      89.43876989      40.44190417      78.38699204
C      89.56538155      43.11964636      81.48236375
H      91.20188454      42.08029689      82.17967275
H      88.49012728      43.79994783      83.09996948
S      90.75590913      45.71802004      79.58318881
C      92.94421220      47.35641275      81.75070489
H      93.66608765      49.03071027      80.79828283
H      94.66953232      46.23580505      81.86597819
H      92.05226138      47.53215730      83.59885721
C      84.71634383      40.08474590      82.61242008
O      82.74913874      40.79528299      81.68834392
N      85.00547196      39.83341230      85.12575609
H      86.74213044      39.51026910      85.84952125
C      83.25369567      40.92000493      87.04382829
H      81.40554333      40.06584864      86.72446455
C      84.30627322      40.28883634      89.57984099
H      86.30371393      40.79150354      89.53637730
H      84.07572661      38.27627782      89.95400681
C      82.90031685      41.33952417      91.85318176
O      80.81405900      42.26549006      91.70011392
N      84.07383689      41.36787007      93.91865261
H      83.39920459      42.13698868      95.52869944
H      85.84640017      40.67811996      93.78637178
C      82.68488805      43.77916084      86.72635426
O      84.29115541      45.37597958      87.09107144
N      80.24525138      44.55205890      86.60730150
H      78.85630254      43.27649364      86.88887073
C      79.41755125      47.15799149      86.26904049
H      79.98824860      47.82506488      84.40388062
C      76.52060081      47.09563052      86.10274458
H      75.94801374      45.43267137      85.03126977
C      75.36597804      46.75359006      88.77292786
H      76.23147269      45.19267612      89.80093898
H      73.37042705      46.25848176      88.64820592
H      75.24314582      48.49024854      89.87652804
C      75.04283484      49.32739730      84.88387112
H      75.33385269      51.06594550      85.95156648
H      73.05673248      48.82850955      84.67033204
C      75.67589315      49.90943300      82.17778304
H      77.60530372      50.57839612      81.91322134
H      74.49859366      51.33050719      81.25937604
H      75.39999311      48.16899507      81.11008767
C      80.47201853      49.10818904      88.33829082
O      80.95389874      51.35507363      87.76381402
N      80.80838982      48.24836357      90.63052882
H      80.52682060      46.42099823      91.10673987
C      81.96679205      49.95856589      92.58072639
H      81.31672619      51.85018192      92.09128727
C      80.93122203      49.22724180      95.34728571
H      81.37908716      50.76736875      96.63985851
H      81.75892215      47.43200180      95.92932142
C      78.06072776      49.11763768      95.56649395
C      76.78516250      51.30027157      96.48868040
H      77.77915854      53.02937114      96.92142773
C      74.25670869      51.16421127      96.88930237
H      73.27027155      52.84228824      97.50157370
C      72.90177492      48.96079039      96.53403384
H      70.91378284      48.81150201      96.97622979
C      74.20379635      46.84996610      95.68554672
H      73.24570511      45.09818981      95.26413774
C      76.78138304      46.80083322      95.25279939
H      77.89065239      45.22102202      94.58572600
C      84.93933154      50.03037549      92.79237574
O      86.08261596      51.48924420      94.25691362
N      86.13741802      48.58284513      91.03493026
H      85.10373773      47.22602164      90.17888425
C      88.73579170      48.91543696      90.22612740
H      89.76569254      49.89053574      91.72279063
C      89.98490079      46.23958450      89.75747528
H      91.57038117      46.54005098      88.47624083
H      88.75657869      44.96023979      88.71245663
C      91.09794959      44.93378362      92.23112701
H      89.46711578      44.62764796      93.45189022
H      92.37351485      46.29627629      93.10607030
C      92.53225186      42.60375107      91.52625911
O      94.95110154      42.82862851      91.21067480
O      91.49857157      40.45135280      91.19177755
C      89.02869928      50.37619540      87.71468112
O      90.76157831      51.77837232      87.28193381
N      87.10684762      50.10596454      86.05739116
H      85.66309671      48.90409860      86.39376243
C      87.07472227      51.38908870      83.70657162
H      88.79059376      51.37208117      82.57084611
C      85.09617882      50.17966386      81.90944190
H      83.29715937      49.81116723      82.84296670
H      85.86340770      48.27670947      81.71857954
C      84.91287537      51.18877771      79.16177984
H      86.65142358      51.28137430      78.06006939
H      83.99446838      53.02748142      79.30539904
S      82.68677777      49.26503633      77.35142203
C      82.75480792      50.99980508      74.44502295
H      81.45656594      50.11730290      73.11087619
H      84.54815819      50.69744887      73.47559337
H      81.98946876      52.89520058      74.68879766
C      86.70622564      54.23123708      84.19223129
O      88.42209713      55.64475236      83.77460176
N      84.35351638      54.90775910      85.01615195
H      83.31227718      53.48479519      85.74369659
C      83.65809710      57.71967185      85.21268350
H      84.20233827      58.43587813      83.36264144
C      80.75736721      57.71400267      85.43567119
H      80.28871508      59.69065640      85.10118963
H      80.05249929      57.26613754      87.31972832
C      79.28716013      56.20600108      83.52893735
H      79.87675474      54.23312681      83.57051132
C      76.48469601      56.21544971      84.36230665
H      75.39054448      55.18932832      82.94879137
H      76.08407403      58.23556714      84.27159979
H      76.20312679      55.56160440      86.29360695
C      79.32873411      57.36818276      80.93245339
H      81.02381862      56.56504908      80.08207656
H      79.33062384      59.39963854      81.27071441
H      77.89254212      56.94866352      79.51893811
C      84.98090552      59.27113716      87.30461052
O      84.67476985      61.49912448      87.41988382
N      86.51158383      58.10895547      88.87308336
H      86.94811061      56.28159013      88.54805044
C      88.04415187      59.25412962      90.80438365
H      87.02936884      60.63551955      91.94955780
C      89.00413284      57.05070874      92.47490172
H      90.32127208      55.84695308      91.44311115
H      87.25424627      56.11907367      93.03426070
C      90.48189881      57.78392255      94.88241303
H      89.58805827      59.38452073      95.81971728
H      92.46989089      58.17131644      94.50635750
C      90.42142757      55.54459687      96.67198386
H      88.50524509      54.80004470      96.58127699
H      90.75968858      56.05293324      98.64107868
N      92.36973540      53.67754727      95.87829881
H      93.39018761      53.95911649      94.28903897
C      92.82137999      51.40042706      96.84961813
N      91.72344900      50.38564403      98.82060268
H      92.02769494      48.51103553      98.99823695
H      90.52914197      51.42310378      99.88829804
N      94.71299603      50.16454605      95.75735631
H      94.99267552      48.43544648      96.51702630
H      95.34983380      50.79949409      94.07549990
C      90.44410429      60.58638667      89.72723966
O      91.54581473      62.27013281      90.85540626
N      91.19432563      60.05726330      87.42555300
H      90.52536252      58.53792335      86.48635902
C      93.27302458      61.57093408      86.08195760
H      93.89663426      63.19231926      87.18744749
C      95.70510234      60.05915303      85.65676918
H      97.13940461      61.25723951      84.78749507
C      96.95421143      59.68309749      88.28726821
H      98.78913568      58.74957269      88.26837094
H      95.78258112      58.33005345      89.30394096
H      97.12617653      61.52936010      89.18677793
C      95.41408449      57.51180196      84.27537924
H      93.91364180      56.42331960      85.16921978
H      97.14507379      56.39497371      84.29994568
C      94.66386314      57.98234381      81.55795280
H      92.68342997      58.46800347      81.26504523
H      95.10794883      56.26269287      80.51482388
H      96.10950377      59.19365838      80.73025268
C      92.28469772      63.08460486      83.67822573
O      93.84372192      63.95576869      82.13053987
N      89.91120147      62.92208839      82.98469617
H      88.65831292      62.31548625      84.29238677
C      88.81704993      63.97088650      80.63576637
H      89.81104597      63.12617883      79.04272708
C      86.02970362      63.33215900      80.19546012
H      84.80327124      64.28647079      81.54850416
H      85.59506657      61.34227719      80.49970606
C      85.15665006      63.82915702      77.56496111
O      82.86819150      64.27702216      77.33063504
O      86.53992972      63.40963778      75.69224232
C      89.17231848      66.83382186      80.54316977
O      89.69955212      67.79758228      78.49470645
N      88.98712530      68.09048986      82.71068586
H      88.46556084      67.15696506      84.29238677
C      89.69010349      70.65106901      83.03382905
H      91.30770921      71.12916977      81.85086037
C      87.45455726      72.28379255      82.06439946
H      86.32072147      72.85448989      83.68578462
H      86.25269132      71.12161086      80.86253351
C      88.29170602      74.76311347      80.80584173
H      89.06460408      74.18107777      78.98792502
H      89.76191309      75.57758551      81.99636931
C      86.08261596      76.59992745      80.39199167
O      85.32861516      76.83425351      78.16022489
O      85.52325697      78.17029001      81.97180287
C      90.35339742      71.27089924      85.91377196
O      89.52758702      69.80258190      87.59373865
N      91.77447161      73.21164817      86.59029398
H      92.26013127      74.21509284      85.04071839
C      92.56815666      73.66707221      89.18299848
H      93.55459380      75.46231221      89.40976563
H      93.70010272      72.00978223      89.64409170
C      90.20599877      73.81636059      90.92721587
O      88.32950054      75.07680804      90.25825275
N      90.26835974      72.72220905      93.23268196
H      91.74423599      71.52412257      93.39519843
C      88.41075877      72.72031933      95.28870420
H      86.58717288      72.97921183      94.36840747
C      88.52414235      70.03312851      96.37907628
H      90.51402416      69.67219078      96.78158798
H      87.95533473      68.46276594      95.17343089
C      87.06338391      69.35849621      98.84516912
H      88.15942517      70.28446211     100.32293508
C      84.41209790      70.28635183      98.92075816
H      84.53115065      72.32725625      98.68265265
H      83.59951558      70.02556960     100.79725640
H      83.24424703      69.49077706      97.42220520
C      86.86496265      66.53902456      99.35539522
H      85.43066038      66.03068818     100.74245434
H      88.73768143      66.06470325     100.07538095
H      86.71945372      65.35605588      97.67542853
C      88.86618282      74.93318884      97.04803938
O      90.68220980      75.11082311      98.48612112
N      87.29959970      76.87204803      96.63229960
H      86.02970362      76.69441376      95.22067404
C      87.13330379      79.31546416      98.04203543
H      89.08350134      79.67073270      98.60517388
C      86.19033036      81.60392272      96.56237972
H      86.11852076      83.14782912      97.92487240
H      84.18155129      81.35636858      96.17498584
C      87.63408126      82.39949750      94.11140470
H      89.66364732      82.39004887      94.46667324
H      87.10873734      84.37237177      93.83739438
C      87.18999558      80.70630272      91.81160777
H      85.33617406      79.80679300      91.78137215
H      88.48634783      79.10570454      91.88908656
N      87.44510863      82.08769266      89.48157524
H      87.20511339      83.97174979      89.66676842
C      87.25046682      81.24298500      87.22524202
N      87.00102294      78.79767915      86.72257482
H      86.51725301      78.32902702      84.93867318
H      87.44510863      77.53345224      88.08128804
N      87.04070720      82.76799413      85.35252324
H      86.07127760      82.13493582      83.83696274
H      87.00669212      84.65961017      85.60952602
C      85.48735217      79.14538879     100.43820840
O      83.49747036      78.02856054     100.24734604
N      86.37174408      80.36993144     102.40541348
H      88.18399162      80.96708496     102.37517786
C      85.23790829      80.76488424     104.91685976
H      83.40487377      79.83513889     104.75623302
C      86.69866673      79.05090247     106.91619019
H      86.80071196      77.09692547     106.26990380
H      85.67254535      79.23231620     108.69253293
C      89.49924113      79.59136420     107.57570467
H      90.49701662      79.78600601     105.78613386
C      89.85073022      82.06123649     109.04213230
H      89.82049460      83.71096756     107.81003075
H      91.52691746      82.19351733     110.23265987
H      88.28414711      82.19918651     110.37249963
C      90.51402416      77.50510635     109.36527550
H      90.55181869      75.74955060     108.29191096
H      89.28381233      77.25755220     110.99988876
H      92.41697856      77.95297149     110.02101053
C      84.79760206      83.50120794     105.69164755
O      83.42188131      83.85080731     107.48688755
N      85.94655566      85.27188150     104.33482405
H      86.95000033      84.91283350     102.75123341
C      85.06216375      87.85135791     104.29325008
H      84.48579722      88.35969429     106.20565310
C      87.13330379      89.78265821     103.61672805
H      86.50213520      91.73285576     103.41263762
H      88.09517448      89.32912389     101.85361341
C      89.24223835      89.83557054     105.67086056
H      89.86206858      87.90804970     106.04880582
H      88.35028753      90.80500014     107.25256148
C      91.48345376      91.56089067     104.96410291
H      92.65508407      91.77820919     106.64595934
H      90.85795435      93.49974986     104.65985697
C      93.01413207      90.71996246     102.50178953
H      91.82360450      91.33412351     100.93520641
H      93.31837801      88.73008065     102.06337303
N      95.49156327      91.98985854     102.27502238
H      95.48022491      93.78887799     101.63818461
H      96.48744904      91.08278991     100.92386805
H      96.49689767      92.04466060     103.89640755
C      83.08173057      88.06111753     102.14652099
O      83.30471828      86.94050983     100.09616793
N      81.14476110      89.63525955     102.66619572
H      81.06728232      89.97163084     104.54269394
C      79.36274919      90.64059395     100.64985775
H      78.47268809      89.01353960      99.75412746
C      77.31617559      92.34701681     101.72133256
H      78.21190586      94.13091845     102.23533812
C      75.52282532      93.00464157      99.50279387
H      76.44312203      94.12713900      98.04014571
H      74.21324498      94.43138494     100.20199261
H      74.48158612      91.34735159      98.86406638
C      75.97824936      91.19239403     104.03813702
H      77.21602010      90.90704536     105.65952220
H      75.52849450      89.29699854     103.36161501
C      73.61042229      92.89881690     104.90174194
H      74.30395185      94.72618224     105.55936671
H      72.65422078      91.95017429     106.46076616
H      72.18745838      92.96873677     103.41641707
C      80.91799394      92.02009416      98.69021156
O      81.71545845      94.09123420      99.07004654
N      81.05972342      90.93917071      96.45088587
H      80.24147192      89.21385059      96.40553245
C      82.08206535      92.12591883      94.13597114
H      82.96456754      93.93627664      94.56871847
C      84.20800745      90.23430279      93.16654155
H      85.28893090      89.38014650      94.69910959
H      85.51380834      91.23396801      91.92499136
C      83.13842236      87.98552848      91.72845982
C      83.12141482      87.84001956      89.08851216
H      84.00769646      89.49730953      88.29482710
C      82.27859689      85.65549594      87.79593936
H      82.27103798      85.66494457      85.75503495
C      81.32806455      83.50876685      89.04504845
O      80.44178291      81.50943641      87.68066606
H      80.74980830      81.73053439      85.90810278
C      81.23924742      83.63348878      91.77003380
H      80.44745209      82.08958239      92.84717780
C      82.03104274      85.92005762      92.97189974
H      82.34662704      85.88037337      94.99012744
C      79.85218830      92.67393946      92.16309686
O      77.66010578      92.37347298      92.92465658
N      80.52682060      93.32778477      89.73101911
H      82.33150922      93.86824649      89.42677317
C      78.53693879      93.46384506      87.65232017
H      76.74547824      92.66638056      88.28348874
C      77.96624144      96.18883041      86.76981797
H      76.88342826      96.12080026      85.01993141
H      79.78037870      97.02597916      86.26148160
C      76.59996932      98.08044645      88.46301275
H      77.54483247      98.17493276      90.29037810
H      74.67244848      97.40014497      88.71623607
C      75.98391854     100.74496055      87.41232491
H      75.11275471     100.64669478      85.54905478
H      77.74325374     101.78431002      87.14209406
C      74.24348061     102.22083680      89.35496357
H      75.36408831     102.41736833      91.07083506
H      72.53327829     101.13424417      89.71968075
N      73.50081816     104.87212281      88.41576960
H      72.46524814     104.63590703      86.83028922
H      75.03905538     105.96438462      88.11341339
H      72.49926322     105.93981818      89.64031225
C      79.26826287      91.80277563      85.34685406
O      81.51514746      91.63081054      84.68922930
N      77.45412561      90.81444877      84.13553950
H      75.78171782      91.45506599      84.79127453
C      77.73380511      89.57100886      81.65810830
H      79.50825811      88.52976966      81.55417334
C      75.62487054      87.59435513      81.57873980
H      73.85986616      88.64882242      81.72046927
H      75.88187332      86.14493505      83.01871125
C      75.46613353      86.06745627      79.06540380
O      73.51026680      84.93739994      78.39833040
O      77.52404548      85.73108499      77.91833992
C      77.48058178      91.45695572      79.60019635
O      76.88720772      93.71139921      79.93278817
N      78.01159487      90.77287479      77.23425900
H      78.69756552      88.99464233      77.17945694
C      77.94356473      92.33756818      75.06296346
H      79.08495942      93.90037184      75.76783138
C      79.04149571      91.11302553      72.71970284
H      78.35363534      92.08812431      71.03973615
C      81.94978451      91.45128654      72.45892061
H      82.78693327      90.55555627      74.11621059
H      82.31639141      93.47707315      72.48915623
H      82.60174009      90.76531589      70.62966554
O      78.39142986      88.51465185      72.48159732
H      79.75581226      87.68884145      71.61610266
C      75.39810338      93.72273757      74.66423122
O      75.37731639      95.65592759      73.50204953
N      73.30239690      92.76275660      75.63177108
H      73.20980031      91.07145155      76.51049382
C      70.90433421      94.00430679      75.45035736
H      70.64355198      94.48996645      73.46803446
C      68.79917910      92.08623458      76.27616776
H      67.16267611      92.95928814      77.17000830
H      69.57585661      91.28121117      78.00526733
C      67.82219059      90.02076372      74.57352434
H      66.93212950      88.45796006      75.57507930
H      69.41145042      89.17794579      73.56818995
C      65.96647935      91.12247416      72.56096582
O      66.65433973      92.75897715      71.06241286
O      63.78573519      90.18139046      72.36443429
C      70.45079989      96.40425921      77.13977268
O      68.77272293      97.83667175      76.65033356
N      72.30651113      96.95605929      78.85942363
H      73.68601134      95.66726594      79.14288258
C      71.95691177      98.99318425      80.77182665
H      71.14243973     100.71850438      79.99325941
H      73.86175589      99.22751032      81.51448910
C      70.43568208      98.17871221      83.05272632
O      69.93112516      99.55443297      84.90654783
N      69.43223741      95.89781255      83.19634552
H      69.79884432      94.62791647      81.81873504
C      68.03761939      94.82633773      85.33551571
H      66.96803430      96.37780304      86.16510555
C      66.05907594      92.78354359      84.61175053
H      64.84776138      92.32434010      86.21423843
H      67.05118226      91.07901046      84.01837647
C      64.47359557      93.51297795      82.42155772
C      63.91045713      91.77065029      80.43923482
H      64.48871338      89.81289383      80.41844784
C      62.55741309      92.67393946      78.35486671
H      62.28529250      91.37380776      76.80718085
C      61.52373279      95.10034805      78.15077625
O      60.20659355      96.04332148      76.05506978
H      59.69069827      97.72517790      76.50482464
C      62.05096643      96.72551268      80.20301903
H      61.42735675      98.65114379      79.93467790
C      63.68935915      95.98851942      82.14376796
H      63.82730917      97.22817988      83.76137368
C      70.04450874      93.76053209      87.35752285
O      72.16478166      93.24652654      86.55816863
N      69.43412714      93.86446704      89.82739514
H      67.67101249      94.26508902      90.43966647
C      71.09141712      92.89503744      91.89853519
H      72.97547425      93.62636153      91.49980294
C      70.15222314      94.00997597      94.37596638
H      71.07629930      93.19928338      96.02758718
H      68.21525367      93.33534367      94.54604176
C      70.31851905      96.74440994      94.23801637
C      68.15856188      98.27886771      94.05849237
H      66.33119653      97.43982923      93.70700326
C      68.42879274     100.88857975      94.31360541
H      66.82630483     102.12635048      94.03770538
C      70.75882528     101.94304703      94.64052806
O      71.16133699     104.51685427      94.73123492
H      69.60987169     105.44282016      94.55549038
C      72.90366465     100.48417832      94.98634799
H      74.61197724     101.49140244      95.46633847
C      72.68445640      97.89336354      94.88052330
H      74.27182650      96.64614417      95.19043842
C      71.31440482      90.05477879      91.58673035
O      69.49270865      88.88314848      90.95178231
N      73.54428187      88.98330397      92.21222975
H      75.10519580      89.94139522      92.74513257
C      73.95435248      86.22430356      92.06861056
H      72.12131796      85.29266849      91.97034479
C      75.26204309      85.54967126      89.66487869
H      76.30328229      83.80356415      90.01447805
C      73.41955993      84.78811156      87.51059068
H      72.56540364      86.55689539      86.89076046
H      72.00604465      83.32168394      87.81294689
H      74.52693955      83.96419089      85.98180210
O      76.97791458      87.45073594      88.74080251
H      78.72024224      87.07090095      89.07339434
C      75.34141159      85.12637257      94.34951022
O      76.56595424      86.56445429      95.73656933
N      75.31873488      82.59791876      94.64241780
H      74.13765593      81.59258436      93.52936899
C      76.48469601      81.18251375      96.65497631
H      78.24970039      82.20674542      96.93465581
C      74.87842865      81.19763157      99.03981092
H      73.83529972      82.97208457      99.10784107
C      72.66555913      79.24365456      98.90564036
H      73.28916882      77.28022892      98.92453762
H      71.48636991      79.75954984      97.29937299
H      71.61865076      79.29089772     100.67820364
C      76.34863572      81.00865893     101.56637500
H      77.35774957      79.23231620     101.82337779
H      75.06362183      80.96897468     103.17453210
C      78.35552506      83.04767363     101.98400451
H      78.96590666      82.66783864     103.91341508
H      77.34452148      84.76543484     101.46244006
H      79.98446914      82.63382356     100.78969749
C      77.25381462      78.51422020      95.74412824
O      76.38643024      77.56179814      93.87896837
N      78.95645803      77.32369262      97.16898188
H      79.77281980      78.21942290      98.64485812
C      79.85029858      74.81980526      96.47545231
H      78.28182574      73.49132766      96.36017901
H      81.00492135      74.15273187      98.04770461
C      81.24302687      74.62894290      93.92999097
O      82.96078809      76.06135545      93.29315320
N      80.26225891      72.90173305      92.38797431
H      78.76559567      71.83592741      92.90197986
C      81.00114190      72.52000834      89.75369583
H      82.62252708      73.76155852      89.49858277
C      82.04427083      69.81014080      89.33795604
H      80.47390826      68.54969335      89.77259308
C      82.73024148      69.35849621      86.63186796
H      83.00047234      67.32137125      86.48068985
H      84.46689996      70.29580047      86.04794252
H      81.11641521      69.71376476      85.40165613
C      84.40831844      69.08259617      91.03304053
H      83.86218754      69.50022569      92.97378946
H      86.06371869      70.22399087      90.59084458
C      85.21523158      66.21210190      90.64375691
H      86.46623040      65.58471277      92.15742769
H      86.09395431      65.98344502      88.79749431
H      83.55416215      64.99700788      90.71934597
C      78.94134022      73.24944269      88.08884694
O      77.36530847      71.66018286      87.38397903
N      78.86197171      75.71553553      87.62586400
H      80.23202329      76.85126105      88.31372438
C      77.01192965      76.74543637      85.77582193
H      76.99114266      75.39050261      84.22624636
H      77.48247151      78.61059624      85.04260813
C      74.25292924      76.89472475      86.39565217
O      72.66366941      77.07802820      84.68167039
N      73.59341475      76.24465890      88.82584021
H      75.02393757      75.98009722      90.06172120
C      71.12921164      76.11993696      90.05038285
H      69.79695459      75.10893338      88.84851692
C      71.28227947      74.67807579      92.63363872
H      72.52193993      75.58514442      94.00935947
H      72.16856111      72.82803373      92.44277637
C      68.89555514      74.40217574      94.12274306
N      67.24771379      72.38772749      94.37218693
H      67.55573918      70.73988615      93.45944913
C      65.27106007      73.01133718      95.78381248
H      63.49849679      72.04190758      96.09372760
N      65.76616837      75.30357520      96.68332222
H      64.57375106      76.56402265      97.48267644
C      67.90155910      76.22198218      95.64775219
H      68.45524891      78.17973864      95.80837892
C      70.30718070      78.86004012      90.37163632
O      71.70746789      80.35292390      91.57728171
N      68.11509817      79.47420117      89.42677317
H      67.22125763      78.21753317      88.30238601
C      66.72048015      81.91383784      89.85574105
H      67.94124335      83.40105245      89.12441696
C      64.33753527      81.72486521      88.08506748
H      63.40967965      79.92395603      88.45923330
H      64.95547578      81.34314049      86.15943637
C      62.40245553      83.95474226      87.97546336
H      61.33853961      84.31567998      89.69889376
C      63.92179548      86.33579741      87.18366803
H      62.61221515      87.74175379      86.44478505
H      65.36554639      85.81045350      85.81172674
H      65.01783675      86.92917147      88.82206075
C      60.53351620      83.44829560      85.87219798
H      61.41790812      83.00232019      84.06561962
H      59.34865781      85.11692394      85.63976163
H      59.26362012      81.93651455      86.45423367
C      65.97214853      82.41650504      92.51080651
O      64.60209696      80.85748083      93.43488267
N      66.53717670      84.54622659      93.74479779
H      67.78250634      85.67250347      92.83772916
C      65.31074432      85.36069863      95.97089539
H      64.76083397      83.76387990      97.15197434
C      67.08708706      87.05200368      97.61684700
H      65.94191291      87.93261614      99.08138491
H      67.90911800      88.58646145      96.51513657
C      69.15255792      85.53644318      99.16264313
H      70.40544646      84.51788070      97.88329841
C      70.60197800      87.39404415     100.54592279
H      69.31885383      88.46929842     101.74400927
H      71.62243021      88.68850667      99.31004178
H      71.82274120      86.54555703     101.97077644
C      67.89211047      83.60514289     101.00701602
H      69.23570588      82.73586878     102.30336827
H      67.42723779      82.00076525      99.80326036
H      66.46914655      84.59158002     102.12195454
C      62.81630559      86.99720162      95.41531586
O      60.80941625      86.42650427      96.54726192
N      62.86543847      88.70173475      93.63897313
H      64.49060310      89.02298823      92.69033051
C      60.68469431      90.31556103      93.05126824
H      59.02929406      89.17605606      92.60151337
C      59.68880854      91.98040991      95.22823295