 %block lattice_cart
   137.793   0.000   0.000
   0.000 143.498   0.000
   0.000   0.000   162.326
 %endblock lattice_cart

 %block positions_abs
N      84.77870480      40.57135043      77.21536174
H      84.08328552      38.79878715      77.35520148
H      86.46623040      40.53544563      76.32341092
H      83.48424228      41.65794306      76.32530064
C      85.57994876      41.53700056      79.60586552
H      87.10495789      40.45229767      80.46758072
C      86.62685713      44.13726397      79.06351407
H      85.00925141      45.40904979      78.93123323
H      87.40920383      44.15427152      77.15866995
C      88.63374648      45.22007715      80.94379175
H      90.02647477      43.71585501      81.14410274
H      87.60762509      45.55077925      82.69934750
S      90.13796862      48.18127829      79.61153470
C      92.45288336      48.80299824      81.92644943
H      94.18009321      49.24519419      80.89465887
H      92.71933477      47.09279593      83.04327768
H      91.76880243      50.39603752      83.04138796
C      83.40676350      41.88093076      81.39543634
O      81.30349811      42.34958289      80.40710948
N      83.69211217      41.62581771      83.82751410
H      85.39097613      41.10614297      84.52482311
C      81.51892691      42.31934727      85.54527532
H      79.95990270      41.26299026      84.71568547
C      82.29182497      41.68628895      88.29860656
H      84.25525061      42.18139724      88.66521347
H      82.26158935      39.66428180      88.68977991
C      80.71201377      42.88248571      90.36218770
O      78.40276822      43.29633576      90.07683902
N      81.63797967      43.16972411      92.63174900
H      80.65910144      43.48341867      94.23990609
H      83.44266830      42.56690140      92.74702230
C      80.80461036      45.11614221      85.23536021
O      82.47512842      46.72051984      85.51126025
N      78.27426683      45.61125050      84.86686358
H      77.02326801      44.20340440      85.17677869
C      77.28782970      48.15671185      84.43789570
H      78.14765517      48.94472771      82.73903175
C      74.41355597      48.03576935      83.70468189
H      74.25670869      46.86224931      82.01904602
C      72.65233105      46.73563766      85.72857878
H      72.91500301      44.69284352      85.68700480
H      70.68134651      47.02098632      85.19945541
H      72.95846671      47.29121720      87.68822496
C      73.20602086      50.53398755      82.87509204
H      73.19657223      51.83411924      84.47380050
H      71.22558768      50.09935049      82.51037486
C      74.40032789      51.54688085      80.42789647
H      74.39276898      49.99163610      79.07485243
H      76.34296654      52.18371862      80.67545061
H      73.34208115      53.17582493      79.74759500
C      77.83774005      50.02754090      86.51092547
O      78.39898877      52.18182889      86.05172198
N      78.16277298      49.24897366      88.91654707
H      78.13253736      47.40460076      89.40976563
C      78.94700940      50.92138144      91.08028369
H      78.06639694      52.75441597      90.75525077
C      78.23647230      49.85746552      93.65031148
H      78.89409706      51.18405340      95.08083430
H      79.17944573      48.07356388      94.06605127
C      75.38487530      49.55132986      93.86385055
C      73.85230726      51.37491576      95.06193704
H      74.63843340      53.11535369      95.78003303
C      71.41267059      50.91571226      95.60806794
H      70.28639371      52.32166863      96.56804891
C      70.05584710      48.82000577      94.64619725
H      68.11320845      48.25875706      94.92209729
C      71.40889114      46.96240481      93.28748403
H      70.64166225      45.15582645      92.73190449
C      74.15466347      47.38003432      92.90575931
H      75.02582730      45.89470945      91.80971805
C      81.71734817      51.76419938      90.68155144
O      82.34851676      53.94494354      91.13130630
N      83.47668337      50.14659364      89.73479856
H      82.94567028      48.45717833      89.02426147
C      86.21300707      50.91004308      89.29071288
H      86.87441128      52.24041041      90.71934597
C      87.90242240      48.55733383      89.36441220
H      89.79025898      48.86913867      88.60096277
H      87.15975995      47.07011922      88.14742846
C      88.25769094      47.41971858      92.10262563
H      89.55782265      45.83234848      91.92499136
H      86.43032560      46.70351231      92.73001477
C      89.29326096      49.22818666      94.08683826
O      87.87218677      49.96895937      95.72145152
O      91.60061679      49.73085387      94.10951497
C      86.71756400      52.24418986      86.66021385
O      88.45422248      53.75219146      86.50903574
N      84.96578771      51.57711647      84.83662796
H      83.98313002      49.96329019      85.09552046
C      85.09806855      52.48607483      82.24770291
H      87.08795035      52.31033027      81.75070489
C      83.40109432      50.83067458      80.45057318
H      81.39420497      51.23885546      80.68111979
H      83.57683887      48.87858730      81.08174177
C      84.26091979      51.36168767      77.78983853
H      85.78403920      50.13903475      77.13599323
H      85.33050488      53.11913315      77.71991866
S      81.68144337      51.52987332      75.34453269
C      79.85785748      54.24541002      76.40277942
H      81.03137752      55.92537671      76.61064932
H      78.68811689      53.76541954      78.03172350
H      78.56717441      54.77264367      74.88721892
C      83.98690948      55.32444374      82.18912139
O      85.06594320      57.02708716      81.02127053
N      82.23891264      56.07844454      83.81050657
H      81.30727756      54.81043820      84.89143002
C      81.63797967      58.77130455      84.17900320
H      81.70789954      59.92214786      82.47447006
C      78.84496418      58.97350526      85.08040265
H      78.40654767      60.92181308      85.58495958
H      78.66921963      57.94360441      86.85674538
C      76.90799471      57.93415579      83.23980922
H      77.52971466      55.99529659      82.92800438
C      74.25481896      57.85100782      84.36041693
H      73.84852781      59.80120539      84.89143002
H      74.25859842      56.53953777      85.94967675
H      72.82807560      57.04220496      83.11697701
C      76.95145841      59.18326488      80.69245815
H      75.29227871      58.74484838      79.55106346
H      78.76370595      58.84311415      79.77594089
H      76.77760359      61.18259532      81.15922055
C      83.47101419      60.19615819      85.78338084
O      84.03604236      62.45627085      85.47913490
N      84.87508084      58.90547512      87.51625987
H      84.57083491      57.04976387      87.84885170
C      86.86118320      60.23206298      88.98079776
H      86.15253583      62.03675162      89.67432732
C      87.42621136      58.78831208      91.42610361
H      88.25769094      56.96472619      90.95556176
H      85.64797890      58.30076270      92.34262087
C      89.10617806      60.16403284      93.39897788
H      88.13674846      61.89313241      93.95833687
H      90.85039544      60.91992337      92.60718256
C      89.48223359      58.41792573      95.73845906
H      90.00568778      56.57166312      94.98823771
H      87.79092854      58.26863735      96.90630992
N      91.48156403      59.72372660      97.28047573
H      93.11050811      60.22450407      96.42065025
C      91.53069692      60.45694042      99.63318499
N      89.62207334      60.03553145     101.15819412
H      89.95844462      60.28875478     103.01957454
H      88.03281351      59.23050803     100.46844402
N      93.47711502      61.58321729     100.64040911
H      93.53002736      62.07076668     102.48478199
H      95.06826457      61.48306181      99.59539046
C      89.26113561      60.92370281      87.45011945
O      90.39875086      62.83421612      88.15120791
N      89.83939187      59.78230812      85.35063351
H      88.64130538      58.33666750      85.00103415
C      91.79525860      60.52686028      83.55917297
H      93.07838277      61.87612488      84.44545461
C      93.68120546      58.48784559      82.83918724
H      95.24211940      59.34956080      81.80739668
C      94.92086592      56.88535769      84.91977591
H      96.66319358      55.89136165      84.45301351
H      93.60939586      55.52475474      85.73991713
H      95.50857081      58.40658737      86.17644391
C      92.65319435      56.71150286      80.81340064
H      91.64408050      57.81510302      79.39421617
H      91.38896744      55.23751633      81.49937129
C      94.62984807      55.38302527      79.31862712
H      93.74923561      53.77297845      78.38321260
H      96.07170925      54.43438266      80.44301428
H      95.59360849      56.50741242      77.88621458
C      90.83716736      62.19737835      81.29906030
O      92.29792580      63.38412648      80.00081832
N      88.31438273      62.52430100      81.08552122
H      87.10306817      61.81754335      82.37998375
C      87.22779010      64.18914989      79.17311820
H      88.25013204      63.70349022      77.45157752
C      84.48201777      63.36522921      78.86887226
H      83.29715937      64.14946563      80.36175605
H      84.19288964      61.32621452      78.85186472
C      83.21779087      64.55008761      76.54072944
O      82.28426607      66.70437560      76.89977744
O      82.98535453      63.39924428      74.53384010
C      87.61518400      67.02940854      79.65688813
O      88.49012728      68.24261283      77.78038990
N      87.32227642      67.86844702      82.07573781
H      86.78370442      66.58154339      83.37775924
C      87.43377027      70.49138714      82.80895162
H      88.40131014      71.65545855      81.41055415
C      84.75602808      71.65923800      82.82784889
H      84.96767743      73.31274853      84.03538400
H      83.37463815      70.54807892      83.87853672
C      83.41999158      72.38678263      80.30128480
H      81.64553857      73.41857320      80.47702935
H      83.05527440      70.72949266      79.13532367
C      85.03192813      74.17824318      78.67234072
O      85.21334185      73.88533560      76.36309517
O      86.04860088      76.10387429      79.72869773
C      88.76791705      70.79941253      85.45456846
O      88.28225738      69.25928558      87.14587351
N      90.16064534      72.88378065      85.77204248
H      90.64819473      74.18202263      84.46057242
C      91.26235578      73.28062318      88.23624559
H      92.56437721      74.86043438      88.00380926
H      92.29225662      71.54207497      88.63308812
C      89.46900551      73.87399724      90.32250344
O      87.46400589      75.00027412      90.06928012
N      90.24190357      72.88189093      92.53915241
H      91.99934904      72.13922849      92.51836542
C      89.01169174      73.35999168      94.90886920
H      86.96889760      73.35243278      94.62918971
C      89.59750690      71.25483657      96.82883114
H      91.59116816      71.36444069      97.32771888
H      89.59750690      69.48038356      95.78192276
C      87.65486825      71.40979413      99.00579585
H      86.47189958      73.08031219      98.76391088
C      86.00513718      69.12322529      99.07382600
H      84.83917604      69.23282942      97.37874150
H      84.72768219      68.94559102     100.68009336
H      87.08417090      67.36955927      99.14185615
C      89.17420820      71.65167910     101.46999896
H      88.18021216      71.85576954     103.26334923
H      90.58205431      73.12188617     101.15252494
H      90.31560290      69.98494049     101.87251067
C      89.76002336      75.97348317      95.85940154
O      92.05793056      76.55362915      95.76869468
N      87.88730459      77.34353474      96.82127223
H      86.16576391      76.56685724      97.09717227
C      88.12163065      79.74726662      98.18565463
H      90.07938711      80.32930233      98.44832659
C      86.92543389      82.12832178      97.09339282
H      87.52825659      83.64766173      98.34439164
H      84.87697057      82.27005125      96.92898663
C      88.23501423      82.86909449      94.63107944
H      90.28536728      82.98436780      94.80304453
H      87.68888332      84.83629957      94.34573076
C      87.53014631      81.17778944      92.40687157
H      85.50435970      80.82063117      92.52970378
H      88.67343073      79.46947685      92.52592432
N      87.92320939      82.50815677      90.05038285
H      88.62429785      84.28260977      90.06361094
C      87.14842160      81.63132376      87.91688185
N      86.25080160      79.35609326      87.58995919
H      85.93521730      79.30507066      85.70779179
H      86.67221057      77.87832730      88.72190526
N      87.12007570      82.99381643      85.79660892
H      86.32828038      82.18690328      84.25837170
H      87.89864294      84.73614409      85.82117537
C      86.97456678      79.30885011     100.76324132
O      84.71445411      78.68713016     100.82938174
N      88.19721970      80.09497626     102.73044641
H      89.94332681      80.73181403     102.30336827
C      87.22590038      80.24237491     105.45165230
H      85.73679604      78.84964662     105.74267016
C      89.09861915      79.31262957     107.32059163
H      89.42176235      77.29629159     107.05602994
H      88.33516972      79.82285567     109.16496451
C      91.74612572      80.71858595     107.29602519
H      92.58516420      80.27072081     105.46865984
C      91.60250652      83.63065419     107.61916839
H      90.58205431      83.94245903     109.38228304
H      90.88252079      84.46969268     105.88062018
H      93.44687940      84.48103104     107.96498830
C      93.57727051      79.75482553     109.17819259
H      92.74957039      79.91923172     111.05847028
H      95.32148790      80.83385924     108.97599188
H      94.01568702      77.75171564     108.97410215
C      85.95411457      82.86531504     106.26801407
O      85.12830417      83.22814249     108.45442742
N      85.80293646      84.51315638     104.37072885
H      86.40008998      84.02938645     102.62273201
C      84.77303562      86.97546976     104.50111997
H      83.42755049      87.10586088     106.05636472
C      87.08795035      88.65165701     105.00945635
H      88.53548071      88.39654395     103.56381572
H      87.84951006      87.89198703     106.76501209
C      86.30749339      91.40876770     105.30425365
H      84.87130139      91.82450749     106.71965866
H      85.65175836      92.12686370     103.48633694
C      88.71500471      92.99235834     105.67841946
H      90.01891587      92.51425759     104.15718978
H      89.49546168      92.56339048     107.53602043
C      88.03281351      95.83072727     105.62172767
H      86.96889760      96.29559993     107.32626081
H      86.66276193      96.40898352     104.20065349
N      90.32694126      97.45967135     105.27968721
H      89.89230420      99.31916204     105.35338654
H      91.11873658      96.92865826     103.62806641
H      91.82738395      97.16109460     106.41730245
C      83.16865798      87.63876370     102.35061142
O      83.48424228      86.59563478     100.40419332
N      81.57183925      89.49069549     102.54714296
H      81.20523234      90.17477642     104.28947062
C      80.15076506      90.59996484     100.46844402
H      78.98291420      89.04849953      99.78436309
C      78.24214148      92.53126513     101.35850511
H      79.43455879      94.18477565     101.66842023
C      76.32784873      93.52715090      99.41586646
H      75.44912599      95.29026555     100.01868915
H      75.12409307      91.94544997      98.87729446
H      77.28971942      94.21690100      97.73023059
C      77.01570911      91.73002117     103.98144523
H      78.62764565      91.82450749     105.25890022
H      76.26548776      89.83840513     103.66775066
C      74.91244372      93.40242896     104.94898511
H      73.96947029      92.58795692     106.59115727
H      73.40066267      93.68966736     103.58082325
H      75.62298081      95.30160389     105.30803310
C      81.81372422      91.46356976      98.27636149
O      83.89620261      92.47079389      98.57493825
N      80.71579323      91.13475738      95.99735156
H      79.26637315      89.90454555      95.81971729
C      81.61341323      92.07017191      93.52936900
H      82.29938388      93.99958247      93.74290807
C      83.64864847      90.07840037      92.50891679
H      84.98657469      89.81194896      94.05282318
H      84.41398762      91.01381490      90.84028845
C      82.64898325      87.61041781      91.73979818
C      82.03482219      87.12664787      89.17732930
H      82.72079285      88.39087478      87.72790921
C      81.15043028      84.67378312      88.30994492
H      80.78193365      84.32985293      86.33140147
C      80.88586860      82.72736502      90.17699452
O      80.24714110      80.33308178      89.57417182
H      79.71990746      80.18757285      87.84318252
C      81.18822481      83.23192194      92.67332298
H      80.79516173      81.88454708      94.15297868
C      82.05749891      85.66588943      93.45944912
H      82.45245171      86.01737853      95.43043367
C      79.43833824      92.27237262      91.68688584
O      77.56184001      90.92688749      91.94955780
N      79.49691976      93.94100096      89.76125473
H      80.92744257      95.20333814      89.81605679
C      77.45790506      94.11296605      87.80160854
H      75.62298081      93.82005847      88.68977991
C      77.47113315      96.72267808      86.55816863
H      76.18989871      96.68110411      84.94623208
H      79.37219782      97.20266857      85.93077949
C      76.47146793      98.86751746      88.29104766
H      77.39554410      98.65775783      90.12030273
H      74.46835804      98.44988794      88.50836618
C      76.62075631     101.48289867      87.18555776
H      75.80628427     101.43565552      85.29394172
H      78.60496894     101.94021244      86.86808374
C      75.12598279     103.28380784      88.83906829
H      76.19934734     103.65041475      90.55871923
H      73.35530924     102.40697483      89.42110399
N      74.44757105     105.56281777      87.60318728
H      73.48570035     106.60405698      88.88064227
H      73.28349964     105.31526364      86.11030349
H      76.01982334     106.50390149      87.07028446
C      77.95301336      92.10985616      85.80983701
O      80.04683011      91.52971018      84.94245263
N      75.77226919      91.16499300      84.99725469
H      74.29450322      92.13253288      85.71913014
C      75.69479041      89.59274071      82.67289133
H      77.32751395      88.40032341      82.27415908
C      73.22491812      88.11686445      82.92989411
H      71.64321720      89.42833452      83.09241057
H      73.10397564      87.10208143      84.71757520
C      72.57485227      86.32351419      80.78505474
O      73.90144014      84.46213377      80.38632249
O      70.88732667      87.08696362      79.28272232
C      75.50770751      91.28404576      80.29561563
O      75.54928149      93.61218858      80.44868346
N      75.33952187      90.15587915      78.01093651
H      75.15810814      88.26048366      77.93912691
C      75.28094035      91.58451224      75.62043273
H      76.72658098      93.05093987      75.59019711
C      76.39776860      90.08406955      73.30929745
H      76.43178368      91.12152930      71.53106499
C      79.17377656      89.18644956      74.01794481
H      79.13598203      88.49103027      75.95491428
H      80.40209866      90.81728336      73.73637559
H      80.08084519      87.84663360      72.74048983
O      75.00693004      87.78238290      72.85009395
H      76.00092608      86.97924922      71.56508006
C      72.78272217      92.58228774      74.82107850
O      72.61642625      94.39264555      73.32441526
N      70.85331160      91.83017667      76.23081433
H      71.12543219      90.43744837      77.50637959
C      68.47603590      93.37975224      76.66356165
H      67.95825089      93.94478041      74.75304835
C      66.32552735      91.62419650      77.80306662
H      64.64178121      92.75425283      78.17534270
H      67.04551308      90.83429090      79.56618127
C      65.52239367      89.45290097      76.12309993
H      64.22415169      88.44945629      77.36653984
H      67.16834529      88.33229326      75.59775601
C      63.78951464      90.13698189      73.80629547
O      61.75805886      88.99747692      73.41701185
O      64.68713464      91.89442736      72.54017884
C      68.71036196      95.83828618      77.98259062
O      66.87732744      97.21400693      78.10164338
N      70.74937665      96.43354997      79.23358944
H      72.14588440      95.13908744      79.37342919
C      70.91378284      98.24768723      81.34441373
H      70.16356150     100.07694230      80.76993693
H      72.89421602      98.52358727      81.83952202
C      69.55506962      97.56171657      83.83318328
O      69.77616760      99.01491611      85.56795204
N      68.27950436      95.37719295      84.09585524
H      68.23982011      94.17721675      82.61053036
C      67.03228499      94.21501127      86.35596791
H      65.82286015      95.50758407      87.40854547
C      65.53184230      91.79427186      85.49992189
H      64.82508466      90.79838610      87.15910159
H      66.86220963      90.51681688      84.58151490
C      63.26983991      92.03993629      83.66877709
C      62.53851582      89.89320720      82.38565293
H      63.40401047      88.05450349      82.57273583
C      60.41824290      90.09540791      80.85497461
H      59.59432223      88.36441861      80.15010670
C      59.07842694      92.33662332      80.43356565
O      57.02807389      92.41221237      78.97847639
H      56.24383747      94.04682563      78.94635104
C      59.70770581      94.53437502      81.89054463
H      58.75717347      96.33528419      81.76393297
C      61.82608900      94.27359279      83.48547364
H      62.30230003      96.00080263      84.46246215
C      69.07129969      93.39298033      88.30805519
O      71.02716642      92.37630757      87.51814959
N      68.63666263      93.66510092      90.85162681
H      66.96425485      94.36240993      91.44500087
C      70.40922592      92.92810765      92.85473670
H      72.31595977      93.27392757      92.15553797
C      70.08419299      94.60051544      95.26224802
H      71.42967813      93.86919136      96.63796878
H      68.28139409      94.50980858      96.25624407
C      70.77583282      97.45589190      94.93343565
C      68.79917910      99.03003392      94.07361017
H      66.94535758      98.24579750      93.74101834
C      69.28861821     101.64541514      93.95455742
H      67.96203034     103.02302562      93.24024087
C      71.65455556     102.62051391      94.73690411
O      71.84919737     105.16408553      94.76713973
H      70.54906566     106.22611172      94.08116908
C      73.57262776     101.02558491      95.58539122
H      75.45101572     101.73612200      95.94254950
C      73.18712360      98.48012356      95.32271927
H      74.65166149      97.12896925      95.76302550
C      70.46780743      90.12375381      93.64842175
O      68.47036672      88.91432897      93.82416630
N      72.74114819      89.04660981      93.79204095
H      74.32284911      90.05761339      93.44244159
C      72.95279753      86.21391005      93.94699851
H      71.18401370      85.46368872      94.68777123
C      73.26649210      84.91377836      91.40342689
H      73.43278802      82.86153558      91.46011868
C      71.12543219      85.47691680      89.63842252
H      71.12732192      87.33073832      88.74458197
H      69.36420727      85.33518733      90.69855898
H      71.11598356      83.89899533      88.30994492
O      75.46424380      85.64321272      89.90298420
H      76.23525214      87.18144994      90.47746100
C      75.03338620      85.29550307      95.91609333
O      76.51493163      86.73736425      96.89119211
N      74.78394233      82.92200683      96.69088112
H      73.64821682      81.69746418      95.76491522
C      76.60563850      81.70691281      98.40108343
H      78.28560519      82.78405681      97.89274705
C      76.00281580      82.22469781     101.25645989
H      75.21479993      84.12387276     101.38307155
C      74.04127989      80.41434000     102.20132305
H      74.56284435      78.42256848     102.18809496
H      72.22525290      80.73370376     101.28480578
H      73.42333939      80.92267639     104.09671854
C      78.43867302      82.09808616     102.74367450
H      79.87675474      83.25837811     101.83282642
H      78.80527992      80.08552763     102.97611083
C      77.95679281      83.32262881     105.41574750
H      79.73502527      83.07318493     106.42486136
H      76.58863096      82.48925949     106.70832030
H      77.36341875      85.27471609     105.13039883
C      77.09885706      78.86476443      97.75668676
O      75.63620890      77.68179576      96.43198861
N      79.14165121      77.72714919      98.78280815
H      80.30383289      78.84397743      99.80326035
C      79.76715062      75.15901113      98.31604575
H      78.20623668      73.84565135      98.60328415
H      81.15987891      74.38611307      99.62562608
C      80.92366312      74.80563231      95.69877480
O      82.93811137      75.86954823      95.23390213
N      79.62353142      73.44502937      94.02636702
H      77.83774005      72.92724435      94.46100407
C      80.31139180      72.90267791      91.34484538
H      82.10285234      73.87210751      91.03115081
C      80.83106653      70.05108091      91.01603300
H      79.64053896      68.98905472      92.31805443
C      80.46068017      68.81519990      88.46490248
H      78.43678329      68.74716975      88.08317776
H      81.08428986      66.85744344      88.33073191
H      81.69656118      69.83376238      87.16666050
C      83.48424228      69.49550137      92.01002904
H      84.13430813      70.75783854      93.50102310
H      84.89586783      69.69014318      90.52470416
C      83.92454851      66.86689207      92.90386959
H      82.66599078      66.25651047      94.41565064
H      85.87096661      66.47949818      93.45755940
H      83.51447790      65.48739185      91.42988306
C      78.22513395      74.13666920      89.63464306
O      78.57095386      74.10643358      87.26870572
N      76.36186380      75.50483105      90.61163157
H      76.07462540      75.60498654      92.49757843
C      74.48725530      76.90133879      89.16410121
H      74.00159564      75.72970848      87.53893658
H      75.33385269      78.65500481      88.49324837
C      71.90399943      77.45124915      90.42265894
O      70.15600259      78.32808216      89.15465258
N      71.52983362      76.79551412      92.85851615
H      72.94901808      75.98293181      93.84495329
C      68.99571063      77.08842170      94.02069784
H      67.66723304      75.57475092      93.58795051
C      69.52105455      76.70102781      96.79481606
H      70.29584234      78.38477395      97.69243606
H      70.73425884      75.08720153      97.19921750
C      67.09086651      76.01316743      98.28769985
N      66.16868007      73.63778145      98.99256777
H      66.66756782      71.93513804      98.28958958
C      64.04462769      74.07808768     100.40986250
H      62.69725283      72.60599088     100.84072010
N      63.53251186      76.53662162     100.47789265
H      61.98860547      77.33975530     101.26212907
C      65.41467927      77.81974578      99.20043766
H      65.73971220      79.83041458      99.06437737
C      68.10942899      79.90789335      93.84306356
O      69.23570588      81.56518333      94.91264866
N      65.82663961      80.28961806      92.76591957
H      65.21058883      78.92712540      91.57917144
C      64.53973599      82.73870338      92.83205999
H      65.88900058      84.15977756      92.19333249
C      62.24182879      82.77649790      91.06894534
H      60.77918063      81.47069701      91.70389338
H      62.70670146      81.97903340      89.23024163
C      60.89256420      85.31440034      90.76091995
H      60.10832778      85.57140312      92.64875653
C      62.65945831      87.43089381      90.10896437
H      63.52684268      86.77515878      88.36096753
H      64.14100374      87.75781646      91.50358239
H      61.61254993      89.17889065      89.79149035
C      58.63245153      85.06684619      88.98268749
H      57.79908223      86.86586564      88.42143877
H      57.24161297      84.01993782      90.08250820
H      59.26362012      83.98970218      87.34429477
C      63.76494820      83.84419327      95.40964668
O      62.57442062      82.69901911      97.08583392
N      64.64367094      86.03249634      96.06727143
H      66.11387801      86.81673276      95.13941581
C      63.94447220      87.26081844      98.35573000
H      63.36621595      85.99092236      99.87129050
C      66.04584786      88.94456459      99.48956579
H      65.12555114      89.82517705     101.10528178
H      66.50316163      90.41477166      98.12140394
C      68.51383042      87.55939520     100.06593231
H      69.36042781      87.10586088      98.24234642
C      70.30907042      89.49636467     101.31315168
H      69.50026756      90.14265107     103.09138414
H      70.64166225      91.06105806     100.01301998
H      72.07785425      88.66677482     101.96321753
C      68.09809064      85.02716194     101.41141745
H      67.09464596      83.64199255     100.26057412
H      67.34786929      85.51849078     103.26712869
H      69.87821282      84.08040906     101.83849559
C      61.58798349      89.00503583      97.90786486
O      59.89856816      89.04094063      99.55570621
N      61.70892597      90.78515802      96.05782280
H      63.25283237      90.73791485      94.93721510
C      59.90612707      92.79393709      95.48334600
H      58.11088707      91.78860269      95.40586722
C      59.94014214      94.85562849      97.44488192