 %block lattice_cart
   137.793   0.000   0.000
   0.000 143.498   0.000
   0.000   0.000   162.326
 %endblock lattice_cart

 %block positions_abs
N      85.22468021      36.16545353      80.34285879
H      84.31950130      36.45080220      78.68556881
H      84.16076429      34.97870540      81.39165689
H      86.81394004      35.29428970      79.74570527
C      86.00702690      38.63154637      81.55606308
H      87.37896821      38.29706481      83.05461604
C      87.32983532      40.70835558      79.82129432
H      85.79537755      41.89510371      79.12209559
H      88.22745532      39.80506641      78.20179887
C      88.98712530      42.45824215      81.21780207
H      90.82015982      41.55684270      81.48992266
H      88.32005191      42.88909975      83.11697701
S      89.50680003      45.43834055      79.46602578
C      91.41542361      47.03137983      81.75637407
H      91.86895792      48.83606846      80.87198215
H      93.23711978      46.10730366      82.02471520
H      90.57260567      47.05216682      83.63476202
C      83.66565600      39.62365268      82.83729752
O      81.70034063      39.59341706      81.85275011
N      84.00769646      40.88976931      85.07095402
H      85.70278097      40.99370426      85.94778703
C      82.05371946      41.83841192      86.73013372
H      80.33217878      40.73292203      86.49013848
C      82.82661752      41.44345912      89.58739991
H      84.57272463      42.48469832      89.92188147
H      83.10818674      39.41389306      89.79715953
C      80.78571310      42.31084350      91.49413376
O      78.73347032      43.10263882      90.86296517
N      81.62664131      42.56406682      93.85818138
H      80.23013356      42.67556068      95.15264390
H      83.44266830      42.19368047      94.31738487
C      81.46412485      44.61441987      85.98180210
O      83.18188606      46.21879751      85.73802741
N      79.06417243      45.33062615      85.84763153
H      77.85474759      43.87175743      86.08006787
C      78.08718392      47.85907995      85.33173625
H      78.72969087      48.56772732      83.50437091
C      75.04472456      47.63798197      85.00292387
H      74.65922039      46.33407082      83.45523802
C      73.84096890      46.67233183      87.38775848
H      74.71402246      44.95079116      88.10963393
H      71.91722751      46.08840640      86.93422416
H      73.55184077      48.19545124      88.74269225
C      74.02616208      50.22123784      84.38687309
H      74.61575669      51.80482849      85.56795204
H      71.99848574      50.23635565      84.74781082
C      74.57418271      51.02059207      81.59196788
H      76.62642548      50.92988521      81.44267950
H      74.27560595      53.02748142      81.23103015
H      73.73514423      49.75069599      80.20301904
C      78.83551554      49.83384395      87.48035507
O      79.61219306      51.85396138      86.99091595
N      78.82795664      49.01748218      89.89164584
H      78.24970039      47.21846273      90.16565616
C      79.68778211      50.47446117      92.09506673
H      78.51048262      52.16198677      92.01758795
C      79.05094434      49.14031439      94.64241780
H      79.92966708      50.00958850      96.28836941
H      79.74825335      47.20523465      94.54604175
C      76.18800898      49.21401372      95.22823295
C      75.13732115      51.01492290      96.81749278
H      76.13887610      52.54938066      97.71889223
C      72.54272692      51.01492290      97.24457093
H      71.55062061      52.43788681      98.31982520
C      71.02149724      49.44078088      95.76302550
H      69.04106406      49.79604942      96.11262487
C      72.00793438      47.42822235      94.33817186
H      70.74370747      46.29816602      93.20433607
C      74.65355121      47.32239768      94.02258756
H      75.42266982      45.84463170      92.84150862
C      82.50725377      51.22279279      91.97790369
O      83.47101419      52.60607245      93.53314845
N      83.87163617      50.18533304      90.23935549
H      82.90976547      49.06850479      89.02615119
C      86.54370917      50.75036121      90.16376643
H      87.08228117      52.16009704      91.56405363
C      88.13485873      48.29938618      90.39053359
H      90.03781313      48.63197801      89.67432732
H      87.36951957      46.94445242      89.04126900
C      88.53926016      47.23358054      93.06071687
H      89.20633355      45.30228025      92.78859628
H      86.77992496      47.11452779      94.12652251
C      90.46300155      48.78126639      94.54604175
O      89.68443431      50.48579953      96.11262487
O      92.76846765      48.34851907      94.22478828
C      86.94811061      52.02025729      87.52759823
O      88.37485397      53.78148222      87.30461052
N      85.90309195      51.02437153      85.44700956
H      84.97334661      49.36708155      85.62653356
C      85.85962825      52.10529498      82.80328244
H      87.79281827      51.84829220      82.13809878
C      84.12485949      50.57461666      81.09308013
H      82.14253659      51.09618113      81.29339112
H      84.43288488      48.56205814      81.40866443
C      84.72201301      51.14720374      78.29250574
H      86.41142833      50.08706728      77.77661045
H      85.09239937      53.15598281      78.02983378
S      82.29182497      50.60863174      76.05318005
C      80.55138704      53.52636917      76.74293016
H      81.10885630      55.14397489      75.59586629
H      80.50603360      54.08761788      78.72525306
H      78.62575592      53.30338146      76.04373142
C      85.32861516      54.90964883      82.65966324
O      86.59662151      56.35717918      81.35953154
N      83.33117444      55.75057704      84.07695798
H      82.31639141      54.32383367      84.84229714
C      82.54693802      58.29414865      84.48324914
H      82.41654691      59.36373375      82.72769339
C      79.92210817      58.09194794      85.87408770
H      79.30227794      60.03269686      86.17266446
H      80.01470476      57.00535531      87.62208454
C      77.81128388      56.91842790      84.23947444
H      78.44056274      54.96634062      84.04861208
C      75.28283008      57.20944575      85.49236299
H      73.96380111      56.32127438      84.18278265
H      74.66866902      59.12373850      85.94589730
H      75.29227871      56.25891341      87.31783861
C      77.82262224      57.98423354      81.54283499
H      79.52715537      57.54770676      80.47702935
H      77.73758456      60.03647631      81.68456447
H      76.22013433      57.19621767      80.51671361
C      84.38186227      59.81348861      86.07061924
O      84.29493486      62.02635812      85.96857402
N      85.97490155      58.68154255      87.70901195
H      86.17143309      56.78425733      87.75058593
C      87.31471751      60.09883728      89.61952526
H      86.03537280      61.55581627      90.31116509
C      88.08194639      58.39430415      91.81538723
H      89.72789801      57.26991699      91.29949195
H      86.68165920      56.93921489      92.21789894
C      88.59217250      59.87207012      94.25502390
H      87.07472227      61.24779088      94.46667325
H      90.28347755      61.04370044      94.16053759
C      88.55437797      58.34706099      96.73623455
H      86.63441604      57.62518554      96.90064074
H      88.91909515      59.72845092      98.21966971
N      90.33638989      56.05293325      96.68521194
H      89.97356243      54.39564327      95.81026866
C      92.39808129      56.07749969      98.11951421
N      93.47144584      57.80281981      99.42720482
H      94.80748234      57.06393682     100.57048924
H      92.89507931      59.62262625      99.49334524
N      93.60372668      53.87596853      98.11384503
H      95.19109678      53.61518630      99.13996642
H      92.62484845      52.44544571      97.31827025
C      89.47278496      61.53124983      88.41010042
O      90.78803447      62.76335138      89.95211709
N      90.17198370      61.43298406      86.04794252
H      89.38207810      59.98167425      85.08796156
C      92.22800592      62.78035892      84.69678821
H      92.83460807      64.43386944      85.76448358
C      94.64874533      61.15330456      84.17333402
H      95.87139826      62.25312528      82.93178383
C      96.01312773      60.81693328      86.56950699
H      97.58160057      59.49412486      86.39376244
H      94.75645973      59.92309274      87.93577911
H      96.86539430      62.60272465      87.14020433
C      94.17064457      58.65130693      82.83162834
H      92.56437721      57.61384718      83.59696750
H      95.87139826      57.61762663      83.36453116
C      93.89852399      58.52847472      79.91011146
H      93.61128559      56.56882853      79.34697302
H      95.34983379      59.53947829      78.85753390
H      92.17509359      59.56593446      79.46602578
C      91.18487700      63.90096662      82.19857002
O      92.61728954      64.78346881      80.59608211
N      88.72445334      63.73278098      82.01715630
H      87.53770522      62.92964730      83.27571402
C      87.42621136      64.69843113      79.65877786
H      88.60729031      64.19954338      78.04495159
C      84.86185276      63.36995353      79.24303807
H      83.41243267      63.66853029      80.67545062
H      85.43821928      61.39518953      79.35264220
C      83.87163617      63.89907690      76.59742123
O      81.60585432      64.41497218      76.37632325
O      85.26814391      63.89340772      74.68123875
C      87.08417090      67.53680005      79.59641689
O      87.48290315      68.50433992      77.63488098
N      86.97645650      68.81236531      81.85841929
H      86.93299280      67.67475007      83.38909760
C      87.70022168      71.43341571      82.08140699
H      89.14586231      71.64128560      80.63009718
C      85.43632956      73.11527213      81.46535622
H      84.10596223      73.23999406      83.03382905
H      84.41587735      72.29324118      79.87609639
C      86.54181945      75.65128484      80.55639786
H      87.84006143      75.35837726      78.98414557
H      87.62652235      76.44496989      82.11542207
C      84.36674446      77.56746732      80.03672312
O      84.21178690      78.40461608      77.84464060
O      83.12708400      78.54634555      81.78849941
C      88.86429309      71.59782190      84.67600122
O      88.95311022      69.72132367      86.10085486
N      89.96222408      73.75588935      85.33362598
H      90.00568778      75.31869301      84.23758472
C      90.78992420      74.25477709      87.92255103
H      91.40030580      76.21442328      88.07372913
H      92.42264773      73.06235979      88.33073191
C      89.00602256      73.83525785      90.16187671
O      86.72890235      74.50233124      89.88786639
N      89.76947199      72.95275566      92.42576883
H      91.61384487      72.46520627      92.51458597
C      88.00446761      72.73165768      94.68021232
H      86.02403444      72.90173305      94.14164032
C      88.38808206      70.14651209      95.94065977
H      90.39308167      69.94431137      96.36584819
H      87.47534425      68.76890161      94.71044794
C      87.19566475      69.85927369      98.51824646
H      87.86273814      71.43530543      99.66342061
C      84.27981705      69.94242165      98.27069232
H      83.63164093      71.76222809      97.55826550
H      83.35196143      69.43219554     100.03569669
H      83.87730535      68.58181870      96.77591880
C      88.07816694      67.54057950      99.91853366
H      90.12285081      67.77112611      99.94687956
H      87.61329427      65.82470801      98.87918419
H      87.42243191      67.45554182     101.86873122
C      88.51091427      74.92562993      96.52647493
O      90.59717212      75.13538955      97.49968398
N      86.54748863      76.55268429      96.97056061
H      84.89208838      76.36749111      96.03703581
C      86.74213044      78.99987986      98.14030120
H      88.62618757      79.83135944      98.13841147
C      85.35129187      80.94818769      96.52647493
H      85.06972265      82.49965300      97.85117308
H      83.38786623      80.34536500      96.39608381
C      86.74402016      81.87604331      94.13597114
H      88.76413759      82.07068512      94.49123969
H      85.83884126      83.67695249      93.71267245
C      86.13174884      80.13749511      91.98546260
H      84.09084442      79.86159506      92.05727220
H      87.12385515      78.36115237      92.30482635
N      86.90086745      81.30723569      89.56094374
H      87.84006143      82.96074622      89.71968075
C      86.17521254      80.71386163      87.27437490
N      85.27570282      78.60870652      86.55060972
H      84.75791781      78.49343321      84.71757520
H      85.17365760      77.22731658      87.86396951
N      86.40953861      82.49965300      85.61897465
H      86.51914273      81.95919127      83.78971958
H      87.07283254      84.17961969      86.23502543
C      85.41365284      79.20963949     100.80859475
O      83.39164568      78.26855578     101.16764275
N      86.52859136      80.46063830     102.61328338
H      88.13107928      81.42250900     102.22588949
C      85.62341246      81.01243839     105.09260431
H      83.69022244      80.33969582     105.32315092
C      87.30904833      79.58191557     106.97666144
H      87.09928871      77.55045978     106.70265113
H      86.53048109      80.11292866     108.80780624
C      90.19466041      80.47764584     106.92185938
H      90.80126256      80.50599174     104.95276456
C      90.55748786      83.07601952     108.05569517
H      89.76380281      84.54811632     106.85193950
H      92.59083338      83.34247093     108.25222670
H      89.85073022      82.95129759     109.98699546
C      91.62140378      78.42540307     108.55080346
H      91.28692222      76.56213292     107.74200060
H      90.76346803      78.46130787     110.42352224
H      93.65096984      78.69563393     108.77190144
C      85.04893566      83.88293266     105.64251466
O      84.13619785      84.44607110     107.61349921
N      85.47601381      85.65360621     103.92286372
H      86.07883650      84.71063278     102.37706759
C      84.56894518      88.34835594     103.90207673
H      83.57305941      88.69039640     105.67086056
C      86.77047633      90.36469391     103.73767054
H      85.79915701      92.15048528     103.40318898
H      87.80037717      89.78643766     102.04825522
C      88.42587658      90.79744124     106.09793870
H      88.56571633      89.08534920     107.23366422
H      87.50557987      92.27709694     107.19775942
C      91.10172904      91.84623934     105.76156742
H      91.79903805      92.16749281     107.67208072
H      91.02425026      93.79454717     105.09638376
C      92.65886352      89.95462330     104.15152060
H      91.75179489      89.89793151     102.30336827
H      92.81760053      88.01576410     104.83182208
N      95.23645021      91.06011319     103.87184111
H      95.09661047      92.74574907     102.98933892
H      96.28713804      89.91493905     102.76635122
H      96.19265173      91.05633374     105.52346191
C      82.49402569      88.58646145     101.89329766
O      82.89086821      87.55656061      99.82782680
N      80.47201853      89.96785139     102.48667172
H      80.53248977      91.10357690     104.01923976
C      78.48402645      90.54799736     100.63851939
H      77.58829618      88.83779505      99.92042339
C      76.48847546      92.23741269     101.72322229
H      77.40688245      94.04210132     102.09360865
C      74.30773130      92.71362372      99.88829804
H      75.17133622      93.15581968      98.07038133
H      73.21924894      94.21406641     100.78213859
H      73.21735922      91.00720086      99.51035278
C      75.40377256      91.07712073     104.13451307
H      76.79650085      90.04155071     105.24378241
H      73.95435248      89.67683353     103.71877328
C      74.16222237      93.29565942     105.72566262
H      75.46613353      94.85090418     106.06392363
H      73.31751471      92.67393947     107.49822590
H      72.41422553      93.96462254     104.86961660
C      79.92777735      91.72151740      98.46155467
O      81.69467146      93.25975462      98.61084305
N      79.42511015      90.71240355      96.24490571
H      78.06639693      89.37825678      96.12396322
C      80.58729184      91.62703109      93.87896837
H      81.28838030      93.54510330      94.14919923
C      82.67354969      89.85446781      93.08339359
H      83.99635810      89.33668280      94.57627737
H      83.69022244      90.95995770      91.67365776
C      81.77592969      87.46774347      91.95711670
C      81.56994952      87.57923733      89.32661768
H      82.01592493      89.29321909      88.31561410
C      81.02381861      85.36447809      87.92633048
H      81.01059053      85.34936028      85.88542606
C      80.32650961      83.05334281      89.30583069
O      79.84840885      80.77433287      88.31183465
H      79.88431365      81.03889456      86.51659465
C      80.60807883      83.14027022      92.04215439
H      80.20178767      81.41683982      93.05504769
C      81.41499196      85.28699931      93.40842651
H      81.79104750      85.35313973      95.41342613
C      78.51048262      92.08056540      91.84373313
O      76.53760835      90.82767686      91.79082079
N      78.88464843      93.76431155      89.98424243
H      80.46256990      94.83389664      90.07494930
C      77.07240089      94.41626713      87.95656610
H      75.10897525      94.14981572      88.51025591
C      77.18767420      97.23384906      87.67310715
H      79.00937036      97.79698750      86.89265019
H      77.09318788      98.12768960      89.52503894
C      74.90110536      98.37524375      86.16510556
H      72.99059206      98.13524851      86.90020909
H      75.20913075      97.53620527      84.31128404
C      75.26582254     101.35345242      85.98558156
H      76.93634060     101.81643537      84.87442248
H      75.43022873     101.91848059      87.96034555
C      72.99437151     102.58555398      84.89143002
H      71.42400894     101.61045520      85.79660892
H      73.01704823     101.96572375      82.92611465
N      73.12287290     105.39179755      84.97268825
H      72.40855635     106.24595385      83.42122295
H      74.95401770     105.89824420      85.16355061
H      72.20635564     105.79430926      86.59785288
C      77.69412085      92.74574907      85.63031301
O      79.84084994      92.69283673      84.74403137
N      75.80061509      91.44939681      84.69300876
H      74.18867854      91.39648448      85.71157124
C      75.82518153      89.87903425      82.42155773
H      77.56750919      88.79811080      82.22124674
C      73.58018667      88.10080179      82.53494131
H      71.88132271      89.22707867      82.82973861
H      73.70490860      86.90838448      84.21112855
C      73.30428663      86.31878988      80.34663824
O      71.32574318      86.30556179      79.20902300
O      75.18456431      85.21896916      79.47169495
C      75.72502603      91.51553724      79.86286830
O      74.98614304      93.66415605      79.89499365
N      76.23714186      90.30611240      77.79172826
H      76.76248578      88.47118815      77.84464060
C      75.71935685      91.20940157      75.14233197
H      76.42611450      93.11613542      74.80407096
C      76.99681184      89.60502393      73.08442002
H      76.08407403      89.90738014      71.26083412
C      79.90321091      90.15493429      73.05985357
H      80.25092055      92.17694145      72.86899122
H      80.80650009      89.35935951      71.38933551
H      80.73658022      89.47085337      74.81351959
O      76.60563849      87.01420916      73.66645572
H      77.65254687      86.13926588      72.47025897
C      72.89988520      91.61191328      74.64911340
O      72.31218031      92.72685180      72.69135694
N      71.09330684      90.91460427      76.20057871
H      71.58841513      89.67683353      77.56496110
C      68.41745438      91.75364275      76.05129033
H      67.96958924      92.26197913      74.10676195
C      66.76016440      89.69195134      77.03772746
H      64.96870386      90.68594738      77.26071517
H      67.24582407      89.26109374      78.99170447
C      65.94947182      87.25798385      75.63366081
H      64.93279906      85.98619804      76.89599799
H      67.49337821      86.15627341      74.83052713
C      63.69124887      87.92127779      73.71558861
O      63.78573519      89.92060823      72.40411854
O      61.86577325      86.46429880      73.55685160
C      67.96958924      94.17249243      77.60653508
O      65.85309577      95.22129054      77.67834468
N      70.01049366      95.35546110      78.50226536
H      71.73203433      94.52587125      78.49281672
C      69.87632309      97.57022034      80.11042245
H      68.76894347      99.11412674      79.31862712
H      71.82841038      98.18438139      80.35986632
C      68.84642225      97.17337782      82.74092148
O      68.33241670      99.11034729      84.02593537
N      68.33808588      94.89058843      83.54783461
H      68.49115371      93.43738890      82.31573306
C      67.08330760      94.23674313      85.93455895
H      66.11576773      95.91104064      86.64887549
C      65.15011759      92.14292637      85.39031777
H      63.96714891      91.77065029      87.03626939
H      66.28395337      90.46673913      85.00670333
C      63.24149401      92.59646069      83.29650101
C      62.46859595      90.59901997      81.62787268
H      63.34920841      88.75842655      81.66188775
C      60.73571692      91.10735635      79.67200594
H      60.25383671      89.46140473      78.56651605
C      59.65668319      93.46006561      79.19390519
O      57.92191444      93.67738414      77.33819395
H      57.82931785      95.47262414      77.09252953
C      60.34076412      95.44994742      80.88521024
H      59.62266812      97.35290182      80.71702460
C      62.11143767      94.94728022      82.90721739
H      62.69914256      96.47984826      84.11853196
C      69.00515926      93.45439643      87.96034555
O      71.02149724      92.46984902      87.36130231
N      68.36643177      93.76998073      90.36029797
H      66.69591371      94.56744523      90.82895010
C      69.98403749      92.75141824      92.42765856
H      71.96069122      93.31077723      92.27081127
C      68.97870310      93.98729925      94.92776647
H      69.97080941      93.10668679      96.50379821
H      67.00960828      93.47140397      95.24146104
C      69.28105931      96.85023462      95.05248841
C      67.16645556      98.49807596      95.27925556
H      65.26539089      97.75919297      95.21122542
C      67.59353371     101.10967773      95.91042415
H      66.10820883     102.33988956      96.57560781
C      69.98970667     102.12824021      95.58350150
O      70.32607796     104.60945086      96.11829405
H      68.71792086     105.40880509      95.85751181
C      72.10242069     100.42559680      95.21311514
H      73.95057303     101.28920173      95.14130554
C      71.69235008      97.89336354      94.78414727
H      73.27405100      96.60268047      94.78036782
C      70.06340600      89.82612191      92.49946816
O      68.15289270      88.54488747      91.90420437
N      72.05139808      88.67905804      93.50858201
H      73.47436199      89.75431231      94.18888348
C      72.66933858      86.13737615      93.36496281
H      70.92512120      85.04322461      93.25346896
C      74.13765593      85.46652331      90.98579738
H      76.12942746      85.71785691      91.44311115
C      73.76160039      82.83980373      89.76503418
H      71.75471105      82.60736740      89.37197111
H      74.71024300      81.25054390      90.67021309
H      74.84441357      82.73586879      88.01514762
O      73.37609623      87.07657013      89.01292311
H      74.16789155      88.67149913      89.35307385
C      74.11497921      85.10369586      95.60806794
O      75.32062460      86.64760225      96.85906676
N      74.17167100      82.65272083      95.90097552
H      73.07751947      81.75132138      94.62163081
C      75.88187332      81.35636858      97.49401480
H      77.56372974      82.49587354      97.83038609
C      74.54205736      81.14471923     100.15097000
H      73.89766069      83.03444554     100.65174747
C      72.13454604      79.44585527     100.00168162
H      72.74681736      77.50510635      99.68420760
H      70.96480545      80.19418689      98.48045194
H      71.03850478      79.67262243     101.73267092
C      76.13131719      80.30568075     102.45832583
H      76.89287689      78.42729279     102.08416002
H      74.74803753      80.20552525     103.98144523
C      78.25914902      81.95163237     103.20287799
H      77.59963454      83.89994019     103.29547458
H      79.71801773      81.81935152     101.75345791
H      78.89409706      81.58124601     105.12661938
C      76.67177892      78.73720791      96.39608381
O      75.37731639      77.70163789      94.82194180
N      78.62008674      77.51644471      97.45622028
H      79.47046359      78.28556332      98.98500886
C      79.10952586      74.83870252      96.99323733
H      77.28971942      73.87683183      97.08205447
H      80.42288565      74.14328324      98.41620124
C      80.46256990      74.45319836      94.35706912
O      82.38820101      75.50766564      93.68432655
N      78.92244295      73.37227490      92.71300723
H      77.19523310      72.87905634      93.36307308
C      79.53471428      72.87527688      90.07116984
H      81.03137752      74.10170926      89.36819166
C      80.38509112      70.13706346      89.48157523
H      78.74102923      68.89551327      89.46834715
C      81.59640569      70.15218127      86.74903099
H      81.87419546      68.24544742      86.02148636
H      83.43132994      71.08759579      86.79438442
H      80.17533150      70.90807179      85.46401709
C      82.27670716      68.97110232      91.52814883
H      81.00681108      68.60071596      93.10796003
H      83.60518476      70.39028678      92.20656058
C      83.64108956      66.51634784      90.63997746
H      84.52926093      65.34849698      92.08750782
H      85.23979802      66.98122051      89.42866290
H      82.39764964      65.31070245      89.52503894
C      77.16877694      73.60471124      88.63308812
O      75.55117121      72.01734114      88.16821545
N      76.68122755      76.05946572      88.00758871
H      77.96624144      77.45408374      88.20600997
C      74.40410734      76.81157679      86.56761726
H      74.29072376      75.69852800      84.83851768
H      74.51938065      78.77500243      85.95345621
C      71.87187408      76.62638362      87.96223528
O      69.95380187      76.66984732      86.67344193
N      71.65266583      76.47898496      90.52659389
H      73.31373526      76.11615751      91.39208854
C      69.09208667      76.60370690      91.90798382
H      67.65589468      75.43396631      91.00658437
C      69.41334015      75.50388619      94.61974108
H      70.87031913      76.48276442      95.70066453
H      70.05773682      73.54990918      94.63485889
C      67.02472609      75.39806151      96.14286049
N      65.18791211      73.64817495      95.90664470
H      65.32397241      71.97765689      94.99579662
C      63.08275700      74.73476758      96.90819964
H      61.22515603      74.03178939      96.43387834
N      63.59487283      76.96086517      98.01557926
H      62.20214454      78.20241536      98.40864234
C      66.18757733      77.39739195      97.53369905
H      67.12299186      79.21152921      97.58472166
C      67.95825089      79.30412580      91.90420437
O      69.09208667      81.08046854      92.98134837
N      65.72270466      79.72175532      90.86296517
H      64.73248807      78.15706193      90.40943085
C      64.28840239      82.06879540      90.89886997
H      65.58664436      83.55978946      90.32061372
C      62.17001919      82.13304609      88.96756968
H      60.68091486      80.75732534      89.32661768
H      63.00527822      81.83824879      87.10618926
C      60.46737578      84.52166015      88.77103814
H      59.67369073      84.88448760      90.63808774
C      62.05663561      86.78744200      87.67499688
H      60.72059911      88.32567922      87.37264067
H      63.08275700      86.33390769      85.94589730
H      63.45503308      87.12570301      89.14709368
C      58.56442138      84.07379502      86.63375768
H      59.50928454      83.37837573      84.93867318
H      57.62333768      85.86336583      86.23691516
H      57.12256021      82.74342769      87.26303654
C      63.50605569      82.77366331      93.62196559
O      62.44969868      81.14849868      94.84272878
N      64.07297359      85.06590133      94.49501914
H      65.11988196      86.32256933      93.50858201
C      62.99582959      86.11847889      96.82127223
H      62.35143292      84.54433687      97.98345392
C      65.04807236      87.44317703      98.40108343
H      63.99927426      88.41449636      99.88451859
H      66.01939169      88.92283273      97.35039560
C      67.10598432      85.74998225      99.72956103
H      68.32485779      85.02243762      98.23667724
C      68.80295855      87.53766335     101.23378318
H      67.65778440      88.35591484     102.73989505
H      69.39633261      89.16282798     100.11884465
H      70.42812318      86.46618853     101.90652574
C      65.80207316      83.73742373     101.44732225
H      67.12110213      82.35603380     102.21833058
H      64.72303944      82.52988862     100.17553644
H      64.44335994      84.40071767     102.84571972
C      60.56753128      87.68128255      96.14286049
O      58.52473713      86.96318655      96.92331746
N      60.75272446      89.52376570      94.42320954
H      62.43269115      89.90926987      93.60306832
C      58.53040631      91.26798309      93.97534441
H      56.82209372      90.24375143      93.44433131
C      57.95403979      93.07267172      96.16553720