 %block lattice_cart
   137.793   0.000   0.000
   0.000 143.498   0.000
   0.000   0.000   162.326
 %endblock lattice_cart

 %block positions_abs
N      85.29932439      40.30395415      82.06062000
H      84.88547433      40.02805412      80.22002657
H      84.06722284      39.35909100      83.17177908
H      87.08322603      39.69924174      82.37620429
C      85.19160999      43.05728539      82.26660016
H      85.71695391      43.80939647      84.11286277
C      87.15881509      44.49725684      80.52805197
H      86.67126570      44.37064519      78.53061125
H      88.94271672      43.50892998      80.81718008
C      87.57644460      47.18444766      81.66188775
H      88.63280161      47.04649765      83.42500239
H      85.87380119      48.31261428      81.93589807
S      89.61545929      49.02126164      79.42067234
C      87.93738233      48.96834931      76.27805748
H      89.33200035      49.97746315      75.14800114
H      86.13458342      49.90754327      76.60875959
H      87.62935694      46.98791612      75.79806700
C      82.43827876      43.90577251      81.78660969
O      81.30255324      43.41822312      79.83830185
N      81.60113000      45.24936791      83.81617574
H      82.74063497      45.40999466      85.33740543
C      78.84968849      45.68211525      84.07884771
H      77.91805341      44.29694586      82.87320232
C      78.18639455      44.58985343      86.71879536
H      78.80811451      42.62642779      86.79438441
H      76.15493876      44.29505613      86.87753238
C      79.21818512      45.99580982      88.93922378
O      78.96307207      48.20489987      89.15276285
N      80.27076267      44.70512673      90.74202268
H      81.24964090      45.71046114      92.04026466
H      80.17249691      42.80784153      90.57005759
C      77.82356710      48.53749170      83.72924833
O      79.34479678      50.11541318      82.87509205
N      75.41605578      49.06472534      84.50970530
H      74.27655081      47.62853334      85.04260813
C      74.29355835      51.57617162      84.12609086
H      75.07590504      52.10907443      82.29683579
C      71.41361545      51.40420651      83.93333877
H      70.93929414      50.05872138      82.44612417
C      70.34025090      50.22879676      86.35596791
H      70.78811604      51.36641200      88.01514762
H      71.39093873      48.51859443      86.81895085
H      68.30690539      49.94722753      86.18400281
C      69.93207002      53.82683565      83.30972909
H      70.30056665      55.15720298      84.84040740
H      67.94407793      53.28826365      83.34374416
C      70.74276260      55.02114269      80.85875406
H      72.73075469      55.54837633      80.95513010
H      69.45207953      56.46678332      80.16144506
H      70.62748930      53.59628905      79.37342918
C      75.21574479      53.68321645      85.77204249
O      75.07023586      55.91120378      85.12575608
N      76.27399152      52.96889991      87.92066130
H      76.50642786      51.09618113      88.19845107
C      77.28121565      54.63374878      89.84251296
H      76.25887371      56.41387097      90.00502943
C      77.39837868      53.48668491      92.50135788
H      78.48497131      54.54115219      93.89786562
H      78.36780828      51.68388601      92.26892154
C      74.72441595      52.95378209      93.52747926
C      73.46585822      54.40131245      95.32838845
H      74.36158849      56.13419147      95.93310087
C      70.99598593      53.93455006      96.00113101
H      69.99065153      55.23657148      97.21055585
C      69.62782408      51.88041755      95.15453362
H      67.69085461      51.73868807      95.78192276
C      70.90716879      50.29115773      93.42732377
H      69.89805494      48.73591296      92.57505720
C      73.38082054      50.77492765      92.70922778
H      74.21607957      49.60140761      91.26358715
C      79.85880234      55.30649136      88.96379022
O      80.73563535      57.47022798      88.86363472
N      81.34601695      53.38652943      88.04349351
H      80.43894832      51.71412163      88.16443599
C      83.88769884      53.55660479      87.13075569
H      85.10468258      54.56760836      88.44978466
C      84.69461197      50.72768450      86.83028921
H      86.37268894      50.63886736      85.63598219
H      83.31511176      49.59006926      85.80983700
C      85.40136961      49.31983840      89.29827178
H      83.54376865      49.02504110      90.13542053
H      86.70906022      50.18155359      90.63619800
C      86.64858898      46.69500854      88.72946416
O      89.00696742      46.45312358      89.37197111
O      85.34845728      44.83740758      87.97168390
C      84.11257627      55.02870158      84.44356489
O      85.75474843      56.71811691      84.23758471
N      82.42883012      54.46934260      82.77304682
H      81.00964566      53.28826365      83.25870648
C      82.13592255      55.93199076      80.50348551
H      83.86124267      55.46711810      79.47736414
C      79.90604550      54.95689198      78.77249621
H      78.21285072      55.29704272      79.89310392
H      79.96084756      52.91976702      78.46825028
C      79.90415577      56.36473810      76.21947597
H      81.55199711      55.79593046      75.12154498
H      79.77187493      58.39430416      76.54261916
S      77.28499510      55.98112364      73.94424548
C      78.64181859      56.60473334      70.99816216
H      79.34101733      58.53036445      70.80163063
H      77.27365674      56.03592572      69.56574962
H      80.24997568      55.31593998      71.02650805
C      81.94128074      58.77224942      80.99481436
O      83.33400903      60.16875715      79.71169020
N      80.18383526      59.63585434      82.60297146
H      79.22196457      58.47178292      83.76893259
C      79.84368453      62.28147118      82.99036535
H      79.55077695      63.26979803      81.20835343
C      77.33034853      62.65374725      84.75536972
H      77.23964167      64.65118797      85.25236775
H      77.49664445      61.58605189      86.50903574
C      74.71685704      61.99045333      83.69334353
H      74.83590980      60.17442634      82.73147284
C      72.72886496      61.87895948      85.64921026
H      72.41706012      63.76301661      86.42210833
H      73.13137666      60.38040650      87.00225432
H      70.99787566      61.34416692      84.66655258
C      74.04978365      64.16363859      81.62031377
H      73.67183839      65.95320940      82.56706665
H      72.30556627      63.76868579      80.59797183
H      75.62014622      64.49623041      80.32963069
C      82.26064448      63.54191862      84.20734909
O      82.63858974      65.75100869      83.70846135
N      83.58534263      62.22288966      85.87786715
H      83.23007408      60.36339897      86.12920075
C      85.68671829      63.30381311      87.21768310
H      85.17838191      65.18975998      87.86963868
C      86.34812250      61.65219231      89.48913414
H      88.16037003      62.34572187      90.17510479
H      86.48418279      59.76813517      88.66710319
C      84.19572423      62.10194718      91.39019880
H      82.46473492      61.40274845      90.52092470
H      83.97840570      64.04269609      92.04404411
C      84.72484759      60.47111336      93.68621627
H      85.13113875      58.56815898      93.01347372
H      82.86913635      60.43331885      94.57627738
N      86.65992734      61.50290394      95.41342613
H      87.76163778      62.92586784      94.77658836
C      87.08133631      60.52213597      97.74534839
N      85.76041761      58.73634462      98.72422663
H      86.30276907      57.97289518     100.38718578
H      84.00864132      58.35273018      98.07227106
N      88.86523795      61.30637239      99.29303425
H      88.85767904      60.62607092     101.07504617
H      90.06899361      62.66886507      98.71099854
C      88.00352275      63.67419947      85.37519995
O      89.58333394      65.33337918      85.97424319
N      88.21139264      62.51012807      83.16044071
H      86.89236368      61.19676827      82.73714202
C      90.13513403      62.83705072      81.25370686
H      91.68281988      64.02190911      81.92455970
C      91.40503011      60.39363459      80.43734509
H      92.94515706      60.75457232      79.12020585
C      92.48973301      59.16342275      82.79005435
H      93.54231057      60.44843665      84.00892783
H      93.68215032      57.57227321      82.25148235
H      90.84567112      58.56248980      83.87853671
C      89.65703327      58.53036445      78.99548393
H      88.69516258      59.28436525      77.33630421
H      87.90903643      58.20722124      80.03672312
C      90.66614712      55.88474761      78.30762354
H      91.33322051      54.78492689      79.91578063
H      92.17414872      56.24379561      76.95268977
H      89.23184485      55.03248104      77.10197815
C      89.19782978      64.42064136      78.97658665
O      90.74929508      65.19542915      77.40244463
N      86.69016296      64.67575442      78.66667154
H      85.52987100      63.71955291      79.84208132
C      85.52798128      66.09682860      76.62576712
H      86.83945134      66.00423201      75.04028675
C      83.05432953      64.91763939      76.06829786
H      82.00175198      65.10094283      77.82763307
H      83.28109669      62.97311101      75.42579091
C      81.76364646      65.99289366      73.73826531
O      83.04677063      66.12706422      71.69736090
O      79.43928310      66.46532523      73.86865643
C      85.30877302      68.91252080      77.49126177
O      85.89836763      70.64917930      76.04373142
N      84.63036128      69.23377429      79.92711900
H      83.86313240      67.78813366      80.90977668
C      84.39981467      71.85293496      80.96646846
H      85.00641681      73.23621462      79.56807099
C      81.51231286      72.24410830      81.72424872
H      81.38759093      72.75622413      83.71602026
H      80.48619147      70.46020666      81.64488022
C      80.09501813      74.10926817      80.13876835
H      78.06734179      74.03556885      80.48836771
H      80.04588524      73.18330228      78.30195437
C      81.38759093      76.61504527      80.11420189
O      82.09812802      77.60526185      78.07707693
O      82.10001775      77.69407899      82.10030425
C      85.93049298      72.18363706      83.36264144
O      87.58400351      73.85793457      83.38342842
N      85.63947513      70.69642245      85.26937528
H      84.23918793      69.40573938      85.15410198
C      87.13802810      70.88161563      87.48413451
H      88.99373934      71.74144109      87.24791873
H      87.58967268      68.95031533      88.03782433
C      85.70561555      72.04379730      89.69322458
O      84.16737833      73.79935305      89.45133961
N      86.03253820      71.19153075      92.18766331
H      87.34589799      69.84793534      92.52403460
C      84.84390035      72.13828362      94.50446777
H      82.85779800      72.53134670      94.12085333
C      84.77020103      69.91596549      96.30915640
H      86.71661913      69.52479213      96.85150785
H      84.04265640      68.22088098      95.39452886
C      83.23952271      70.43375049      98.65808621
H      83.28109669      72.45764738      99.03414174
C      80.53343463      69.46621062      98.71288827
H      80.17249691      67.54057950      99.35350549
H      79.32212007      69.86494287      97.09528255
H      79.46951872      70.28446211     100.27380220
C      84.75697294      69.09204481     100.75379268
H      83.85557349      69.56069694     102.54525323
H      86.64480953      69.91407575     100.67631391
H      84.83067227      67.07003766     100.36261934
C      86.14781151      74.53067714      95.53625833
O      88.32099677      74.47776481      96.39608381
N      84.69461197      76.63961171      95.59106040
H      82.82000347      76.44685962      95.30382201
C      85.33144974      79.05279221      96.84205922
H      87.34589799      79.26066210      97.21811476
C      84.74374486      81.34880967      95.14508499
H      85.48640730      83.07035035      95.99735155
H      82.69528153      81.42439873      95.36240351
C      85.55443745      81.08235827      92.39742293
H      84.30721808      79.77655739      91.40153716
H      87.47061993      80.35670337      92.17821469
C      85.56577580      83.66561413      90.94422339
H      87.10023357      84.72764033      91.81727695
H      83.75352827      84.57268277      91.31460975
N      85.90403681      83.37081683      88.24191477
H      85.89458818      81.57179738      87.60507700
C      86.14403206      85.28699932      86.56194808
N      86.27820262      87.63970858      87.21768310
H      86.61268418      88.90582520      85.82873426
H      86.38402730      88.04411001      89.07906352
N      86.42371155      84.70496361      84.23002580
H      86.65236843      86.19217821      83.05650576
H      86.32544578      82.94184895      83.50248117
C      84.28454136      79.10381482      99.49712469
O      82.21529105      78.08903179     100.01301997
N      85.71884363      80.21875334     101.30748250
H      87.25519113      81.20330075     100.74623379
C      85.09901340      80.41528487     104.06081373
H      83.46062069      79.20963948     104.38206721
C      87.19283016      79.41561966     105.75211878
H      86.44260881      79.57246695     107.66452182
H      88.76130300      80.74787671     105.79936195
C      88.16225976      76.71331103     105.22299541
H      88.97673180      76.46386716     103.35027664
C      90.11812649      76.24276918     107.30736355
H      91.84344662      77.33314126     107.03524296
H      90.68126493      74.26233601     107.23744367
H      89.52097298      76.81346653     109.19331040
C      86.19505467      74.72531894     105.70487562
H      86.64858898      72.71653988     105.63117630
H      84.64736882      75.14861765     104.41230283
H      85.64136486      75.14294847     107.64562455
C      84.32233589      83.05523254     104.91497003
O      83.04110145      83.56167919     106.83871141
N      84.75697294      84.89015679     103.12728893
H      85.40892852      84.48575536     101.38118182
C      83.98974406      87.58490651     103.34271773
H      83.22251518      87.68695173     105.25134131
C      86.45394717      89.17983552     103.28035678
H      87.25330140      88.92661219     101.39818936
H      87.89391862      88.24442099     104.41419255
C      86.04576629      92.06166814     103.79058287
H      85.11413121      92.27331749     105.61605849
H      84.87413597      92.93661143     102.33927307
C      88.51563858      93.66037661     103.62428696
H      89.63057710      93.58856701     105.35527627
H      88.17737757      95.68616322     103.46177049
C      90.29009159      92.97440596     101.33960785
H      89.15058662      93.31644642      99.65586170
H      90.77386152      90.98452415     101.54558801
N      92.67870565      94.30288355     100.95032423
H      92.62201386      96.18127150     100.61395294
H      93.70671676      93.61880263      99.49523496
H      93.61034072      94.09123421     102.60383475
C      81.83356634      88.23875182     101.36795374
O      81.71640330      87.38081607      99.24957054
N      80.06667223      89.94139522     102.03313740
H      80.11958457      90.67082957     103.79436232
C      77.91616369      90.76909534     100.50812826
H      76.83524024      89.07023138     100.07538094
C      76.19462302      92.73630044     101.89140794
H      77.47207800      94.01375542     102.87973479
C      74.45985426      94.20461779     100.09616793
H      73.01043418      92.92905253      99.38185138
H      75.31212083      95.17593711      98.49179030
H      73.51499111      95.67860431     101.18276056
C      74.58079675      91.50608861     103.92853290
H      75.61825649      90.16249320     105.09449403
H      73.19940681      90.44406242     102.82871219
C      73.22208353      93.34290259     105.68597836
H      72.51154643      92.22985379     107.26578956
H      71.75754563      94.42382604     104.72410767
H      74.51276660      94.60901922     106.67430522
C      78.73252546      91.88781333      98.03447653
O      80.48430175      93.45061699      97.98534365
N      77.67238899      91.14893034      95.82349673
H      76.11903396      90.03777127      95.81593783
C      78.52654529      91.77065030      93.28181484
H      79.45440091      93.60557455      93.16654155
C      80.55044217      89.74864314      92.54293185
H      81.61624781      89.21763005      94.22100882
H      81.76364646      90.47996722      91.04815834
C      79.41471665      87.33735237      91.70200365
C      79.55266668      86.67216870      89.10929914
H      80.47863257      87.76443051      87.65232016
C      78.81756314      84.28166492      88.23813531
H      78.71740765      83.87348403      86.24069461
C      77.86325135      82.47886601      89.87274858
O      76.92594710      80.30946021      89.06205599
H      77.04688958      80.31701910      87.25169818
C      77.56845405      83.12704214      92.57316748
H      76.46674361      81.96863991      93.84117383
C      78.56245009      85.50053838      93.42543405
H      78.16749729      86.00320559      95.36240351
C      76.19273329      91.74230440      91.51303101
O      74.11403435      90.99208305      92.25947292
N      76.28532988      92.80622032      89.27181561
H      78.01065000      93.24463682      88.58962442
C      74.09702681      93.29754915      87.60885645
H      72.42839848      93.35046148      88.81450184
C      74.14993915      95.95828381      86.39376243
H      72.50209780      96.10568246      85.16733007
H      75.79400104      96.26252974      85.19000678
C      73.97230487      98.10312316      88.40065178
H      75.74675788      98.11257180      89.44567043
H      72.37359641      98.02375466      89.69511430
C      73.73041991     100.52197285      87.03248994
H      72.29422791     100.28197761      85.57362122
H      75.51432154     100.83377769      86.05361170
C      72.99153692     102.59122316      88.96567994
H      74.42961864     102.45138342      90.43399729
H      71.07913389     102.09989432      89.55149511
N      73.20507599     105.21794274      87.91310239
H      72.16005734     106.45382375      88.92221625
H      72.42083957     105.07432354      86.17833364
H      75.04188997     105.56376264      87.51814959
C      73.61325687      91.28310090      85.61141575
O      75.29133384      90.00375619      84.71568548
N      71.24165035      91.18672486      84.65710395
H      69.90750357      92.26197914      85.49614243
C      70.22119814      89.53699379      82.78249546
H      71.19629692      87.72285652      82.69367831
C      67.47164636      89.07779029      83.54216544
H      66.22064754      90.68405766      83.23602976
H      67.44707991      88.80944916      85.58306984
C      66.34536947      86.94239957      81.93211861
O      67.24676893      84.78055266      82.28927688
O      64.63327743      87.30144757      80.37309441
C      70.52733380      90.68972684      80.12365053
O      71.07724416      92.88369909      79.88554501
N      70.22497759      89.11369509      78.10542282
H      69.99443098      87.25798386      78.48714754
C      70.13049128      90.13414730      75.46925462
H      72.00698951      90.71051383      74.84564493
C      69.68829532      87.85324765      73.52094680
H      67.83636353      87.01798862      73.85353862
C      70.07190976      88.41260664      70.88477858
H      72.00132033      88.91716356      70.36699357
H      68.87382328      90.02454318      70.42179563
H      69.27633499      86.74586803      69.97393050
O      71.45896888      85.87848365      74.07652633
H      73.05578761      86.29422344      73.31874607
C      68.06502042      92.15426473      75.05918401
O      68.25966223      93.66037661      73.33764335
N      66.10915368      92.32811956      76.75426851
H      66.14883794      91.05066457      78.17156325
C      64.05313146      94.15548490      76.81851921
H      64.04746228      95.02475901      74.95146961
C      61.36405091      93.00842103      77.19646447
H      59.85793904      94.37280343      76.86387265
H      61.17885773      92.46229013      79.17500793
C      60.69508780      90.65571177      75.69224232
H      58.78079504      90.16249320      76.27427803
H      61.80246742      89.08912866      76.44057394
C      60.79524329      90.87114057      72.71970283
O      59.22299100      92.27520722      71.61421294
O      62.06513937      89.41227186      71.50838826
C      64.68807950      96.37402359      78.59675166
O      63.28968203      98.27319854      78.54005988
N      66.85181613      96.21717631      79.87042720
H      68.16139646      94.92838296      79.35831137
C      67.59069911      98.03887248      81.71102063
H      67.36582168      99.93426797      80.93623284
H      69.61459600      98.06910810      82.09841452
C      66.30568522      97.74596490      84.34529912
O      67.37338059      98.98940481      86.04983224
N      64.49343769      96.00930641      84.68167039
H      63.82447457      95.23262890      83.07162357
C      63.49377247      95.18916520      87.11941735
H      62.59048329      96.72740241      88.14931818
C      61.44530914      93.05944364      86.74525153
H      60.53824051      92.50764356      88.51025590
H      62.34292914      91.25664474      86.31628365
C      59.19653483      93.44305808      84.94812180
C      58.32726073      91.39270502      83.45523802
H      59.20598346      89.55778077      83.61775448
C      56.32982002      91.74608385      81.84708093
H      55.64573909      90.13414730      80.80206227
C      55.28291164      94.13658763      81.39354661
O      53.19665379      94.32745000      79.90444227
H      52.61272836      96.04143176      80.00648750
C      56.10683231      96.19638932      82.82784888
H      55.52668633      98.12579989      82.50281596
C      58.03057370      95.75608309      84.62686833
H      58.69197791      97.44549841      85.56417258
C      65.66128855      94.20083833      88.89576007
O      67.67573680      93.42983000      87.91877157
N      65.42507276      94.33878834      91.44500087
H      63.71487045      94.67326990      92.21789893
C      67.52833815      93.66226633      93.17599017
H      69.31979869      93.86446704      92.18199413
C      67.71542105      95.43482961      95.53625833
H      68.08391768      94.31989109      97.22945311
H      65.78412076      96.11702082      95.75168713
C      69.34625486      97.74785462      95.15453362
C      68.11793276     100.03064400      95.60239876
H      66.11293314     100.11568168      95.96711593
C      69.52010968     102.25296214      95.67042890
H      68.74721162     104.12946038      95.89908579
C      72.14304980     102.21138817      95.32271927
O      73.50932193     104.35433781      95.12429800
H      72.44729574     105.75273528      95.57972204
C      73.29578285      99.86056864      94.67643286
H      75.30267220      99.93993715      94.30604650
C      71.91061347      97.60990460      94.62352053
H      73.00665473      95.89592284      94.46100406
C      67.24298947      90.85035357      94.01880811
O      65.10570901      89.82045274      94.47045269
N      69.42184391      89.58612668      94.50824722
H      71.05834690      90.51209257      94.20022183
C      69.56735284      86.74775776      94.74635274
H      67.71542105      86.13170698      95.40397749
C      70.02844606      85.47597194      92.17443522
H      69.81490698      83.42939835      92.27270099
C      68.06502042      86.26398782      90.19778150
H      68.85870547      88.01765384      89.46456769
H      66.23387562      86.77421392      90.99335628
H      67.78723065      84.75220676      88.82961966
O      72.45296492      86.09580218      91.24280015
H      72.77232866      87.77765860      91.83806395
C      71.66494905      85.80856378      96.70977837
O      73.41105616      87.15404891      97.42409492
N      71.65172096      83.37081683      97.25968873
H      70.20608033      82.27099612      96.67009412
C      73.64916167      82.07068512      98.86028692
H      75.23086260      83.38782437      98.95477323
C      72.83657936      81.85147688     101.73645037
H      72.08257856      83.70340866     102.23155866
C      70.83346947      79.80868272     102.17108742
H      69.03067056      80.34536501     101.33204894
H      70.60292286      79.69907860     104.21577129
H      71.60636753      77.98698657     101.59661062
C      75.00787489      81.62470972     103.68475820
H      76.25131481      80.11481840     103.04036152
H      73.95907679      81.41495010     105.44787285
C      76.78043817      83.80734360     103.84538493
H      77.44751156      83.35002984     105.73889071
H      75.86959009      85.65549594     103.87562055
H      78.21663017      83.74120319     102.36950868
C      74.28221999      79.45341418      97.84739362
O      72.70051906      78.32902703      96.46789341
N      76.40438264      78.24965853      98.54470262
H      77.66483009      79.23042648      99.58972128
C      77.05444849      75.55301908      98.20644162
H      75.54077771      74.33225588      98.88296363
H      78.85913712      74.99554982      99.03036230
C      77.42294512      75.12783065      95.48712545
O      79.27676663      75.74388142      94.29470815
N      75.66927910      73.73132290      94.21156019
H      74.17828504      72.87527689      95.04303977
C      75.55022634      74.07903255      91.48279539
H      76.76721009      75.56435744      90.73824323
C      76.24564563      71.61104999      90.01825750
H      74.71685704      70.33548473      90.55305005
C      76.20785110      72.32536653      87.12886597
H      74.41261110      73.17763310      86.59029397
H      76.39871346      70.78901904      85.77204249
H      77.83490546      73.58392425      87.03060020
C      78.68906175      70.30524911      90.96123094
H      78.20151236      69.53046132      92.80560381
H      80.23674760      71.66207259      91.07083506
C      79.54699750      68.29835976      89.26992588
H      80.20462225      68.98622014      87.44256054
H      78.16560756      66.80925543      88.93355460
H      81.19861829      67.51223361      90.21856849
C      72.72886496      74.73476758      90.84973709
O      70.99976538      73.31369340      91.18421865
N      72.45674437      76.91362202      89.75747527
H      73.96285624      78.05690644      90.02203695
C      70.22497759      78.00210438      88.62363948
H      69.56357338      76.83803297      87.05894609
H      70.66528383      79.87482316      87.88286677
C      67.89494505      78.38004964      90.24691438
O      66.32458248      79.91639713      89.36441220
N      67.77967175      77.41439949      92.54104213
H      69.28389389      76.38449866      93.10418058
C      65.63105293      77.43140702      94.21344992
H      64.03990337      76.30324042      93.55015599
C      66.29434686      76.25788698      96.77780852
H      67.88738615      77.22353714      97.65653126
H      67.04834766      74.37571958      96.42065025
C      64.15139722      75.95175133      98.47856221
N      62.59048329      73.85415511      98.85272801
H      62.32025243      72.57858986      97.45999973
C      61.17696801      74.35493259     100.82560229
H      59.84660068      72.99810910     101.57393390
N      61.58892834      76.74354665     101.57771336
H      60.88595016      77.42195840     103.21799581
C      63.38038889      77.79612420     100.03191723
H      64.39895137      79.55356968     100.23222823
C      64.66351306      80.19985607      94.71422739
O      65.90317352      81.72108576      95.94632894
N      62.47898944      80.82913493      93.54070735
H      61.52467765      79.53278269      92.51836541
C      61.29035159      83.42372916      93.89975535
H      62.64906481      84.72764033      93.06449632
C      58.72410325      83.64104769      92.42765855
H      57.44475854      82.28611393      93.30260183
H      59.08882043      82.94940786      90.52092470
C      57.40129483      85.96541106      92.00058040
H      57.21799138      86.93484066      93.81093821
C      58.76000805      87.83812984      90.13353082
H      58.70142654      86.77988310      88.36663670
H      60.72721315      87.93639561      90.73257406
H      57.85293942      89.67116436      89.88408693
C      54.71221429      85.42683906      90.92532613
H      53.94120596      87.13326192      90.06928011
H      53.46877438      84.75031704      92.42198937
H      54.93142254      83.91883747      89.54204647
C      60.90106797      84.24387039      96.66820440
O      59.20220401      83.45396479      97.94943885
N      62.34292914      86.12036862      97.45999973
H      63.90195335      86.52288032      96.43198861
C      61.91774072      87.41105169      99.93743093
H      61.10326868      86.04100011     101.24323180
C      64.22509655      88.71307312     101.03914136
H      63.52400809      89.88848289     102.57926830
H      65.14350354      89.89793152      99.62562608
C      66.19986055      86.70996323     101.92920245
H      66.74032227      85.40794179     100.42687003
C      68.58847461      88.11025043     102.62084228
H      69.77900218      86.84602351     103.73011164
H      68.25210332      89.79399657     103.76223699
H      69.52955831      88.74708819     100.90308106
C      65.19074670      85.31534520     104.23088911
H      63.80746704      84.00576487     103.44665269
H      64.57469592      86.62303582     105.69731672
H      66.78000653      84.29111355     105.04725088
C      59.95431508      89.56156024      99.67475896
O      58.04758123      89.33668280     101.09394342
N      60.22076649      91.49475025      98.10061694
H      61.64373041      91.24719611      96.85717703
C      58.43497513      93.50730877      97.40330794
H      56.60949951      92.72874153      97.96077719
C      58.90362725      95.97718107      99.00201639