 %block lattice_cart
   137.793   0.000   0.000
   0.000 143.498   0.000
   0.000   0.000   162.326
 %endblock lattice_cart

 %block positions_abs
N      90.62079370      42.08407634      81.16300000
H      92.33288573      42.81162097      80.73970131
H      90.52441766      40.26804936      80.58285403
H      90.41481352      42.33163049      83.04327769
C      88.53075639      43.53160669      79.88932447
H      88.84067151      45.56306249      80.02349504
C      88.47406460      43.13098471      77.04906582
H      86.97929110      44.29694586      76.24026296
H      88.01108165      41.23369951      76.39711024
C      90.88346566      43.82640401      75.62799163
H      90.40158544      44.11175268      73.64377900
H      92.28753230      42.32974076      75.79995673
S      92.33477547      46.89909898      76.67867946
C      95.45660334      46.50792563      75.50137997
H      96.65280008      48.10663410      76.01538553
H      95.28652797      46.42477768      73.45102692
H      96.33154662      44.80906169      76.27049858
C      85.95883889      42.77760589      81.17433836
O      84.99318873      40.68189942      80.75292939
N      84.87791544      44.39521163      82.81840025
H      85.67915938      46.12620092      82.87698177
C      82.42883013      44.11931159      84.12987032
H      81.00208677      42.83429768      83.38342842
C      82.96551240      43.13098471      86.82462004
H      84.52453661      44.22891571      87.59940783
H      83.60612962      41.18078716      86.65265494
C      80.53721409      43.04972648      88.48191001
O      78.45662542      42.65855314      87.59751810
N      80.74697371      43.96813348      90.83461927
H      79.25597966      43.31050871      91.82861531
H      82.39859451      44.33474037      91.71901119
C      81.20617720      46.87831200      84.29049705
O      82.53465481      48.65843419      84.67033204
N      78.62859051      47.00114421      84.17711347
H      77.67994791      45.37031040      83.88609562
C      77.08846357      49.24802879      83.87664699
H      77.86514109      50.15131797      82.19668030
C      74.30300698      48.66977255      83.40988459
H      74.52788441      47.33940521      81.85275011
C      73.11625886      47.30539015      85.61708492
H      71.19440721      46.71957498      85.15599170
H      72.86303553      48.63953693      87.16666050
H      74.11214462      45.68967414      86.42210833
C      72.64382728      50.91854686      82.48202897
H      72.39060395      52.22623746      84.05050181
H      70.82024140      50.22501730      81.82062476
C      73.79278088      52.50402723      80.44679373
H      74.48631044      51.31160992      78.91611542
H      75.43684278      53.40731641      81.30095002
H      72.61170193      53.99502130      79.65688813
C      77.30956155      50.96390028      86.20667953
O      76.95996218      53.26558694      85.86274934
N      78.00309111      50.13997962      88.36096753
H      78.06167262      48.24080466      88.53482235
C      78.26009389      51.65742984      90.77036858
H      77.08090466      53.31849927      90.47935073
C      77.55333624      50.11163371      93.09473194
H      77.83490546      51.11507839      94.87107468
H      78.84023987      48.52615334      93.36496281
C      74.84724816      49.55038500      92.92843603
C      73.18806846      51.41932433      93.87707864
H      74.15749805      53.05771705      94.61407190
C      70.60859204      51.10374004      93.72401081
H      69.32357816      52.55127038      94.37029721
C      69.54278640      48.85874517      92.75458121
H      67.50566144      48.78882529      92.68655106
C      71.17173048      46.97090859      91.72845982
H      70.31379473      45.32684670      90.87619325
C      73.81545759      47.35452303      91.76625435
H      74.92472695      45.84085226      90.96501039
C      81.04177101      52.56827793      91.11240904
O      81.85813279      53.55471506      93.03426070
N      82.46284521      52.19033266      89.16599094
H      81.90726567      51.13397566      87.67688660
C      85.18783054      52.84417797      89.27748479
H      85.74529982      54.06116171      90.84028845
C      86.52953623      50.17777413      89.79526980
H      86.15348069      48.96834929      88.16821545
H      85.29176549      49.47290623      91.28437414
C      89.31499282      50.22501730      90.72123570
H      90.51118958      51.30216130      89.43811153
H      90.19371555      48.37308551      90.92154668
C      89.36601543      51.32105855      93.41787514
O      89.13924826      49.82817477      95.22823295
O      89.36034624      53.72479042      93.76747451
C      86.03442793      54.23123709      86.71690564
O      86.84134108      56.41198124      86.98713650
N      85.37680317      53.31849927      84.43033680
H      84.59823593      51.57617161      84.40388063
C      85.96828751      54.68666113      82.07573781
H      87.99974331      54.47501177      81.81684531
C      84.96673257      53.17865953      79.89310392
H      85.54120936      51.22657224      80.20112931
H      85.96450806      53.59061986      78.13943790
C      82.00175198      53.21078488      79.66633676
H      81.40270874      55.09862145      79.09941887
H      81.08901417      52.80827317      81.46724594
S      80.83012167      50.77681739      77.39866519
C      81.71829303      52.32072378      74.39211062
H      81.10980116      51.22846196      72.75560764
H      83.74974882      52.64575670      74.48659694
H      80.74886344      54.12919186      74.21447635
C      85.30499357      57.50424306      81.99825903
O      86.42371156      58.94610423      80.61686910
N      83.20550764      58.27336166      83.16610990
H      82.26442395      56.98078886      84.20734909
C      81.99797254      60.80559492      82.83918724
H      82.22662941      61.50857312      80.91733558
C      79.15960361      60.75457232      83.51570926
H      78.52654530      62.71232878      83.61019558
H      79.00086659      60.16497770      85.48291436
C      77.37570197      58.94610423      82.04928164
H      78.25820415      57.08472382      82.03038438
C      74.86803516      58.85728710      83.51381954
H      74.07623982      60.73000588      83.84641137
H      75.08724341      57.83872462      85.29016227
H      73.30901094      57.88218831      82.58407419
C      77.08657385      59.84561396      79.31862712
H      76.51398678      61.82604713      79.32240658
H      75.70518390      58.67965283      78.33407971
H      78.83079123      59.78703244      78.22447559
C      83.50786386      62.85405825      84.31695322
O      83.09023434      65.11795037      83.79916821
N      84.94216612      62.06793210      86.17455419
H      85.22751480      60.18387497      86.07628842
C      86.34812250      63.55136726      88.01892707
H      85.06310862      64.74945374      89.09418134
C      87.69738710      61.78069371      89.92377119
H      89.51530381      61.06448742      89.27181561
H      86.31410744      60.29347909      90.27526029
C      88.23973854      62.88051441      92.54860104
H      86.38969649      63.19231926      93.40275733
H      89.28853664      64.64173933      92.34073115
C      89.96694840      61.05503880      94.07549990
H      90.81165605      61.82037795      95.79137139
H      91.50518561      60.35584006      92.89442096
N      88.71594957      58.73634461      94.93154592
H      89.21294760      57.16787177      93.96400605
C      87.62557749      58.40564251      97.08016474
N      87.16826373      60.19332359      98.70532937
H      86.18371631      59.96466671     100.32104537
H      87.96572822      61.87706975      98.28958958
N      86.74874449      56.15875793      97.84550390
H      86.21395193      55.99246200      99.67097951
H      87.31566237      54.60918234      96.88552293
C      88.56288174      65.11228119      86.91343717
O      89.60223121      66.83193214      88.06994968
N      89.32633118      64.27513244      84.67033204
H      88.82933316      62.45343626      84.39254227
C      91.27463900      65.41463740      83.03382905
H      91.73951167      67.23066438      83.88231617
C      93.85222569      63.92364335      82.68045023
H      95.05976080      64.93275719      81.35008291
C      94.87834709      64.20332283      85.33173625
H      96.63012338      63.12617884      85.26559583
H      93.62167909      63.37184326      86.73769263
H      95.09188615      66.19887382      85.79282947
C      93.41002973      61.15708401      81.61275487
H      92.14769255      60.13663180      82.88265095
H      95.12779095      60.01946877      81.58440897
C      92.39146726      60.95677303      79.03138872
H      93.54986948      61.89785674      77.61031454
H      90.45449779      61.63518477      78.84619554
H      92.56910153      58.99901657      78.41722767
C      89.99151484      66.39540535      80.50348552
O      91.30487462      67.35916577      78.93312295
N      87.54809872      65.96832722      80.09341491
H      86.58433830      65.28613601      81.59196788
C      86.23284920      67.41018838      78.03739268
H      87.04732125      66.72421773      76.27427803
C      83.55699674      66.50311976      77.88054540
H      82.34946163      67.36294522      79.31106822
H      83.23196382      64.47166397      77.92022965
C      82.20584242      67.34782741      75.38421694
O      79.91738387      67.91663503      75.54862313
O      83.44550288      67.50467470      73.29417964
C      86.31599715      70.19375524      78.41722767
O      86.23095947      71.69230821      76.67490001
N      86.39725538      71.05736017      80.75292939
H      86.57111020      69.70998531      82.09274535
C      85.90025736      73.68596947      81.42378224
H      86.71661914      74.85004088      79.93278817
C      82.99007884      74.09792980      81.43701032
H      82.18316572      72.54835423      82.52927213
H      82.31922600      73.85982429      79.50193057
C      82.25119585      76.73031856      82.38376320
H      82.80866513      77.01377752      84.34529912
H      80.19706335      76.86259940      82.39132211
C      83.20739737      78.87515792      80.66033280
O      85.42782579      79.72742449      80.77560611
O      81.66538070      80.02033207      79.29972986
C      87.16070482      74.26044627      84.00325865
O      87.33455964      72.61827410      85.64732054
N      87.79565286      76.59047881      84.23758472
H      86.98118081      77.80179338      83.00548316
C      89.22995513      77.57691595      86.35218846
H      89.70994562      79.54223131      85.96290484
H      91.01763622      76.56024319      86.44478505
C      88.00730221      77.60904129      89.06016627
O      85.83600667      78.35737291      89.21512382
N      89.30743391      76.71142131      91.04248917
H      91.06865884      76.14639313      90.57572677
C      88.43249062      77.03834396      93.65976011
H      86.39347593      76.82291515      93.86385055
C      89.66837163      74.93696829      95.33783708
H      91.67715071      74.65161962      94.98445826
H      88.68949341      73.21164816      94.78036782
C      89.32444144      75.14672791      98.12896284
H      90.54898410      76.66228841      98.80170541
C      86.63725063      75.69852799      99.06248764
H      85.80955051      77.43140702      98.31415602
H      86.71283969      76.06513490     101.08827425
H      85.28798604      74.26989491      98.44454714
C      90.14458267      72.63150219      99.41586646
H      89.01452633      71.06302935      98.70532937
H      90.01986074      73.03590362     101.43031471
H      92.10989803      72.14773225      99.03036229
C      89.41892777      79.61593064      94.41187118
O      91.72628359      80.25276841      94.54982121
N      87.58400352      81.19574185      95.10540074
H      85.76230735      80.70819246      94.80871371
C      87.87880082      83.57490726      96.56049000
H      89.85356481      84.11347926      96.77213935
C      86.35568140      85.66683430      95.05815758
H      86.39536566      87.30522701      96.30537695
H      84.41115303      84.99787118      94.92398702
C      87.33455964      86.47185770      92.45600445
H      89.29231609      86.91594339      92.91520794
H      86.36513005      88.21229564      91.93066054
C      87.08889522      84.62937455      90.34518016
H      85.53554019      83.36136819      90.82517064
H      88.71405985      83.41617025      90.70044871
N      87.00763699      85.73108499      87.86774896
H      87.76919670      87.47719211      87.76948319
C      85.77742516      84.92606158      85.85896989
N      85.19727918      82.62437493      85.41110476
H      84.97996065      82.01966251      83.61397503
H      85.63002650      81.33180213      86.74714126
N      85.49018675      86.62681526      84.08640661
H      84.50941880      86.11847889      82.52738240
H      85.96639778      88.43528335      84.46057242
C      86.59756637      83.40672162      99.19098903
O      84.50941880      82.43729202      99.42342537
N      87.75407888      84.50465261     101.17520166
H      89.43026613      85.34936027     100.81615366
C      87.00007808      84.23442175     103.78302397
H      86.03442793      82.43729202     104.06081374
C      89.37168460      83.86403540     105.49133656
H      88.78020026      83.40861135     107.41129849
H      90.32788611      85.68762128     105.56503588
C      91.39180203      82.00643442     104.92630839
H      92.44815905      82.61681602     103.26523896
C      93.24751327      81.96297072     107.07870666
H      92.70705154      80.79700958     108.68875348
H      93.80120308      83.74120318     107.95553967
H      95.02763545      81.10125552     106.49856068
C      90.44126969      79.33247169     104.38584666
H      92.03241926      78.07580369     104.02679866
H      89.27908801      79.30412580     102.68509298
H      89.43026613      78.79767914     106.09793870
C      85.43160524      86.49453442     104.84316043
O      84.47162428      86.31312069     106.95398472
N      85.34845728      88.54299774     103.37862254
H      86.09111972      88.48819568     101.62117707
C      84.04643585      90.91649399     104.05514456
H      82.96740213      90.66705012     105.79180304
C      85.85301422      93.11802514     104.75623302
H      87.20794797      92.50953327     106.18108666
H      84.61713320      94.62602674     105.41952696
C      87.33455964      93.93249719     102.40163404
H      86.04009712      94.09501366     100.80859475
H      88.85200986      92.57378397     102.11250591
C      88.94649619      96.20583794     102.68131353
H      90.35245256      96.51764278     101.20732701
H      90.21261281      95.88458447     104.27435281
C      87.33078019      98.46784034     103.00634646
H      85.58845253      97.97651150     103.99089386
H      86.93204793      99.00074316     101.05614890
N      88.49863104     100.58622354     104.46521517
H      90.39780599     100.39536118     104.39907475
H      88.20005430     100.32166186     106.33037504
H      87.75974806     102.32855119     104.22333020
C      82.10001776      91.51553723     102.13329290
O      82.37591779      90.54799737     100.05081450
N      80.20462226      93.13881213     102.60005530
H      79.93439140      93.74352455     104.39151584
C      78.25631444      93.88525403     100.62529130
H      77.52310062      92.01253525     100.17553644
C      75.99431204      95.48774194     101.62117707
H      76.68217241      97.41526278     101.85550313
C      74.03088640      95.69372211      99.48578633
H      74.66583443      97.08645040      98.10817585
H      72.29044846      96.52142223     100.21711042
H      73.62837469      93.93060746      98.50123893
C      74.68095224      94.48807672     104.11183635
H      76.18517439      94.16304381     105.47999820
H      73.63593359      92.79110249     103.58271298
C      72.57768687      95.81655432     105.52157218
H      72.37170670      95.27420288     107.49633618
H      70.98086813      95.70695019     104.22521993
H      73.25042942      97.74596490     105.25323104
C      79.40337830      95.08145079      98.38029644
O      80.66949493      96.91637504      98.76202116
N      78.95740290      94.26697874      96.06916116
H      78.06356235      92.59646068      95.82160701
C      79.90982496      95.63514059      93.80904849
H      80.48619149      97.49463129      94.48368078
C      82.27576229      94.21217668      92.95111274
H      83.62502689      94.08556502      94.50257805
H      83.13936723      95.34601247      91.46578786
C      81.42727518      91.63458999      91.63397350
C      81.03799156      91.50041942      89.01103338
H      81.57467383      93.10290733      87.86963869
C      80.29154967      89.18739441      87.77893183
H      80.31422638      89.21951977      85.73802741
C      80.06478251      86.97830435      89.21512382
O      79.76809549      84.73519923      87.92633048
H      79.94384002      84.80133964      86.12164185
C      80.47107367      87.10680574      91.79082079
H      80.21218117      85.35125000      92.79804491
C      81.02665321      89.40471294      92.99457645
H      81.23830255      89.42738966      95.02603224
C      77.76309586      95.82789268      91.85696121
O      75.92817161      94.45406165      92.11207426
N      78.02009864      97.49085184      89.97101435
H      79.62825574      98.52075267      89.99747052
C      76.43650799      97.81777449      87.59184892
H      74.51654605      97.26219495      88.08128804
C      76.21729974     100.52764202      86.62241932
H      75.02677217     100.41425845      84.94812181
H      78.04088563     101.36668050      86.15187747
C      75.03622079     102.35689709      88.41765932
H      76.16438740     102.65547385      90.11652327
H      73.37326164     101.40447503      89.17543957
C      74.35969877     104.95527078      87.24602901
H      73.17484038     106.02485586      88.54427098
H      73.44318151     104.56598716      85.44134038
C      76.66327516     106.69570871      86.71879536
H      76.21352028     108.13568015      85.31472871
H      78.24686580     105.53541675      86.09896513
N      77.16216289     108.27363019      89.04126900
H      77.50798281     107.26829578      90.62863911
H      75.68817637     109.43203241      89.39086837
H      78.70795903     109.36211253      88.78615595
C      77.41160677      96.04332148      85.49803217
O      79.52432078      96.17371259      84.86875330
N      75.54266745      94.63547537      84.44545461
H      73.81167815      94.93972131      85.19189650
C      75.51243182      93.48463205      82.01337684
H      77.26231839      92.39992915      81.98692068
C      73.18806846      91.60435437      82.01148712
H      71.46841751      92.67960865      82.36297621
H      73.49987330      90.30233294      83.57807023
C      72.64004783      90.06611716      79.49059222
O      74.41450083      88.78110326      78.65911264
O      70.73520371      90.52910010      78.22636531
C      75.41794551      95.32333576      79.63610114
O      75.10803039      97.54376417      79.78916897
N      75.83746475      94.37469314      77.33819395
H      76.21918946      92.50575382      77.25693571
C      75.80911886      95.68238375      74.83430658
H      76.94295464      97.39447579      74.99493332
C      77.16972180      94.00241706      72.92568301
H      75.75431679      92.71173399      72.16790275
C      78.29788841      95.84301050      70.91690393
H      79.25786937      97.31888675      71.98459930
H      76.89949093      96.73307158      69.69236128
H      79.61124820      94.83767609      69.68858183
O      79.17472143      92.65315247      73.97259138
H      80.46918394      92.32622982      72.74426928
C      73.23342189      96.53842977      74.09164414
O      72.98397801      98.07855672      72.25294044
N      71.27944489      95.81277488      75.52027723
H      71.58935999      94.31611163      76.65978220
C      68.58469516      96.62724692      75.43523955
H      68.09336633      97.42093196      73.60031530
C      66.70819693      94.45784110      75.87365605
H      66.56835718      94.26886847      77.91833992
H      67.55290460      92.80055112      74.99115387
C      64.10226434      94.68460826      74.73982027
H      63.52967727      96.63291609      75.07808128
H      62.74922030      93.30699778      75.45602654
C      63.92085062      94.40114931      71.89956162
O      63.11960666      92.33378872      71.00194162
O      64.65217470      96.22662493      70.57297375
C      68.08580742      98.75696846      77.26260489
O      66.30379550     100.16670430      77.05662473
N      69.59380902      99.01775069      79.16555929
H      71.28700378      98.14091768      79.24870725
C      69.25932746     101.00196332      81.13843356
H      68.20108072     102.61767932      80.42600674
H      71.14716405     101.65202917      81.64488021
C      68.06124098      99.92670905      83.63665175
O      68.25399305     101.14747225      85.58495958
N      67.44896965      97.49274156      83.66310792
H      66.83102915      96.92393395      81.94723642
C      66.54945992      96.11513109      85.88920551
H      65.17562889      97.23195933      86.94178307
C      65.23798987      93.60368481      84.99914442
H      64.60115210      92.54354835      86.64887549
H      66.71197638      92.48496683      84.09774497
C      62.92874430      93.95706363      83.22658114
C      61.98388115      92.02765306      81.71668981
H      62.97598746      90.26642814      81.43323087
C      59.75778355      92.29788392      80.15010670
H      59.18141702      90.83901521      78.84241609
C      58.15151618      94.43705411      80.28994645
O      55.99722819      94.56177605      78.96713803
H      55.23188903      96.20205849      79.09752914
C      58.90362726      96.36457495      81.95668506
H      57.70176132      97.94249643      82.43478581
C      61.25633652      95.99040915      83.44578939
H      61.63239205      97.65714775      84.56072791
C      68.58847461      95.58600771      87.74491675
O      70.76354961      95.08334051      86.96823924
N      67.93840876      95.91104064      90.15242807
H      66.30379550      96.85590379      90.42832812
C      69.52766859      95.41404262      92.26325237
H      71.46841751      96.05277012      92.00813931
C      68.57713625      96.99007436      94.61407190
H      69.71664122      96.43071537      96.23734680
H      66.60237226      96.59701130      95.04681923
C      68.93429453      99.74907478      94.42509927
C      66.89905930     101.31187844      94.86351577
H      65.01500215     100.67126122      95.31327064
C      67.06913465     103.87434733      95.07516512
H      65.37405015     104.86834337      95.62507548
C      69.35192405     105.12534614      94.56871847
O      69.46719735     107.59899788      94.61974108
H      67.78912038     108.28307881      94.54604175
C      71.42873327     103.65891852      93.87518891
H      73.18050955     104.59433304      93.40275733
C      71.33613668     101.00574278      94.13408142
H      73.02366227      99.87757618      93.91298344
C      69.45963844      92.63047576      92.82639081
O      67.50944089      91.42672009      92.79615519
N      71.66872850      91.65348726      93.77503342
H      73.11436914      92.90070662      93.81282794
C      72.49453890      89.05511357      93.48590529
H      70.84480783      87.87025517      93.82038685
C      73.46963769      88.40315800      90.86485489
H      75.33668728      89.15715880      90.42454866
C      73.61325688      85.57801716      90.15242807
H      74.30489671      85.31912465      88.23057641
H      71.74998673      84.70307388      90.03337532
H      74.85291735      84.71630196      91.55271527
O      72.22241831      89.38203622      88.78426622
H      72.52099508      91.17160705      88.78804568
C      74.46930291      88.42772444      95.36429325
O      75.69573528      90.05288907      96.35262011
N      74.61859127      86.13737614      96.33750230
H      73.34113629      84.90905404      95.62696520
C      76.48753060      84.92039241      98.11006558
H      78.13537195      86.12981724      97.84361417
C      75.70896336      85.37959589     100.93142696
H      75.02299271      87.31467564     101.08827425
C      73.58113153      83.49175931     101.58527227
H      74.41450083      81.60959191     101.63818461
H      72.05990185      83.61459152     100.20199261
H      72.75532114      84.00765459     103.39940953
C      78.05411371      85.19440271     102.72666696
H      79.77187493      85.75376171     101.73645037
H      78.34135212      83.24420516     103.32759993
C      77.62136639      86.90271531     105.13039883
H      79.33345843      86.57768238     106.22266064
H      75.99431204      86.06367683     106.07526199
H      77.51176226      88.90204574     104.64284944
C      77.21507524      82.15383309      97.33149834
O      75.75242707      80.81968630      96.03892554
N      79.35613514      81.25054391      98.42187042
H      80.46162503      82.27477556      99.58783156
C      80.27643187      78.73342845      98.01935872
H      78.84779876      77.37471523      98.61462250
H      81.98852390      78.40083662      99.11917943
C      80.85657783      78.20052563      95.23768158
O      82.11702529      79.60837173      93.96778550
N      79.85124344      76.03678900      94.27203144
H      78.57378845      75.13727928      95.36618297
C      80.39548461      75.01633680      91.77759270
H      81.79955126      76.11804723      90.74580214
C      81.32711969      72.25355692      91.86640984
H      79.71140370      71.20286909      92.59773392
C      82.23040886      71.15373621      89.33795603
H      81.06633745      71.53924038      87.68255578
H      82.54977261      69.17141331      89.79904925
H      84.05021530      71.89261920      88.71434635
C      83.55699674      71.83592742      93.67676765
H      83.28676587      72.89039469      95.42476449
H      85.00830655      72.85826934      92.63174900
C      84.51508799      69.13739823      94.20211156
H      85.90970599      68.36450017      92.89631068
H      82.97496104      67.79002337      94.44210681
H      85.22940453      68.92952834      96.12396322
C      78.12592331      75.54168071      89.92566092
O      76.43839772      73.96375924      89.55527456
N      77.72530133      77.98698656      89.44567043
H      78.99141797      79.16806551      90.25258357
C      75.86770037      79.08302783      87.96601473
H      75.98297368      78.15328247      86.13109048
H      76.30800661      81.08613771      87.77704210
C      73.17106093      79.00743877      89.04504846
O      71.40983600      79.26066210      87.52948795
N      72.72697525      78.72964900      91.53759746
H      74.04600421      78.00966327      92.71489696
C      70.44985503      78.91295245      92.89253123
H      69.17617949      77.72431460      91.79460024
C      70.55945915      77.72053515      95.63641384
H      71.37204148      79.04712302      96.98756815
H      71.64038261      75.96875885      95.61373712
C      67.97998275      77.04023367      96.59639480
N      66.54568047      74.94263747      96.01435910
H      67.03511958      73.26833996      95.23579186
C      64.24021436      75.18452243      97.12551817
H      62.73032304      73.83525785      96.88552293
N      64.26856026      77.43329676      98.49179029
H      62.87772169      78.20241536      99.54436785
C      66.52111403      78.66539830      97.92676213
H      67.00677369      80.46252803      98.76013143
C      69.25176855      81.56990765      92.89064150
O      70.17395500      83.38215519      94.13030196
N      67.44707992      81.95919127      91.13697548
H      66.78567571      80.33213691      90.39053359
C      65.77656186      84.14371488      90.87241380
H      67.01055314      85.70273909      90.33573153
C      64.06258009      83.75632099      88.62741894
H      62.58481412      82.42784339      89.17354984
H      65.07736313      82.94562840      87.02871048
C      62.66418262      86.16572204      87.72979894
H      63.94163761      87.78143805      87.83751334
C      61.76089344      85.79155624      85.04638758
H      60.67997000      84.03789021      85.04827730
H      63.28212312      85.67439321      83.66499764
H      60.58170422      87.41672087      84.57962518
C      60.36060624      86.71374267      89.29638206
H      59.50267050      88.55433610      88.94489296
H      60.92185496      86.84413379      91.27492550
H      58.88284027      85.29266848      89.07906353
C      64.54823975      84.69173552      93.50669228
O      63.21220325      83.07035034      94.61029245
N      64.88839049      86.98208381      94.55738011
H      65.75199541      88.27654633      93.45189022
C      64.03234448      87.68317227      97.14441543
H      63.46164712      85.88226309      97.96833611
C      66.54945992      88.53543885      98.53903345
H      67.42818266      90.07745551      97.49401480
H      67.83258409      86.92539202      98.43698823
C      66.30757496      89.51053761     101.33393867
H      64.95453091      91.05633374     101.20354755
C      65.27389467      87.53010444     103.23878279
H      64.94319255      88.42205526     105.06425841
H      66.64583597      86.01454393     103.49578557
H      63.45975740      86.81578789     102.57359913
C      68.87949246      90.64059395     102.08038056
H      68.56012872      91.40971256     103.96632742
H      69.45585899      92.10891129     100.75757214
H      70.09458649      89.00787041     102.39218540
C      62.00088868      89.77509930      96.99323733
O      59.88628494      89.31967527      97.78503265
N      62.53946068      91.97474073      95.82916592
H      64.25722190      92.42638531      95.13185691
C      60.59304258      93.89659239      95.42287476
H      58.75055942      92.97818540      95.42098504
C      60.13950826      95.82033377      97.46377918