 %block lattice_cart
   137.793   0.000   0.000
   0.000 143.498   0.000
   0.000   0.000   162.326
 %endblock lattice_cart

 %block positions_abs
N      87.18716098      38.96886251      80.96552360
H      88.91248111      38.33013502      80.45151804
H      85.96261834      38.44351860      79.60114120
H      86.66748626      37.82179864      82.39982587
C      87.39125143      41.68250950      81.57968465
H      88.72161876      41.78644445      83.14815749
C      88.07155291      43.44751388      79.29500554
H      86.37646839      43.67239131      78.14983140
H      89.62301820      42.55556306      78.27266361
C      88.87279685      46.11202798      80.04333716
H      87.50085556      46.90949248      81.35480722
H      88.89736330      47.40082132      78.43706979
S      92.04186789      46.25375745      81.51165451
C      93.26452081      49.25464284      80.45151804
H      95.14668822      49.43983601      81.26221063
H      92.18170764      50.88736637      81.08457636
H      93.60278182      49.48329972      78.43140062
C      84.93082778      42.47430482      82.95540541
O      82.89748225      42.64249047      81.79133400
N      85.11224150      43.06578916      85.32701193
H      86.83189244      43.27743851      86.12636616
C      82.93338705      44.05411602      86.84068271
H      81.44617245      42.63493156      86.69706351
C      84.02186941      43.98797560      89.61858039
H      85.53365046      45.34857855      89.95117222
H      84.79098802      42.12848491      90.05888662
C      82.02064925      44.79488874      91.62546973
O      79.80022084      44.81378600      91.03776485
N      82.83323157      45.40338061      93.82511116
H      81.61057863      45.02543535      95.23862644
H      84.66626608      45.27487922      94.34478590
C      82.36646917      46.60146709      85.84290722
O      83.95005982      48.21529336      85.62747842
N      79.86636126      47.15515690      85.50842566
H      78.77031999      45.61314023      85.76731816
C      78.77598916      49.71762578      85.09457560
H      79.73597014      50.21840325      83.34279930
C      75.80533941      49.26787092      84.54088579
H      75.74297843      47.90348852      82.99886911
C      74.41639057      48.63670233      86.96351492
H      75.20251672      46.85469042      87.63814721
H      72.54367179      48.07923307      86.30777989
H      74.59024539      50.07289433      88.42994254
C      74.79055637      51.65270553      83.30311505
H      76.13037234      52.58245087      82.04455733
H      74.51465634      53.06433108      84.77899130
C      72.17517516      51.51475551      81.94062238
H      70.87882290      50.49241357      83.17461366
H      72.58335605      50.56989235      80.15672074
H      71.50810176      53.37802565      81.37370449
C      79.34101734      51.61869045      87.09768549
O      79.36936324      53.92415655      86.75564502
N      79.52054133      50.88547664      89.54677079
H      79.25220020      49.06000103      90.02865100
C      79.97407566      52.85268174      91.48185053
H      78.82890151      54.55343542      91.29287790
C      79.42416529      51.66215416      94.15392354
H      80.01942909      52.86402009      95.71672720
H      80.55044218      49.96706966      94.47139756
C      76.53288403      51.15948696      94.61312703
C      74.75654131      53.09834616      94.79454076
H      75.28566467      55.06933070      94.71706198
C      72.24509503      52.67315774      95.46350387
H      70.99787567      54.27564565      95.66948404
C      71.42495382      50.22596216      95.85467722
H      69.46341790      49.77998675      96.19671768
C      73.14460475      48.23041117      95.69782994
H      72.53611288      46.32367732      96.09845192
C      75.68628664      48.68772494      95.10067642
H      77.01854370      47.14948772      95.27831070
C      82.76709114      53.80132434      91.37035668
O      83.29810424      55.57577735      92.71206236
N      84.49052153      52.77709268      89.87369344
H      83.91226528      51.22562738      88.92505083
C      87.13235893      53.50463731      89.56755778
H      87.80321177      54.62713474      91.15870733
C      88.81799480      51.11602325      89.33323172
H      90.69071357      51.73585348      88.73985765
H      87.83155766      49.98029774      87.92538561
C      88.97295235      49.90848814      91.89759032
H      87.10212330      49.67983126      92.73284935
H      89.74396068      51.19728149      93.30921588
C      90.68882385      47.62947821      91.76153003
O      92.90547281      48.24174953      92.37191163
O      90.01419155      45.45818267      91.32122380
C      87.35345691      55.06933070      87.04288342
O      87.71817409      57.36534817      87.04288342
N      86.44449855      53.94872300      85.00386873
H      86.09300946      52.07978367      85.15126738
C      85.53176074      55.05043344      82.63415194
H      87.09456439      55.22239853      81.30189489
C      83.63447551      53.38369483      81.29055653
H      81.93561157      53.15125849      82.43195122
H      84.36013042      51.45617399      81.24898255
C      83.03732200      54.16415180      78.61092462
H      84.38658660      53.22873727      77.36748470
H      83.15448503      56.22017403      78.52021775
S      79.85691261      53.28731879      78.00243274
C      79.08023511      55.62113078      75.63649540
H      79.63014546      57.40503242      76.50954896
H      77.06956630      55.64191777      75.19618917
H      80.30477776      55.43593761      73.99054378
C      84.45272701      57.75274206      83.08390680
O      85.63191624      59.55176151      82.11069775
N      82.45906576      58.01163457      84.49175290
H      81.57845330      56.54331722      85.33646056
C      81.21751557      60.64591305      84.28577273
H      81.55010739      61.46983372      82.42817177
C      78.24875553      60.60244934      84.76765294
H      77.62325612      62.56209553      84.64293101
H      77.79900066      60.06765680      86.70462241
C      76.70106968      59.00563061      82.84580128
H      77.20373688      57.01007962      82.89115471
C      73.88915693      59.08499912      83.59791236
H      72.96886020      60.80842951      82.94784650
H      73.70774320      58.75240728      85.62369896
H      72.98208830      57.54298244      82.58123960
C      76.91082930      60.10923078      80.10191868
H      75.55589553      59.31554573      78.76777190
H      78.82134261      59.68404236      79.45941173
H      76.69917996      62.15580437      80.00176318
C      82.59512605      62.50540374      85.99786477
O      82.36457943      64.79953149      85.76731816
N      84.24107767      61.50195907      87.68161092
H      84.77775994      59.68782181      87.42460814
C      85.97395669      62.94570997      89.43527694
H      84.86846680      64.23639304      90.59556889
C      87.22873497      61.20905149      91.35145942
H      89.08255647      60.67425894      90.63147369
H      85.92482381      59.61790194      91.46106354
C      87.39314115      62.24462151      94.13313655
H      85.68671829      63.18003604      94.80776884
H      88.84067151      63.70537995      94.04620914
C      88.50996940      60.26985751      95.84144914
H      88.62713243      60.99173297      97.76519052
H      90.18804637      59.37979642      95.04587436
N      86.62024310      58.17415103      95.87735394
H      85.46373060      57.77352905      94.41092632
C      86.62024310      56.33922678      97.55165145
N      88.23217963      56.29765280      99.43003941
H      88.30020978      54.76508476     100.56765465
H      89.16381472      57.89258181      99.90625044
N      85.14814630      54.44194156      97.24173634
H      85.15192574      52.76575432      98.15447414
H      84.01620024      54.55910460      95.70916830
C      87.70683572      64.52741090      87.88003218
O      88.10556798      66.70626534      88.43372199
N      88.85767904      63.47105389      85.84290722
H      88.42871117      61.65502690      85.44039551
C      90.98929033      64.70882462      84.59757758
H      91.98139664      65.73305628      86.08290246
C      92.89413445      62.81720858      83.31256368
H      94.26796548      63.95293410      82.28077312
C      94.49284292      61.32432480      85.28921741
H      96.15958152      60.61567743      84.30844945
H      93.24373382      59.87490471      86.05077711
H      95.19393138      62.52808046      86.80666764
C      91.56376712      61.06354257      81.29811543
H      90.55465327      62.18792972      79.89971796
H      90.22773062      59.90136088      82.35069299
C      93.44404482      59.57632796      79.67484053
H      94.60433676      60.97283570      78.70163148
H      92.42548232      58.66547987      78.13282386
H      94.55142442      58.23651200      80.78410988
C      89.88002099      66.55130778      82.54722453
O      91.42203765      67.67002576      81.19229076
N      87.40070006      66.90657633      82.33368545
H      86.28576154      65.69148231      83.29744587
C      86.37835813      67.89679291      79.88837960
H      87.58589324      67.29019077      78.33313485
C      83.69494676      66.91980441      79.34980760
H      82.40804314      67.66246685      80.77655097
H      83.87636048      64.86756163      79.35925624
C      83.02220420      67.38089763      76.68907296
O      81.06255800      68.55252794      76.36970921
O      84.45839620      66.67791944      74.89005351
C      86.36701977      70.81642007      79.80523165
O      85.77931488      71.99938874      77.91550533
N      86.75441367      72.09198533      81.96518882
H      87.21361716      71.11121737      83.53744111
C      86.76197257      74.91334671      82.17305872
H      87.65203367      75.32719678      80.36270091
C      84.14848108      76.11143320      82.53021699
H      83.44172344      75.09476044      84.17427888
H      83.04110145      75.59175846      80.87481674
C      83.98596462      78.93279458      82.93461842
H      84.87980516      79.25593778      84.76198376
H      81.99986226      79.35987273      83.28043833
C      85.20294835      80.46536262      80.83513249
O      87.26463976      81.50849155      81.11292225
O      84.08423039      80.73370376      78.75832327
C      88.66492697      75.61632490      84.19317614
O      89.06365922      74.19714044      85.90904764
N      89.94805114      77.83108414      84.00987269
H      89.63057711      79.10853913      82.62848276
C      91.85478499      78.70980688      85.97896751
H      92.68059537      80.57685647      85.70306747
H      93.23617491      77.20936418      86.26242646
C      90.63591150      79.02917062      88.72096039
O      88.78775917      80.39355302      88.95339673
N      91.77541648      77.88399648      90.61068670
H      93.09444544      76.57441614      90.17982910
C      90.66236768      78.08619719      93.17882476
H      88.63091189      77.77250262      93.28653916
C      91.86045416      76.06230031      94.87390927
H      93.85222570      76.58764423      94.87012981
H      91.52030343      74.21225825      94.03676051
C      90.74362591      76.11332292      97.61968160
H      91.42581710      77.84998140      98.49273515
C      87.87502137      76.13599964      97.63290968
H      86.89992259      74.37666444      97.18882400
H      86.80543628      77.64211151      96.71828215
H      87.41203842      76.55551888      99.59444560
C      91.60534111      73.84943080      99.22216951
H      91.47495000      72.17513329      98.02786248
H      90.78519988      73.85887943     101.11189582
H      93.64057634      74.15178701      99.24484623
C      90.86645812      80.83574898      94.08211394
O      92.92248034      81.87131900      94.15959272
N      88.74996465      81.82407584      95.01752847
H      87.10401304      80.91700721      94.69627499
C      88.71217013      84.00670973      96.78631229
H      90.66425741      84.60575297      97.05654316
C      87.42526650      86.25548404      95.76208063
H      87.01708562      87.60096918      97.26819250
H      85.54309910      85.85108261      95.02697710
C      89.07121813      87.60852808      93.76086047
H      90.96850335      87.80505962      94.53753798
H      88.28131253      89.50014412      93.55488030
C      89.10145375      86.07784977      91.15870733
H      87.24574251      85.22558320      90.89792510
H      90.72661838      84.81929205      91.01508813
N      89.34900788      87.89009730      89.07055976
H      89.67404082      89.76281608      89.24441458
C      88.74807492      87.27026707      86.79343955
N      88.01108167      85.07440510      85.94495244
H      87.24007332      84.82118177      84.21774259
H      88.13958304      83.58719049      87.13548001
N      88.80098725      89.06172762      85.09079614
H      88.32099677      88.61197276      83.29933560
H      89.27908802      90.84373953      85.58023526
C      87.47628912      83.35853361      99.38657570
O      85.42593607      82.44390607      99.40925242
N      88.97673181      83.94812822     101.28197119
H      90.73795673      84.57551735     100.89457730
C      88.28509198      83.88387752     103.92002913
H      87.09645413      82.27761015     104.41891687
C      90.82299442      83.61553638     105.41480264
H      90.22773062      83.26026784     107.35366184
H      91.83777745      85.40699693     105.45070744
C      92.62012413      81.49904291     104.48883675
H      93.18704203      81.75793542     102.52541111
C      95.02196628      81.27227576     106.20470824
H      95.99139589      79.65278031     105.38078757
H      94.48528401      80.78283664     108.13222908
H      95.88179175      83.14499453     106.13289864
C      91.35967669      78.91389732     104.35844563
H      90.35812175      78.46414246     106.10077329
H      92.78075087      77.56463273     103.72916677
H      89.89891825      78.81563155     102.91091527
C      86.72039858      86.27249158     104.63056622
O      85.19349973      86.20635116     106.36911443
N      87.15881509      88.38520560     103.30019889
H      88.45894680      88.14521036     101.92447814
C      85.86813202      90.75303267     103.25106601
H      85.15192574      90.99680736     105.16535877
C      87.82966794      92.81094462     102.81453923
H      89.03342360      92.80527544     104.48316757
H      86.98118082      94.65909696     102.49706521
C      89.46995037      92.36874867     100.50340395
H      88.23784882      91.89064791      98.92359275
H      90.86078894      90.90232105     100.90024648
C      90.94015745      94.81972369      99.71916753
H      89.55309834      96.19166500      99.05776332
H      91.96060966      94.43988871      97.96928097
C      92.57477070      95.80427110     101.83944045
H      94.07332368      94.41532226     102.10778159
H      91.66203290      96.20489308     103.64223936
N      93.58388455      98.27603312     100.96449717
H      94.17914835      98.13241392      99.15602909
H      94.95015668      98.81649485     102.18148092
H      92.21950216      99.58561346     101.22905886
C      83.64770361      90.79460665     101.46716437
O      83.41148782      89.46045987      99.56609970
N      82.10757666      92.53882403     102.00006719
H      82.24363695      93.42321595     103.68570306
C      80.19706336      93.55360706     100.19537856
H      79.08023511      91.93033216      99.59444560
C      78.27521169      95.35262651     101.61456302
H      79.45629064      96.79448769     102.49328576
C      76.58201691      96.53181573      99.54720244
H      75.16472219      97.94533102     100.03286210
H      75.50487293      95.03704222      98.62690572
H      77.55333624      97.56927548      98.05620838
C      76.56500938      93.76525641     103.48539207
H      77.58924104      92.70323022     104.91969435
H      75.69006609      92.20245275     102.46493986
C      74.47308236      95.56805531     104.60599978
H      75.43495305      97.10251308     105.58865746
H      73.22775272      94.69878121     106.00061780
H      73.08413351      96.23890816     103.23972765
C      81.66349098      94.72901683      97.89180219
O      83.26597889      96.32394584      98.30943170
N      80.83201139      94.15265031      95.63546897
H      79.10102209      93.35518580      95.51830594
C      81.77309511      95.14286689      93.14291996
H      82.47229384      97.07227746      93.33000287
C      83.90659611      93.37975224      92.21317462
H      85.23129425      92.84684942      93.69849950
H      84.96295312      94.47768323      90.82800523
C      83.26786861      90.89098269      90.97729361
C      83.71006457      90.54705250      88.33545622
H      84.30721809      92.02859793      87.06556014
C      83.01464529      88.25292476      87.24508414
H      83.24141245      88.09229802      85.22496671
C      82.23796778      86.29138884      88.77198300
O      81.87514032      83.93490013      87.77609723
H      81.86380196      84.06340152      85.96762915
C      81.87514032      86.63531903      91.38925394
H      81.05310937      85.19534758      92.57978152
C      82.35702054      88.94834404      92.40214725
H      81.89403759      89.21101600      94.37124207
C      79.59424067      95.42443611      91.21161967
O      77.43428349      95.42821557      92.01853281
N      79.89281741      95.87608070      88.74930628
H      81.71262386      96.17465746      88.25419799
C      77.83679520      96.41654243      86.91627176
H      76.05667300      96.06127388      87.88570136
C      77.96529659      99.17743257      86.32289770
H      77.25098003      99.36829493      84.40104604
H      79.90982496      99.85962377      86.26053673
C      76.26265317     100.78181021      87.97262877
H      76.46296417     100.29237110      89.96440030
H      74.28788918     100.53236634      87.43972595
C      77.29066428     103.52002364      87.49830747
H      77.53632871     103.72600381      85.46307223
H      79.07834537     103.80915177      88.47718570
C      75.46707840     105.62895820      88.05577673
H      76.64248817     107.31648380      87.94806233
H      74.96252147     105.41163968      90.03998936
N      73.43184315     105.67809109      86.17171959
H      74.04978365     106.46610696      84.54466524
H      71.98998198     106.75145563      86.81233681
H      72.82335129     103.91497644      85.76731816
C      78.08623907      94.70067094      84.50120153
O      80.00431127      93.85596327      83.63759661
N      75.76754487      94.32839485      83.41460890
H      74.27088163      94.81405452      84.49364263
C      75.30078248      92.86385696      81.19418049
H      76.59335527      91.27081768      81.01465649
C      72.61359167      91.97757532      81.41149901
H      71.42306408      93.56683515      80.86914756
H      72.17895461      91.22546425      83.27854861
C      72.10336556      89.79872088      79.62948710
O      70.47820093      90.06139284      77.92495396
O      73.38837946      87.71435276      80.04522689
C      75.63337431      94.50791885      78.80934588
O      75.84691338      96.80582605      79.04745139
N      75.49164484      93.48557692      76.52277704
H      75.65038184      91.58829170      76.40183456
C      75.26298795      94.88964357      74.19085477
H      76.85980668      96.18032664      73.99621296
C      75.48030647      93.00180698      71.99877225
H      73.84380350      91.75836707      72.12727364
C      75.46329894      94.13753250      69.37205267
H      73.64538222      95.07105729      69.10749099
H      75.64849212      92.57472883      68.04357507
H      77.07712521      95.41687721      69.36449377
O      77.68750682      91.52404100      72.15750926
H      77.42294513      90.30705726      70.83659056
C      72.78933621      96.33150474      74.02455885
O      72.78555676      98.44610849      73.05323953
N      70.78811605      95.27325801      75.11304121
H      71.05834691      93.66510092      76.10136807
C      68.41273007      96.64897877      75.40405906
H      68.02533618      97.55793712      73.59559098
C      66.44741470      94.64019969      75.80657077
H      66.44930443      94.43799898      77.85503409
H      67.07102439      92.89976176      74.89761241
C      63.93974789      95.60207039      74.78989801
H      63.44086014      97.51069396      75.38705153
H      62.36560587      94.35296130      75.23398369
C      63.83581293      95.28081691      71.89294757
O      63.96998351      97.15920487      70.37927680
O      63.66384785      93.07928576      70.98020976
C      68.39950199      98.69933181      77.49409636
O      66.61371062     100.20166423      77.57724432
N      70.55567971      99.00735720      78.92461918
H      72.00132034      97.76958647      78.79044862
C      70.79378522     100.97078284      80.90694209
H      70.02655634     102.74712558      80.20018444
H      72.81579238     101.31282331      81.10347362
C      69.65994944     100.40386495      83.45051370
O      70.11348374     101.69832747      85.22118726
N      68.24265469      98.25902558      83.60736099
H      68.33903075      97.24424255      81.99353472
C      67.24865865      97.16298432      86.00731340
H      65.92773997      98.37618862      87.02020671
C      65.80679749      94.70634012      85.39504208
H      64.92429530      94.06005372      87.13925947
H      67.27511483      93.30416319      85.04355298
C      63.74510608      95.04271140      83.51476440
C      63.27456423      93.23235359      81.64582507
H      64.49343770      91.59774033      81.55700794
C      61.07303307      93.48935637      80.14727211
H      60.48532819      92.10418698      78.76588217
C      59.17763758      95.23735321      80.68017493
O      56.83437695      95.25247102      79.47830899
H      55.77046104      96.38063763      80.41750297
C      59.70298150      97.09117472      82.46407657
H      58.48788748      98.61618386      83.06500954
C      61.92907909      96.86062811      83.89648911
H      61.89884347      98.12674474      85.49519757
C      69.38404940      96.50535957      87.86680410
O      71.33802640      95.76836630      86.92194094
N      69.12326717      96.75102399      90.35179420
H      67.70597242      97.71856386      91.18705323
C      71.04133936      95.76269712      92.04876843
H      72.80067457      96.37685818      91.17382514
C      70.69362972      96.99479868      94.74162842
H      72.06179158      96.04237662      95.95105326
H      68.85870547      96.37496845      95.44838606
C      71.43818190      99.77458609      94.89469625
C      69.52388914     101.53581101      95.20461137
H      67.59447858     100.88007598      95.15547849
C      70.08891730     104.11339770      95.22350863
H      68.61493079     105.50612599      95.44649634
C      72.61170194     104.91653138      94.75863596
O      73.40349726     107.34105024      94.60745786
H      72.22430805     108.47488603      95.38980455
C      74.62048101     103.08349686      94.27675575
H      76.41950045     103.76190861      93.59456455
C      73.94962817     100.55504305      94.56210442
H      75.51810101      99.25491135      94.43549276
C      71.09047226      92.89598231      92.26230750
O      69.12704662      91.72057254      92.53442809
N      73.40160754      91.86608147      92.35112464
H      74.80756392      93.15487481      92.31144038
C      74.01954804      89.17322147      92.25852805
H      72.21107996      88.18867406      92.22640270
C      75.20251672      88.45890492      89.65637492
H      76.05289355      86.58618615      89.76597904
C      73.35814383      88.38142615      87.53232254
H      71.77833263      87.20790611      88.13892469
H      74.45229536      87.85986168      85.86558393
H      72.54367179      90.24280656      87.19595126
O      77.12058892      90.03493667      88.93260974
H      78.60969325      89.29227423      89.65637492
C      75.68439693      88.25292476      94.32210918
O      77.09602248      89.80439006      95.25752371
N      75.79778050      85.64699217      94.80209967
H      74.53922278      84.51882556      93.91770775
C      77.70073490      84.63409887      96.59167048
H      79.31834062      85.89076687      96.38191086
C      76.92027792      84.85330712      99.44893667
H      76.26265317      86.77137933      99.81365385
C      74.78677692      83.07129521     100.31632105
H      75.56345444      81.16267163     100.28230597
H      73.19562737      83.37365142      99.04264551
H      74.20285150      83.23948085     102.28541586
C      79.27676665      84.53961255     101.19126433
H      80.85468812      85.54116750     100.32576968
H      79.70951397      82.59697390     101.71660824
C      78.82512206      86.12320320     103.61956264
H      78.07679043      87.98269389     103.14713106
H      80.52209629      86.35186009     104.76662651
H      77.42105541      85.21046539     104.81764912
C      78.31678568      81.93367997      95.77341899
O      76.67083406      80.62598936      94.66981882
N      80.54288328      80.86031542      96.44049238
H      81.63892454      81.90155462      97.60645351
C      81.15515459      78.19202187      96.03420122
H      79.56589476      76.98259703      96.54064787
H      82.69150208      77.82730469      97.35511991
C      81.97340610      77.68368549      93.33756177
O      83.23952271      79.24081997      92.18482872
N      81.21751557      75.54640503      92.40592670
H      80.05911334      74.63555695      93.61724127
C      81.80711017      74.58453433      89.87558317
H      83.36424465      75.74293656      89.18394334
C      82.45150685      71.70081198      89.76030986
H      80.57500862      70.90334748      90.04565854
C      83.65526250      70.91279611      87.09390603
H      85.28987577      72.05230108      86.57045185
H      82.09812802      70.82019952      85.74653117
H      84.35446125      68.97771636      87.04855260
C      84.06533312      70.74650019      91.96562047
H      84.43949893      68.75661839      91.59145466
H      83.16582339      70.91657556      93.80999335
C      86.70339105      72.10899286      92.17726982
H      86.33867388      74.07997741      92.65348085
H      87.55187817      71.89356407      90.31399967
H      87.92793371      71.18680642      93.55110085
C      79.73030095      75.44624953      87.93294452
O      78.59646517      74.22548634      86.28321345
N      79.25786938      78.00304923      87.95562123
H      80.28399076      79.01405281      89.20850978
C      77.74419861      79.55073509      86.17549905
H      77.88025889      78.74949113      84.28199328
H      78.34324184      81.51038127      86.39092785
C      74.94362420      79.70758237      86.91060258
O      73.49231439      80.32174342      85.19284136
N      74.23308711      79.02917062      89.30110637
H      75.56723389      78.72492469      90.63336342
C      71.50243259      79.00838363      90.29132296
H      70.39505297      78.22036776      88.74174738
C      71.24542981      77.25849707      92.54387672
H      72.63815811      77.72903892      93.98762762
H      71.39660792      75.34987349      91.78798620
C      68.80768287      77.43802107      93.89503104
N      66.83669833      75.67679614      93.64936661
H      66.87449285      74.01950617      92.70261373
C      64.90161858      76.61221067      95.12902232
H      63.13661421      75.59364819      95.24996480
N      65.48176456      78.71736578      96.38191086
H      64.18919175      79.88143719      97.16614728
C      67.92896014      79.32585765      95.54476211
H      68.84169794      81.09086203      96.01341423
C      70.43095777      81.76549432      90.73729837
O      71.62904425      83.46813773      91.79554510
N      68.14060948      82.25871289      89.85479618
H      67.44707992      81.04928805      88.55277475
C      66.89716957      84.84952767      89.93038523
H      68.10281496      86.44256695      89.42582830
C      64.83358843      84.87787356      87.90837808
H      63.04212789      84.00293028      88.42427336
H      65.66506800      83.64388228      86.48163471
C      64.37249522      87.56317465      86.76131420
H      65.97309340      88.44945629      85.81645105
C      62.20875859      87.30428215      85.04355298
H      62.50733535      85.65455108      83.84546650
H      62.04624212      88.99558720      83.87570212
H      60.46076175      86.80917385      86.01109286
C      63.51644919      89.45101124      88.77954191
H      62.22954558      88.50614808      90.07778388
H      62.46765108      91.04971970      88.01042330
H      65.11326793      89.82517705      90.02676127
C      65.86726873      85.10842017      92.62891441
O      64.25911164      83.54750624      93.38480493
N      66.92740518      86.90554990      93.97250981
H      68.28422868      88.00537061      93.20528093
C      66.27733933      87.26648762      96.68615680
H      66.22442700      85.44857091      97.65369667
C      68.51477529      88.69701044      97.91447890
H      68.48076022      90.62264155      97.17937537
H      70.22875706      87.61041781      97.57054871
C      68.44107597      88.99369747     100.72828138
H      66.74032229      90.05194421     101.20071296
C      68.47887049      86.43311832     102.34210765
H      67.14472371      84.98936741     101.72983633
H      67.98943138      86.84129920     104.30175384
H      70.39316325      85.68100724     102.20604736
C      70.81079275      90.70012033     101.35567052
H      70.51032628      91.12341903     103.34744205
H      70.91850716      92.48402197     100.33143886
H      72.39816286      89.50014412     100.82087797
C      63.61471496      88.37764669      96.74662804
O      61.97065307      87.24570063      97.88424328
N      63.14228339      90.51681688      95.36334838
H      64.36493631      91.62608623      94.40714687
C      60.45887202      91.30861220      95.23484699
H      59.34393350      89.59840989      94.95894695
C      59.61416435      92.58795692      97.77841861