 %block lattice_cart
   137.793   0.000   0.000
   0.000 143.498   0.000
   0.000   0.000   162.326
 %endblock lattice_cart

 %block positions_abs
N      89.82238433      37.40700372      78.32746567
H      90.40442002      35.89711239      79.33846925
H      90.81260092      37.48637222      76.69474213
H      87.97234226      37.14055231      77.93629232
C      90.19655013      39.83530203      79.73720150
H      91.86706820      39.68034447      80.92961880
C      90.73701186      42.08596607      77.82290874
H      89.00791229      42.74548055      76.91961957
H      91.91431135      41.44156939      76.26010508
C      92.05226138      44.09285541      79.35736651
H      93.84561164      43.28405255      79.96963784
H      91.05070643      44.60686097      81.08268663
S      92.91019712      46.70067772      77.30512373
C      94.50323640      48.32395263      79.83924672
H      93.21066360      48.69055953      81.40016065
H      95.14763308      50.17777414      79.21563704
H      96.10572432      47.15988122      80.40616461
C      88.00446761      40.61764872      81.53811068
O      85.71033986      40.41355828      80.89749345
N      88.56193688      41.49637146      83.83412815
H      90.40253030      41.47558447      84.33112617
C      87.03314828      42.25604143      85.93739353
H      85.41554256      40.98236590      85.92983463
C      88.43721494      41.94801605      88.44506035
H      90.24379330      42.90610729      88.18238839
H      88.65075402      39.97325205      88.98741180
C      87.42243190      43.24247857      90.70328329
O      85.65931725      44.68056029      90.53887710
N      88.64886429      42.84374632      92.84056375
H      87.66620660      43.74514577      94.20683588
H      90.23623439      41.78549958      92.85946102
C      85.84640016      44.91299663      85.31189412
O      87.26936407      46.67989073      84.48419400
N      83.40487376      45.35708231      85.64826541
H      82.42599553      43.89821360      86.39281757
C      81.78159886      47.53971621      84.89993379
H      82.66977024      48.18222315      83.15571640
C      78.81850800      46.91232707      84.65804882
H      78.39898876      45.42133301      83.29744587
C      77.80372497      45.90888240      87.14870810
H      78.62575592      44.19679036      87.94239315
H      75.81951234      45.47613507      86.79343955
H      77.89443183      47.37531002      88.59245900
C      77.14421049      49.04015890      83.79066444
H      77.12153378      50.73146395      84.96418448
H      75.15054923      48.51481498      83.81145143
C      77.94923390      49.75825490      81.21496748
H      79.79360678      50.66910298      81.18851131
H      76.53571861      51.09807085      80.54033518
H      77.93411609      48.07828821      80.02066045
C      82.13875713      49.75636517      86.70084296
O      81.87797491      51.95033742      86.00353395
N      82.46001060      49.14409385      89.15559744
H      82.66599077      47.37719974      89.84345782
C      83.18188607      51.19822635      90.93760936
H      81.74758379      52.66465397      90.73918809
C      83.00236206      50.24580429      93.62480017
H      84.00013755      51.65931957      94.74162842
H      84.20044855      48.57717595      93.76086047
C      80.34918631      49.65243022      94.74162842
C      79.27771149      51.43066268      96.40836703
H      80.43800346      53.05960677      96.81276846
C      76.93823032      51.01492290      97.40425280
H      76.05572813      52.41143064      98.60233928
C      75.56439930      48.83039928      96.64458282
H      73.65010653      48.76614858      97.34945074
C      76.43745286      47.12964560      94.87201954
H      75.28849925      45.55550358      94.26730712
C      79.01314981      47.52081894      93.93282556
H      79.81250404      46.29816602      92.50797192
C      85.65742753      52.27537035      90.18360856
O      85.91632003      54.64130769      89.94928249
N      87.64352988      50.79193519      90.11179896
H      87.30715860      49.03448972      90.77698262
C      90.31560289      51.19255717      89.37858515
H      91.07338314      52.53615258      90.74296755
C      91.53636609      48.60930130      89.56566805
H      90.71811460      47.53215730      88.01420275
H      91.04125779      47.70979157      91.35145942
C      94.49000831      48.65087528      89.24819403
H      95.17408925      49.81683641      90.80154906
H      95.02669059      49.40487608      87.40760060
C      95.63896191      46.14320846      89.80755302
O      96.72744427      45.81817553      91.89948005
O      95.82037564      44.46135204      88.15026304
C      90.51780360      52.62685944      86.75564503
O      91.60250652      54.70177893      86.54588540
N      89.00980201      51.72923944      84.84513172
H      88.24068340      49.98502205      84.95473585
C      88.66587182      52.91598757      82.45084848
H      90.57827486      52.84795742      81.68928878
C      86.82338866      51.44578049      80.77655097
H      84.86941165      51.78026205      81.33590996
H      87.17865722      49.41810416      80.79355851
C      87.00858184      51.95789633      77.94574095
H      88.95877941      51.58562024      77.40149978
H      86.71189481      53.97612403      77.64905392
S      84.58784243      50.22690702      76.04089683
C      84.00391700      51.90687372      73.20441763
H      85.12452471      51.05649687      71.70208522
H      84.53304037      53.88919662      73.39339027
H      82.01592492      51.92010180      72.67529427
C      87.69077305      55.61829619      82.62848276
O      88.99279447      57.25857863      81.52677232
N      85.81616454      56.13230175      84.28577273
H      85.13208361      54.51469603      85.03410435
C      84.88075002      58.63429939      84.86969816
H      84.81083014      59.45066116      82.97808213
C      82.15765439      58.60973295      85.75220035
H      81.74569406      60.51457707      86.41360456
H      82.09907288      57.40408756      87.42082869
C      80.30383288      57.53447868      83.82656924
H      81.20334261      55.74301813      83.35602739
C      77.92466745      56.68032238      85.30433522
H      76.90421525      58.33572263      85.99030587
H      78.59363057      55.64475236      86.95217656
H      76.84374400      55.49735371      84.01176242
C      79.79549651      59.05759808      81.43039628
H      78.87897924      57.91242394      79.98286592
H      81.53593444      59.69254612      80.52521737
H      78.81094909      60.84149972      81.72708331
C      86.64953384      60.41820103      86.38525867
O      86.43221531      62.67642397      86.15849151
N      88.36729506      59.33349813      87.79121504
H      88.25391149      57.44944099      88.08223290
C      90.34205907      60.94354494      89.15559744
H      89.58994798      62.84838907      89.38992351
C      90.77480638      59.92687219      91.76341975
H      92.28469771      61.05503880      92.59489933
H      91.32282702      57.95021846      91.58767521
C      88.35784643      60.37473732      93.41126110
H      86.64386466      59.64719269      92.53442809
H      88.05737994      62.41186229      93.47740152
C      88.50335535      59.26735770      96.10412110
H      88.74713005      57.22267383      96.05498821
H      86.71567427      59.78703244      96.98851301
N      90.73890158      60.33694280      97.49873911
H      91.38896743      62.03391703      96.91103423
C      91.47400512      59.82671669      99.84766892
N      90.12285080      58.51146718     101.35567052
H      90.58583375      58.43209867     103.20571258
H      88.66020264      57.49479442     100.67158959
N      93.53569653      60.78102848     100.82654715
H      94.03080483      60.22733867     102.58399262
H      94.85283578      61.60116970      99.71538808
C      92.85350533      61.35739501      87.82334039
O      94.66575287      62.48367189      88.82867479
N      92.83082862      60.18576469      85.56133800
H      91.58927843      58.84405901      85.01331736
C      94.52213366      61.13251758      83.55444865
H      95.71077152      62.54036368      84.47285564
C      96.59516344      59.17854057      82.70029236
H      97.46821698      60.10261673      81.08079691
C      98.60961169      58.92342752      84.71285088
H      97.72521976      57.88407804      86.25864700
H      99.40329673      60.74701341      85.25520233
H     100.05336259      57.75935611      83.81901033
C      95.25723720      56.86929501      81.54944903
H      93.51490954      57.58739101      80.71607973
H      94.75268028      55.49735371      82.99886911
C      96.94665253      55.68065716      79.47263981
H      98.78346650      55.18365914      80.25876596
H      97.00901349      56.87874364      77.79645258
H      96.01879691      53.99880074      78.72430819
C      93.20877387      62.38918557      81.27921817
O      94.50134667      63.57593370      79.75042958
N      90.58772348      62.43075955      81.20929830
H      89.92442954      61.39141008      82.66816701
C      89.26302533      64.08804953      79.48397817
H      90.11529190      63.84049538      77.62448748
C      86.54748862      63.14507610      79.27043910
H      85.41176311      63.33782818      80.97686196
H      86.99913322      61.19487854      78.78288971
C      85.13775279      64.32804477      76.89883258
O      83.81494437      66.30280877      76.98009081
O      85.42688092      63.26601858      74.89194323
C      89.51057948      66.93586708      80.35703173
O      89.91309118      68.68953310      78.85469931
N      89.33861438      67.50089525      82.88170608
H      88.79437321      66.17808683      84.14404326
C      90.20410904      69.86305314      84.05711585
H      91.81226614      70.74555533      83.12170133
C      87.98179090      71.76033836      83.93995282
H      87.64164016      72.59181794      85.79377433
H      86.22434542      70.82114438      83.42216781
C      88.39564096      73.98076678      82.19384571
H      86.57772424      74.92374021      81.94818128
H      89.05326571      73.23621461      80.39104680
C      90.11718163      76.13316505      83.35035821
O      92.39241211      75.78734513      84.05333640
O      89.16286985      78.31957839      83.48641850
C      91.23212016      69.73266203      86.85957997
O      90.53292142      68.07915150      88.24096991
N      92.83082862      71.51089449      87.55688898
H      93.29381156      72.78834947      86.21518330
C      93.84561164      72.02678977      90.17982910
H      95.31392899      73.47054067      90.10046060
H      94.64874532      70.28446211      90.93382990
C      91.70266200      72.72409878      92.10546022
O      90.20410904      74.52311823      91.75019167
N      91.89919355      71.56380682      94.28809411
H      93.35617253      70.37516897      94.61312703
C      90.12096109      71.89072948      96.37057251
H      88.28981629      72.05513566      95.44460661
C      90.29481590      69.45109281      98.03731111
H      92.25824155      69.16196468      98.58911120
H      89.67687539      67.97899601      96.73528968
C      88.59784167      69.52668186     100.43348408
H      88.72634306      71.45231297     101.15346980
C      85.94088647      68.60638514      99.96105250
H      84.89964727      68.29080085     101.71093907
H      86.00513718      66.97177188      98.70627423
H      85.01303085      70.07092304      98.84611398
C      89.68254457      67.71254460     102.44604260
H      89.44821851      65.70376553     102.06620761
H      88.60351085      68.17741727     104.13923738
H      91.64785994      68.13962274     102.89012829
C      90.74268104      74.52878741      97.57621789
O      92.88941013      74.95397583      98.32077006
N      88.97767667      76.32780686      97.66692476
H      87.26180517      75.84592665      96.98662328
C      89.23656916      78.60114761      99.42059077
H      91.25479687      78.85815039      99.73617507
C      88.15186626      80.94251851      98.24518101
H      88.22745532      82.52799889      99.56043052
H      86.24891186      80.41906433      97.65180695
C      89.55026374      81.81179262      95.84711832
H      91.46077703      82.27855502      96.46316910
H      88.72256361      83.65805523      95.46917305
C      89.42176235      80.17339991      93.51330632
H      87.47345452      79.49687789      93.48118097
H      90.79370366      78.63516269      93.52653440
N      89.72600828      81.78155700      91.25886283
H      90.28914672      83.57868672      91.56310877
C      89.50113085      80.97275414      88.95717618
N      89.22712053      78.65405995      88.52631858
H      89.72222883      78.12493658      86.75942448
H      89.29515068      77.37660496      89.94550304
N      89.66175759      82.33524681      86.99186081
H      89.45010824      81.23353637      85.44795442
H      90.09639465      84.19473750      86.96162519
C      88.07060803      78.24776879     101.98116993
O      85.92198921      77.15361726     102.15880420
N      89.43121097      79.42506829     103.81798391
H      90.95433038      80.37938007     103.16980778
C      88.67343073      79.68585052     106.50139527
H      86.90275717      78.63894214     106.61288912
C      90.55748786      78.14572357     108.36844487
H      89.98868024      76.16906985     108.47049009
H      90.24757274      78.70697229     110.32431160
C      93.38640815      78.44619006     107.95459480
H      93.62829311      78.02667081     105.95337464
C      94.23111581      81.22219801     108.41001885
H      94.00245892      81.79100563     110.37722394
H      93.36373143      82.51666053     107.06453371
H      96.14729829      81.33180214     107.65979750
C      94.59961244      76.50733086     109.71581973
H      94.12718086      74.64595044     108.97315729
H      93.81348630      76.54890484     111.61877413
H      96.64996550      76.70764185     109.77251152
C      88.02147514      82.40516668     107.30263923
O      87.07094281      82.96830512     109.33220529
N      88.50146564      84.12481763     105.57353965
H      89.35940138      83.50309767     103.98616955
C      87.87785594      86.87625914     105.63023144
H      87.19566475      87.22963796     107.54263447
C      90.50457552      88.22174427     105.20693275
H      91.40786470      87.75687160     103.41547220
H      91.88596546      87.45640512     106.53163089
C      90.55937758      91.08656936     105.41669237
H      89.46900550      91.48908107     107.11744605
H      89.57105072      91.84434961     103.77640993
C      93.22767115      92.12402911     105.55842184
H      93.99867948      91.91049004     103.66113662
H      94.65252478      91.02042894     106.55808706
C      93.46199721      94.85657336     106.40501923
H      93.17286907      94.70161580     108.44025447
H      91.94265724      96.02442422     105.64723898
N      95.94887703      95.76742144     105.59810609
H      95.96210511      96.13780780     103.72727704
H      97.34160533      94.53720961     106.03652260
H      96.47044150      97.40581415     106.42958567
C      85.98057074      87.45073594     103.49106125
O      86.19599953      86.24320082     101.53708425
N      84.24391225      89.29321909     103.79908664
H      84.34973693      90.47240831     105.29952933
C      82.57528391      90.27398705     101.78463839
H      81.44333785      88.70173476     101.08354993
C      80.63453499      92.32811955     102.61233852
H      81.53404471      94.06855748     103.24917629
C      78.49536480      92.73441071     100.53552930
H      76.95145840      94.01375542     101.00796088
H      77.59018590      90.92405290     100.14813541
H      79.46479440      93.59234645      98.93304139
C      78.99803200      91.26420364     104.80820049
H      80.16210342      90.35902473     106.24628222
H      77.93411609      89.67494381     104.04475106
C      77.52404549      93.19361420     106.09699384
H      76.21446514      94.28587601     104.94426079
H      78.77882375      94.57122468     106.97760630
H      76.42800422      92.30922229     107.60121598
C      84.14375675      91.17538650      99.45082640
O      85.86529742      92.72685180      99.77396960
N      83.30282854      90.48941585      97.20772126
H      81.63042076      89.57289859      97.11512467
C      84.38375199      91.03365703      94.70383390
H      85.36829941      92.84401483      94.70950308
C      86.11663103      88.89826629      93.74574266
H      87.42432163      88.49953404      95.28586960
H      87.47912369      89.64659791      92.39080889
C      85.12074526      86.32256933      92.93127062
C      84.96011852      85.71596718      90.31777913
H      85.60073574      86.97074545      88.84001315
C      83.65620737      83.59002508      89.59779340
H      83.55605187      83.18184420      87.60035269
C      82.62252707      81.92706592      91.47429163
O      81.33184400      79.75199094      90.90926346
H      81.30538783      79.49498816      89.11402346
C      82.94378054      82.50910163      94.02731188
H      82.18600029      81.15038841      95.34823057
C      84.06816770      84.72953005      94.85879146
H      84.16454375      85.26054314      96.82788627
C      82.17655166      91.44183791      92.71395209
O      80.00525613      91.47207353      93.59645428
N      82.59040172      91.26798309      90.24596953
H      84.30816294      90.78232343      89.57133723
C      80.61563772      91.75364275      88.35435349
H      78.78827238      91.65159753      89.30110637
C      80.89342749      94.25186094      87.15437728
H      79.72557663      94.38036233      85.46307223
H      82.86441204      94.63547538      86.68761488
C      80.02037393      96.38536194      89.04221386
H      81.11830493      96.50630443      90.78076207
H      78.01915377      96.12080026      89.44661529
C      80.33028905      99.00452261      87.74397189
H      79.37408754      98.89680821      85.92416545
H      82.36174485      99.20483360      87.46996157
C      79.36841836     101.14180307      89.24441458
H      80.59674046     101.29298118      90.89036620
H      77.43711806     100.87346194      89.90392906
N      79.53660401     103.50774042      87.74019243
H      78.83551554     104.94393242      88.77954191
H      78.71646279     103.47372534      86.01487231
H      81.41121250     103.86489869      87.67972119
C      80.68933705      89.91115960      86.15660178
O      82.62630653      89.30455745      85.02276600
N      78.40465794      89.28943964      85.38559345
H      76.88720772      90.08501442      86.22652166
C      77.89821129      88.07812507      83.03477391
H      79.28338068      86.59468992      82.69084373
C      75.23369718      86.81578790      83.43350617
H      73.92222712      88.12725796      84.33301589
H      75.56628901      85.27755068      84.76576322
C      73.94679356      85.76698979      81.02410512
O      72.77516325      87.25798385      79.55578777
O      73.91844767      83.48609013      80.41939270
C      78.10986064      89.72785614      80.78033042
O      77.90765993      92.01820444      80.79166878
N      78.53315933      88.51087240      78.60336571
H      78.68622716      86.60791800      78.57879927
C      78.77504430      89.93194659      76.21286193
H      80.44745208      91.10357690      76.48120306
C      79.54227318      88.61669707      73.75621772
H      79.69723074      89.81478355      72.08758938
C      82.13497768      87.28632975      74.03778694
H      83.65431763      88.53165939      74.65950690
H      82.51292294      86.26587754      72.28979010
H      82.16143385      85.95029324      75.60248033
O      77.67333385      86.76854474      73.11182105
H      78.31773053      85.93328571      71.63783452
C      76.66799946      91.64214890      75.37760289
O      77.16499749      93.45439643      73.93952117
N      74.30206211      91.34168241      76.17506740
H      73.98080864      90.02832263      77.52244226
C      72.45013033      93.22762928      75.74798925
H      72.33674675      93.49408069      73.70708483
C      69.90466899      92.12591883      76.44529826
H      68.65555989      93.75486292      76.31490715
H      70.03317037      91.41916119      78.37848828
C      69.01649761      89.89037261      74.85036925
H      68.57808112      88.23686208      75.99743313
H      70.54906565      89.19684305      73.66551086
C      66.76016440      90.71618301      73.19874846
O      67.20047064      92.45473121      71.52445094
O      64.72303944      89.53321433      73.29512450
C      72.77894270      95.75797281      77.27488811
O      71.38432468      97.70628064      76.88749422
N      74.46457858      95.74096527      79.08524592
H      75.30361706      94.06288831      79.43295556
C      74.56473408      97.73840598      80.99197977
H      74.62709505      99.65269874      80.23419952
H      76.41288640      97.74596489      81.90093813
C      72.89610573      97.36235045      83.35413766
O      71.78305694      99.20672333      84.28388301
N      72.50304266      95.09467887      84.34246452
H      73.14177016      93.67549441      83.23697463
C      70.95535682      94.59768085      86.77832174
H      70.08608272      96.27953727      87.59279378
C      68.83508389      92.75519770      85.98274696
H      67.67479194      92.22985378      87.60224241
H      69.84986693      91.15082006      85.17772355
C      67.18346310      93.75108346      83.77932608
C      66.28017392      91.94639484      81.95196074
H      66.90378361      90.00942536      81.79511345
C      64.80807712      92.85913264      79.87326179
H      64.08620167      91.57978793      78.45596706
C      63.77817628      95.32900494      79.82790836
O      62.46103704      96.11891053      77.83991628
H      61.93380339      97.78186969      78.33502457
C      64.64178121      96.98251546      81.73653194
H      64.32619691      98.96672809      81.36992503
C      66.39544722      96.28520645      83.65460415
H      66.89244525      97.67604502      85.06245025
C      72.67689748      93.45250671      88.84001315
O      74.61764641      92.33378873      88.25041854
N      72.10808986      93.91926911      91.28531900
H      70.44702043      94.75830759      91.70672797
C      73.67089352      92.87614018      93.50385769
H      75.63431916      93.24841626      93.00874939
C      73.24192566      94.47862809      95.82444160
H      74.14899429      93.55266220      97.42692951
H      71.24070548      94.35957534      96.29309373
C      74.09608194      97.24329769      95.44271689
C      72.27249605      99.15948017      95.42759908
H      70.28828343      98.81177053      95.76397036
C      73.10775508     101.67848535      95.10256615
H      71.68668089     103.14302324      95.14225040
C      75.72502603     102.19438063      95.01185929
O      76.37320216     104.75495978      94.70005445
H      74.87653891     105.76029418      94.51108181
C      77.44278724     100.16103512      94.93249078
H      79.43644851     100.52575230      94.69060581
C      76.64910219      97.62691213      95.12713259
H      78.05694830      96.15103588      95.20461137
C      73.30806607      90.10391168      93.98195845
O      71.25015412      89.07212111      94.06321668
N      75.40377256      88.81511833      94.47895647
H      77.02515773      89.79966574      94.68682636
C      75.94801374      86.04100011      94.73595925
H      74.07529496      85.20952053      94.95327777
C      76.96468649      84.99787118      92.15270338
H      77.62231124      83.08546815      92.55332535
C      74.97102523      84.93173076      90.03809963
H      73.26082291      83.92450664      90.58989971
H      75.84785824      83.98686760      88.42994254
H      74.25859841      86.83468516      89.70361807
O      79.04149571      86.40004811      91.21728885
H      80.60807882      85.80289459      91.90892868
C      77.58829617      85.22463834      96.95638766
O      79.08306968      86.65516116      98.00140631
N      77.18956393      82.93051060      97.79542615
H      75.88376304      81.84202824      96.92804177
C      78.66166073      81.30723569      99.41114214
H      80.52493087      82.18406870      99.46216475
C      77.42200026      81.38849392     102.02463363
H      77.06484199      83.36703737     102.46871932
C      74.77260397      79.90127932     101.89802197
H      75.06173209      77.88872079     101.55976096
H      73.76915929      80.59669860     100.24073199
H      73.88443261      80.11292866     103.74239485
C      79.00937036      80.23765060     104.15624492
H      79.36652863      78.22509208     103.91058049
H      77.96624144      80.54756572     105.90613148
C      81.42633032      81.62093026     104.40757851
H      81.16743781      83.51821548     105.16535877
H      82.80772025      81.76077001     102.88634883
H      82.63197571      80.61559586     105.74361502
C      79.22668889      78.66917776      98.44738172
O      77.97569006      77.90194888      96.70505406
N      80.83862543      77.05346176      99.55665107
H      82.04994000      77.80557283     100.82843688
C      81.17877617      74.34170450      98.95004892
H      79.29849848      73.52534274      99.15791882
H      82.62630653      73.52912219     100.16703267
C      82.08962426      74.03934829      96.13813617
O      84.20989717      74.86704842      95.52019566
N      80.31517125      72.95275566      94.60556813
H      78.80339019      72.14773225      95.44649634
C      80.54193840      72.89795360      91.89381087
H      81.95923313      74.20753394      91.17382515
C      81.54160362      70.37894842      90.89414565
H      80.59863019      68.76890161      91.76719921
C      81.62853103      69.93108329      87.94428288
H      83.05338468      71.07247798      86.98619164
H      79.88431364      70.26556485      86.90304368
H      82.13875713      67.94876039      87.70239791
C      84.23446361      70.03312851      91.97317938
H      84.18722046      70.13328400      94.02920160
H      85.53648504      71.42585680      91.19083268
C      85.51002888      67.48577744      91.38358477
H      87.08795036      67.09649382      92.64970140
H      85.90498168      67.44420346      89.36157761
H      84.26658896      65.87384089      91.70483824
C      77.95679280      73.49321739      90.70139357
O      76.03683087      72.13072472      90.98107306
N      77.79238661      75.55112934      89.31622418
H      79.39865398      76.54701511      89.05922140
C      75.41511091      76.45441852      88.06522536
H      74.77827314      74.81224636      86.99941972
H      75.94612401      77.93407422      86.73485804
C      73.37609622      77.55612896      89.82078110
O      71.37298633      78.40083662      88.95717618
N      73.68979079      77.40684058      92.27742531
H      75.50392806      77.22731658      92.84245348
C      71.50904662      77.29534673      94.07455504
H      70.04450873      76.35237330      92.97662405
C      72.14966384      75.86293419      96.55765541
H      73.39877293      76.87204804      97.84833848
H      72.82240642      73.97131815      96.09089301
C      69.72514499      75.24688341      97.86156657
N      68.20958448      73.07558787      97.42692951
H      68.62343454      71.62616779      96.25529920
C      65.87955193      73.47243040      98.43226391
H      64.32430718      72.15718089      98.29431389
N      66.09120128      75.64939511      99.78719768
H      64.62477367      76.52622812     100.63757452
C      68.30218107      76.88149667      99.16358800
H      68.76516401      78.81090723      99.63601957
C      70.61520608      79.97875809      94.58667087
O      71.96447066      81.53967203      95.75074228
N      68.48737425      80.67984656      93.46795289
H      67.55762891      79.40806075      92.39269862
C      67.55573917      83.23475653      93.34323095
H      69.24515451      84.37993068      93.06166173
C      65.67924095      83.31034558      91.11335390
H      64.34131473      81.75510083      91.28342927
H      66.69213425      83.07035034      89.33512144
C      64.26572567      85.96919051      90.86768948
H      63.03173439      86.15816314      92.50608220
C      65.91545674      88.21229564      90.52564902
H      67.56329808      87.74364352      89.38425433
H      66.76583358      88.77543408      92.31521984
H      64.86854836      89.62770065      89.45417420
C      62.45347813      85.96919051      88.58301037
H      61.07586765      84.44607110      88.72662957
H      63.48715843      85.76321034      86.81044709
H      61.64278554      87.85891682      88.67749669
C      66.63166302      84.13237653      95.94160463
O      65.10476415      82.79067085      97.09055823
N      67.42345834      86.32067960      96.63135474
H      68.94468801      87.17294617      95.84900804
C      66.48615408      87.67561337      98.80265027
H      65.60365189      86.38682002     100.14624568
C      68.91067295      88.81700806     100.11412033
H      68.27761463      89.85635753     101.77707949
H      69.98970667      90.12658840      98.94249002
C      70.90055476      86.83657488     100.95504854
H      71.55440006      85.68573156      99.37523734
C      73.23625648      88.10647097     101.86589662
H      73.98080864      88.97574507     100.15380458
H      74.69701491      86.79311118     102.48572685
H      72.76382489      89.59368558     103.20949203
C      69.95569160      85.11314449     103.09799818
H      68.64422153      83.80734361     102.19092955
H      68.78406128      86.03533093     104.52096209
H      71.59975348      84.17961969     103.91813940
C      64.47359556      89.67683353      98.25651937
O      62.26639522      89.41038212      99.11256539
N      65.05374155      91.64214890      96.72584105
H      66.74126714      91.57600848      95.83577996
C      63.28873717      93.51675740      96.05309849
H      61.40845948      92.73441071      95.74696282
C      63.26606045      95.61624333      98.00896522