 %block lattice_cart
   137.793   0.000   0.000
   0.000 143.498   0.000
   0.000   0.000   162.326
 %endblock lattice_cart

 %block positions_abs
N      87.77959019      37.02244441      79.72964260
H      87.69833195      35.38405170      80.70663110
H      89.12885477      36.88449439      78.38793691
H      86.25836050      37.40983831      78.64493968
C      88.14997654      39.35247696      81.30945378
H      89.87529667      39.19373995      82.42439232
C      88.70933553      41.47841906      79.53311106
H      87.12007570      42.20029451      78.43895953
H      90.24190357      40.82457375      78.32179648
C      89.58805827      43.67806049      81.15071678
H      91.04125780      43.35491729      82.57368070
H      87.93454774      44.26198592      82.23164023
S      90.80504201      46.24241909      79.27988773
C      92.67398134      47.99230566      81.67984014
H      91.49479212      48.63103315      83.24453353
H      93.33538555      49.77242785      80.88048592
H      94.20088020      46.79799863      82.37525944
C      85.99568855      39.81168045      82.93839787
O      83.79982657      39.63971536      82.04833677
N      86.32072147      40.63371140      85.32890166
H      88.12541010      40.53922508      85.94117299
C      84.14375676      41.77699582      86.77832173
H      82.61685790      40.42206205      86.52320868
C      85.02058977      42.19651506      89.51464544
H      86.41331806      43.71018583      89.60724204
H      85.75380358      40.42395177      90.26486679
C      82.97212644      42.62926238      91.45917381
O      80.80650009      43.12248095      90.97918333
N      83.72045806      42.42895139      93.77786800
H      82.40520855      42.70296171      95.13280177
H      85.49869053      42.20029451      94.43171330
C      83.03070796      44.29222154      85.72952363
O      84.29871432      46.10824852      85.45173386
N      80.49091580      44.50387088      85.41015989
H      79.39109508      42.94673640      85.52921265
C      79.27771150      46.97563290      84.79221939
H      80.09029382      47.52554326      82.98186158
C      76.37887134      46.73941711      84.29900081
H      76.03494115      45.15960592      83.02343555
C      74.93889989      46.29722116      86.66493816
H      75.43022873      47.71073644      88.08223290
H      75.45479517      44.49442225      87.51531500
H      72.88854684      46.30478006      86.48352443
C      75.30550679      49.10913391      83.08768625
H      75.41700065      50.72673963      84.35758233
H      73.28916882      48.88236675      82.72863825
C      76.30895147      49.83289909      80.45718723
H      75.69668014      48.44017079      79.06823839
H      78.32150999      50.25997723      80.39482625
H      75.33574241      51.56766784      79.91672550
C      79.93722599      49.13181063      86.61013610
O      80.38320140      51.23318629      85.82778941
N      80.04683011      48.64048178      89.11591319
H      79.03960599      47.22318705      89.90203934
C      80.80650009      50.72484991      90.73540863
H      79.63109032      52.32733782      90.20061609
C      80.20178767      50.34501492      93.51897550
H      80.61374801      52.02309188      94.64147292
H      81.13720220      48.58945917      94.05376804
C      77.54294275      49.77242785      94.00652489
C      75.79494591      51.76986856      94.48840509
H      76.37698161      53.72573529      94.56021470
C      73.26460238      51.26342191      94.99107230
H      72.07407480      52.85079201      95.46350387
C      72.29139332      48.80866743      94.87957844
H      70.27505535      48.50442149      94.96650586
C      74.10175113      46.69406368      94.55643524
H      73.46869282      44.83079354      95.09878670
C      76.67744810      47.24397404      94.12179819
H      78.01726405      45.70951627      94.21439478
C      83.65998682      51.53365277      90.38580927
O      84.40831844      53.72573529      90.76753399
N      85.28515145      49.95573130      89.12536182
H      84.77303562      48.23608035      88.47529596
C      88.00824707      50.52075947      88.58301037
H      88.56382661      52.01931243      89.88503180
C      89.75057473      48.32300776      88.93260973
H      91.51368938      48.86724894      88.01798221
H      89.19877465      46.71107122      87.77609724
C      90.24568302      47.54255080      91.65759507
H      91.51557911      45.92872452      91.49507862
H      88.55248825      47.03043497      92.71395208
C      91.63463186      49.63825728      93.19961176
O      90.96566875      49.97273883      95.48996005
O      93.16342045      51.08200818      92.27931503
C      88.25769094      51.67727197      86.03754903
O      90.06993848      52.91315298      85.32701194
N      86.67976947      51.11791298      84.13459463
H      85.20578295      49.93116486      84.38970768
C      86.59095233      52.49174401      81.67039152
H      88.24068341      52.40481660      80.43640024
C      84.35918556      51.19728149      80.04522689
H      83.59195668      52.53142826      78.67706503
H      82.76992573      50.75697525      81.27921817
C      85.22845966      48.83134414      78.70919038
H      85.58561794      47.30066583      80.04333716
H      86.90086745      49.36235724      77.63393612
S      82.96645727      47.68994945      76.33758386
C      83.90754097      49.48329972      73.57858344
H      83.73557588      51.52987332      73.71275402
H      82.75102847      48.83512359      71.99877224
H      85.81049537      48.84835168      73.11371077
C      86.02970362      55.38680472      82.07857240
O      87.24290791      56.88535769      80.86158865
N      84.19855882      56.06332674      83.61491989
H      83.52203680      54.53075870      84.52765770
C      82.93055247      58.56910383      83.71129594
H      83.13275318      59.20027242      81.76298811
C      80.02415340      58.29320379      84.19695559
H      79.36463891      60.24340135      84.24041930
H      79.84084994      57.25574404      85.96573943
C      78.75236759      56.94015975      81.99164498
H      79.37975672      55.02208754      81.57968465
C      75.91966784      56.66425971      82.66627729
H      75.06740128      58.46705861      83.17272393
H      75.42078010      55.45105542      84.25553712
H      74.90488481      55.78931643      81.09780445
C      78.77315458      58.51619150      79.66539189
H      80.62130691      58.54264766      78.75832327
H      78.02671268      60.38702055      80.09624949
H      77.56184001      57.51085710      78.33880403
C      84.43855406      60.50229385      85.45173386
O      84.12108004      62.76051679      85.04733243
N      86.28292695      59.53853343      86.94272792
H      86.71189482      57.68093247      86.86902861
C      87.68510387      60.87456993      88.76253436
H      86.28292695      61.82321254      89.93416469
C      89.31971713      58.94137992      90.33100720
H      90.95999957      58.37257230      89.22173786
H      88.20855806      57.23873651      90.66170931
C      90.08694601      59.89758143      92.90481444
H      88.38808206      60.35300547      93.97250981
H      91.22834071      61.59644539      92.68182674
C      91.56093254      57.99840649      94.66603937
H      92.09194563      58.77319427      96.50096361
H      93.30326020      57.46739339      93.70416868
N      90.16064534      55.67404312      95.26130316
H      91.02425026      54.17926961      94.44872084
C      88.03848269      55.33578211      96.53686841
N      86.83850648      57.11779402      97.81243369
H      85.20767267      56.55654531      98.62690573
H      87.33928395      58.92437238      98.17337141
N      86.84417566      53.12480232      96.30443209
H      85.31160762      52.82055639      97.40236308
H      87.95155528      51.66782334      95.76774982
C      89.44632879      62.98539423      87.84034793
O      90.26835974      64.61811776      89.19717142
N      89.82238433      62.94382025      85.34779893
H      88.62240812      61.74951322      84.46529674
C      91.55526336      64.50095473      83.69428840
H      92.34327923      66.13556799      84.66749745
C      93.66230820      62.56776471      82.60958550
H      95.07393375      63.81309435      81.77243673
C      94.96055017      61.31298644      84.88481598
H      95.80147838      62.91925380      85.85802502
H      96.36272710      59.96372185      84.20640422
H      93.78325068      60.19048901      86.15282232
C      92.64374571      60.49095549      80.71796946
H      91.95021616      61.43770838      79.02288495
H      91.19054618      59.42326013      81.71196549
C      94.54858984      58.69760522      79.50665488
H      93.89474453      57.29920775      78.14416221
H      95.37062078      57.49573929      80.96552360
H      95.84305236      59.93159650      78.48809241
C      90.11529191      65.55353229      81.38504284
O      91.46266677      66.62311738      79.82412891
N      87.68132442      65.23794799      81.07323801
H      86.57583452      64.37245334      82.36581079
C      86.39253107      66.14312689      78.73753627
H      87.69833195      66.13367826      77.14638672
C      84.05493962      64.53308008      77.98731494
H      82.33150922      65.09054934      78.97186235
H      84.37241364      62.57154416      78.52588693
C      83.72045806      64.67480955      75.11115148
O      82.11230097      65.95226454      73.94708008
O      85.03570758      63.30664770      73.73165127
C      85.56483095      68.94748074      79.07012811
O      84.72768219      70.23060491      77.30323401
N      85.78025975      69.84888019      81.31890243
H      86.49457629      68.80575127      82.74942524
C      86.15064610      72.49260731      81.96518883
H      87.04070720      73.32597661      80.30600911
C      83.65809710      73.65856844      82.92328007
H      84.09084442      75.14011387      84.28766246
H      82.38631129      72.23560453      83.69239867
C      82.12552906      74.77728642      80.73686671
H      80.35863495      75.20058511      81.71007576
H      81.64175912      73.29574099      79.39138159
C      83.38786623      77.06574498      79.38193295
O      82.87952986      77.23204090      77.04056205
O      84.32706021      78.92145622      80.58946807
C      88.14619709      72.83275804      83.95507062
O      88.94555132      70.99594407      85.25898179
N      88.88508008      75.24782827      84.52954743
H      88.51469372      76.52717298      83.16327531
C      90.58961321      75.70325231      86.79154983
H      91.76124353      77.38699846      86.62525390
H      91.85950930      74.08375686      86.67816624
C      89.31404795      75.86954823      89.35590844
O      87.09739899      76.70669698      89.46740228
N      90.59339267      75.30452006      91.45917381
H      92.32249224      74.52406309      91.26642173
C      89.60506580      75.81663589      94.11423928
H      87.55471275      75.67301669      94.22951259
C      90.71055570      73.86832806      96.00774505
H      92.76279847      73.89478423      95.81688270
H      89.81104597      72.09387505      95.46728333
C      90.44788374      74.23304524      98.76863520
H      91.70644146      75.62766326      99.61712231
C      87.71344976      74.68468983      99.48673120
H      87.76636210      74.62232886     101.54464315
H      86.46056122      73.24282865      98.71194340
H      87.13519351      76.59142368      98.95949756
C      91.37762909      71.78018049     100.18026076
H      93.28436294      71.34932289      99.53208463
H      90.17576315      70.23249464      99.53775380
H      91.17164892      71.80285720     102.22872408
C      90.22489603      78.59264384      94.89091680
O      92.33383060      79.36365218      95.38602510
N      88.10651284      79.92868035      95.30476687
H      86.50024547      79.10098022      94.68682635
C      87.93265802      82.36264784      96.45749991
H      89.81671515      83.19034796      96.38758004
C      86.28859612      84.15599811      94.80020993
H      86.43599478      85.95312783      95.79798543
H      84.27414787      83.74403777      94.70761334
C      87.20133393      84.79283588      92.12435748
H      89.15153149      85.37676131      92.43616232
H      86.28292695      86.51059710      91.44972519
C      86.91787499      82.80106434      90.20439555
H      85.10562745      81.85998064      90.47462641
H      88.36162589      81.33274700      90.28754351
N      86.72512290      84.01237891      87.63247803
H      87.62274290      85.65077162      87.25642250
C      86.29993448      82.67634241      85.53110237
N      85.50058025      80.32363315      85.47630030
H      85.04893566      79.68490565      83.73586238
H      85.49869053      78.99893500      86.85013133
N      86.08450568      83.75915558      83.23508491
H      85.37963777      82.79728489      81.74409084
H      86.38875162      85.63943327      83.10469378
C      87.21645174      82.23792590      99.27130239
O      85.39664530      80.88866132      99.97428059
N      88.83216774      83.36798224     100.83410606
H      90.11907136      84.31662485      99.79286685
C      88.49768618      83.71191243     103.55720167
H      86.89141882      82.46469306     103.86900651
C      90.99968382      82.81996161     104.77040597
H      90.88630024      83.02783150     106.81886929
H      92.45099363      84.17678510     104.23561341
C      91.91431136      80.09497626     104.17703191
H      91.78580997      79.63577277     102.17203229
C      94.54670011      79.24459942     105.31086770
H      96.09249624      80.28961807     104.43781413
H      94.96243990      77.30385050     104.75717789
H      94.55803847      79.37499054     107.36500019
C      90.21922686      77.93312936     105.24283754
H      88.51280399      77.68368549     104.11656067
H      89.76947199      78.54918014     107.15713030
H      91.18109755      76.11143320     105.24283754
C      87.63975044      86.36319844     104.36411480
O      87.14086269      86.63720876     106.57887404
N      87.29770998      88.16599735     102.56320564
H      87.93643747      87.74269865     100.81331907
C      85.94655566      90.60752374     102.70871456
H      85.16420897      90.65098745     104.61355868
C      87.73612648      92.89220286     102.31187203
H      86.78559414      94.71956820     102.30809257
H      88.86807254      92.65598707     100.60544917
C      89.61829389      93.07928576     104.54363881
H      90.91842559      91.49569511     104.31687165
H      88.65264374      93.11330083     106.36344525
C      91.51557911      95.25247102     104.60222032
H      92.43776555      95.26002993     102.75973716
H      92.73823203      94.78759835     106.19336988
C      90.08127683      97.57305493     105.13512314
H      88.85673418      97.15920487     106.73761106
H      88.64319511      98.03603788     103.73294621
N      91.73856681      99.74812992     105.40913345
H      90.53103170     101.16353493     105.82865270
H      92.48500870     100.23189986     103.71971813
H      92.95177110      99.58939291     106.87367135
C      83.76959095      90.70767924     100.84922386
O      83.67699436      89.22991326      99.00863043
N      82.11230097      92.42166100     101.29141982
H      82.21056674      93.41187759     102.92036390
C      80.05438902      92.65976652      99.45082640
H      79.10385668      90.85507789      99.16736744
C      77.80561471      93.93911123     100.90969510
H      78.66544018      95.66254163     101.64290891
C      75.53983286      94.62508188      99.19193388
H      76.37131243      95.82127864      97.73684463
H      73.84474835      95.25058129     100.18404021
H      75.04661429      92.78637818      98.40580775
C      76.73602961      92.39331511     103.16224887
H      78.37631205      91.60907869     104.13167848
H      75.63242945      90.84940871     102.35722546
C      74.97102524      93.99580302     104.70993473
H      73.01326878      93.35896525     104.75150870
H      74.83685467      95.90631632     103.95782365
H      75.63431917      93.92588315     106.66202201
C      80.89342750      94.01847974      96.97150547
O      82.56394556      95.73624096      97.11701440
N      79.82384241      93.35140635      94.81532774
H      78.35363534      92.14009178      94.94382913
C      80.39453975      94.17910647      92.33978627
H      81.10129740      96.10662731      92.50608220
C      82.48268733      92.53693431      91.24752446
H      84.24958143      92.64653843      92.29821230
H      83.16487853      93.38353170      89.49763791
C      81.55294198      89.78171334      90.59178944
C      81.19011453      89.23369271      88.00286439
H      81.44144813      90.70201006      86.60635665
C      80.80272064      86.71657726      87.46240267
H      80.58918156      86.27438131      85.48196949
C      80.35485550      84.78905643      89.21417895
O      79.93533626      82.36642729      88.42994254
H      79.90510064      82.08674780      86.63659226
C      80.51170279      85.50715242      91.71239715
H      80.11863971      84.08796796      93.12780216
C      81.22601933      87.98269389      92.46450821
H      81.57561870      88.18300488      94.46572839
C      78.01726405      94.26603388      90.70328330
O      76.01037471      93.36652416      91.41571011
N      78.06828666      95.26002993      88.43561171
H      79.67833348      96.09339923      87.83467874
C      76.09730212      94.96901207      86.51564978
H      74.40410734      94.39642500      87.53988144
C      75.67589315      97.62785700      85.37047563
H      74.41166625      97.29148571      83.77932609
H      77.48247151      98.36673998      84.71474061
C      74.46079913      99.50246550      87.27909922
H      75.75526166      99.73868129      88.86268986
H      72.67500777      98.71444963      87.92916507
C      74.01104427     101.92131518      85.68417020
H      72.63721324     101.50557539      84.20829395
H      75.55306094     102.47311526      84.43128165
C      73.16444688     104.19276621      87.19028207
H      74.66866903     104.76913273      88.47529596
H      71.32196373     103.91686617      88.06900481
N      72.95846671     106.42831244      85.37236537
H      74.22836279     106.33949530      83.95129117
H      73.08129892     107.99867500      86.44950937
H      71.20858015     106.52090902      84.61269538
C      76.87775909      93.08684467      84.72985841
O      78.92433268      93.18133098      83.68295004
N      75.36786776      91.19522863      84.31789808
H      73.85230726      90.92499776      85.44795441
C      75.68345206      89.39809890      82.17116899
H      77.62798043      88.73291524      82.03888814
C      74.04505934      86.86019646      82.76643277
H      72.00793438      87.16444240      82.66816700
H      74.48536557      86.13643129      84.64293101
C      74.84630330      84.74559272      80.98442087
O      73.66900381      82.77649790      80.70663110
O      76.85508237      84.96858042      79.80145219
C      75.06173210      90.64720800      79.47641927
O      74.74425808      92.96968163      79.29689526
N      75.59652465      89.44912151      77.36559497
H      75.84974797      87.55750547      77.46008130
C      75.20157185      90.39776412      74.79745691
H      76.57351315      91.90198627      74.47998290
C      76.07084595      88.52315562      72.78300867
H      75.89510140      89.41321671      70.93296660
C      78.89031761      87.75781646      73.17040256
H      79.17944573      86.64098821      74.87682542
H      80.12808834      89.40565781      73.16473339
H      79.61597251      86.52004573      71.69263659
O      74.51560119      86.34052173      72.67151481
H      73.10775509      86.70523891      71.58681190
C      72.69390503      91.63742458      74.30612808
O      72.71091257      93.58762214      73.04190117
N      70.59252937      90.78515802      75.35681590
H      70.70969240      89.03149200      76.09947834
C      68.05084748      91.90387599      75.22075560
H      67.89588992      92.59740555      73.28945531
C      65.98348689      89.96690652      75.79712213
H      65.68491013      89.78738252      77.82668820
H      66.55040479      88.08851857      75.16973300
C      63.40212075      90.48847099      74.66895553
H      62.33442538      92.04560547      75.49287620
H      62.19080618      88.84062964      74.90328159
C      63.57597557      91.01570463      71.79846126
O      62.33820483      92.89598231      71.04635018
O      64.74004698      89.57951263      70.36982817
C      67.83730840      94.28682087      76.87237641
O      65.86254441      95.70789506      76.80056680
N      69.80073404      94.92743809      78.45596706
H      71.28605893      93.72935161      78.49187185
C      69.78750596      97.28581653      79.71452479
H      68.94657775      98.85428937      78.67706503
H      71.74148297      97.93021321      79.77877548
C      68.55162495      97.43510491      82.48108411
O      68.13966461      99.35506685      83.76231854
N      68.01872213      95.09751346      83.49964658
H      68.39099821      93.50447418      82.51698891
C      66.87732744      94.66287641      85.91660655
H      66.11576773      96.47512394      86.53076759
C      64.63800176      93.00369671      85.47252085
H      63.63833654      92.51614732      87.20728962
H      65.18980184      91.12341903      84.83757281
C      62.47993431      93.85407355      83.73397264
C      61.43869511      92.17599658      81.81779016
H      62.33631511      90.37319768      81.48519834
C      59.29952492      92.83740079      80.33435501
H      58.53985494      91.53159991      78.96430344
C      58.38300766      95.43388475      80.59891669
O      56.34966215      96.03292799      79.08713564
H      55.69770657      97.64675426      79.59925147
C      59.30330437      97.00235759      82.51509917
H      58.21482202      98.66342702      82.99131020
C      61.29507591      96.25213624      84.04766721
H      61.99427464      97.47289944      85.52732292
C      68.51949960      93.47045911      87.96695959
O      70.28828343      92.00214176      87.54366089
N      68.16045160      94.22634963      90.37825036
H      66.77717194      95.50002517      90.71651138
C      69.91033817      93.60273995      92.49285412
H      71.82841038      93.93344205      91.82389099
C      69.53239291      95.29593473      94.84745309
H      70.68134651      94.52681612      96.37624168
H      67.51227548      95.13152854      95.20461137
C      70.18812794      98.04359678      94.45250029
C      68.38154958     100.01836078      94.25029958
H      66.40867531      99.57805455      94.54320716
C      68.95413666     102.63563173      94.09534203
H      67.57652617     104.14363332      94.08589339
C      71.56573842     103.09294549      93.76841938
O      72.29706250     105.46266229      93.17882477
H      70.92323147     106.63429260      93.01630829
C      73.35152979     101.22589590      93.73062484
H      75.27905062     101.77013707      93.34323095
C      72.68445640      98.64641948      93.87802350
H      74.12064839      97.19699940      93.85156732
C      70.19946630      90.73224568      93.22228846
O      68.39666739      89.51337221      93.90447966
N      72.50682212      89.66455031      93.00874939
H      73.90144014      90.83051145      92.42860341
C      73.14743934      86.98113895      93.03331583
H      71.59408431      85.81517781      93.72495567
C      73.99592646      86.06084223      90.29699214
H      75.74959248      86.98113895      89.73196397
C      74.08096414      83.22814249      89.81700166
H      72.22525290      82.37776565      90.08723252
H      75.32629378      82.36831702      91.21161967
H      74.84630330      82.69146022      87.98207741
O      72.04194945      86.76759987      88.62647408
H      71.64888638      88.50803781      88.95150699
C      75.21857938      86.55406080      95.20461137
O      76.30328229      88.20568160      96.29876290
N      75.44156709      84.15032893      95.90947929
H      74.08096414      82.95413218      95.31043604
C      77.33885231      83.04105959      97.76708024
H      79.10574641      84.05773234      97.46661377
C      76.44879121      83.34908497     100.49017586
H      75.60786300      85.19723731     100.84166497
C      74.22458334      81.43290249     101.03441704
H      73.68223189      81.20991479     103.00918104
H      74.77638343      79.60364742     100.26718816
H      72.61264680      82.23225672     100.03097238
C      78.51804153      83.10531028     102.49895494
H      79.52337592      81.31573946     102.65013304
H      77.45790506      83.43790211     104.23183396
C      80.59863020      85.04794893     102.10400214
H      81.63042076      84.39032417     100.44671217
H      82.01403520      85.05739756     103.60066538
H      79.65565677      86.85830674     101.83755072
C      78.14387572      80.35575849      96.98284383
O      76.84563374      78.89122060      95.82633133
N      80.42288565      79.70380292      97.92770698
H      81.45467622      80.98125790      98.90091603
C      81.62286186      77.17723884      97.80109533
H      80.23958220      75.87143795      98.58911119
H      83.36518952      77.06007581      98.89524686
C      81.98002013      76.47804010      94.99674147
O      82.50536405      78.15989652      93.45094535
N      81.78726805      74.07241850      94.41470577
H      81.53971390      72.88000120      95.88302311
C      81.78537832      73.00661286      91.91459786
H      83.14598127      74.07808768      90.79965934
C      82.41087773      70.10210352      91.98262801
H      81.11641521      69.00228281      93.14858914
C      82.41654691      69.03251843      89.20662006
H      82.35796539      66.97838593      89.32567281
H      84.10029305      69.57298015      88.14837331
H      80.76114666      69.52951645      88.08790207
C      85.08295074      69.56542125      93.16937613
H      85.53837478      70.64067552      94.86635036
H      86.51914273      70.12289051      91.80310400
C      85.51569806      66.90090715      93.65692552
H      86.75346880      66.84421536      95.30287713
H      86.57961398      66.07131729      92.10168076
H      83.87730535      65.69715149      93.98951736
C      79.14732039      73.37510949      90.79776961
O      77.70356948      71.61388457      90.49730313
N      78.43111411      75.71459067      90.22518253
H      79.78415815      76.95236141      90.75052644
C      76.35430490      76.47804010      88.50175214
H      76.45635012      75.45002899      86.71785049
H      76.37698161      78.50193698      88.11624796
C      73.63687846      76.43835585      89.78109685
O      71.69801926      76.13033046      88.53009804
N      73.56317913      76.60087231      92.28687394
H      74.94267934      77.48148477      93.26764189
C      71.18212398      76.65189492      93.71361730
H      69.74593198      75.52750777      92.75930553
C      71.70746789      75.56341257      96.33088825
H      72.87720848      76.94858195      97.30976649
H      72.74303791      73.79840819      96.10979027
C      69.37743535      75.21948238      97.77463915
N      67.86754403      73.12377590      97.60078433
H      68.03950912      71.58742840      96.47828691
C      65.95892045      73.61699446      99.22405923
H      64.37532980      72.37733400      99.56609969
N      66.15167253      75.78073109     100.46560942
H      64.97626277      76.64244629     101.69771098
C      68.46847699      76.84275728      99.49429009
H      69.10153531      78.72681441      99.95727304
C      70.13332587      79.27294532      93.83078033
O      71.11976301      80.89622022      95.13469149
N      67.90155910      79.76049471      92.74418771
H      66.89811443      78.23170612      92.20372599
C      66.56930205      82.22280809      92.73095962
H      67.89588992      83.77805285      92.47584657
C      64.84398192      82.05084300      90.33478666
H      63.74227148      80.31796397      90.18549828
H      65.94380264      81.82596557      88.60757681
C      63.25472210      84.35063992      89.68850026
H      62.02828972      85.04039002      91.19083269
C      65.08586689      86.56917861      88.88725630
H      65.83230879      87.48380615      90.57478191
H      63.91423658      88.08662884      88.13325550
H      66.71292125      86.02493743      87.74775134
C      61.61632938      83.84797272      87.50397664
H      60.41824290      85.47502708      87.10713412
H      60.32564631      82.24548481      87.63058831
H      62.87677683      83.51160144      85.91093736
C      65.03862373      82.93523491      95.09689697
O      63.57597557      81.37999016      96.04553957
N      65.65467451      85.14621470      96.05687793
H      66.87165826      86.35941899      95.22350864
C      64.33942500      86.09863676      98.27730636
H      63.94825165      84.46969268      99.47350311
C      66.14033418      87.84096442      99.81554357
H      65.01783675      88.77070977     101.27252257
H      66.63355274      89.52660029      98.74217903
C      68.50249207      86.45012585     100.90780538
H      69.56451825      85.56006476      99.38279625
C      70.28450398      88.46835356     102.20793708
H      71.88510217      87.59341027     103.16602832
H      69.26027232      89.71557292     103.48917152
H      71.18212398      89.53793865     100.69426630
C      67.88077211      84.66811394     102.98650432
H      67.83730840      85.58085175     104.83087721
H      69.12421202      83.03539041     103.17169750
H      66.01750196      83.89899533     102.56509536
C      61.89789860      87.51782122      97.40614253
O      59.88156063      86.75248206      98.24140156
N      62.07742260      89.47179823      95.72806556
H      63.68746942      89.54360783      94.70572362
C      59.94770105      91.21790534      95.21217028
H      58.42458164      89.92344282      94.71139281
C      59.24094341      92.86763641      97.54031309