 %block lattice_cart
   137.793   0.000   0.000
   0.000 143.498   0.000
   0.000   0.000   162.326
 %endblock lattice_cart

 %block positions_abs
N      82.52993049      37.06779785      80.59702697
H      84.18911019      36.37426828      79.95640975
H      81.34696182      37.08669510      79.09847401
H      81.77215024      35.88860863      81.89148950
C      82.87197095      39.72664277      81.58913329
H      84.32139103      39.63026672      83.04800200
C      83.87352590      41.62770743      79.58980285
H      82.36930375      42.72941788      78.71485956
H      84.72957192      40.53166617      78.06857317
C      85.75569331      43.43617552      80.73119754
H      87.39597575      43.98608588      79.61247956
H      86.46434067      42.43084113      82.38281834
S      84.55571710      46.48619378      81.74598057
C      87.16542914      47.59546314      83.54122057
H      88.93988214      47.19484115      82.57934987
H      87.24857709      47.00775825      85.51409484
H      87.01047158      49.64959563      83.47696987
C      80.36430414      40.62426276      82.76643278
O      78.39331959      39.99309418      81.76676756
N      80.65532199      42.30800892      84.70907143
H      82.37875239      42.77099185      85.39126263
C      78.68433744      42.91839050      86.59123884
H      77.04972418      41.67495059      86.42872237
C      79.72179719      42.32123699      89.05544195
H      81.53782418      43.26987960      89.25764266
H      80.14887534      40.30678874      89.13481045
C      77.93033664      42.64060075      91.28720873
O      76.68500700      44.56245241      91.60468275
N      77.81884279      40.91906007      93.02764666
H      76.45446039      41.04756146      94.35612426
H      78.78638266      39.27310845      93.01441858
C      77.53916330      45.48841830      86.13014562
O      79.05283407      47.18350280      85.92227572
N      75.00504031      45.76809779      86.06022574
H      73.95057303      44.22230167      86.43061210
C      73.70679833      48.23041118      85.70306747
H      74.42867379      48.71040165      83.83601787
C      70.87220887      48.12458650      85.30433522
H      70.83063489      46.52776777      84.00420351
C      69.42278878      47.33657063      87.72696435
H      70.14844369      45.53944090      88.42049391
H      67.40267135      47.07767812      87.41704924
H      69.96891969      48.68205577      89.18961252
C      69.49081893      50.47918549      84.21585286
H      69.83285939      51.99852544      85.56700718
H      67.46692205      50.12391694      84.06278503
C      70.58497047      51.19917121      81.62125863
H      72.59185981      51.66215416      81.60236137
H      69.49081893      52.82244611      80.97686196
H      70.21647383      49.56266823      80.43262078
C      74.45701968      50.34312519      87.46618212
O      75.12976225      52.43694195      86.54021623
N      74.44757105      49.85746554      89.97006948
H      74.17356073      48.01498238      90.38958873
C      75.40377256      51.57900620      91.98073828
H      74.49103475      53.42337909      92.02042253
C      74.81606768      50.33367656      94.48840510
H      75.58140684      51.31255479      96.13246699
H      75.77982810      48.51575984      94.35612426
C      71.96825013      49.58156548      95.07610998
C      70.30151152      51.46751235      95.93404573
H      71.06496095      53.32700304      96.28742455
C      67.79762415      50.94594789      96.50852253
H      66.53717670      52.32355836      97.32866375
C      66.91323224      48.45906806      96.31388072
H      64.91201207      48.16993994      96.60678830
C      68.44580028      46.50509106      95.37468674
H      67.64266660      44.62859282      95.30287714
C      70.98937190      47.21751787      94.70383390
H      72.27438579      45.70384710      94.22762287
C      78.27426683      52.11946793      91.74452249
O      79.19834300      53.83533941      92.95772679
N      79.50447866      51.02720611      89.86802426
H      78.68055799      49.63447782      88.85702069
C      82.32772977      51.49585825      89.45795365
H      82.88330931      52.90181463      90.85635113
C      83.70345053      49.02976540      89.92849551
H      85.65175836      49.03165514      89.25953239
H      82.86630177      47.41026995      88.97229399
C      83.63542038      48.07545362      92.70450346
H      84.60484998      46.26887526      92.91804253
H      81.70412009      47.57656588      93.21283984
C      84.82594796      50.06344569      94.52430990
O      84.11730059      50.10879913      96.80331983
O      86.64008522      51.52609386      93.90825912
C      82.70189558      52.65426048      86.86902861
O      84.40264927      54.18115933      86.52698814
N      81.15232001      52.01931244      84.97552284
H      80.01659449      50.53398756      85.35535783
C      81.39609470      52.63914267      82.27699366
H      83.21779087      51.82467063      81.76298811
C      79.48747113      51.04988283      80.72552836
H      77.56372974      51.09523626      81.46063190
H      80.03360203      49.06378048      80.75576398
C      79.44022797      51.98340763      77.91739506
H      78.72780115      50.48485467      76.69663186
H      81.42822005      52.21962343      77.42984567
S      77.86797568      54.83878410      76.93851683
C      79.83518077      55.84789794      74.53856441
H      79.22290944      57.76219070      74.08880955
H      79.56306018      54.58934022      72.93040732
H      81.78726805      56.08789318      75.15272546
C      81.11074603      55.45294515      81.95951964
O      82.54504830      56.74929739      80.61214478
N      79.47424304      56.62268573      83.48830823
H      78.51426207      55.33200265      84.51820907
C      78.91110460      59.48562109      83.55066920
H      78.91299433      60.35867466      81.68550933
C      76.43556313      59.91080951      84.93583859
H      75.93667538      61.90258104      85.09457560
H      76.77382414      59.24184640      86.85580052
C      74.00726482      58.50296341      83.85869459
H      74.32662857      56.50741242      84.25742684
C      71.80006448      58.99429225      85.70117774
H      71.24637468      60.96338707      85.92794490
H      72.50871185      58.31588051      87.51153555
H      70.12954642      57.93793524      85.12292149
C      73.43089829      59.13602172      81.05812019
H      73.33830170      61.17314669      80.75765371
H      71.64132747      58.27241680      80.51576874
H      74.87842865      58.53697848      79.72019396
C      80.90098641      60.97850488      84.97741257
O      81.39609470      63.20838193      84.37836932
N      82.47512843      59.69916017      86.59123884
H      82.33717841      57.79431605      86.61202583
C      84.57083491      60.78764253      87.91782671
H      84.07572661      62.75673734      88.27498498
C      85.23223912      59.10011693      90.23652090
H      86.87063183      59.76152114      91.29665736
H      85.77081112      57.21039062      89.61858039
C      83.13275318      59.02263815      92.13191639
H      81.56050089      58.05887773      91.21539913
H      82.54882775      60.89724665      92.75363634
C      83.81305466      57.71305781      94.67170855
H      84.36107529      55.73262464      94.52997908
H      82.19922839      57.73006536      95.95105327
N      85.76136249      58.94704909      96.22884303
H      86.97267705      60.05820816      95.26130316
C      86.34150846      58.79587100      98.65714135
N      84.71823356      57.69416056     100.11034088
H      84.96011853      57.79431605     102.00006719
H      83.13464291      56.95149810      99.34689145
N      88.19910943      60.13946639      99.65113739
H      88.97389722      59.75018277     101.35189107
H      89.38207810      61.15424943      98.54564749
C      86.85929347      60.98228434      86.12069699
O      88.80193212      62.30509275      86.64982035
N      86.96511815      59.49695946      84.06467476
H      85.61018438      58.15525377      83.98341653
C      88.73579170      59.65191702      81.91794567
H      90.27969810      60.88968775      82.49242246
C      89.92065010      56.99118237      81.30756407
H      91.52502774      57.28786940      80.04900634
C      91.21133317      55.97261987      83.50342604
H      92.25635182      54.31532990      82.87225745
H      90.17954261      55.37546637      85.18150301
H      92.60595119      57.27464131      84.28199328
C      88.17076353      54.99185192      80.22097144
H      86.58528316      54.74996695      81.51354423
H      89.06838353      53.13803042      80.21530226
C      87.35629149      55.43404788      77.38638197
H      85.93332758      56.92315222      77.30323401
H      86.75913798      53.68416131      76.47931334
H      89.14208286      55.68916093      76.39427565
C      87.84195116      61.24306656      79.60303093
O      89.46900551      61.96305229      78.07613207
N      85.35318160      61.87990433      79.44429392
H      84.11163141      61.22227958      80.73497699
C      84.31383213      63.62034226      77.64338475
H      85.09617882      63.28019154      75.76877624
C      81.48491184      63.00240177      77.28244702
H      80.40587811      63.39735457      78.98886988
H      81.44900704      60.97283571      76.92906820
C      80.34729660      64.52741090      75.19051999
O      80.88586860      64.08332522      72.83970046
O      78.86575117      66.39823995      75.61948786
C      84.79004316      66.27918720      78.35014239
O      85.55160286      67.83443195      76.85725860
N      84.55571710      66.86689207      80.83891194
H      84.30060405      65.40991308      82.04455733
C      84.90531647      69.44447876      81.82912853
H      86.13552830      70.27406862      80.40238516
C      82.22001537      70.65201387      81.91038676
H      82.23135373      72.32631140      83.11414242
H      80.98791382      69.31030820      82.87414718
C      81.08428986      71.42113249      79.23264457
H      79.10007723      71.94647640      79.37815350
H      81.22790906      69.77140141      78.00621220
C      82.57717365      73.64723009      78.00054302
O      82.74724902      75.55963311      79.36492542
O      83.25936485      73.68502462      75.65539266
C      86.24324270      69.49928082      84.44073029
O      86.00324745      67.81553469      86.02432094
N      87.17298804      71.80663666      85.19662082
H      87.30526888      73.13133480      83.82845897
C      88.05360050      72.28851687      87.72885408
H      89.41420345      73.83620271      87.68350065
H      88.88508008      70.57831456      88.51875968
C      85.87852552      72.88944983      89.56377833
O      84.11541087      74.26139113      88.96095563
N      85.95978375      71.87655652      91.89570060
H      87.60384564      70.97515707      92.24529997
C      84.03226291      71.97482229      94.00841462
H      82.20111811      72.35654702      93.14103024
C      83.65998683      69.42369177      95.34256139
H      85.53270560      68.77740538      95.90947929
H      83.10440729      68.35032723      93.67771251
C      81.51136801      68.92291431      97.17748564
H      79.82006296      69.99249939      96.68993625
C      80.60807883      66.13745771      97.39858362
H      82.24836127      64.89779726      97.25496442
H      79.22290944      65.67447477      95.94538409
H      79.88242393      65.79730699      99.29586884
C      82.40142910      69.80352677      99.86656619
H      82.60551954      71.85199008      99.76452097
H      84.18911019      68.89267868     100.34277722
H      80.95011929      69.37833835     101.26307393
C      84.77492535      74.12344112      95.88680257
O      86.96133869      74.10643357      96.77497394
N      83.10629702      75.85632014      96.55387596
H      81.28460085      75.56908175      96.06065739
C      83.66187655      78.24493421      97.91447890
H      85.65931726      78.14855816      98.40958720
C      83.17999634      80.53528250      95.96806080
H      83.52959571      82.37020675      96.83544518
H      81.29027003      80.41811947      95.15925794
C      84.84484522      80.37276603      93.58511592
H      84.58028354      82.05462246      92.42482397
H      84.20233828      78.83263908      92.37569108
C      87.66809634      80.27072082      94.09723175
H      88.13863819      78.63610755      95.25752371
H      88.14052791      81.95824640      95.18193466
N      89.00035339      80.42378865      91.63113891
H      87.96289364      81.00960380      90.14014485
C      91.37195991      79.64900085      91.14169980
N      92.84972589      78.96869938      93.02197748
H      94.48244942      78.08808692      92.57033289
H      92.31871279      79.65655976      94.72273116
N      92.23934429      79.35231382      88.83623370
H      93.85695001      78.48114999      88.32033841
H      91.10550850      79.82663512      87.37547526
C      82.36174485      78.33942052     100.48072724
O      80.47012881      77.20936418     100.89079785
N      83.43888885      79.81907623     102.20793709
H      84.87319112      80.99826545     101.77330004
C      82.72835175      79.89088582     104.87812037
H      80.83106653      79.25782750     105.36944921
C      84.25525061      77.66478822     106.14045755
H      83.42377104      75.89978385     105.48472251
H      83.73557588      77.76305399     108.13222908
C      87.18054695      77.23771007     105.69826159
H      88.16320463      79.02539117     105.41480264
C      88.28225739      76.21158870     108.14545716
H      90.28536728      75.77506191     107.95270508
H      87.24857709      74.52973228     108.72938259
H      88.18966080      77.52683821     109.72904781
C      87.99123953      75.34231458     103.71593869
H      90.05104122      75.39711666     103.70649005
H      87.11251680      75.88466603     101.93392677
H      87.32605587      73.43936020     104.14112711
C      82.96078809      82.53272320     106.01951506
O      82.52426131      82.86531505     108.27962773
N      83.17999634      84.41867007     104.43781414
H      83.20834224      83.87820835     102.60855907
C      82.46001062      87.18333967     104.81009022
H      81.23357824      87.10964033     106.46360074
C      84.75791781      88.83496046     105.09543889
H      85.88986387      88.64031866     103.38523658
H      85.74057550      87.89765621     106.64501447
C      83.94722522      91.53726909     105.74172529
H      82.31450169      91.47490812     106.99650357
H      83.13653264      92.49725005     104.10900176
C      86.25458105      92.86385696     106.64123502
H      87.33172505      93.52337144     105.01418066
H      87.34495314      91.61096842     107.86388794
C      85.52703642      95.07294703     108.51584352
H      84.59351162      94.40587364     110.22604583
H      84.09840333      96.32961502     107.72404820
N      87.59628674      96.59795616     109.24527788
H      88.35028753      97.44455355     107.71082011
H      88.80571158      95.63230601     110.36399585
H      87.18054695      98.02280980     110.44525409
C      81.00114190      87.95434800     102.44793233
O      81.54538308      87.12475815     100.32765941
N      78.95078885      89.40565781     102.86178239
H      78.45001138      89.88942775     104.63812513
C      77.16688721      90.29193946     100.92103347
H      76.10108157      88.63842892     100.30876214
C      75.48314107      92.32528496     102.18903982
H      76.69067618      93.72557217     103.09988791
C      73.80695383      93.86352218     100.35978475
H      72.47469678      92.59551583      99.43381886
H      75.10897526      94.71011956      99.00296126
H      72.76382490      95.42821557     101.19882324
C      73.85986617      91.05160942     104.17325245
H      75.01070949      90.00848050     105.52818622
H      72.90933383      89.68533731     102.96193789
C      72.06084672      92.73157613     105.40724374
H      70.56418348      93.30416320     104.11278121
H      73.06807084      94.37941747     106.12156028
H      71.31818428      91.79805133     107.08721043
C      78.61819702      91.36530400      98.66281052
O      80.64776308      92.49536034      98.90658522
N      77.58262700      90.84940871      96.43293348
H      75.91966785      89.91399418      96.43293348
C      78.79961075      91.46923895      93.99518653
H      79.84840885      93.23046387      94.20116670
C      80.67988843      89.28093587      93.46417344
H      81.78915778      88.88409334      95.15169904
H      82.04805028      90.05194420      92.13380611
C      79.72368692      86.96602114      92.35490409
C      79.38731563      86.77137932      89.66393382
H      79.85407803      88.36063916      88.47151652
C      78.35363534      84.58685571      88.60001791
H      78.16844216      84.50559748      86.56856212
C      77.81317361      82.58941499      90.14581403
O      76.85319265      80.38410439      89.03843441
H      76.58863096      80.61087154      87.26020195
C      78.10230174      82.72925475      92.76497470
H      77.57506810      81.01527298      93.73629403
C      79.00937037      84.99314686      93.95928173
H      79.09062860      84.98369824      95.99829642
C      76.87397964      91.99269313      91.94861293
O      74.57418271      91.49002594      92.30388148
N      77.73758456      93.02448370      89.79621466
H      79.58951635      93.42321596      89.56944751
C      76.08596376      93.37219334      87.49641774
H      74.16222238      93.42699540      88.23530073
C      76.47524738      96.13875266      86.31344907
H      75.21291021      96.12363486      84.68450499
H      78.40654768      96.55449246      85.72952364
C      75.59841437      98.23634886      88.05577673
H      76.52060081      97.97745636      89.87747290
H      73.55184078      98.28170230      88.29199252
C      76.25036995     100.81393556      86.99375054
H      75.24314583     101.09172532      85.21740781
H      78.21190586     100.82527391      86.37014086
C      75.29227871     102.74334613      88.90237412
H      75.71179795     102.06115492      90.80154906
H      73.25137429     102.69043378      88.62080490
N      76.36753298     105.30392529      88.23719046
H      76.08029458     105.94643222      86.46462717
H      78.27048738     105.17731362      88.33545622
H      75.72124658     106.47744533      89.59779340
C      76.35808435      91.28215603      85.59157362
O      78.30072300      91.06294779      84.43128166
N      74.17734019      90.22768876      85.00764819
H      72.57485227      90.72090732      85.92227572
C      73.85608671      89.02582283      82.50565055
H      75.07873964      87.39876847      82.18817653
C      71.03094588      88.44378712      82.30344983
H      69.96891969      90.20123258      82.18250735
H      70.51316087      87.31562050      83.94751173
C      70.37899030      86.82618140      80.02632963
O      69.21113944      87.96568636      78.27833279
O      70.76827392      84.51693583      80.01688099
C      74.33418747      90.84562926      80.28522213
O      74.21702444      93.14731590      80.78788933
N      74.63843341      90.05572367      77.94952041
H      74.77827315      88.19623296      77.54511898
C      74.93701016      91.71112392      75.75932761
H      76.62264604      92.85818778      76.06168382
C      75.63620890      90.12186408      73.28378614
H      76.02360279      91.48246703      71.78712290
C      77.88876267      88.50236863      73.49732521
H      78.22513395      87.21546502      71.92696265
H      77.70167976      87.28538488      75.14894601
H      79.62731087      89.56628455      73.77700471
O      73.77671821      88.44378712      72.43151957
H      74.18300937      87.59341027      70.88383372
C      72.57485227      93.31361182      75.14327683
O      72.89610575      95.09373401      73.68440812
N      70.28828343      92.66543569      76.02388930
H      70.18812794      91.02137380      76.98953944
C      68.02817076      94.24902635      75.76877624
H      68.07730365      95.17499224      73.92818281
C      65.48081969      92.84306998      75.80468104
H      64.07108386      94.32461541      75.54767826
H      65.29751624      91.97568560      77.66417173
C      65.36932584      90.97602038      73.37638273
H      66.33497599      89.26581807      73.99621296
H      66.32363763      91.84151503      71.77011536
C      62.60087679      90.34296206      72.96064294
O      61.38389305      91.35207592      71.15973377
O      61.63711637      88.72346662      74.37415822
C      68.20958449      96.43732943      77.70763544
O      66.40111641      97.85084471      78.07802180
N      70.24104028      96.69055275      79.14571716
H      71.70935762      95.53215051      78.75454382
C      70.42812318      98.24768722      81.31323325
H      69.97269914     100.10906764      80.56112217
H      72.34241594      98.40264479      82.05778541
C      68.73681813      97.74124058      83.71318566
O      68.50060234      99.32294149      85.39693181
N      67.69935839      95.53215051      83.91349665
H      67.93935363      94.31705650      82.46218684
C      66.04017868      94.90665110      85.84668667
H      65.31074433      96.59417670      86.77454229
C      63.81030163      93.31550155      84.70151252
H      62.63678159      92.59740555      86.23408056
H      64.64934012      91.63175541      83.86058432
C      61.88278079      94.33406403      82.69084373
C      61.05886012      92.71267885      80.70663110
H      61.61632938      90.76437103      80.93906744
C      59.72849280      93.64809338      78.57313009
H      58.87433650      92.33662333      77.26543948
C      58.91024130      96.17654719      78.69785203
O      57.45326232      97.13085897      76.83647161
H      56.99783828      98.76925169      77.46764020
C      59.61510922      97.78848373      80.68206466
H      58.78362964      99.64797443      80.78222015
C      61.07586766      96.84928976      82.61336495
H      61.65979309      98.23256942      83.99475488
C      67.32897203      93.45345158      87.98585686
O      69.20735998      92.19111439      87.64192667
N      66.51261026      93.77659478      90.38958873
H      64.95925523      94.85562850      90.63714287
C      68.23982011      93.27959676      92.47395685
H      70.24670946      93.45723102      92.04498898
C      67.66912276      94.85751823      94.91926270
H      68.55540441      94.01659002      96.57655268
H      65.64522588      95.06160866      95.23484699
C      68.59130921      97.44644327      94.73595925
C      66.99071102      99.43254563      93.98573790
H      64.95169633      99.34939766      94.01597352
C      68.00360432     101.87785147      93.67771251
H      66.82063565     103.47844966      93.22606792
C      70.60764718     102.26902483      93.81755226
O      71.61298158     104.62362380      93.33567205
H      70.18245876     105.59116368      92.78387197
C      72.21391455     100.34150399      94.61501676
H      74.19812718     100.80637665      94.51108182
C      71.23503632      97.88863923      95.18571411
H      72.42367417      96.34662255      95.79042653
C      67.85242622      90.51492715      93.11646380
O      65.71325603      89.67021949      93.48307070
N      69.96514023      89.09007352      93.22984737
H      71.60920213      89.94989899      92.77442333
C      69.87254365      86.23469705      93.45472481
H      68.08108310      85.65266136      94.28998384
C      70.05773682      84.84763795      90.87713812
H      69.71947581      82.91444793      91.49885807
C      68.15100297      85.67155861      88.89481521
H      68.62343455      87.23247254      87.63625749
H      66.50883081      86.40288270      89.90203934
H      67.53306247      84.01804809      87.83278902
O      72.52005021      84.97235987      89.82267083
H      73.33641198      86.44067723      90.50486203
C      71.91722752      85.07629483      95.26886207
O      73.79939492      86.17422581      95.92648682
N      71.58841514      82.66689378      96.12679781
H      70.15789232      81.64077239      95.38791482
C      73.08696810      81.21558396      97.92581726
H      75.04661429      81.80895804      97.70849874
C      72.12509741      81.51227099     100.56765465
H      71.43723703      83.45490965     100.60922863
C      69.72514499      80.02316667     101.17614652
H      68.62721401      80.20458039      99.44704694
H      68.80862773      81.03605997     102.71627347
H      69.99348613      77.99171087     101.41047258
C      73.91844768      81.22881206     102.86178239
H      74.81984713      79.37688026     102.82776732
H      72.71847147      81.35353398     104.53230045
C      75.78549728      83.29995209     103.10555709
H      76.92689197      83.51160144     101.40291368
H      77.04216528      82.96169108     104.70048609
H      74.76504507      85.02905166     103.56476058
C      73.05484276      78.45280410      97.12646303
O      71.52794390      77.72903892      95.55610047
N      74.69323547      76.76338877      98.05620838
H      75.89888086      77.54762519      99.31098665
C      74.86898002      74.03462398      97.51574665
H      73.09641674      72.98771561      97.46472404
H      76.04438978      72.95747999      98.82154754
C      76.18422953      73.79651847      94.93060106
O      78.27615656      74.73004327      94.58100169
N      74.72347109      72.68346967      93.10512544
H      72.97736398      72.10710314      93.61157209
C      75.04472456      73.13133480      90.42171407
H      76.62075631      74.38989252      90.00786401
C      76.00470553      70.67469060      89.07811867
H      74.36631282      69.42747123      89.12158237
C      76.93256115      71.20948314      86.39659703
H      76.74925770      69.43691985      85.36480646
H      78.68622717      72.28662714      86.36825113
H      75.29794789      72.15434629      85.56700718
C      77.97380035      69.18936571      90.62013534
H      77.18011530      68.56008685      92.41348561
H      79.60085470      70.44036454      90.81099769
C      78.88275871      66.67602971      89.47874064
H      79.74447390      67.12200513      87.66082393
H      77.20657147      65.47794323      89.53921189
H      80.11297054      65.61211381      90.74107782
C      72.68256667      74.40501034      89.28598856
O      70.81362735      73.20692385      88.53765694
N      72.64666187      76.91645660      89.32000363
H      74.26048814      77.89533483      89.60157285
C      70.56607320      78.58130549      88.18427812
H      70.73803830      78.37721504      86.14148397
H      71.01393834      80.55795921      88.55088502
C      67.92423582      78.14288898      89.29354746
O      66.15734171      78.34697943      87.81767121
N      67.70502756      77.35676283      91.66893344
H      69.21302916      76.85787509      92.72906990
C      65.26728062      77.66289851      93.12969188
H      63.87077288      76.94669223      91.79554510
C      65.48459915      76.11710238      95.42570935
H      66.86031990      77.01850183      96.66348009
H      66.03639923      74.20658907      94.89091680
C      63.08086728      75.94702700      97.03008699
N      61.68058008      73.83242327      97.21716990
H      62.24938770      72.12033123      96.59356021
C      59.73983116      74.12533084      98.73839958
H      58.24505764      72.81764023      99.22027979
N      59.81730993      76.62354903      99.43192913
H      58.76095293      77.58353000     100.69993549
C      61.80908147      77.76683345      98.33966733
H      62.35143292      79.73592826      98.38124130
C      64.73437780      80.24426465      93.82322144
O      66.00427388      81.64833130      95.16303739
N      62.51583911      81.10409012      92.86701992
H      61.51428416      79.81529677      91.87680333
C      61.93191368      83.81962683      92.87457883
H      63.66668243      84.85897630      92.47962603
C      59.86644282      84.33741183      90.94894772
H      58.43403027      82.86531505      91.11335390
H      60.70170185      84.03694536      89.09134675
C      58.50206042      86.89610126      91.16059706
H      57.88223019      87.32695886      93.07677954
C      60.14612231      89.06172763      90.16471130
H      58.95559474      90.74169432      90.07967361
H      60.82831351      88.63464948      88.26931580
H      61.65979309      89.26770778      91.54799096
C      56.12667444      86.83563003      89.69227972
H      56.75784303      86.38398543      87.78554587
H      55.08543525      88.61008304      89.61669066
H      54.96449276      85.32006952      90.46517778
C      61.10421355      84.76071054      95.48996005
O      59.46582084      83.73080970      96.63513419
N      62.05474589      86.92633688      96.19860741
H      63.44180500      87.51404177      95.02697710
C      61.27239920      88.28127066      98.36801322
H      60.47871414      86.76382043      99.50940791
C      63.60810092      89.34707629      99.69082164
H      63.20747894      90.45256618     101.38212669
H      64.60020723      90.44500729      98.25840909
C      65.38255393      87.37042258     100.65647178
H      65.75860946      85.95501757      99.20705170
C      68.00360432      88.50236863     101.21394105
H      67.84486731      89.94234008     102.68036867
H      68.75382567      89.29794340      99.46783393
H      69.36609699      87.06239718     101.77707949
C      64.24871814      86.14965937     102.98839406
H      65.65089506      85.15566333     104.12789902
H      62.92401999      84.75693107     102.24951107
H      63.19047140      87.55561574     104.05986887
C      59.23716396      90.37697714      97.78030834
O      57.07342733      90.15587915      98.62690572
N      59.94959078      92.14198151      96.17215124
H      61.78829448      92.17410686      95.66948404
C      58.21482202      93.99958247      95.24807508
H      56.37989777      93.09251384      94.99863120
C      57.98994459      96.20678281      97.09433768