 %block lattice_cart
   137.793   0.000   0.000
   0.000 143.498   0.000
   0.000   0.000   162.326
 %endblock lattice_cart

 %block positions_abs
N      88.18966079      37.93045790      82.41021937
H      86.65142357      37.14244203      83.21902223
H      89.44254933      37.45991604      83.77082232
H      88.60351085      37.30684822      80.65466362
C      87.93076828      40.80473163      82.68611940
H      89.42365207      41.61731393      83.85208055
C      88.07060803      42.25604144      80.13498888
H      86.26213995      43.12909498      79.67200594
H      88.70933553      40.76315765      78.86509281
C      90.13418918      44.20623898      80.36931494
H      90.40253030      45.09630008      78.53250098
H      91.92187026      43.29161145      80.82851845
S      89.28192261      46.75170033      82.61619954
C      91.16409001      49.25747743      81.19134589
H      93.18609716      48.88331161      81.33307536
H      90.79181392      51.11885784      81.99447957
H      90.56504677      49.38219935      79.22603052
C      85.62719191      41.46424611      84.06184017
O      83.51069845      40.93701246      83.17933797
N      85.81049536      42.86075385      86.17833364
H      87.53959495      43.42011283      86.76036934
C      83.68644299      43.44089983      87.87908732
H      82.46379006      41.79305849      87.69011468
C      84.67665958      43.56562177      90.68533090
H      85.81049536      45.23425010      91.11051932
H      86.17710227      42.17667293      90.92910559
C      82.67543941      43.33318542      92.64497707
O      80.50792334      43.75081495      92.09506672
N      83.43132993      42.78894426      94.98634798
H      82.13308797      42.15210649      96.23356734
H      85.29837953      42.47335996      95.21311513
C      82.43733389      45.83707279      86.82462003
O      83.80738548      47.63609225      86.24825351
N      79.83329104      46.07139885      86.73769263
H      78.63331482      44.71646510      87.34240505
C      78.60874838      48.45056428      85.82873427
H      79.50825812      49.07039452      84.08073742
C      75.71746712      48.07828821      85.38653831
H      75.46235407      46.52115371      84.06372990
C      74.31906965      47.58506963      87.95278665
H      74.03561072      49.38030964      88.92032651
H      75.03338620      45.99203035      89.04504845
H      72.36320292      47.18444765      87.45011944
C      74.51182175      50.44800500      84.07884771
H      75.65321644      50.81083245      82.40455019
H      74.69701491      52.06561072      85.34118487
C      71.67345282      50.22123783      83.50248117
H      71.10275547      51.85963055      82.39132211
H      70.64544170      50.09462618      85.28260336
H      71.16700617      48.75292049      82.15132687
C      79.04905462      50.74658176      87.62019482
O      79.27204233      52.73268411      86.67155220
N      79.25125533      50.12486180      90.00313970
H      78.93756077      48.27670946      90.36218770
C      80.15643424      51.94466823      91.97790369
H      79.03771627      53.66809864      91.82294613
C      79.70856910      50.88453177      94.74257329
H      80.47012881      52.36607720      95.95577757
H      80.62886581      49.06283561      95.02036306
C      76.95145842      50.30249608      95.55893506
C      75.29605817      52.18277375      96.36395846
H      75.93478565      54.09517679      96.67387358
C      72.57296254      51.74435725      96.61340234
H      71.29172811      53.24291021      97.13874626
C      71.67723227      49.36330209      95.95199813
H      69.64766622      49.17810891      95.99924128
C      73.25893319      47.39042783      95.38508024
H      72.50871184      45.55928302      94.88808221
C      75.97258018      47.85152104      95.17532062
H      77.14610022      46.30194547      94.55171093
C      83.04204631      52.68733067      91.81349751
O      84.02848345      54.10651513      93.40842651
N      84.35162666      51.93899905      89.81983623
H      83.52392652      50.67288242      88.65576483
C      86.95755924      52.70433822      89.08662243
H      87.40920383      54.27281106      90.34140070
C      88.78870403      50.55571939      89.23213136
H      88.63752593      49.47857540      87.48413452
H      88.62996702      49.45589869      90.96690012
C      91.57227090      51.71034218      89.12441696
H      91.56093254      53.47534656      90.18455341
H      92.05415111      51.90876343      87.13264543
C      93.41664377      49.80738777      90.32439317
O      94.81315152      48.60363211      88.92221625
O      93.25979650      49.57873090      92.66954352
C      87.07850172      53.76447468      86.39754188
O      88.20099916      55.74490786      86.13298020
N      85.50058026      52.74591220      84.64765533
H      84.42343625      51.23224142      85.08040265
C      85.24735693      53.73045961      82.13998851
H      87.11251680      54.09517679      81.34441372
C      83.97368139      51.71790108      80.44490400
H      82.19166947      50.99791536      81.18378698
H      85.31160761      50.16265633      80.26915946
C      83.54093407      52.60418273      77.70858030
H      85.36263023      53.18432870      76.93757197
H      82.37686265      54.30304668      77.68590359
S      82.39764965      50.07572891      75.64499917
C      82.47323870      51.47412639      72.50427404
H      81.35452073      53.20133623      72.64600350
H      81.48680156      50.27981936      71.14745054
H      84.44800269      51.66498875      71.95625340
C      83.99446837      56.29670794      82.02849466
O      85.11696580      57.85762188      80.67734033
N      81.95356397      56.66520456      83.35886197
H      81.17877617      55.39530849      84.55316901
C      80.78004393      59.11995905      83.56106270
H      80.83295625      59.98545370      81.69212337
C      77.96435171      58.65508637      84.33585048
H      77.00248102      60.46166473      84.55883818
H      77.97946952      57.51180195      86.04983225
C      76.56784396      57.17921012      82.20423919
H      77.20090228      55.23090230      81.99070013
C      73.75782095      57.17732039      82.92800438
H      72.88476739      55.72979005      81.75070489
H      73.00004069      59.06137754      82.58218446
H      73.52916405      56.49323947      84.85741495
C      76.76815495      58.20533151      79.53027647
H      75.45290544      57.27936562      78.24526257
H      78.72402170      58.18832398      78.88021061
H      75.97824936      60.08938864      79.79861761
C      82.31072224      60.95299358      85.33173625
O      81.71356871      63.16775282      85.43189175
N      84.20989717      60.04781467      86.83973785
H      84.84862467      58.30170756      86.40132134
C      85.78781865      61.54069845      88.63119839
H      84.71823355      62.93720620      89.70078349
C      87.02180993      59.75112764      90.58895485
H      88.46934029      58.61729184      89.66298896
H      85.66309671      58.25446439      90.98768711
C      88.07060803      60.92464768      93.07394496
H      86.62307768      62.20588212      93.78637178
H      89.83372268      61.95076907      92.78859628
C      89.08917051      59.09539261      95.04681923
H      90.05671039      60.01002014      96.61907152
H      90.45355292      57.96155681      93.99802112
N      87.25235654      57.31149097      96.20144199
H      87.21078257      55.50680234      95.58161177
C      86.36040572      57.43810262      98.48612112
N      86.71567427      59.17854057     100.20577205
H      85.75758303      59.19932755     101.85361341
H      87.96100392      60.60906338      99.97711518
N      85.11129664      55.47656672      99.09461298
H      84.94878017      55.02492213     100.94276532
H      84.49524585      54.17454529      97.83983471
C      87.89297376      63.08460485      87.18177831
O      88.39753068      65.30125381      87.65798933
N      89.12318559      61.88084919      85.36386160
H      88.61295949      60.11395509      84.84607659
C      91.26613523      62.86917605      84.01648674
H      92.33761005      63.93120225      85.41677394
C      93.02924988      60.67709353      83.38342841
H      94.78858508      61.54069845      82.75225982
C      93.66419792      59.35617484      85.86463907
H      92.06737918      58.41887059      86.76981797
H      94.17064457      60.84716889      87.19311667
H      95.33849543      58.16186780      85.76070411
C      92.27902853      58.98011931      81.09308013
H      91.98612096      60.22733867      79.47925385
H      90.50079607      57.99935135      81.43512059
C      94.24812336      57.05826765      80.21813685
H      93.66041848      56.51402647      78.31896190
H      94.40119119      55.57105304      81.63732131
H      95.98478183      58.16375754      80.17656287
C      90.62362828      64.63607015      81.72991789
O      92.15997577      66.29713958      81.07607259
N      88.26524984      64.55292220      80.83985680
H      87.08606063      63.26034940      81.59952678
C      87.16920858      66.22721972      78.83485719
H      88.56193688      66.13651284      77.32118641
C      84.68610822      64.99511816      78.27360846
H      83.55983133      65.14440654      79.99136968
H      84.87697056      63.02035416      77.71991866
C      83.00425180      66.56926017      76.45191231
O      80.92555284      67.38184248      77.14544186
O      83.86407727      66.79035815      74.32597019
C      87.13519351      69.06747835      79.41689288
O      86.65142357      70.46587583      77.70480085
N      87.51313878      69.75533873      81.77716106
H      87.86840732      68.40985360      83.08107220
C      87.46400589      72.41607339      82.69745776
H      88.06493885      73.40440025      80.99481436
C      84.76169726      73.16629473      83.40610514
H      84.00391701      72.16096033      85.03693895
H      83.59195668      72.28379254      81.95668506
C      83.96990193      76.02545064      83.33996472
H      84.61807807      76.83425350      85.12008690
H      81.92710779      76.25410752      83.22847087
C      85.08106100      77.69218926      81.21024316
O      87.30337916      78.47642568      81.37653907
O      83.65053819      78.29312221      79.32618602
C      89.30837877      72.94519675      85.00859304
O      90.01324668      71.36727528      86.55060972
N      90.04915148      75.40751013      85.17866842
H      89.20444382      76.54512538      83.90121343
C      91.73289764      76.33536575      87.18366803
H      92.55870803      78.11359821      86.55438917
H      93.17475880      74.90484294      87.52192905
C      90.24757274      77.06291038      89.61574579
O      88.09895393      77.85281598      89.50614167
N      91.36818046      76.47898496      91.82672559
H      93.22578142      76.04623763      91.77948242
C      90.19277068      77.00243914      94.25124444
H      88.23879367      76.46386714      93.88274782
C      91.23967907      75.20152997      96.27136187
H      93.16908962      75.84781637      96.58316672
H      91.24345852      73.26456050      95.57216313
C      89.84506104      75.44152521      98.67698347
H      89.70711103      77.46731182      99.01902394
C      87.19944421      74.47398535      98.72989580
H      86.35662627      74.48532369     100.61206322
H      87.12196542      72.51622889      98.09494777
H      86.14119747      75.64750539      97.40897711
C      91.34361401      74.17729830     100.83127147
H      93.31648829      74.75744428     100.97300094
H      91.17542837      72.15907060     100.44576729
H      90.45355292      74.65539906     102.62462174
C      90.42898648      79.83513890      94.82950070
O      92.42075800      80.88393699      94.61785135
N      88.35028753      81.04078427      95.58350150
H      86.74402016      80.01844234      95.45688983
C      88.29737520      83.66372440      96.65497631
H      90.23623439      84.34969505      96.76458045
C      86.86874210      85.56478907      95.17532062
H      86.84606539      87.29955782      96.28458996
H      84.92610346      84.89771568      95.01280415
C      87.96667308      86.24698027      92.58072639
H      89.93009872      86.75909610      92.93032575
H      86.94055171      87.95151341      92.04593383
C      87.95533473      84.00954431      90.61730075
H      86.28103721      82.84358318      90.90075970
H      89.58049936      82.79256057      90.96123094
N      88.06493885      85.17361573      88.17010516
H      88.55437797      87.01042970      88.01136815
C      87.70778058      84.10025117      85.91377196
N      87.63408125      81.69651930      85.63787190
H      87.68321414      81.12960141      83.81617574
H      87.66620660      80.50410200      87.12886597
N      87.41865246      85.40983151      83.79349903
H      87.54148466      84.31756970      82.23447481
H      86.99535377      87.27121193      83.72924834
C      87.24290792      83.47853122      99.33082878
O      85.37396859      82.20296597      99.99223299
N      88.47123002      84.87692870     101.18465029
H      89.99812888      85.89360145     100.65741664
C      87.99123954      84.84291362     103.93231234
H      86.79882222      83.18184419     104.19120485
C      90.48756800      84.46118891     105.29480502
H      89.95655489      84.55000605     107.28279710
H      91.82171476      86.03155148     105.26834885
C      91.58360925      81.86848441     105.27401803
H      92.93098412      81.80801316     106.83115251
C      89.80726651      79.76143957     105.76534686
H      88.55437797      79.30979498     104.19309458
H      88.93610268      80.24898896     107.56625605
H      90.78803448      77.99643518     106.16974830
C      93.01980126      81.37715556     102.79469710
H      93.90041371      79.52333404     102.95343412
H      94.44276516      82.81334757     102.40352376
H      91.56849144      81.27322061     101.33582840
C      86.56071671      87.18239479     104.86961659
O      85.21901103      87.14460026     106.82737305
N      86.55126809      89.11369509     103.28224649
H      87.85328952      89.08345947     101.88762847
C      84.99035414      91.52309614     103.49011639
H      83.83006219      91.29632897     105.17764199
C      86.65709275      93.86446704     104.16096923
H      87.74935457      94.13469790     102.43375938
H      87.91942993      93.53187520     105.75211879
C      85.53081588      96.50252498     104.64473917
H      84.33650884      96.71228459     106.30769833
H      84.26091978      97.26219495     103.21043690
C      87.77014155      98.33366976     104.98866935
H      88.86807255      98.33933894     103.24445196
H      89.00791229      97.67415528     106.49856068
C      86.69866674     101.10400854     105.30425365
H      85.39286585     101.28164281     106.88595457
H      85.78781865     101.61423464     103.52791092
N      88.81138076     102.89168963     105.85038456
H      90.00757751     102.98806568     104.36694940
H      89.81860488     102.37768408     107.38862178
H      88.12729982     104.66803237     105.98266539
C      83.31416690      91.72907630     101.26968797
O      84.29493487      90.94295015      99.29114453
N      81.09373849      92.68905727     101.62684624
H      80.71201378      93.54132384     103.29169513
C      79.14543066      93.05755390      99.60672881
H      78.38009150      91.20940156      99.11539998
C      76.85886183      94.88302952     100.64418857
H      77.80372497      96.54031949     101.42275581
C      75.04850402      95.75230362      98.42564986
H      74.64221285      93.98540952      97.44488191
H      76.05383842      96.90314695      97.04237020
H      73.41389075      96.76330721      99.16075341
C      75.30361706      93.36935874     102.59816557
H      76.70957345      92.44717230     103.78680342
H      74.20190662      91.90482085     101.65708186
C      73.68223188      95.26286452     104.27813226
H      72.60319816      94.05721913     105.55180780
H      72.52193994      96.58189348     103.20476772
H      74.93889988      96.35323659     105.49133656
C      80.29060481      94.22351503      97.15575379
O      81.84395983      95.99418859      97.40141820
N      79.68400266      93.47707314      94.78981644
H      78.44812165      92.03899142      94.57816709
C      80.50792334      94.79799184      92.40687157
H      81.11263575      96.69338733      92.93599493
C      82.56961474      93.11235596      91.19933645
H      84.14753622      92.91960389      92.50702706
H      83.22157031      94.38225205      89.71401157
C      81.94033588      90.60468914      90.24124520
C      82.10852151      90.09068360      87.62964344
H      82.49591541      91.60435436      86.31628366
C      81.90632080      87.68128255      86.65832411
H      82.14442632      87.26554275      84.67411148
C      81.67766391      85.65360621      88.46679219
O      81.78726805      83.28577913      87.55027494
H      81.57750843      83.34814010      85.74936577
C      81.43577896      86.04100010      91.04437890
H      81.87986464      84.58402111      92.40309210
C      81.48491184      88.54677720      91.92499136
H      81.54538308      88.82456697      93.94699850
C      78.24214149      95.22884944      90.66643362
O      76.07273568      94.23863284      90.93855421
N      78.79961074      96.69338733      88.59907304
H      80.47390825      97.58344843      88.38175451
C      76.83240566      97.09778877      86.59974261
H      74.95401770      96.59890101      87.28193381
C      76.51304190      99.90214260      85.92133086
H      75.30172733      99.94371659      84.25648197
H      78.29505382     100.87724139      85.58306984
C      74.82551630     101.09833937      87.98869145
H      75.73258494     100.82999822      89.81794652
H      72.97358452     100.20260909      88.08884694
C      74.35308473     103.92725966      87.51814959
H      76.17667062     104.78141594      87.94522774
H      72.92067219     104.51118508      88.87686281
C      73.31940443     104.39591178      84.88009166
H      72.72036119     102.56665671      84.14120867
H      74.87086974     104.79086458      83.57995996
N      71.40322195     106.42169838      84.62497860
H      71.29172811     106.89035051      82.77682628
H      72.00226519     108.01662740      85.48480407
H      69.62498949     105.97194353      85.15599169
C      77.53160438      95.49530085      84.24892306
O      79.37030809      95.77875979      82.92989411
N      75.54172259      94.16871297      83.25114758
H      73.87120452      94.47484864      84.12042168
C      75.64187807      92.63992439      80.94757121
H      77.39554410      91.56655985      80.81529036
C      73.44979555      90.76153643      81.15544110
H      71.64510692      91.66671533      81.55984253
H      73.88254287      89.49730952      82.72391393
C      72.92634136      89.03999577      78.89532843
O      74.36253337      87.24475576      78.42289684
O      71.05362258      89.51053762      77.68590359
C      75.38298557      94.22729449      78.48336808
O      74.83685467      96.57811403      78.55706742
N      75.83840962      93.09345871      76.27616776
H      75.94234456      91.18861458      76.26671913
C      75.54550203      94.44839246      73.82330300
H      76.49036519      96.24930165      74.15211538
C      76.60374877      92.90259634      71.61799240
H      75.97069045      93.76998072      69.86054693
C      79.54038345      92.63614494      71.57074924
H      80.32084043      91.81222426      69.85298802
H      79.91076981      91.52687558      73.26772347
H      80.32273016      94.50697399      71.93546642
O      75.57573765      90.42327542      71.42146086
H      76.55839534      89.66927462      70.09676271
C      72.74870710      95.14759120      73.23370840
O      72.28383442      96.54976812      71.54051362
N      70.78717117      94.34445752      74.65667231
H      71.24448494      93.25408543      76.15522528
C      68.17367968      95.38569673      74.74548945
H      67.91667691      96.11513107      72.83497614
C      66.39922667      93.12747377      75.37665802
H      66.71481098      92.64937301      77.35331176
H      66.98882129      91.46640435      74.31274212
C      63.64400571      93.39392519      74.48470721
H      62.59142816      94.93594185      75.35587105
H      62.75394463      91.61947217      75.03461757
C      63.47393034      93.65281769      71.61043349
O      63.38700293      95.74474473      70.40289838
O      63.26228099      91.63081053      70.30274288
C      67.79762415      97.59856623      76.59742123
O      65.86254440      98.73618147      76.79206303
N      69.85364637      98.17304303      77.99581869
H      71.56762815      97.36046072      77.78038989
C      69.76482925     100.15158648      79.93845735
H      68.54406604     101.68982370      79.31673740
H      71.67345282     100.78653452      80.37876359
C      68.58375030      99.35412197      82.47447007
O      68.63288318     101.03786813      84.10719359
N      67.67290221      97.04487642      82.72769338
H      67.16456583      95.99040915      81.21780207
C      66.69213425      96.16804341      85.13331498
H      65.62065943      97.62880185      86.11030349
C      64.68146547      94.14981572      84.60419162
H      63.69880777      93.65470742      86.34651928
H      65.65089506      92.47173874      83.89743397
C      62.56308226      94.91515486      82.87509204
C      61.81097120      93.13503268      80.94190203
H      62.95047615      91.44561735      80.84741571
C      59.50550508      93.37691764      79.75515390
H      58.78740910      91.91426948      78.52494207
C      57.93514252      95.44805768      80.35797659
O      55.62589697      95.86757694      79.12209558
H      54.97205167      97.48518266      79.61531414
C      58.79685773      97.23195932      82.00203848
H      57.91435553      99.04231714      82.33085087
C      61.07775738      96.97306683      83.46468665
H      61.84309654      98.38280265      84.72513410
C      68.65178044      95.14948093      86.85674538
O      70.70780267      94.58445276      85.92888977
N      68.10942900      95.17971655      89.38519919
H      66.33119654      95.59923579      89.93321982
C      69.74404225      94.61846784      91.40909606
H      71.51282609      95.58033853      90.98012820
C      68.66689826      95.58600771      93.98668276
H      69.95758132      94.92649323      95.45122066
H      66.82063564      94.72618223      94.30226706
C      68.61020647      98.29965470      93.83739438
C      66.34820407      99.49018227      93.13630592
H      64.74760588      98.27697797      92.78103737
C      66.19891569     102.13012993      92.52781404
H      64.39800651     102.86712320      91.91365300
C      68.35698314     103.62490345      92.93221548
O      68.33619615     106.23272576      92.62230037
H      66.77528222     107.15680192      92.58072639
C      70.67756705     102.43248614      93.67109847
H      72.42745362     103.45104862      93.94132932
C      70.78339173      99.76419259      94.14353005
H      72.47280704      98.78153491      94.72556574
C      70.02750120      91.70828932      91.54893582
O      68.17745913      90.36658363      91.20500562
N      72.26682689      90.74641863      92.31427498
H      73.56317913      92.06166814      92.80182437
C      73.24381539      88.25009017      91.89097627
H      71.69612953      86.89137695      91.96845506
C      74.67433820      87.98552847      89.33039713
H      76.47902683      88.94739918      89.56283346
C      75.13921088      85.26621232      88.59151413
H      76.27115693      85.30589656      86.87186320
H      73.43089828      84.12670734      88.42521823
H      76.26170830      84.17395050      89.92944037
O      73.09074755      88.81511833      87.34429477
H      73.04728384      90.62547613      87.24980846
C      75.16566704      87.67372364      93.89975535
O      76.57729260      89.34613142      94.86162605
N      75.32440406      85.27188150      94.60084382
H      74.13387647      83.90560937      93.99424167
C      77.01003993      84.50843206      96.69655030
H      78.62386620      85.78777677      96.62663042
C      75.47747188      84.82401635      99.31004178
H      74.80283959      86.76854473      99.29681369
C      73.17200578      83.26310242      99.25523972
H      72.06651589      83.65994494     100.94465505
H      73.45546473      81.22219800      99.26846781
H      72.00793438      83.85836622      97.66409017
C      77.14421049      84.36481287     101.61172844
H      78.08151474      82.54122698     101.42275581
H      75.69290068      84.31756970     103.07248687
C      79.02070873      86.37170220     102.18809495
H      80.50792334      85.71218772     103.45232187
H      78.05127912      88.07056617     102.83438136
H      80.08840410      86.76665501     100.47222346
C      78.09852229      81.80045425      96.15419884
O      76.85508237      80.20552525      95.05626786
N      80.36241440      81.25621307      97.04425993
H      81.47168376      82.59980848      97.82471691
C      81.29027002      78.61626542      97.35417505
H      79.99202804      77.36526659      98.35384027
H      83.01370042      78.52555856      98.47856221
C      81.86285709      77.43518647      94.76713973
O      83.33684363      78.67295721      93.27425595
N      80.89720696      75.09570530      94.10762525
H      79.64242868      74.23399009      95.25846857
C      81.39798443      73.80124277      91.75491598
H      83.11007647      74.55335385      90.88942134
C      82.00458658      70.89862315      92.09695645
H      80.39265002      69.98210590      92.99079699
C      82.46379006      69.54935856      89.55149511
H      84.21367663      69.95187028      88.54049153
H      80.98791381      70.05391549      88.20412024
H      82.17466194      67.51601306      89.69889376
C      84.28359651      70.56414159      93.93188070
H      83.83384164      71.49199721      95.71578234
H      86.06938788      71.25200197      93.16843126
C      84.53304037      67.68797815      94.56304929
H      86.43599477      67.52735141      95.33405762
H      84.32517049      66.66941567      92.78481683
H      83.11763538      67.17397259      95.96900566
C      79.30794712      74.67618606      89.98046298
O      77.55995028      73.16818446      89.39086837
N      79.37975672      77.16495561      89.50992113
H      80.77059528      78.22131262      90.28092946
C      77.57506810      78.39327771      87.63342289
H      78.00781543      77.57502623      85.79282946
H      78.12119900      80.37749034      87.61074618
C      74.77449370      78.18540782      88.14931818
O      73.29105854      78.29690168      86.32006311
N      74.04505934      77.88494133      90.54927059
H      75.42266982      77.94541257      91.87018928
C      71.33330208      78.13438521      91.25791797
H      70.09742107      77.04968231      90.01636778
C      70.95157737      76.95708571      93.90542453
H      71.72825488      78.32335785      95.23579186
H      72.02683163      75.25255259      94.32116432
C      68.15856188      76.45252879      94.46289379
N      66.84142264      74.33603532      93.71456217
H      67.71447620      72.83559263      92.92087711
C      64.48682365      74.48532369      94.61785135
H      63.14322824      72.94897620      94.65186643
N      64.25060787      76.70764184      95.85751181
H      62.82197477      77.28778782      96.98189896
C      66.53339725      77.89438997      95.85373236
H      67.09464596      79.55923884      96.89308182
C      70.28450397      80.89716508      91.05004806
O      71.39188359      82.63004410      92.05538247
N      67.94691253      81.14471923      90.07683902
H      67.12488158      79.54979022      89.42866290
C      66.52205889      83.47286204      90.09762600
H      67.88077211      84.99031227      89.78204172
C      64.67012711      83.20641063      87.85830033
H      63.56085776      81.49998777      88.17955380
H      65.63010807      82.78878111      86.08573705
C      62.61032542      85.34180136      87.52381877
H      61.27806837      85.02810679      89.06394572
C      63.71770505      88.03844082      86.95312143
H      64.90067371      88.66771968      88.51781482
H      62.53473637      89.57856777      86.27281996
H      65.09720524      87.75687159      85.45078901
C      61.10988272      84.84291362      85.06150539
H      62.33442538      85.21141026      83.44767911
H      59.49605646      86.12225833      85.07284375
H      60.50328058      82.87381880      85.04638757
C      65.24271418      83.85458675      92.72434559
O      63.78951464      82.34658516      93.68810601
N      65.63955670      86.08824327      93.72023135
H      66.85465072      87.21829960      92.77347846
C      64.72681890      86.85547214      96.23923652
H      64.34320446      85.18684380      97.38630040
C      66.81685619      88.46929841      97.33149834
H      66.98126239      90.25697951      96.32238449
H      68.63666263      87.57545787      96.97622979
C      66.57686096      88.80944915     100.33616317
H      65.08586690      90.19083908     100.66119610
C      66.06474513      86.40949674     102.10683673
H      64.21848252      85.57990688     101.71755311
H      65.91167730      87.18617425     104.00790140
H      67.45747342      84.89393623     102.00479151
C      68.94657774      90.14737539     101.27157770
H      69.44357576      91.67427424      99.98467408
H      70.56229375      88.88692794     101.05047972
H      68.67256743      90.87492002     103.17831154
C      62.16812946      88.30678195      96.03325636
O      60.31052849      87.10113657      96.73434482
N      62.10198904      90.51209255      94.71800685
H      63.77250711      91.06200291      93.97723412
C      59.83431746      92.07867567      94.67454314
H      57.97671650      91.19428376      94.75013220
C      60.03273874      94.21028696      96.77969825