 %block lattice_cart
   137.793   0.000   0.000
   0.000 143.498   0.000
   0.000   0.000   162.326
 %endblock lattice_cart

 %block positions_abs
N      86.58717287      38.59753129      77.20591310
H      87.99501897      37.92667845      76.10609239
H      85.20389321      39.02082999      75.96058346
H      86.05238033      37.24448725      78.44368384
C      87.34873258      40.99181453      78.46258110
H      89.10617806      40.58741310      79.45846687
C      87.75502373      43.14610253      76.69001782
H      85.95789401      43.73947659      75.87365605
H      89.14586230      42.60375107      75.27272308
C      89.01547118      45.34574396      78.05062076
H      90.94110231      44.68245002      78.36998451
H      88.05549022      45.98447145      79.75704362
S      89.45388769      48.15387726      75.97759100
C      91.38518799      50.17777414      77.83708169
H      91.31526811      52.11096416      77.12843432
H      93.31459855      49.48046513      77.67078577
H      90.75212967      50.23446593      79.79483815
C      85.29460007      41.52471735      80.51860333
O      83.07228193      40.71591449      80.34096905
N      85.86529742      42.80973124      82.51226459
H      87.67754496      43.38609777      82.67667078
C      84.17588210      43.43901011      84.60608134
H      82.53182021      42.19934964      84.62875806
C      85.54971313      43.25570665      87.11185843
H      87.16731885      44.52560274      87.00414403
H      86.18088171      41.33574472      87.51437014
C      84.01714509      44.12687048      89.46834715
O      82.62063734      45.86730842      89.49858277
N      84.17777182      42.67178122      91.47334676
H      83.39353540      43.43334093      93.03615042
H      85.54593368      41.34330362      91.56783308
C      83.27259292      46.24336395      83.95601549
O      84.70122601      47.84396214      83.27004484
N      80.89153776      46.72713389      84.28860732
H      79.68967183      45.33818505      84.80828206
C      79.81250404      49.19133700      83.33240581
H      80.44934181      49.59195898      81.41622333
C      76.87586935      48.96834930      83.06595440
H      76.56406451      47.35830248      81.82062476
C      75.54172257      48.45812319      85.66999726
H      75.92533701      49.80927751      87.17610913
H      76.22769322      46.72713389      86.54683027
H      73.52349487      48.08395738      85.49236298
C      75.48692051      51.42310378      81.95668505
H      76.53571861      52.22812719      80.37876358
H      75.51526640      52.91598757      83.37775924
C      72.76949407      50.92043658      81.07229314
H      72.22903236      52.64386698      80.08396628
H      71.56951786      50.72768449      82.73714202
H      72.68256666      49.15732193      80.01404640
C      80.70823431      51.47790584      84.88765056
O      81.26570357      53.45078011      83.74058669
N      81.10507684      51.18688799      87.36508176
H      80.94445011      49.46723704      88.17955380
C      81.78348859      53.34873489      89.03559982
H      80.54949730      54.96634061      88.71812580
C      81.54160362      52.60796218      91.80404887
H      82.13875713      54.16698638      93.01158398
H      82.61874761      50.86563452      92.04026466
C      78.86008198      52.09206689      92.54293186
C      77.45223587      53.94399868      93.81282794
H      78.16655242      55.80537910      94.24746499
C      74.96157659      53.44511093      94.59706436
H      73.92600658      54.94177417      95.52114053
C      73.96947028      50.96767974      94.09628689
H      72.05706725      50.45745363      94.58761573
C      75.46235407      48.94567258      93.11173948
H      74.57796215      47.18633738      92.57316748
C      77.84718867      49.66376858      92.00435986
H      78.80527991      48.15765671      91.01603300
C      84.52737120      54.03281582      88.27970929
O      85.17743704      56.20600108      87.99247090
N      85.98435018      52.03159565      87.53515713
H      85.61585356      50.23635565      88.06994967
C      88.68287935      52.19789157      86.52037410
H      89.91309118      53.42432394      87.62586399
C      90.12096108      49.71668092      86.54494054
H      92.10895316      50.00013986      86.07817814
H      89.49924112      48.47891018      85.01804168
C      90.02458504      48.22190740      89.13953477
H      91.16220028      46.51737427      88.96001077
H      88.06682858      47.62475389      89.36441220
C      90.89007969      49.90565355      91.35051455
O      89.25357671      51.02059207      92.71111750
O      93.10672865      49.77904189      92.08750782
C      88.78870403      53.35062462      83.96357440
O      90.53670087      54.71689674      83.38531814
N      86.75724824      53.05393759      82.30817415
H      85.20011376      51.99758058      82.62375844
C      86.49268656      54.64697687      79.99892859
H      88.36918479      54.82461114      79.16555929
C      84.68232876      53.29960201      78.09030502
H      82.79827161      53.30905064      78.91989487
H      85.21523157      51.33617637      77.77283099
C      84.47067940      54.38052546      75.34075323
H      86.24324268      53.85329182      74.43179487
H      84.09273414      56.40253261      75.23681828
S      81.76459132      52.88764167      73.74393450
C      81.97435094      53.87785826      70.47092852
H      83.47479363      53.01614306      69.35599000
H      81.98757903      55.93765994      70.42557509
H      80.18289040      53.16732116      69.74527362
C      85.81616454      57.42676427      80.52049305
O      86.94244142      59.16720221      79.55106346
N      84.24202252      57.89541640      82.44612417
H      83.38975595      56.46111413      83.37397979
C      83.13275317      60.46166473      82.71257558
H      82.99480315      61.42920461      80.90032804
C      80.48146715      60.12529345      83.81239629
H      79.98635886      62.08116018      84.23569498
H      80.84996379      58.87996381      85.41110475
C      78.66732989      58.84594874      82.07006863
H      79.35141083      57.18109985      81.07040341
C      76.47902682      57.91620339      83.64799010
H      77.31995503      56.55182099      84.94056290
H      75.21479992      56.83716966      82.43100636
H      75.45479516      59.39207964      84.65710395
C      77.45601533      60.65063736      80.17089369
H      76.22769322      62.19076431      80.77749583
H      76.32973844      59.29759332      79.09941887
H      78.92055322      61.20243745      78.83107773
C      84.98279523      62.15108006      84.33018130
O      85.07728155      64.46221534      83.91255179
N      86.34150845      61.18542991      86.19345145
H      86.27536803      59.28814469      86.37864462
C      88.04037241      62.70099041      87.86774896
H      86.96322841      64.38662628      88.36663671
C      88.53737043      61.26668814      90.35651851
H      86.75346879      60.43331884      90.96690011
H      88.84539582      62.56115067      91.92688108
C      90.57638513      59.20688646      90.35084933
H      92.31493333      60.03836604      89.61952525
H      90.31560289      57.51936086      89.19811628
C      91.24723796      58.53603362      93.13063674
H      91.13007493      60.10072701      94.46667324
H      93.23334031      57.99179244      93.12685729
N      89.68254457      56.32505383      93.90353480
H      90.04726175      54.66209468      93.04181960
C      87.94399636      56.27214150      95.67987754
N      87.26747434      58.19399316      96.89686128
H      86.00513718      57.83494516      98.28203067
H      87.86084841      59.94576945      96.42820916
N      86.65331329      54.13108158      95.97656457
H      85.68955287      53.79093085      97.58661139
H      87.13519350      52.53426285      95.05248840
C      90.28725699      63.65152275      86.49769738
O      91.48723320      65.28991546      87.56917220
N      90.88441051      62.86917606      84.14120867
H      89.93765762      61.40274844      83.37020033
C      92.61162036      64.28836052      82.48391869
H      93.87017808      65.48266755      83.59507776
C      94.34449939      62.40430338      81.09308013
H      95.63140301      63.54758780      79.95924434
C      95.75234550      60.85850726      83.15666126
H      96.46288258      62.09438827      84.64198614
H      97.21499366      59.62262625      82.40077074
H      94.52969257      59.69821530      84.34151966
C      92.86106424      60.59016612      79.33941411
H      91.15653110      61.30448267      78.42856603
H      92.20532920      59.13885631      80.64710472
C      94.57126655      59.53002966      77.22858982
H      94.84905631      61.16086347      76.00026771
H      93.71522052      57.93321093      76.24971159
H      96.35516818      58.90264052      78.04873104
C      91.27180440      66.12328477      80.70757596
O      92.66831215      67.48766716      79.36776000
N      88.81893965      65.95131967      80.47891907
H      87.79659771      64.91952911      81.71668981
C      87.48290314      67.14562670      78.17345297
H      88.67909991      66.87728557      76.51994245
C      85.05460483      65.55069769      77.43079053
H      83.63164092      65.84171555      78.89343870
H      85.59695628      63.56270561      77.36842956
C      83.94155603      66.11383614      74.91934426
O      81.60396458      66.64862868      74.89855727
O      85.39097612      66.16296902      73.01638986
C      87.09550925      69.96509836      78.43801466
O      87.21078255      71.41640817      76.69190754
N      86.84984483      70.85138000      80.83229790
H      86.92354416      69.58337365      82.25526181
C      87.32983531      73.54990918      81.58062952
H      88.62807729      74.49477233      80.29183617
C      84.85429385      75.03523406      81.93967751
H      85.12263498      76.43363153      83.42878185
H      83.40298403      73.78990442      82.70690640
C      83.76959094      76.39583700      79.47169495
H      81.71356871      76.46953633      79.57185044
H      84.50280475      75.24499368      77.92967828
C      84.81838904      79.07735864      79.34130383
O      83.57683885      80.39638761      77.87865567
O      86.74402016      79.94285329      80.55450813
C      89.03625818      73.49510711      84.00325865
O      89.07783215      71.67719040      85.55472395
N      90.57827484      75.41506905      84.40388063
H      90.66142281      76.83614323      83.12831537
C      92.05604082      75.53412181      86.72446454
H      93.59049859      76.90417338      86.60730151
H      93.11995674      73.82202977      87.14776323
C      90.38174331      76.39205755      88.96945940
O      88.33327998      77.39550222      88.69922854
N      91.26046605      75.97820749      91.27492550
H      93.00657316      75.20530943      91.27492550
C      89.71278019      76.14639313      93.56716352
H      87.69077305      76.22198218      93.17599017
C      90.09828436      73.83903730      95.24335076
H      91.99745932      73.47620985      95.94821867
H      89.34050412      72.21387267      94.22856773
C      88.50524508      73.85037566      97.64708263
H      86.67976946      74.74610593      97.32582916
C      88.15942517      71.16885402      98.53525400
H      89.93387817      70.12761482      98.61462250
H      87.07472226      70.06903331      97.17465105
H      87.32794559      71.10649305     100.41931113
C      90.12474054      75.07491831      99.87695968
H      89.31782739      74.47587507     101.67408940
H      90.02080558      77.12527136      99.69176650
H      92.12029152      74.59681755      99.70499458
C      90.30993371      78.69374420      94.92965619
O      92.40752992      79.67451216      95.09406238
N      88.19344024      80.01844235      95.60806794
H      86.52670163      79.09625591      95.74223850
C      88.27658820      82.58280095      96.68332221
H      90.21166795      83.27822024      96.56049000
C      86.65709275      84.55756495      95.29437337
H      86.65331329      86.27721589      96.42820916
H      84.71067464      83.89049156      95.15453362
C      87.58305864      85.37014726      92.54482158
H      89.52758701      85.97485968      92.84150861
H      86.25080159      86.83657488      91.98168314
C      87.22967982      83.29333805      90.48879935
H      85.49869053      82.26721666      90.92910559
H      88.48067864      81.67951178      90.75336104
N      87.32416613      84.59346975      87.92633047
H      88.01580596      86.36792276      87.82995443
C      87.04259691      83.44829560      85.77582193
N      86.67032083      81.02188702      85.68322534
H      86.36796462      80.54567599      83.86152918
H      86.93110307      79.86159506      87.17421940
N      87.01803047      84.68606634      83.61586475
H      86.63252630      83.69396002      82.03038438
H      87.49802096      86.53421867      83.59696749
C      87.28259215      82.80767838      99.46688907
O      85.45711654      81.41872954     100.05270422
N      88.24446285      84.59158002     101.02591328
H      89.72411855      85.56289935     100.31159673
C      87.82683333      84.75787594     103.80003150
H      86.38119270      83.38026546     104.30647816
C      90.30048508      84.28733409     105.24567213
H      89.82049459      84.56134440     107.22988476
H      91.78769968      85.49675893     104.48789188
C      91.22456124      81.49809805     104.91308030
H      91.50046129      81.04078428     102.92130877
C      93.95332604      81.37337611     106.02045992
H      94.84149741      83.04767363     105.21354679
H      94.79614399      79.68962997     105.18709062
H      94.01190757      81.41683982     108.07837188
C      89.56916099      79.45341418     106.13573323
H      87.60762508      79.38727376     105.51023382
H      89.64286033      79.65750462     108.18608628
H      90.58961320      77.74888104     105.59149205
C      86.78370441      87.38837497     104.60883437
O      85.94466593      87.60758322     106.86327786
N      86.51536327      89.23652730     102.79280738
H      87.17298803      88.63559433     101.10528178
C      85.08673018      91.64214890     102.96477247
H      83.95478412      91.90293113     104.66552615
C      86.99535376      93.85501841     102.97611083
H      85.80671590      95.53498510     103.05547934
H      88.08950529      93.94383555     101.23189344
C      89.00224310      93.68872249     104.93386729
H      90.15119670      92.02198389     104.55214258
H      88.22934505      93.02542856     106.72343811
C      90.71622487      95.97151188     105.21921596
H      91.23967905      96.61968801     103.33515883
H      92.45099362      95.68616321     106.29258051
C      89.02114036      97.93871697     106.50422986
H      88.25013203      97.07322232     108.20687327
H      87.45833670      98.55854720     105.31559201
N      90.85228516     100.00229811     107.19586969
H      92.02202576      99.31065828     108.53568564
H      90.07560765     101.64824972     107.78168484
H      92.05793055     100.48228859     105.79747222
C      83.31983608      91.64403862     100.71977761
O      83.56361078      90.19461854      98.95477324
N      81.57939814      93.40715327     100.72544679
H      81.62097212      94.53343016     102.26179428
C      79.44967659      93.70950948      98.97367050
H      78.77315457      91.81600372      98.52580536
C      77.11586459      94.92271378     100.25490494
H      77.61286261      96.63669554     101.28291605
C      75.17889512      95.95639407      98.36328890
H      73.56506885      96.85968325      99.27035753
H      74.60819777      94.47106919      97.05370857
H      76.13320692      97.46439567      97.33527779
C      75.89132195      93.08212035     102.10494700
H      77.35774956      91.97663045     103.03469235
H      74.82551630      91.63836944     101.09583315
C      74.12253811      94.31989108     103.98522468
H      72.76193517      93.04432582     104.85827824
H      73.11909344      95.95828380     103.24256224
H      75.48125133      95.07578161     105.33826872
C      80.37564249      95.16837820      96.49623930
O      81.30160838      97.35668127      96.44143724
N      80.04494038      94.11769037      94.13408141
H      79.23613751      92.39048052      94.02069783
C      80.89342749      95.35546110      91.80215914
H      81.60774404      97.25463605      92.15364824
C      82.87952986      93.71139921      90.30171645
H      84.47256914      93.41660191      91.57350226
H      83.46156555      94.87925007      88.70678744
C      82.03482218      91.10357690      89.46834715
C      81.91387970      90.55555627      86.87942210
H      82.32017086      91.97285100      85.46968627
C      81.10129738      88.18017029      86.01581717
H      80.42288564      87.95718259      84.10341414
C      80.84051515      86.22430356      87.67688660
O      80.44934181      83.83191005      86.82650976
H      80.65154252      83.66561413      85.03315949
C      81.13720218      86.65516116      90.32439317
H      80.95767819      85.09613695      91.62830432
C      81.66632556      89.13826153      91.20500563
H      82.01025574      89.41038212      93.19866689
C      78.67299907      95.71639883      89.98991161
O      76.84941318      94.38603150      90.19400205
N      78.97913474      97.29432030      88.08695721
H      80.59107128      98.31288278      88.17010517
C      77.12342350      97.67604501      85.94211785
H      75.20724101      97.47384430      86.67722138
C      77.29349886     100.35945638      84.98591633
H      76.20312678     100.59000299      83.25303730
H      79.26259368     100.79220370      84.56639709
C      76.43934257     102.20760871      86.98713650
H      77.77915853     102.10934295      88.54994016
H      74.64599230     101.68793398      87.85830033
C      76.13887610     104.79275431      85.83062399
H      75.03338619     104.55842825      84.10908332
H      77.96624144     105.53730648      85.24291911
C      74.88598754     106.58988403      87.63531262
H      76.30706173     107.03585944      89.05827654
H      73.34019143     105.57699073      88.54616070
N      73.75215175     108.70637750      86.31628366
H      74.97480468     109.60021805      85.15599170
H      72.86587011     109.91958180      87.48980370
H      72.31973921     108.13756988      85.19000677
C      77.50892767      95.69183239      83.82184492
O      79.53849372      95.55766182      82.81840025
N      75.39054447      94.67893908      82.88076122
H      73.73514422      95.22318026      83.65743873
C      75.15999786      93.02164911      80.57151566
H      76.57351314      91.52876532      80.70946568
C      72.45390978      91.88214414      80.66789171
H      71.00637942      93.31833614      80.37876358
H      72.07218506      91.27365227      82.59730227
C      72.06840561      89.63903901      79.01438118
O      72.00604464      90.07556578      76.68812809
O      71.95313230      87.43372840      79.87987583
C      75.88376304      94.48807672      77.97503171
O      76.30706173      96.77275584      78.07707693
N      75.88565276      93.23896763      75.84719988
H      75.65132671      91.34735159      75.73381630
C      75.94612401      94.57311441      73.50582898
H      77.58262699      95.81277487      73.65700708
C      76.50737272      92.66449083      71.32886427
H      74.85764165      91.44183791      71.16823753
C      77.20279200      94.11202119      68.90623513
H      75.46991297      94.79610211      68.03129185
H      78.06261747      92.79866140      67.57208836
H      78.41788603      95.72017828      69.33520301
O      78.69945524      91.12247416      72.08475479
H      79.98635886      92.37536271      71.82775201
C      73.44979555      95.86757693      72.83686586
O      73.49136952      97.88391491      71.84286982
N      71.33330207      94.91326515      73.85731807
H      71.42778839      93.32211559      74.90422645
C      69.06185104      96.36457495      74.04440098
H      68.85209142      97.23573878      72.19057947
C      66.81496646      94.53909934      74.21069689
H      65.14444841      95.58033853      74.81162986
H      67.22692679      93.13503268      75.66200670
C      65.93057454      93.30888751      71.70680953
H      67.10409458      91.78198864      70.97548545
H      65.95136154      94.90192679      70.40100865
C      63.31141387      92.37158325      71.81452393
O      62.93346861      90.18516991      72.62899597
O      61.66924171      93.79832662      71.03217724
C      68.91067295      98.44138417      76.03806224
O      66.85276099      99.32766581      76.71458426
N      71.00259997      98.60012118      77.59897617
H      72.49170430      97.59100733      76.96213841
C      71.51093635     100.29709541      79.67956484
H      70.67756704     102.13390939      79.25626615
H      73.56884830     100.35189747      79.70602101
C      70.41300537      99.55632270      82.25904126
O      70.98559244     100.67882013      84.26215115
N      68.89177568      97.64202994      82.43856526
H      68.50816124      96.71795377      80.81340063
C      67.46503232      97.00330245      84.72702383
H      66.42757257      98.67193078      85.34307460
C      65.65467451      95.03231790      84.01837646
H      64.76839286      94.31044245      85.73235822
H      66.59197875      93.43738889      83.11130783
C      63.43046664      95.84112076      82.36486594
C      62.97504260      94.24619176      80.25026219
H      64.06352496      92.53976890      79.99892859
C      60.95492517      94.97751584      78.67234072
H      60.68280458      93.88714376      76.96969731
C      59.30897355      96.99196409      79.16744901
O      57.28318694      97.27731276      77.59330699
H      55.90179701      98.11635125      78.41533794
C      59.89478870      98.57366501      81.26126577
H      58.51528849      99.94938577      81.86786791
C      61.82797872      97.84612038      82.88076122
H      62.00561299      99.06121440      84.51159503
C      69.19035243      96.00930641      86.91154744
O      71.00448969      94.68271853      86.29549667
N      68.61209618      96.47984826      89.35874302
H      67.20047064      97.76108270      89.45511906
C      70.12387723      95.75986253      91.48090567
H      72.11375904      96.20394822      91.19177754
C      69.04106407      97.00897163      93.80526903
H      70.07663408      96.28331672      95.42854394
H      67.05685143      96.46850990      93.92432179
C      69.46247302      99.89080425      94.01691838
C      67.42345833     101.47250518      94.78414726
H      65.71703548     100.44827352      95.23201240
C      67.81274195     104.06331995      94.99579661
H      66.17434925     105.11211806      95.61373712
C      70.31096014     105.08566189      94.61785135
O      70.77205336     107.61789515      94.92587674
H      69.19602161     108.40780075      95.36051379
C      72.37265155     103.39057739      94.02447729
H      74.19623744     104.21638778      93.63708339
C      71.88888162     100.85834413      93.54259708
H      73.41011129      99.67537545      92.86985451
C      70.34308549      92.82700730      91.82483586
O      68.50438178      91.38136667      91.62830432
N      72.60319816      91.71773795      92.13853043
H      74.09230249      92.87802991      91.85696121
C      73.24003593      89.11369509      92.07805918
H      71.57329731      88.11025042      92.75458120
C      74.17356073      88.38048128      89.44189098
H      75.80628427      89.53888351      88.94867241
C      74.59874914      85.57234798      88.77292786
H      76.14643499      84.72953004      89.84062323
H      75.23369718      85.32668356      86.82839949
H      72.87531875      84.44796082      88.68411073
O      72.29517277      89.29321909      87.72790921
H      72.15533302      91.09790772      87.58240029
C      75.27338144      88.39748882      94.08683825
O      76.83618510      89.91682877      94.73312465
N      75.37731639      85.97296996      94.99390688
H      74.25292923      84.73141977      94.08116908
C      77.14610021      84.88070815      96.85717703
H      78.81283883      86.05233846      96.54915164
C      75.96691099      85.17172600      99.59161100
H      75.23936636      87.09735711      99.65019252
C      73.72569559      83.28766887      99.85239324
H      74.33040801      81.31857405      99.80892953
H      72.17423028      83.45585451      98.50501837
H      72.92256190      83.31412504     101.74967845
C      77.78104826      84.68795607     101.73834010
H      78.21190585      82.67539754     101.66653050
H      76.91555360      85.31723493     103.49767529
C      80.40209865      86.03722065     101.76479626
H      81.47924265      85.33802192     103.37295336
H      79.64242867      87.90615998     102.18053605
H      81.65120774      85.92572680     100.13018300
C      77.95301335      82.23131186      96.19199337
O      76.66610973      80.90661371      94.72556575
N      79.91832872      81.20141102      97.43354355
H      81.15609945      82.44485093      98.18376490
C      80.64398362      78.57658117      97.18409968
H      78.81283883      77.75832968      97.65464153
H      82.25214071      78.24776879      98.43131905
C      81.44900703      77.72242488      94.59328491
O      83.09873810      78.80901751      93.38197034
N      80.38509111      75.58892387      93.61251695
H      79.03582652      74.69319360      94.62352053
C      80.55894593      74.84248197      91.05949670
H      81.97057150      76.07080408      90.19967123
C      81.52648582      72.11182745      90.72501514
H      79.99769722      70.87405672      91.34106592
C      81.76648105      71.66018286      87.91499212
H      81.91765915      69.64573461      87.50870096
H      83.64675873      72.38016859      87.47657561
H      80.42855482      72.61638438      86.67344193
C      83.93966631      71.26900952      92.24057565
H      83.58061831      71.64506505      94.23423691
H      85.34184323      72.64473027      91.61507624
C      84.93366235      68.65740775      91.55649472
H      86.53426054      68.24355769      92.78481683
H      85.63664054      68.52890636      89.62519443
H      83.31227717      67.43286510      91.90420436
C      78.03427158      75.30168547      89.83495405
O      76.30139255      73.73699208      90.09384656
N      77.93222636      77.52589334      88.57828605
H      79.45345604      78.67484694      88.65009565
C      75.81951234      78.16273111      86.90587827
H      75.48125133      76.63394252      85.56606231
H      76.33162817      79.87482315      85.88164660
C      73.22113866      78.81846614      88.17766407
O      71.33141235      79.01121822      86.90965772
N      72.92067219      79.05279220      90.69855898
H      74.47024775      78.86192984      91.79648996
C      70.56040402      79.37404567      92.04593384
H      69.32641274      78.16651056      90.92532613
C      70.67567732      78.21375372      94.83705960
H      71.67534254      79.51766487      96.07672006
H      71.47503156      76.31835823      94.97123017
C      68.10942898      78.11926740      95.99924128
N      66.83575346      75.87049309      96.51324684
H      67.32141311      74.07147364      96.10506596
C      64.51894900      76.59236854      97.17276132
H      63.01472684      75.21286833      97.24457092
N      64.44147021      79.06979974      97.37307231
H      62.84276175      79.93907384      97.94376966
C      66.59764793      80.12615675      96.47167286
H      67.07385896      82.11036937      96.51891602
C      69.87065392      82.19162761      92.00058041
O      70.61520608      83.80545388      93.56527379
N      68.25115847      83.00609965      90.22801712
H      67.90344882      81.78155700      88.80694294
C      66.89811443      85.47030276      90.22234794
H      68.23604065      87.03310642      90.16565616
C      65.09720524      85.57423771      87.89231540
H      63.47204061      84.34591560      88.19467161
H      66.10253964      84.75976567      86.29171721
C      64.46981610      88.25386962      86.93611389
H      66.08553210      89.49164035      86.62241932
C      62.97504260      87.80789421      84.39821145
H      64.12399620      86.94995846      82.92044547
H      62.21348289      89.59368557      83.71035107
H      61.41223894      86.52665977      84.80639233
C      62.81630558      89.72785614      88.77292786
H      61.34609851      88.49386486      89.51748003
H      62.13411439      91.22829883      87.53515713
H      63.78006600      90.32689938      90.49068908
C      65.27672924      85.77076924      92.59206474
O      63.70447696      84.12103817      93.07583468
N      65.69813822      87.60380377      94.18510402
H      67.05874115      88.82456696      93.64086284
C      64.22793114      87.60191404      96.57182836
H      63.98037700      85.58935552      96.94032499
C      65.64333614      89.16282797      98.46155467
H      64.55863324      89.56911913     100.16419808
H      66.11387801      90.96562688      97.58094221
C      68.05084747      88.01765383      99.28547534
H      69.08641749      87.25042495      97.67731825
C      69.55317989      89.97541029     100.63473993
H      71.42778839      89.41605130     101.27913660
H      68.60075783      90.31745075     102.42997993
H      69.98592722      91.57600848      99.41397673
C      67.46881176      85.76132061     101.13740713
H      66.32174790      86.24509055     102.77768957
H      69.34719972      85.23030752     101.79692161
H      66.76961303      84.13237653     100.08671930
C      61.54829922      88.66960941      96.12963240
O      59.74927978      87.34680099      96.87418457
N      61.10232382      90.89003782      95.07327539
H      62.58197952      91.94450511      94.49123969
C      58.67969469      92.00497635      94.40242255
H      57.41924724      90.51020284      93.75046697
C      57.68947809      93.45439643      96.75324208