 %block lattice_cart
   137.793   0.000   0.000
   0.000 143.498   0.000
   0.000   0.000   162.326
 %endblock lattice_cart

 %block positions_abs
N      85.81427482      39.96096882      77.40244464
H      84.85051440      38.47375421      78.10920228
H      87.36196068      39.33924887      76.47269929
H      84.61240889      40.80567648      76.18546089
C      86.55882698      41.64471496      79.43012097
H      87.69833195      40.58268879      80.77560611
C      88.06493886      43.83679749      78.25093175
H      86.96889759      44.64371062      76.70702536
H      89.74301582      43.05634052      77.35142203
C      88.77358623      45.83801766      80.22569575
H      89.86962748      45.07645795      81.79416859
H      86.98401541      46.58634928      80.91922531
S      90.59717212      48.25308788      78.97280721
C      91.57227090      50.05210734      81.77338160
H      89.90175283      50.81177732      82.71068585
H      92.73067313      51.71884594      81.41622333
H      92.58138475      48.98252224      83.21713251
C      84.23446362      42.57823976      80.82851845
O      82.26347907      42.84847063      79.62854224
N      84.49146640      43.16972411      83.18311743
H      86.30371393      43.30011521      83.77082231
C      82.51481268      43.99742423      84.87820193
H      80.61752746      43.20562890      84.73458273
C      83.34440254      43.06389943      87.53893658
H      85.20011376      43.87081256      87.92633048
H      83.46345529      41.01732583      87.34051532
C      81.76081188      43.87081256      89.70078349
O      79.83707050      45.16527509      89.54771565
N      82.47323869      43.22830561      91.98546260
H      81.41688170      43.79333379      93.47078748
H      83.98879920      42.06990339      92.03270576
C      82.02537356      46.67516641      84.69489848
O      83.82817246      48.25497762      84.78560535
N      79.65754649      47.40082132      84.04483263
H      78.39898876      46.06289508      83.52515789
C      78.96779638      50.14848337      83.71035107
H      79.84462939      50.89492527      82.00203849
C      76.16533226      50.22974161      83.15288181
H      75.82329180      48.99952977      81.53527609
C      74.65166149      49.22818666      85.43000202
H      74.85008275      50.37336081      87.13075570
H      74.97102523      47.20051032      85.60952602
H      72.62020570      49.38314422      85.12386636
C      75.10897525      52.83189474      82.27793853
H      75.42266982      54.24541002      83.74247642
H      73.11342427      52.54087689      81.86219874
C      76.17856036      53.59156472      79.77972034
H      74.99370196      55.09767659      79.02382982
H      76.04061033      51.93427474      78.56840578
H      78.19489832      53.91659764      80.03483339
C      79.68211293      51.99852543      85.84574181
O      80.20934657      54.16793124      85.30716981
N      79.75392253      50.96484514      88.21545860
H      79.37408755      49.09401610      88.18522298
C      80.46445962      52.20639533      90.51525553
H      79.44400741      53.99596615      90.51336580
C      79.68400267      50.56989234      92.87552369
H      80.48335689      51.34656985      94.60840272
H      80.16399315      48.56867218      92.97567919
C      76.88909745      50.21840325      93.29882239
C      75.75526165      51.50908632      95.21878432
H      77.01192965      52.64103239      96.36017901
C      73.14365989      51.19917120      95.74601796
H      72.32729812      51.97773844      97.44488192
C      71.67534255      49.83856826      94.16809649
H      69.66278402      49.70061825      94.48746024
C      72.67689749      48.55355436      92.03837493
H      71.46180347      47.23641512      91.06327616
C      75.31873487      48.78977015      91.58106117
H      76.20312680      47.66160354      90.12975136
C      83.19133469      52.96228586      90.79682475
O      83.89809234      54.00919423      92.68277161
N      84.67665958      52.21395424      88.86552445
H      83.88486425      51.34845959      87.36319204
C      87.34495313      52.77709267      88.61608058
H      87.95911419      53.94494353      90.19967123
C      88.65453346      50.20139572      88.72757443
H      90.61795910      50.51131082      88.18711271
H      87.87029705      49.06944965      87.19689612
C      88.48823755      48.73496809      91.16721110
H      89.71466993      47.08523702      91.06516588
H      86.58150370      47.97529812      91.31838921
C      88.91720542      50.36202246      93.56338407
O      87.81738472      49.89903951      95.61940630
O      90.48756800      52.26497684      93.39141897
C      87.78147992      54.22084358      86.10463431
O      89.19121574      56.07466510      86.00447882
N      86.35473655      53.70305858      84.01648674
H      84.93933154      52.46339812      84.33396076
C      86.32828037      55.08255879      81.62220350
H      88.07438749      55.02397726      80.52994169
C      84.24580198      53.99029697      79.73436691
H      84.10218278      55.28475950      78.13754818
H      82.43544417      54.03754012      80.71324514
C      84.65965205      51.26342191      79.01816064
H      84.96578770      50.13147584      80.70946569
H      86.34906736      50.98185268      77.87109677
S      81.98757903      49.83289908      77.44968780
C      81.68333311      51.54499112      74.52061201
H      80.71579322      53.33267222      74.85131412
H      80.62697610      50.48107520      73.10898646
H      83.55794160      52.09490148      73.87243589
C      85.65742753      57.94927359      81.94912615
O      86.96133869      59.56687933      80.86820270
N      83.63731010      58.40280791      83.47224556
H      82.58095309      56.87212960      83.90499288
C      82.67354968      60.88968773      84.21679772
H      82.76614627      62.26351877      82.68611941
C      79.77848897      60.63646441      84.79505398
H      79.17566629      62.31454138      85.82684454
H      79.65943621      59.16247789      86.22746652
C      78.14765517      59.89002252      82.50470569
H      78.64843264      57.98139894      81.91700080
C      75.37731640      59.84466908      83.41933322
H      75.02393757      61.47172344      84.63253751
H      75.42266982      58.31588050      84.79883343
H      74.07718469      59.63113001      81.83385284
C      78.45379084      61.81376391      80.30695398
H      78.03616131      63.75829228      80.83985680
H      77.31617560      61.37723712      78.64399483
H      80.36619386      61.76274129      79.53783537
C      84.18155128      62.22950369      86.26904050
O      83.62786148      64.51985199      86.74147208
N      86.11852075      61.04842475      87.39909684
H      86.36229546      59.27397174      86.73958235
C      87.94777583      62.07643586      89.36252248
H      86.95944897      63.48617169      90.49446854
C      88.54492934      59.90891978      91.04626862
H      90.03781313      58.86012168      90.09384656
H      86.82527839      58.82988606      91.39019881
C      89.64663978      60.87268020      93.59739914
H      88.26524984      61.83833035      94.78225754
H      91.15464138      62.24840095      93.32716828
C      90.46489127      58.68815659      95.16020280
H      91.09794959      59.31932518      97.01591404
H      92.17509359      57.89069208      94.33439240
N      88.45611220      56.76063575      95.51925080
H      88.57894441      55.08822795      94.60651299
C      86.96133869      56.62835490      97.46566891
N      86.25458105      58.47461751      99.02091366
H      85.11885553      58.13068732     100.51379745
H      87.15409077      60.15458420      98.89619172
N      86.10340294      54.39091894      98.06282242
H      84.76547672      53.99029697      99.36295412
H      86.41898724      52.98685229      96.80993387
C      90.14741725      63.30664769      88.15498736
O      91.74045653      64.46316020      89.32661768
N      90.38174331      63.12523396      85.62653355
H      89.17420820      61.87612488      84.83662796
C      91.96911342      64.66725064      83.91633124
H      92.85539506      65.99383851      85.21646294
C      94.10828360      63.10822643      82.73336257
H      95.28180364      64.46693966      81.72424872
C      95.48589409      61.60967347      84.76103890
H      94.33316104      60.02797254      85.40921503
H      95.83738318      62.75862706      86.43344669
H      97.38884848      60.99929187      84.26971006
C      93.08027250      61.22038984      80.97591710
H      92.13162988      62.18415026      79.42067234
H      91.96911342      59.71805742      81.83952202
C      95.21188377      59.89569169      79.46035660
H      94.48811860      58.56154492      78.06951803
H      96.55736891      58.82232715      80.59230266
H      96.05092225      61.40747274      78.33785917
C      90.41386866      66.19037004      82.00581794
O      91.37007019      68.14056761      81.07040341
N      87.98368063      65.54408365      81.45401786
H      87.44510862      63.81687379      82.06250973
C      86.57961398      66.84610507      79.47547441
H      87.86840732      66.86122289      77.86920704
C      84.33461912      65.22094044      78.59297222
H      82.69244696      65.89746247      79.63988059
H      84.75224864      63.24617645      78.99548392
C      84.28926569      65.46282541      75.73759576
O      82.86630177      66.97649619      74.56407572
O      85.58939738      63.92269848      74.53950928
C      85.82750290      69.61455412      80.12176080
O      85.51191861      71.26806466      78.50982426
N      85.75002412      69.97360212      82.57840501
H      86.12796939      68.52796149      83.76704286
C      85.85017963      72.56441691      83.74058669
H      86.57016534      73.85321024      82.30439470
C      83.21968059      73.43936018      84.56072791
H      83.48235256      74.69035901      86.17455419
H      82.18411058      71.73671678      85.08229238
C      81.81939339      74.81697066      82.39510156
H      79.80872460      75.05129673      82.77682627
H      81.94222561      73.48471362      80.82851845
C      83.11196620      77.23204089      81.41622333
O      84.80894043      78.31296434      82.66911187
O      82.55827638      78.23170611      79.28461205
C      87.68510387      72.72882309      86.03282471
O      88.04982104      70.87689131      87.49547288
N      88.70555608      74.98137686      86.28982749
H      88.70933554      76.10576402      84.74781082
C      90.36473578      75.82041534      88.35718808
H      91.31148866      77.43991078      87.50114206
H      91.77069216      74.35020827      88.67655182
C      89.07027325      76.49504764      90.85162681
O      86.84606539      77.08464224      90.85540626
N      90.58016459      76.28528802      92.86040588
H      92.30548470      75.46892625      92.86040588
C      89.85073023      77.14322376      95.35295489
H      87.83817171      76.95047168      95.74979741
C      91.41164416      75.50294132      97.28803463
H      93.42042323      75.70514203      96.87229484
H      90.75212967      73.55463348      97.39007985
C      91.21322290      76.35520788     100.03569669
H      91.68565448      78.36020751     100.01301998
C      88.68665881      75.77506191     101.26401879
H      86.96133869      76.54229079     100.44198785
H      88.76980678      76.23426541     103.27090814
H      88.31060328      73.74927530     101.30181332
C      93.19176634      75.07019399     101.72322229
H      95.15519198      75.11743716     101.09961261
H      92.65697381      73.08031218     101.68353804
H      93.10105949      75.79206944     103.64885340
C      90.17954260      80.00426939      95.65342137
O      92.30170526      80.86220515      95.53436861
N      88.26902931      81.34975454      96.63418933
H      86.64575439      80.35008932      96.75891126
C      88.19155052      83.96702547      97.43354356
H      90.17198369      84.50748719      97.26535792
C      86.47567903      85.64132299      95.85373236
H      86.46056122      87.46490888      96.81371333
H      84.52548147      84.99692631      95.98601320
C      87.04826610      86.15721828      92.99835590
H      88.93232323      86.98869785      93.02292234
H      85.60640492      87.42900407      92.25758319
C      86.90464690      83.71947133      91.46011868
H      85.36074050      82.64043761      92.29537771
H      88.67343073      82.73870338      91.83995367
N      86.78937360      84.40355226      88.75969978
H      87.11440652      86.26871213      88.50269700
C      86.04860088      83.02027259      86.89831936
N      85.11885553      80.71669621      87.19878585
H      84.58973217      79.63388303      85.72101987
H      85.44010901      79.76805361      88.82584020
N      85.71978850      84.07096042      84.69678821
H      84.80138152      83.08263356      83.34374417
H      86.17332282      85.88509769      84.31128404
C      87.37896821      83.87820833     100.16986726
O      85.30782816      82.91444791     100.75568242
N      88.93610269      84.99881604     101.94998945
H      90.69543788      85.61675655     101.54369829
C      88.37863343      85.20668593     104.69387205
H      87.21456201      83.56829323     105.14740637
C      90.79181392      85.23125237     106.28502161
H      90.36662551      86.24981487     108.02545954
H      92.21666756      86.38965461     105.35149681
C      91.85384011      82.57051773     107.03524295
H      90.40819948      81.17967916     107.49633617
C      93.30137047      81.29495246     104.69198233
H      91.93131890      81.11353874     103.16697319
H      93.48467393      79.28239394     105.08882485
H      95.03613922      82.29650742     104.21955075
C      93.87395754      83.02594178     109.04213230
H      93.24278896      83.48703500     110.94697642
H      95.00779334      84.61709133     108.38828699
H      95.18164816      81.44613057     109.24811247
C      86.69488728      87.48380615     105.12095020
O      84.98468496      87.35152530     106.67619495
N      87.03692774      89.58329208     103.78680342
H      88.56004716      89.60974825     102.63596010
C      85.52703643      91.96434724     103.82081850
H      84.59918081      92.23268837     105.64062494
C      87.37707848      94.16965783     103.45799104
H      86.38497216      95.94789030     103.14618620
H      88.32005191      93.71423379     101.68353804
C      89.27625342      94.76681136     105.49133656
H      90.70866598      93.30038373     105.30425365
H      88.47123002      95.01247577     107.37161424
C      90.53859060      97.28203708     104.77890974
H      89.21011300      98.79759757     105.20598788
H      91.05448588      97.45211244     102.79280738
C      92.98389646      97.87163168     106.29258051
H      94.55236930      96.89086373     105.38740161
H      92.86862314      97.18188158     108.22954998
N      93.22200197     100.56071223     106.69131277
H      94.84338715     100.86873762     107.64940401
H      91.71589009     101.16164520     107.69853689
H      93.37695952     101.53392127     105.05669950
C      83.28204156      91.97757531     101.92353328
O      83.70911971      90.92499776      99.94310010
N      81.03326724      93.12274946     102.45832582
H      80.69311651      93.94289068     104.14963087
C      79.01881900      93.59707076     100.46844402
H      78.47835728      91.75836707      99.71066377
C      76.70201453      95.02192441     101.52669075
H      77.13665159      96.60740478     102.77013067
C      74.85953138      96.18599581      99.57649320
H      74.63843341      94.99924769      97.90786486
H      75.57951711      97.92832347      98.74690335
H      73.02838658      96.71322946     100.36261934
C      75.46046435      93.27203784     103.30681294
H      76.71713235      92.41599181     104.69954123
H      74.47024776      91.89064790     102.14085180
C      73.55562022      94.64019970     104.97355155
H      71.89077134      95.23924294     103.91719454
H      74.46457858      96.29182049     105.80314140
H      72.86209067      93.27959675     106.35494148
C      80.01281504      95.13719771      98.09305804
O      81.19389398      97.05526991      98.44832659
N      79.31361630      94.30193868      95.82916592
H      78.18733943      92.76748092      95.68554672
C      80.17722122      95.38286213      93.45566967
H      80.60996855      97.36707476      93.79771013
C      82.52237159      94.09784824      92.61852091
H      83.83573137      94.15454003      94.20589102
H      83.50313954      95.18822033      91.17288028
C      82.01592493      91.47490812      91.50358239
C      82.11419070      90.94767447      88.86363473
H      82.64709353      92.48213225      87.62586399
C      81.43388923      88.56850904      87.73168867
H      81.56617006      88.22268913      85.72479932
C      80.74224939      86.54839161      89.38330946
O      80.37375277      84.15788783      88.40821069
H      80.27170754      84.36575772      86.60730151
C      80.65721171      86.97546976      92.02136740
H      80.07706573      85.31629007      93.06071687
C      81.17310699      89.38487081      93.09851140
H      80.75736721      89.56250508      95.08839320
C      78.13442708      95.38286213      91.38075018
O      76.17667062      94.06950235      91.58673035
N      78.48780590      96.88708428      89.39842728
H      80.15454451      97.80927071      89.29260260
C      76.77193442      96.96834250      87.16099132
H      74.81984714      96.49024175      87.61074618
C      76.92878169      99.72545320      86.23313570
H      78.17600107      99.77458608      84.59474299
H      77.55995028     100.97267256      87.74680648
C      74.23781142     100.51724852      85.32417734
H      72.67689749     100.11095737      86.60352206
H      73.97513947      99.39853054      83.61397503
C      74.00537510     103.40664005      84.77237726
H      75.56439929     103.87340246      83.50437090
H      73.92033740     104.39685664      86.57517616
C      71.48636991     103.46711129      83.44956884
H      69.96325050     103.27435922      84.82151014
H      71.44668566     101.90808709      82.10408371
N      71.10275548     105.93509386      82.31573305
H      71.42400894     107.38451394      83.51759899
H      69.28294904     106.24878843      81.83007339
H      72.25548853     106.13540486      80.80962118
C      77.53727358      95.12963880      85.18244787
O      79.71423828      95.01247577      84.31884295
N      75.64565753      93.77281532      84.29238678
H      74.06584634      93.96745712      85.34685406
C      75.84974797      92.11552534      82.18345221
H      77.76026128      91.35774509      82.31762278
C      73.82774081      90.10485653      82.29116661
H      71.86809464      90.70201006      82.08140699
H      73.97136001      89.29227422      84.17900320
C      74.08285387      88.10552610      80.32585125
O      72.38210018      87.80316989      78.73659142
O      76.17100145      87.01137456      80.07640737
C      75.82896099      93.48368719      79.69468266
O      74.76882452      95.51892242      79.56429154
N      76.87964881      92.47268361      77.57252001
H      77.77726881      90.79460665      77.74448510
C      76.60941795      93.56494541      75.12910389
H      77.31050641      95.47167927      75.45980599
C      78.26103875      92.28749043      73.19780359
H      77.64309825      93.08684467      71.40256360
C      81.00681109      92.79771654      73.72314751
H      81.46601458      94.79704698      73.53606460
H      81.99324821      91.74702871      72.24916098
H      81.60585432      92.31961578      75.63555054
O      77.81317361      89.63053523      73.28662073
H      79.20968135      88.94078513      74.21447635
C      73.96947030      93.88997835      74.06329825
O      73.61420175      95.40931830      72.40600827
N      72.12131795      92.44055827      74.96091824
H      72.55784474      91.12530874      76.27238830
C      69.43601686      92.75047337      74.57163462
H      69.12610175      93.08306520      72.56285555
C      68.14344406      90.36185932      75.60342519
H      68.31729888      90.59051621      77.64432961
H      68.97870309      88.58362686      74.98926414
C      65.36932584      90.08973873      74.94580043
H      64.47926474      91.79616159      75.68090397
H      64.66067847      88.40032340      75.88121496
C      65.23704499      89.96312706      71.99404793
O      64.77595177      92.01536984      70.88855804
O      65.51672450      87.85608222      71.00194162
C      68.32107834      95.07861619      76.02861361
O      66.28395337      96.12174511      75.21981075
N      69.62498949      96.06694305      77.94479609
H      71.38243496      95.32994980      78.06573858
C      69.03917434      98.34406327      79.38287782
H      68.04706802      99.71978402      78.21502695
H      70.91945202      99.16042504      79.58885798
C      67.91289745      97.78659400      82.00581794
O      66.40300613      99.26813943      82.95635027
N      68.22659203      95.53404024      83.08485166
H      69.14688874      94.19800374      82.07762754
C      67.04173363      94.69311203      85.44323010
H      65.67168205      96.09717867      86.07061924
C      65.42790736      92.27804180      85.00670332
H      64.93468878      91.63931430      86.90209882
H      66.53528697      90.66988471      84.35474775
C      63.19803030      92.38386648      83.09430029
C      62.99393986      90.45634564      81.26126577
H      64.47737502      89.05794816      81.19512535
C      61.02106559      90.58295729      79.52082784
H      60.76784226      89.02393308      78.23014477
C      59.36188589      92.67677405      79.43201070
O      57.55152808      92.79393708      77.65188851
H      56.32320598      94.04115644      78.12998927
C      59.59432222      94.57783873      81.17055891
H      58.02395966      95.88174987      81.22536097
C      61.50672525      94.43988871      83.03760851
H      61.72593350      95.85151425      84.49647722
C      68.92579076      94.35296130      87.59940783
O      71.06685067      93.44967211      87.28382353
N      68.13777488      95.11452100      89.86141022
H      66.61843493      96.27103349      89.85952050
C      69.55129017      94.69878121      92.06861056
H      71.42022950      95.21278677      91.36941182
C      68.91067295      96.34284310      94.27014171
H      70.18056903      95.77781493      95.79137139
H      66.93401922      96.14631157      94.81438289
C      69.63632785      99.13774831      93.92054234
C      67.70124811     101.00101846      93.35740390
H      65.73404301     100.46811564      93.28370457
C      68.33241670     103.46900102      92.75080175
H      67.01338773     104.99401015      92.42387910
C      70.91567256     104.08694153      92.70355860
O      71.65455556     106.36028228      92.14230988
H      70.38088002     107.59049411      91.73979818
C      72.84886259     102.30870907      93.21378470
H      74.73669917     103.08349686      93.26858676
C      72.19312755      99.75757855      93.84306356
H      73.45546473      98.29870983      94.50446777
C      69.76482924      91.90576572      92.79426546
O      67.94691253      90.46768400      92.69033051
N      72.05328780      91.13286765      93.21567443
H      73.41389075      92.46701443      93.11173948
C      72.84130368      88.51748643      93.28748403
H      71.21424932      87.30995133      93.66164984
C      73.78049766      87.69545548      90.69666925
H      75.46235408      88.81039401      90.28092946
C      74.35497445      84.87976328      90.25636302
H      72.72414065      83.62687474      90.38486441
H      75.74581302      84.12954194      91.57539199
H      75.04094511      84.51315637      88.34773945
O      72.02683164      88.20568160      88.84851692
H      71.97202957      90.01981885      88.82584020
C      74.79528070      88.11119528      95.53247889
O      76.28438503      89.84785376      96.20333173
N      75.01826840      85.76604493      96.66064550
H      73.57640721      84.54717145      96.36773792
C      76.82295702      84.91755781      98.48612111
H      78.42544494      86.21202034      98.40675261
C      75.44534655      85.05739755     101.10339206
H      74.79717041      87.00759512     101.22622427
C      73.30995580      83.13176644     101.28291606
H      72.08352343      83.50215280     102.89485260
H      73.99403674      81.20046616     101.06370781
H      71.95502204      83.35286443      99.74656857
C      77.23491737      85.00070577     103.52791092
H      77.88309348      83.04861849     103.62617669
H      75.86297605      85.44290172     104.99811799
C      79.45345606      86.83374029     103.43531433
H      80.41532674      87.11530952     105.23622350
H      78.83173609      88.57417822     102.52635597
H      80.90665558      86.00604017     102.23155867
C      77.98513870      82.40422181      98.04770461
O      76.80028031      80.83952842      96.80804415
N      80.34540688      81.78817104      98.95477324
H      81.22979878      83.09964109     100.02246861
C      81.23735769      79.16334119      98.98122941
H      79.76337116      78.06729993      99.91097475
H      82.93244219      78.99893499     100.13774191
C      81.71356872      78.00304924      96.32616394
O      82.98913398      79.21058435      94.83139042
N      80.90854531      75.72025985      95.73656933
H      79.82006295      74.76594805      96.97811952
C      81.24113714      74.42957678      93.30449156
H      82.85307368      75.11743716      92.22167839
C      81.74380435      71.40790440      93.39330870
H      80.09218354      70.50272550      94.22667800
C      82.26347907      70.50461522      90.59840348
H      83.98690948      71.57609005      90.25258357
H      80.86697133      71.01106187      89.17166012
H      82.80205108      68.51662314      90.57950622
C      84.06627798      70.90145775      94.99390689
H      83.58250804      71.51939825      96.89686129
H      85.63664055      72.01450655      94.25502390
C      84.82405823      68.09710390      95.03737059
H      83.41432241      66.75917766      95.71956179
H      86.59851124      67.84954975      96.05026390
H      85.52892614      67.20515307      93.31960937
C      79.10763614      75.20625428      91.64342213
O      77.24247626      73.76628283      91.03681999
N      79.03015736      77.62510397      90.93855422
H      80.34918633      78.76649867      91.70956256
C      77.10452624      78.71169660      89.13575532
H      76.97224540      77.67990604      87.35752286
H      77.77726881      80.59008456      88.63119839
C      74.34552582      78.96491993      90.15620753
O      72.60508789      79.35420355      88.54427098
N      73.58963531      78.56051849      92.54293186
H      74.90488482      78.34697942      93.91109371
C      70.95157736      78.35453833      93.36496281
H      69.91411762      76.93535386      92.29159826
C      71.05173286      77.32652721      96.09372760
H      72.06462616      78.61910001      97.33716752
H      72.21013509      75.62577352      96.03892554
C      68.51949960      76.68213053      97.32393943
N      67.48581931      74.39178225      97.58850112
H      67.93368444      72.74016144      96.74757291
C      65.18791211      74.66579257      98.81115404
H      63.97092836      73.08598136      99.24579109
N      64.83453329      77.21314363      99.34783631
H      63.30196525      77.86509921     100.28136111
C      66.91890141      78.46036299      98.39352452
H      67.42723779      80.43512700      98.47289303
C      69.59664360      80.86976404      93.28748403
O      70.37710057      82.61965061      94.75202192
N      67.63510769      81.05873668      91.84184340
H      67.13621994      79.66411865      90.63808774
C      65.97214854      83.30373153      91.48468512
H      66.97748293      85.06117701      91.11240904
C      64.11643729      82.79350544      89.38519919
H      63.09409535      81.03417024      89.69133485
H      65.05374154      82.86909449      87.55216467
C      61.83553763      84.71913654      89.26425671
H      60.96815325      84.68323175      91.13130630
C      62.85410011      87.21168556      88.47435111
H      64.17690853      86.90554990      86.92477553
H      63.93502356      88.03182677      90.02392668
H      61.33287043      88.44000766      87.82428526
C      59.87400172      83.60041856      87.49169343
H      58.41135355      85.01771331      87.17988858
H      59.03874269      81.86942927      88.23246614
H      60.76973199      83.20357605      85.67944589
C      64.74949562      83.91978232      93.96589577
O      63.68557969      82.21713890      95.11295965
N      64.82697438      86.30083747      94.61974108
H      65.90222866      87.49892395      93.59739914
C      63.54762967      87.20412665      96.95922225
H      63.22448647      85.83974425      98.46722385
C      65.23326554      89.25636943      98.42564987
H      64.07108386      90.08217982      99.91475421
H      65.94380263      90.75303267      97.20110722
C      67.63132823      88.03371650      99.62184663
H      68.70091333      86.84129920      98.32549438
C      69.20169080      90.27871135     100.65552692
H      69.75349088      91.69222665      99.26090890
H      71.03472532      89.54171810     101.23945235
H      68.37399067      91.43144442     102.14652098
C      66.95669594      86.41422105     101.87440039
H      68.62343455      85.56951339     102.73989504
H      65.77939645      84.80417424     101.36039484
H      66.20269514      87.75781645     103.24067252
C      60.77540117      88.02048842      96.40553244
O      58.85165978      87.20790611      97.47889699
N      60.59398744      89.87242020      94.66698424
H      62.09631986      90.28816000      93.56905325
C      58.31119806      91.13853683      93.84117384
H      56.82965263      89.70990373      93.92054234
C      57.62144795      93.23991249      95.76680495