 %block lattice_cart
   137.793   0.000   0.000
   0.000 143.498   0.000
   0.000   0.000   162.326
 %endblock lattice_cart

 %block positions_abs
N      87.64919907      38.70713541      79.05028598
H      86.52103246      37.32952494      79.74003609
H      89.34806302      37.92100928      78.68934826
H      86.86307292      39.27783276      77.40811382
C      87.82116416      40.68378915      80.96079929
H      89.33105549      40.17545277      82.26471044
C      88.72445334      43.14799226      79.53216619
H      87.07850172      44.11364239      78.75548868
H      89.95277544      42.70579629      77.93912691
C      90.10395355      45.06795419      81.03827806
H      89.44632879      45.10007954      82.99036535
H      89.72033911      46.96334968      80.32963070
S      93.59805750      44.52938219      80.70757596
C      94.33883022      46.91799624      83.39665650
H      93.65663902      46.38131397      85.26559583
H      93.48089447      48.77181776      83.13587427
H      96.37595518      47.16366067      83.57051132
C      85.45522682      40.78016519      82.48580842
O      83.45589638      40.41355827      81.46346648
N      85.54593368      41.72502834      84.90087865
H      87.13141406      41.37731869      85.90243359
C      83.53904434      42.62264834      86.49580766
H      81.93277697      41.33385499      86.52415355
C      84.79760206      42.76626753      89.10362997
H      86.21300707      44.25537188      89.27370534
H      85.73112686      41.01638098      89.66298896
C      82.83795588      43.17066897      91.19177754
O      80.86697133      44.41032943      90.83272954
N      83.49180118      42.80406206      93.55204571
H      82.07639617      43.30483953      94.72934520
H      85.11507608      41.82896329      93.80526903
C      82.59985036      45.34007478      85.79471919
O      84.14375676      47.07484353      85.53771642
N      80.02793285      45.67077689      85.44889928
H      78.85819226      44.16088556      85.43756092
C      79.01692927      48.28804783      84.98780606
H      79.75203281      48.75669995      83.12264619
C      76.12375829      48.25025330      84.80072315
H      75.65699589      46.98224694      83.24547840
C      74.88976700      47.37531001      87.29327216
H      72.86209067      47.09374080      87.07217418
H      75.11086498      48.88898080      88.67277237
H      75.82707125      45.76526320      88.17010517
C      74.92567180      50.73146395      83.77838122
H      75.79494591      52.44544572      84.51726421
H      72.92256191      50.89587013      84.22057718
C      75.29038898      50.86185507      80.87576160
H      74.23781142      49.27448496      80.09152518
H      77.30105778      50.92232630      80.42600674
H      74.61575669      52.66465396      80.14632724
C      80.20745685      50.51603515      86.51659465
O      80.81216927      52.48890942      85.40732530
N      80.32461988      50.03793438      88.98079776
H      79.78226843      48.35229852      89.69322458
C      81.08617958      51.97868331      90.73068432
H      80.09407327      53.78148221      90.77414803
C      80.77815419      51.00925371      93.30260184
H      81.85529819      52.35284913      94.43265817
H      81.80238586      49.22346235      93.26291758
C      78.11930927      50.64264680      94.31171569
C      77.25192489      52.53426285      96.04837417
H      78.55016687      54.08761788      96.30915640
C      74.86331083      52.37552584      97.14252570
H      74.23025252      53.86840962      98.38029644
C      73.17011606      50.35729814      96.58127699
H      71.53739252      49.84140285      97.69432579
C      74.02049290      48.54505061      94.75202192
H      73.04539412      46.80083321      94.32683350
C      76.43367340      48.73780269      93.57850188
H      76.95901732      47.35074357      92.17443523
C      83.71100943      52.93299511      90.37163632
O      84.27414787      55.07783447      90.65131582
N      85.45711654      51.17743936      89.72346020
H      84.86563221      49.36519182      89.63464306
C      88.06493886      51.54404627      89.21134437
H      88.94744105      52.67221287      90.69288980
C      89.70333157      49.01937190      89.23402108
H      91.68187502      49.34062538      88.76914841
H      88.79437321      47.70034295      87.93766883
C      89.79781789      47.90065393      92.03081603
H      91.25290715      46.45123385      91.86452011
H      87.92131966      47.22224218      92.54293186
C      90.87874134      49.70912202      93.98101358
O      93.17286908      50.31950362      93.72590053
O      89.49168222      50.53115295      95.66853918
C      88.33705945      52.87063414      86.50903574
O      89.99245970      54.56004945      86.23313570
N      86.71000509      52.19222239      84.68167040
H      85.30026926      51.02059207      85.20890404
C      86.50780437      53.44133147      82.22691592
H      88.43154576      53.18810816      81.54094526
C      84.64642396      52.19033266      80.41844783
H      84.54248901      53.31849926      78.69879689
H      82.70189558      52.11474361      81.09874931
C      85.39286585      49.56928226      79.42256207
H      85.60829465      48.40710059      81.11008766
H      87.24857709      49.97368370      78.62509756
S      83.38597651      48.01592724      77.01694047
C      84.01147592      50.14564879      74.42045652
H      86.06749814      50.17399468      74.26171951
H      83.25558539      52.02025730      74.81162986
H      83.26692375      49.53715691      72.59876035
C      85.84073099      56.24190588      82.53116185
O      87.01236130      57.91431367      81.44078977
N      83.88864371      56.74268335      84.06184016
H      83.24802649      55.40286740      85.25992665
C      82.78693326      59.33538784      84.55127928
H      82.80583053      60.28969964      82.72391394
C      79.99013832      59.11806933      85.36197187
H      79.26637314      60.96433194      85.92322058
H      79.74447390      57.95966710      87.04571801
C      78.18544969      57.86707051      83.36075170
H      78.74669841      55.96222639      82.81651052
C      75.40755201      57.78581227      84.25648198
H      74.91244372      59.70766393      84.80828206
H      75.47369243      56.49890866      85.86463907
H      74.13198675      57.02614229      82.83162834
C      78.25347984      59.51491185      80.98536573
H      80.06005820      59.02925219      80.12176080
H      78.23647230      61.46132995      81.66188775
H      76.84563374      58.97633984      79.58129908
C      84.31761158      60.98889838      86.42777751
O      83.99635810      63.22633432      86.46935149
N      85.99190909      59.87962902      87.89609485
H      86.15820501      57.98234380      87.75247565
C      87.65486825      61.24968061      89.57984100
H      86.74024071      62.74256440      90.66643363
C      88.76035814      59.28058578      91.52058992
H      89.93009873      58.03903560      90.36596715
H      87.19755448      58.36784798      92.50324761
C      90.38174332      60.43331884      93.57850188
H      89.28381233      61.43109433      95.00902470
H      91.76502298      61.85439303      93.01536344
C      91.79714833      58.17698562      94.95989181
H      93.03302933      58.91397889      96.43387834
H      93.23145060      57.44566153      93.67298819
N      90.24001384      56.14552984      95.97845429
H      90.48189881      54.34273094      95.39641859
C      88.25580121      56.36284835      97.51858124
N      87.65486825      58.41887059      98.61462250
H      86.09017486      58.26013357      99.69932541
H      88.76035814      59.94010026      98.94343488
N      86.93677225      54.40320218      97.92865185
H      85.55727204      54.71311728      99.20988629
H      87.38274766      52.69488958      97.21244558
C      89.81860488      62.45154654      88.19278189
O      91.01102218      64.19009474      89.05260736
N      90.40442003      61.53313956      85.96668429
H      89.10617806      60.32371472      85.26748555
C      92.44343472      62.60272465      84.27159979
H      93.70010272      63.81214949      85.36953077
C      94.13851923      60.49001062      83.32484690
H      95.60305712      61.31960048      82.13431933
C      95.93186950      59.39963855      85.56039313
H      96.80303333      60.97567029      86.55816862
H      97.28113409      58.00691026      84.86497385
H      94.55803847      58.30359729      86.63375768
C      93.02547043      58.54548225      81.48614320
H      91.96911342      59.50735295      80.00270804
H      91.71589009      57.43243346      82.61997899
C      95.00023443      56.74268335      80.34285878
H      94.53158230      55.76758458      78.59108249
H      95.37251051      55.36696260      81.82818366
H      96.81437169      57.71967186      80.31262316
C      91.44565923      64.26568381      82.09085562
O      92.96499919      65.22944422      80.54694922
N      88.97389721      64.66063659      81.88109600
H      87.90242239      63.99923238      83.31539827
C      87.82116416      65.99100393      79.85152994
H      88.84161637      65.51290316      78.12620982
C      85.27381309      64.80047635      79.57562990
H      83.95289440      65.69998607      80.87576160
H      85.27192337      62.82004318      80.14254779
C      84.34406775      65.03669213      76.73726098
O      82.99480316      66.90752119      76.14577664
O      85.28515145      63.64018440      75.09886826
C      87.91187103      68.78779886      80.12176080
O      88.85673418      70.10682784      78.40022013
N      87.07472227      69.86494287      82.26093099
H      86.20922762      68.64984885      83.44767911
C      87.66998606      72.49355217      83.01115233
H      89.02114037      73.21353790      81.63732131
C      85.20389322      74.12438598      82.86753314
H      85.42310147      75.46609165      84.41521899
H      83.59573613      72.84126181      82.96390918
C      85.10940690      75.46420194      80.44490400
H      83.22723950      76.28623288      80.29183617
H      85.79915701      74.42485246      78.80840101
C      86.89708800      77.72053514      80.49025743
O      86.35095709      79.71230669      81.62787267
O      88.98145612      77.58069541      79.37153946
C      89.01925064      72.84126181      85.59629793
O      89.04381709      71.00066838      87.06839473
N      90.43276593      74.91240185      85.94778703
H      90.13229944      76.45630825      84.86497385
C      91.97478260      75.35081836      88.09829557
H      93.31270883      76.87393777      87.72601949
H      92.94988138      73.57825508      88.48379974
C      90.27780837      76.17851848      90.32061371
O      88.38997178      77.48998854      90.00502942
N      91.20377426      75.47743002      92.51647569
H      92.84783616      74.51366960      92.56749830
C      89.81482542      75.87427255      94.84839796
H      87.77392100      75.79679377      94.56304929
C      90.64063582      73.75022017      96.72111674
H      92.59461283      73.96564896      97.32960861
H      90.72945296      72.02867950      95.59483985
C      88.67343073      73.09637487      98.79792595
H      86.88385991      73.88628046      98.15541901
C      88.19721970      70.36005116      99.85050351
H      89.76758226      69.63817571     100.97111121
H      87.97801145      69.03535302      98.28769985
H      86.51914273      70.35816143     101.04858999
C      89.41609317      74.92940938     100.99378793
H      89.30459932      74.08092227     102.86839643
H      88.10273338      76.49788223     100.76702077
H      91.33038593      75.67207183     100.81615366
C      90.35717687      78.58414008      95.77247413
O      92.49445733      79.55734913      95.46822819
N      88.43532521      79.82946972      96.72489619
H      86.72323317      79.02444631      96.48490095
C      88.58272387      82.34658517      97.92487240
H      90.60851047      82.67350782      98.11762448
C      87.42999082      84.40638685      96.24301598
H      87.29770997      86.21107548      97.22378394
H      85.44766791      83.95096281      95.91609333
C      88.95877940      84.90149514      93.80337931
H      90.98078656      84.92984104      94.19455266
H      88.60162113      86.84980297      93.24213059
C      88.22367587      83.19318256      91.44689060
H      86.19599953      82.89838525      91.24468988
H      89.10050888      81.36014803      91.79082079
N      89.16286984      84.27977519      89.13386559
H      90.30993372      85.77265897      89.46267797
C      88.89830816      83.23853599      86.87564265
N      87.83439225      81.01999730      86.56383780
H      87.47156479      80.26788622      84.84796631
H      87.58683810      79.94285330      88.12097229
N      89.92442955      84.49520399      85.04449785
H      90.52536252      83.53522301      83.50815036
H      90.44599401      86.31690015      85.26559583
C      87.42810109      82.43540230     100.57804814
O      85.29460008      81.51888504     100.83316119
N      88.76035814      83.44073670     102.45643610
H      90.52725224      84.08513338     102.12384426
C      87.89486349      83.70529839     105.11717074
H      86.45678176      82.27288584     105.46865984
C      90.22678576      83.10625515     106.69320249
H      89.86017885      83.52010521     108.67741512
H      91.60439624      84.48953481     106.03179828
C      91.24534824      80.40205678     106.71776893
H      92.06171001      80.05056770     104.85827824
C      93.33916500      79.94285330     108.65473840
H      92.59650256      80.02222180     110.57281061
H      94.84338714      81.26377199     108.16151983
H      94.15363704      78.09092151     108.27112396
C      89.23467944      78.40083663     107.05980939
H      87.49424151      78.56902227     105.97132704
H      88.82460883      78.22698181     109.07236792
H      89.94710626      76.53000758     106.57414973
C      86.77992496      86.33579741     105.75589824
O      85.25113638      86.46051935     107.54168960
N      87.63408126      88.21607510     104.26868363
H      88.93988214      87.71907708     102.96666220
C      86.67410029      90.82767686     104.19876376
H      85.69144261      91.51364751     105.87495100
C      88.88319035      92.78354359     103.95120961
H      88.07816694      94.67326991     103.79625205
H      89.93576791      92.22418461     102.27313264
C      90.37418441      92.92905252     106.54769356
H      91.13763384      91.03365703     106.80280662
H      89.24979726      93.26731353     108.24088834
C      92.53981077      94.74507951     106.47777369
H      93.48278420      94.84523500     104.65040835
H      93.72088971      94.09312393     108.03490817
C      91.69888256      97.52675664     106.66485659
H      91.14141329      97.70628064     108.63962059
H      89.89419393      97.74596489     105.69920645
N      93.64719039      99.51474872     105.81825921
H      94.41063982      99.43160076     104.07215209
H      95.03235977      99.78875904     107.10327310
H      92.69287860     101.17014897     105.81636948
C      84.97712606      91.35302078     102.03313740
O      85.42310147      90.35146583      99.97711517
N      83.07984084      92.90070663     102.33171416
H      82.96645726      93.98729926     103.89640755
C      81.20901179      93.44494780     100.39852414
H      80.24336165      91.70262014      99.87318023
C      79.02259845      95.10034805     101.48322704
H      79.69156156      96.84456544     102.35061142
C      77.06295226      95.62569197      99.41208701
H      77.73002565      96.86535243      97.90786486
H      75.43589791      96.48551744     100.33616317
H      76.49603437      93.89470267      98.45021631
C      77.64687769      93.47896288     103.45421159
H      79.07929024      92.79866141     104.76757138
H      76.66422001      91.81789345     102.73044641
C      75.80439454      94.90192679     105.08126594
H      75.20535130      93.58100810     106.54391411
H      74.06206688      95.43105016     104.11750552
H      76.77004468      96.46662018     106.00912156
C      82.51859213      94.59012195      98.00424090
O      84.29682459      96.13213862      98.23856697
N      81.87986463      93.70761976      95.73278987
H      80.52493087      92.36780381      95.85940154
C      82.79071272      94.62602675      93.27425594
H      83.53904434      96.52520169      93.55204571
C      84.66910067      92.77598469      92.47679144
H      86.10718240      92.58323261      93.94132933
H      85.68577343      93.63769989      90.90831860
C      83.77903958      90.26075897      91.53570773
C      83.49180118      89.86013699      88.93733405
H      83.92454851      91.34924132      87.60885645
C      82.67354969      87.60380377      87.93388938
H      82.33906813      87.23530713      85.95534593
C      82.30883251      85.58368634      89.61952525
O      81.92143861      83.21207982      88.74836142
H      82.12363933      83.02688664      86.95501115
C      82.46567979      85.87659392      92.26703182
H      82.28048661      84.29678272      93.55015598
C      83.23857785      88.24442099      93.18354908
H      83.35385116      88.46362924      95.20744596
C      80.53248977      95.04176654      91.36752209
O      78.42166548      94.27831710      92.10073590
N      80.73658022      96.00363723      89.04693818
H      82.42599554      96.79543256      88.65387511
C      78.54827714      95.96584271      87.26114681
H      76.98736321      95.02664873      88.22301751
C      77.86797567      98.62846708      86.29927612
H      76.78138304      98.27508826      84.58529435
H      79.55928072      99.69805217      85.81550618
C      76.13509664     100.02308510      88.22679696
H      77.15176940     100.14402758      90.01447805
H      74.50048338      98.78342464      88.40443123
C      75.56817875     102.73673208      87.49169342
H      74.54394709     102.78964442      85.70590206
H      77.35208039     103.70427196      87.14587351
C      73.75971067     103.94048775      89.48535468
H      74.22080389     103.34711368      91.40153716
H      71.77738777     103.44160000      89.23969026
N      74.22080389     106.62011966      89.40409645
H      76.02738224     107.00373410      89.88597666
H      73.16444688     107.61411570      90.64753637
H      73.93923467     107.54419583      87.76003456
C      79.15487929      94.09690338      85.15221225
O      81.26003440      94.14414654      84.06372989
N      77.13476186      92.76275661      84.30750459
H      75.62864999      92.88558882      85.47724517
C      76.95712759      91.62703109      81.77149187
H      78.15143462      89.95273358      81.64110076
C      74.17734018      90.68405766      81.65999802
H      72.94712835      92.32622983      81.84330147
H      73.82018191      89.55400133      83.34374417
C      73.75782094      89.26109375      79.20335381
O      73.02460713      90.62358642      77.47236451
O      74.47024776      87.00098108      79.14288257
C      77.79805580      93.49974987      79.62476278
O      77.64309824      95.82978241      79.87987583
N      78.54827714      92.58890178      77.40622409
H      78.74291895      90.72563163      77.03961719
C      78.90354569      94.10824174      75.18579567
H      80.58162266      95.29687958      75.28784089
C      79.55739100      92.48307711      72.89355766
H      79.36274919      93.75108347      71.28162111
C      82.23702291      91.43994819      73.15056043
H      82.33717840      90.47996722      74.97036687
H      83.44833747      93.10668679      73.13544262
H      82.54693802      90.15493429      71.57263896
O      77.89065239      90.48941585      72.31152195
H      78.64843264      89.52943488      70.96981627
C      76.76248578      95.94127626      74.40911816
O      77.19334338      97.76864160      73.06174330
N      74.38709980      95.56522073      75.21981075
H      74.16789155      93.87391568      76.07963622
C      72.22147345      97.21684152      74.78517369
H      72.32729812      98.21839647      72.98804397
C      70.06907518      95.36113029      74.20313799
H      69.60987168      94.35768561      75.94168620
H      70.64733143      93.63958961      73.22992894
C      67.71825564      96.47417908      72.88788848
H      66.80740756      97.69872173      74.26927841
H      66.33119653      94.97562612      72.60820898
C      68.17178996      97.63825049      70.32919905
O      68.30407080      96.19638932      68.34498642
O      68.83697362      99.94938577      70.17046204
C      71.66589391      98.84200614      77.14166241
O      69.84230802     100.33300021      77.12465487
N      72.96413589      98.62468763      79.16177984
H      74.21702444      97.18471618      79.07296270
C      72.68823585     100.41614817      81.20268425
H      71.76226995     102.11123268      80.49214716
H      74.58552107     100.81299070      81.89621381
C      71.01393833      99.40703432      83.49114282
O      70.11631834     100.64102560      85.15599170
N      70.44135126      96.91826477      83.53838598
H      71.17645480      95.95828379      82.06062000
C      69.00704899      95.64836869      85.62275410
H      67.67290221      97.07322233      86.28037886
C      67.25716242      93.51297795      84.65332450
H      66.01939169      92.93661143      86.19534117
H      68.22281257      91.78954755      84.07317852
C      65.59987245      94.22351504      82.48580842
C      66.15545198      93.29376970      79.99325941
H      67.77116798      92.07678595      79.73058746
C      64.50383119      93.98351980      77.99770843
H      65.00649839      93.30510806      76.14010746
C      62.61977405      95.82600296      78.19801942
O      61.32720125      96.74629967      76.14010746
H      60.19147574      98.08611563      76.59742123
C      62.36277127      96.94661066      80.60742046
H      61.14956698      98.57177529      80.82851844
C      63.66101325      95.99229887      82.63131735
H      63.56841666      97.00897163      84.39821145
C      70.80606844      94.97373639      87.78271128
O      72.83374477      93.77564991      87.38964820
N      70.06718545      95.84301050      89.97857325
H      68.46469754      96.85023462      90.21100959
C      71.50904663      95.11546586      92.29348798
H      73.36853732      95.99229887      92.16687632
C      70.40733619      96.43449483      94.79926508
H      71.46936238      95.63892005      96.37340709
H      68.40044684      95.97529134      94.81816234
C      70.74748692      99.32199664      94.86162604
C      68.49682289     100.79409344      94.47990133
H      66.71859043      99.93426796      93.96211632
C      68.67634689     103.44160000      94.54793148
H      67.03039527     104.61134059      94.25502390
C      70.90433421     104.70771663      95.39641859
O      71.10653492     107.28530332      95.57027341
H      69.57585661     108.09788564      95.03359114
C      72.94712835     103.19782531      96.02569745
H      74.71969163     104.00473844      96.64363796
C      72.83374477     100.56921600      95.73278987
H      74.37765117      99.36357062      96.30159749
C      71.87565353      92.19583870      92.71867640
O      70.02372175      90.76153644      92.73001476
N      74.12064839      91.34168242      93.01158398
H      75.56061984      92.58323261      92.83205998
C      74.79906014      88.65827105      93.09095249
H      73.04161467      87.63214967      93.40842651
C      75.66455479      87.75876133      90.54738087
H      77.62420098      88.37670183      90.38864386
C      75.74392330      84.88826706      90.11085409
H      73.79750519      84.26276765      90.36974660
H      76.93067142      84.11347927      91.60562761
H      76.44123231      84.44607110      88.22490723
O      74.08285387      88.53354911      88.57072715
H      73.97136001      90.32500966      88.83339911
C      76.71146317      87.97796958      95.16020280
O      78.34985588      89.44061775      95.72712070
N      76.41477614      85.80289459      96.22789817
H      75.09385744      84.70496361      95.39830832
C      78.17222161      84.56701359      98.04014570
H      79.99202805      85.53266373      98.10250667
C      76.87775908      84.32134916     100.64796801
H      75.46235408      85.77076925     101.01835437
C      75.23369719      81.96675018     101.20354755
H      76.34485626      80.23387115     101.14874549
H      73.48003117      82.00454471     100.12451383
H      74.42111488      82.09714129     103.09327386
C      78.74480868      84.65394099     102.81548410
H      80.21123630      83.20830036     102.75312313
H      77.78482771      84.22686284     104.58615765
C      79.89376228      87.24286604     103.19342936
H      81.43577895      86.84602352     104.49734051
H      78.51426207      88.43528335     104.14963087
H      80.74980830      87.97419013     101.46810923
C      78.56339496      81.75132138      97.07260583
O      77.11586460      80.59858833      95.62318575
N      80.59107129      80.60236778      97.93810048
H      81.94978451      81.55290011      98.88296364
C      81.14098165      77.87360298      97.62629564
H      79.36085946      76.96842408      98.13463202
H      82.76425655      77.40873031      98.80548486
C      82.01214548      77.40495086      94.91642811
O      83.06094358      78.98287233      93.65409093
N      81.09373849      75.27333958      93.93566015
H      80.17722123      74.11682707      95.14697472
C      81.47546320      74.18674695      91.38263990
H      83.08551002      75.06546968      90.44533565
C      82.22190510      71.32948076      91.11807822
H      80.69878569      70.34682308      92.09506672
C      82.72268257      70.56036214      88.32317300
H      81.35452072      71.42963626      87.05138719
H      82.50725377      68.51756801      88.15876681
H      84.62941642      71.21609718      87.90176403
C      84.65587259      71.08003689      92.67899215
H      84.46689996      71.96820826      94.52714449
H      86.24513242      71.89639866      91.65287076
C      85.33239461      68.20954262      92.97189973
H      83.72801697      67.13995752      93.69566491
H      86.65709275      68.03379806      94.54037257
H      86.15820501      67.44987264      91.24468988
C      79.31172658      75.03523406      89.78393144
O      77.73380510      73.56502699      89.10740942
N      78.93945049      77.55234951      89.44567043
H      80.12241916      78.89783465      90.10329519
C      76.94200978      78.63138324      87.83184416
H      76.75303715      77.38983305      86.19912062
H      77.41066190      80.50032256      87.10807898
C      74.36253336      78.93940863      89.03182037
O      72.50871185      79.23231620      87.65609961
N      74.01482372      78.74665653      91.48279540
H      75.53983285      78.52555856      92.61096201
C      71.57707678      78.82035587      92.65253598
H      70.19757657      77.60337212      91.72845982
C      71.95691176      77.66195364      95.31138091
H      72.80917833      79.00932850      96.61529206
H      72.88287766      75.84592665      95.02603223
C      69.77049842      76.86070968      96.81182360
N      68.36832150      74.71398059      96.48301122
H      68.71603114      73.33070093      95.21689459
C      66.43513148      74.67618606      98.14408065
H      65.00271893      73.22487625      98.25557450
N      66.59197876      76.90984257      99.41964591
H      64.99327030      77.45030429     100.30970700
C      68.58186057      78.38760854      98.46533412
H      68.97492364      80.35859309      98.81493349
C      70.52638895      81.65872479      92.88686205
O      71.34841989      83.27066133      94.33061295
N      68.28706327      81.88927140      91.77759270
H      67.71258647      80.31701910      90.86107544
C      66.68457535      84.11914845      91.68499611
H      67.79573442      85.66494457      90.89698024
C      64.54540517      83.62026070      89.89731502
H      63.47770980      82.09336184      90.77603776
H      65.36554639      83.22530790      88.04916269
C      62.65378913      85.81612268      89.71212184
H      61.60877047      86.19028849      91.44500087
C      63.91045712      88.20284701      88.67277237
H      64.89878399      87.81545312      86.90398854
H      65.41278954      88.96818617      89.85952049
H      62.44025005      89.63903901      88.54805043
C      60.85099022      84.80700883      87.62019481
H      60.11588669      82.97775376      88.21167915
H      61.78829447      84.58213140      85.79849865
H      59.19747970      86.03155148      87.57106193
C      65.70002794      84.86936980      94.36273830
O      64.08053249      83.55789973      95.31893981
N      66.18001843      87.01987834      95.42287476
H      67.33842066      88.11969905      94.37785611
C      65.21814773      88.03088192      97.73589977
H      65.14066895      86.45485017      99.06059791
C      67.20236036      89.84879863      99.00012667
H      66.27639447      90.55555627     100.69899062
H      67.62187960      91.49097080      97.82660663
C      69.82907994      88.80755943      99.60483909
H      70.65300061      87.86647573      97.96833610
C      71.49959800      90.83145631     100.77835913
H      73.46491336      90.23430280     100.60261458
H      71.03472532      91.12436389     102.76446148
H      71.36353770      92.57378397      99.68798705
C      69.66278402      86.62681527     101.67030995
H      68.55918385      87.28255030     103.28035677
H      71.50148772      86.10147135     102.43375938
H      68.72170032      84.94117940     100.95221395
C      62.52150828      89.17038688      97.21433530
O      60.75272446      88.37292238      98.45021631
N      62.24749797      91.02231867      95.44744120
H      63.76872765      91.51742696      94.40431228
C      59.96659831      92.55110726      94.75769110
H      58.19403503      91.49852970      94.72556575
C      59.68880854      94.55232742      96.82505168